>compound MLS001158354-01!2-[(4-ethyl-8,8-dimethyl-2-oxo-9,10-dihydropyrano[2,3-h]chromen-5-yl)oxy]-N-(pyridin-2-ylmethyl)acetamide
>formula C24H26N2O5
>ionization [M+H]+
>parentmass 423.191284
#inchi InChI=1S/C24H26N2O5/c1-4-15-11-21(28)30-23-17-8-9-24(2,3)31-18(17)12-19(22(15)23)29-14-20(27)26-13-16-7-5-6-10-25-16/h5-7,10-12H,4,8-9,13-14H2,1-3H3,(H,26,27)
#inchikey PMHHCNSTMYETPP
#Ion_Source LC-ESI
#Instrument qTof
#Compound_Source NIH Natural Product Library
#PI Dorrestein
#Data_Collector VVP/LMS
#Scan -1
#Precursor_MZ 423.192
#ExactMass 422.184
#Charge 1
#CAS_Number N/A
#Pubmed_ID N/A
#Smiles CCc1cc(=O)oc2c3CCC(C)(C)Oc3cc(OCC(=O)NCc4ccccn4)c12
#INCHI_AUX N/A
#Library_Class 1
#SpectrumID CCMSLIB00000079508
#IonMode Positive
#UpdateWorkflowName UPDATE-SINGLE-ANNOTATED-GOLD
#LibraryQualityString Gold
#TaskID b1d8e8f6646f4e71acdff9ca3d919d08
##Scan# 1955
#SpectrumFile p1-D07_GD7_01_17915.mzXML
#LibraryName NIH_Natural_Products_Library.mgf
#MQScore -1
#Organism NIH_Natural_Products_Library
#TIC_Query 0
#RT_Query -1
#MZErrorPPM -1
#SharedPeaks 0
#MassDiff 0
#LibMZ -1
#SpecMZ 423.192
#SpecCharge 0
#internalFilename spec-00000.mgf

>collision 10
94.962524 312.0
94.989693 68.0
95.015121 352.0
95.020386 136.0
95.045807 128.0
95.063469 268.0
95.084457 152.0
95.108513 208.0
95.140846 188.0
95.172577 380.0
95.209732 384.0
95.224297 96.0
95.254143 100.0
95.311653 312.0
95.350708 188.0
95.375656 140.0
95.394051 112.0
95.4217 160.0
95.460732 308.0
95.485947 76.0
95.520439 160.0
95.546623 140.0
95.567703 176.0
95.582695 268.0
95.608757 184.0
95.645645 220.0
95.669716 176.0
95.697533 84.0
95.718094 208.0
95.77034 176.0
95.815918 316.0
95.822182 136.0
95.828445 204.0
95.85817 108.0
95.888741 152.0
95.908348 148.0
95.950806 188.0
95.974945 232.0
96.000404 220.0
96.008492 96.0
96.016541 100.0
96.060013 136.0
96.086212 232.0
96.108788 168.0
96.185341 232.0
96.206543 176.0
96.243217 300.0
96.272751 144.0
96.298141 160.0
96.321579 88.0
96.342331 160.0
96.395576 224.0
96.432686 136.0
96.466072 144.0
96.491592 100.0
96.548637 92.0
96.571144 176.0
96.604019 272.0
96.642189 188.0
96.715538 124.0
96.748322 156.0
96.769569 144.0
96.809189 288.0
96.843231 160.0
96.859489 168.0
96.891869 196.0
96.912384 244.0
96.928055 60.0
96.943405 120.0
96.986847 132.0
97.026054 164.0
97.041183 212.0
97.063309 40.0
97.086838 164.0
97.102524 284.0
97.115898 132.0
97.135872 144.0
97.166229 244.0
97.224266 216.0
97.266869 168.0
97.306602 68.0
97.324272 184.0
97.338013 308.0
97.353722 268.0
97.382339 200.0
97.410683 256.0
97.423531 200.0
97.442108 184.0
97.486061 152.0
97.497993 100.0
97.512848 96.0
97.532509 204.0
97.550034 144.0
97.566483 168.0
97.590691 268.0
97.62471 160.0
97.628624 144.0
97.637909 144.0
97.643356 232.0
97.667503 152.0
97.723297 184.0
97.731468 184.0
97.754776 224.0
97.788193 148.0
97.821655 108.0
97.851181 172.0
97.876778 148.0
97.895874 132.0
97.927979 40.0
97.943672 288.0
97.969345 76.0
98.009338 336.0
98.033112 164.0
98.056046 116.0
98.081665 176.0
98.123428 212.0
98.164467 312.0
98.201935 128.0
98.238731 196.0
98.279594 252.0
98.296631 280.0
98.312416 76.0
98.340042 112.0
98.353859 156.0
98.394264 160.0
98.44371 88.0
98.543228 188.0
98.565369 120.0
98.633408 164.0
98.679359 176.0
98.706314 128.0
98.713425 180.0
98.748283 140.0
98.762863 132.0
98.790611 148.0
98.828148 172.0
98.853867 144.0
98.871681 152.0
98.899384 108.0
98.917198 92.0
98.953354 260.0
98.972496 152.0
98.979561 144.0
99.029922 168.0
99.094986 160.0
99.112022 208.0
99.153137 152.0
99.182625 204.0
99.22261 116.0
99.244949 192.0
99.284492 168.0
99.292137 220.0
99.315468 208.0
99.345222 128.0
99.387787 132.0
99.402763 172.0
99.438484 164.0
99.468689 236.0
99.48362 200.0
99.504173 128.0
99.548584 216.0
99.59201 132.0
99.625656 180.0
99.646896 92.0
99.684731 176.0
99.717812 204.0
99.75032 140.0
99.77417 156.0
99.798027 60.0
99.842064 336.0
99.893936 160.0
99.906525 232.0
99.957153 88.0
100.000931 180.0
100.0158 144.0
100.036758 40.0
100.066628 164.0
100.093002 212.0
100.112419 204.0
100.132729 204.0
100.153389 164.0
100.168068 360.0
100.194084 136.0
100.215996 124.0
100.237915 120.0
100.255852 172.0
100.279327 200.0
100.32534 148.0
100.344109 216.0
100.36338 144.0
100.381317 196.0
100.388504 184.0
100.425308 164.0
100.444275 236.0
100.457451 344.0
100.491493 112.0
100.513504 192.0
100.537384 228.0
100.57296 164.0
100.593346 168.0
100.610886 140.0
100.626549 200.0
100.676567 196.0
100.70623 192.0
100.712334 144.0
100.742683 180.0
100.800293 216.0
100.830345 156.0
100.845375 224.0
100.878571 264.0
100.897163 80.0
100.932304 140.0
100.961143 160.0
100.998878 236.0
101.021614 464.0
101.046143 136.0
101.102043 224.0
101.122589 148.0
101.138603 160.0
101.156311 184.0
101.170601 280.0
101.219421 140.0
101.250725 148.0
101.273903 160.0
101.292778 180.0
101.339622 136.0
101.366913 160.0
101.379936 136.0
101.398399 160.0
101.412834 144.0
101.419632 208.0
101.448669 116.0
101.455498 180.0
101.485168 168.0
101.510605 224.0
101.536469 156.0
101.566986 296.0
101.589027 168.0
101.607506 88.0
101.635345 160.0
101.640755 140.0
101.650528 100.0
101.673203 232.0
101.841774 108.0
101.871384 472.0
101.917358 440.0
101.95018 260.0
101.968376 156.0
101.98349 200.0
102.002312 180.0
102.019081 144.0
102.035278 156.0
102.051361 176.0
102.065437 120.0
102.09346 188.0
102.120598 132.0
102.166534 208.0
102.24044 168.0
102.27063 124.0
102.29277 188.0
102.326439 116.0
102.35434 96.0
102.383293 104.0
102.410881 192.0
102.431709 88.0
102.449844 84.0
102.474068 156.0
102.492149 148.0
102.519341 292.0
102.564697 48.0
102.585327 136.0
102.605019 132.0
102.629211 148.0
102.643326 176.0
102.65744 52.0
102.671555 108.0
102.713478 188.0
102.736099 128.0
102.752235 172.0
102.785149 332.0
102.85112 132.0
102.8713 220.0
102.895409 68.0
102.899368 124.0
102.917427 152.0
102.963272 328.0
102.994347 128.0
103.027962 152.0
103.057808 168.0
103.09317 136.0
103.117722 120.0
103.13591 208.0
103.162193 192.0
103.198578 128.0
103.21273 100.0
103.258881 180.0
103.266571 148.0
103.290825 228.0
103.322601 148.0
103.339661 196.0
103.364021 216.0
103.396774 196.0
103.399345 192.0
103.413574 156.0
103.434692 272.0
103.483711 188.0
103.532967 368.0
103.547379 324.0
103.56852 428.0
103.596184 224.0
103.617523 248.0
103.631706 108.0
103.645889 164.0
103.666153 200.0
103.733597 116.0
103.760323 212.0
103.810417 216.0
103.841568 448.0
103.869354 176.0
103.884903 148.0
103.911514 328.0
103.931778 160.0
103.952911 160.0
103.978485 280.0
104.050537 768.0
104.094238 232.0
104.147758 88.0
104.174675 316.0
104.201813 60.0
104.230263 268.0
104.248245 228.0
104.298073 112.0
104.348343 164.0
104.40152 224.0
104.445755 80.0
104.467712 184.0
104.496613 120.0
104.511917 176.0
104.533234 108.0
104.553391 200.0
104.574997 176.0
104.622787 84.0
104.653854 292.0
104.676239 236.0
104.704231 132.0
104.726639 120.0
104.763832 108.0
104.783676 84.0
104.806343 164.0
104.84684 192.0
104.871681 168.0
104.901009 236.0
104.925354 340.0
104.959435 276.0
104.993622 148.0
105.012794 40.0
105.046028 3280.0
105.071266 924.0
105.118225 288.0
105.145004 172.0
105.191528 164.0
105.218475 344.0
105.247368 172.0
105.265617 180.0
105.292084 192.0
105.30703 168.0
105.329155 220.0
105.346817 176.0
105.368561 236.0
105.385544 240.0
105.411972 124.0
105.426041 188.0
105.455017 112.0
105.48365 360.0
105.508667 196.0
105.524521 84.0
105.554733 124.0
105.558052 120.0
105.58197 192.0
105.61245 164.0
105.632515 208.0
105.653473 152.0
105.671776 152.0
105.687714 208.0
105.746399 256.0
105.797073 160.0
105.823639 140.0
105.846436 260.0
105.884743 92.0
105.898544 312.0
105.921806 216.0
105.958397 76.0
105.981697 140.0
106.001877 180.0
106.023354 160.0
106.064964 1928.0
106.101913 140.0
106.138016 88.0
106.141838 56.0
106.15007 116.0
106.177292 212.0
106.205109 248.0
106.238846 160.0
106.265923 56.0
106.28714 188.0
106.335632 140.0
106.377075 176.0
106.398788 184.0
106.444611 212.0
106.496956 184.0
106.520454 184.0
106.547188 168.0
106.567688 176.0
106.597923 156.0
106.631432 160.0
106.657639 288.0
106.66568 412.0
106.700157 184.0
106.716072 188.0
106.724602 112.0
106.733192 224.0
106.760384 524.0
106.774345 132.0
106.82708 492.0
106.84906 208.0
106.866356 148.0
106.873741 252.0
106.8797 148.0
106.889252 388.0
106.908257 180.0
106.92347 164.0
106.94075 240.0
106.983459 496.0
107.002701 580.0
107.01857 344.0
107.061455 156004.0
107.114296 184.0
107.126381 124.0
107.134048 124.0
107.163383 152.0
107.178108 136.0
107.209099 348.0
107.252174 172.0
107.274963 268.0
107.295189 268.0
107.317909 280.0
107.348236 228.0
107.38131 244.0
107.400085 1336.0
107.428452 180.0
107.443878 132.0
107.468307 196.0
107.483978 76.0
107.512871 148.0
107.554008 60.0
107.576065 288.0
107.60363 172.0
107.616959 208.0
107.655411 192.0
107.696266 120.0
107.731293 76.0
107.749565 208.0
107.755394 68.0
107.761383 204.0
107.779099 164.0
107.782616 96.0
107.800865 264.0
107.818802 84.0
107.866997 104.0
107.894569 140.0
107.9291 80.0
107.936157 184.0
107.942215 216.0
107.977272 140.0
108.014923 292.0
108.06459 14356.0
108.093544 208.0
108.109917 252.0
108.146553 156.0
108.21373 176.0
108.248009 244.0
108.277534 68.0
108.283867 64.0
108.2938 136.0
108.298035 36.0
108.302246 128.0
108.310295 276.0
108.335625 108.0
108.368927 60.0
108.396645 180.0
108.401909 100.0
108.409874 204.0
108.443527 84.0
108.463211 376.0
108.49707 120.0
108.504967 100.0
108.510803 184.0
108.531677 156.0
108.551323 44.0
108.565842 44.0
108.58036 84.0
108.604828 200.0
108.628059 124.0
108.650826 312.0
108.665924 112.0
108.675468 160.0
108.731628 196.0
108.75174 244.0
108.757637 100.0
108.77491 464.0
108.793243 116.0
108.825409 132.0
108.842392 344.0
108.872444 280.0
108.896858 328.0
108.943123 296.0
108.987946 80.0
109.028374 2840.0
109.076431 33252.0
109.107796 192.0
109.143623 168.0
109.156006 152.0
109.184692 76.0
109.204643 88.0
109.220764 168.0
109.249176 108.0
109.278549 100.0
109.294556 64.0
109.328011 176.0
109.35479 132.0
109.394844 156.0
109.409126 132.0
109.436111 68.0
109.441978 56.0
109.466621 160.0
109.505135 140.0
109.511017 136.0
109.522751 332.0
109.56144 100.0
109.634003 220.0
109.673599 160.0
109.73085 192.0
109.755096 148.0
109.795822 196.0
109.834511 52.0
109.851196 268.0
109.886665 156.0
109.905441 208.0
109.923409 100.0
109.951233 212.0
109.954178 228.0
109.989998 216.0
110.021484 148.0
110.036926 396.0
110.061584 1048.0
110.078094 1208.0
110.103745 144.0
110.118362 36.0
110.164322 136.0
110.201866 124.0
110.208817 120.0
110.234047 96.0
110.280251 176.0
110.302231 132.0
110.327316 60.0
110.344589 152.0
110.374153 200.0
110.390701 152.0
110.408859 136.0
110.480988 172.0
110.496712 160.0
110.519547 140.0
110.559128 176.0
110.580414 108.0
110.610146 124.0
110.647392 92.0
110.68718 64.0
110.712303 64.0
110.745392 160.0
110.753799 128.0
110.781425 176.0
110.808426 144.0
110.873611 176.0
110.904221 196.0
110.949066 64.0
110.968399 220.0
111.000084 176.0
111.063766 448.0
111.079803 128.0
111.102158 116.0
111.116844 144.0
111.155586 164.0
111.209175 128.0
111.225967 140.0
111.246956 56.0
111.279785 44.0
111.296188 128.0
111.328575 188.0
111.352783 100.0
111.383789 172.0
111.409813 116.0
111.436516 260.0
111.496902 80.0
111.523048 272.0
111.564163 60.0
111.602005 132.0
111.627731 152.0
111.652473 64.0
111.679504 164.0
111.713463 52.0
111.744003 124.0
111.807465 172.0
111.846031 40.0
111.86982 120.0
111.883919 168.0
111.93235 152.0
111.959862 176.0
111.999931 216.0
112.04084 164.0
112.06971 112.0
112.093964 88.0
112.126152 140.0
112.142242 180.0
112.165741 168.0
112.193604 140.0
112.22065 404.0
112.239983 148.0
112.278847 84.0
112.29995 208.0
112.341217 124.0
112.371933 164.0
112.4235 104.0
112.439636 136.0
112.465714 152.0
112.485466 268.0
112.507927 112.0
112.553856 196.0
112.598724 168.0
112.673843 184.0
112.712791 140.0
112.738785 160.0
112.759087 172.0
112.792709 152.0
112.818466 124.0
112.837494 64.0
112.856522 76.0
112.879784 124.0
112.89772 124.0
112.923187 128.0
112.950691 144.0
112.966446 188.0
112.996834 152.0
113.0215 160.0
113.054016 164.0
113.070168 40.0
113.131187 140.0
113.161194 132.0
113.199303 192.0
113.243561 160.0
113.296547 92.0
113.332909 160.0
113.354401 164.0
113.453552 352.0
113.542603 156.0
113.576538 196.0
113.591385 60.0
113.610481 64.0
113.648666 136.0
113.675224 332.0
113.703835 64.0
113.733551 76.0
113.750534 168.0
113.780251 96.0
113.795113 184.0
113.824226 152.0
113.865189 168.0
113.897263 156.0
114.002754 296.0
114.032295 300.0
114.067032 192.0
114.114525 188.0
114.149948 180.0
114.191566 140.0
114.24353 104.0
114.266693 72.0
114.283951 160.0
114.298843 40.0
114.320122 100.0
114.396744 136.0
114.460617 136.0
114.496284 144.0
114.580574 124.0
114.625053 140.0
114.692825 76.0
114.720535 124.0
114.748802 108.0
114.775414 104.0
114.794502 168.0
114.821373 192.0
114.854874 176.0
114.889008 120.0
114.928398 152.0
114.965813 224.0
114.987152 284.0
115.007111 160.0
115.054901 504.0
115.100296 148.0
115.140869 60.0
115.197472 152.0
115.222862 128.0
115.274307 164.0
115.315697 148.0
115.323448 192.0
115.346542 272.0
115.362068 152.0
115.382713 328.0
115.412254 108.0
115.437393 216.0
115.452286 72.0
115.458344 144.0
115.512741 204.0
115.557693 136.0
115.574295 216.0
115.607628 172.0
115.649109 224.0
115.663216 116.0
115.707504 220.0
115.743904 564.0
115.758888 92.0
115.784584 116.0
115.821838 132.0
115.844559 132.0
115.885384 284.0
115.919548 48.0
115.950951 160.0
115.988251 136.0
116.002007 84.0
116.026299 144.0
116.047661 192.0
116.061104 164.0
116.078011 212.0
116.131783 160.0
116.193993 96.0
116.22403 168.0
116.245445 156.0
116.251976 152.0
116.259811 236.0
116.26963 112.0
116.280159 152.0
116.316307 120.0
116.375343 208.0
116.382507 268.0
116.432251 72.0
116.500259 268.0
116.532875 184.0
116.574776 92.0
116.605003 204.0
116.631798 332.0
116.645851 172.0
116.669601 224.0
116.693077 156.0
116.708374 120.0
116.723846 172.0
116.751114 96.0
116.769661 144.0
116.806023 164.0
116.866463 72.0
116.904144 156.0
116.922409 124.0
116.946083 48.0
116.961151 60.0
116.982674 96.0
117.006569 236.0
117.0467 216.0
117.071487 792.0
117.098946 172.0
117.115875 116.0
117.142021 100.0
117.158142 176.0
117.197052 184.0
117.223259 240.0
117.237602 144.0
117.272446 132.0
117.359184 188.0
117.389252 208.0
117.422218 224.0
117.454758 108.0
117.492088 92.0
117.546196 188.0
117.568924 156.0
117.586189 152.0
117.600227 148.0
117.616158 140.0
117.659576 64.0
117.682335 148.0
117.711395 204.0
117.758904 168.0
117.817223 420.0
117.841263 32.0
117.864754 140.0
117.892387 236.0
117.905273 212.0
117.932419 116.0
117.985786 148.0
118.013893 212.0
118.031189 140.0
118.052818 372.0
118.066498 164.0
118.114685 192.0
118.153267 144.0
118.212891 204.0
118.231483 236.0
118.284309 368.0
118.310287 176.0
118.327606 180.0
118.342041 272.0
118.359062 144.0
118.3853 248.0
118.4235 56.0
118.444542 208.0
118.480392 168.0
118.510811 156.0
118.51712 144.0
118.539871 204.0
118.558365 164.0
118.586609 184.0
118.605179 208.0
118.641739 44.0
118.690857 152.0
118.699104 104.0
118.705002 200.0
118.758827 280.0
118.793846 168.0
118.822716 292.0
118.841263 172.0
118.867134 160.0
118.874641 136.0
118.901909 152.0
118.939392 164.0
118.990318 188.0
119.009651 312.0
119.036919 42256.0
119.060974 10312.0
119.085136 1092.0
119.139832 76.0
119.156067 60.0
119.172318 184.0
119.204147 156.0
119.243385 44.0
119.300171 104.0
119.306374 172.0
119.329933 52.0
119.353279 144.0
119.373329 156.0
119.40519 144.0
119.455559 164.0
119.486526 152.0
119.535645 160.0
119.599411 64.0
119.617096 160.0
119.638863 332.0
119.663391 164.0
119.693291 144.0
119.700653 164.0
119.789398 156.0
119.819618 144.0
119.837044 132.0
119.911133 176.0
119.956444 164.0
119.979393 140.0
119.995079 232.0
120.014648 164.0
120.04332 8528.0
120.063393 1060.0
120.096634 288.0
120.130234 132.0
120.150986 188.0
120.172394 148.0
120.194626 188.0
120.233307 132.0
120.311417 140.0
120.360069 172.0
120.380325 176.0
120.412918 144.0
120.426872 132.0
120.447823 132.0
120.477798 320.0
120.509033 68.0
120.538452 172.0
120.545631 80.0
120.553772 152.0
120.586906 132.0
120.607063 84.0
120.612595 72.0
120.619514 112.0
120.635559 116.0
120.644279 144.0
120.648651 104.0
120.672951 172.0
120.700951 144.0
120.737686 188.0
120.75386 108.0
120.794411 308.0
120.809128 120.0
120.834671 216.0
120.872231 416.0
120.895981 224.0
120.937416 192.0
120.980255 120.0
121.002907 216.0
121.044403 540.0
121.075874 20636.0
121.110237 244.0
121.140724 196.0
121.165947 184.0
121.190208 172.0
121.241135 188.0
121.273872 156.0
121.300377 324.0
121.360435 28.0
121.377853 212.0
121.428413 108.0
121.459122 88.0
121.488197 256.0
121.521339 196.0
121.578369 124.0
121.599541 108.0
121.643509 128.0
121.677879 176.0
121.692513 192.0
121.759804 100.0
121.775177 164.0
121.804665 104.0
121.838882 188.0
121.863045 284.0
121.909576 160.0
121.948189 188.0
121.994904 176.0
122.014648 212.0
122.028801 216.0
122.078728 1288.0
122.104843 120.0
122.128975 152.0
122.157631 152.0
122.229996 184.0
122.248665 212.0
122.254326 80.0
122.26413 208.0
122.318268 172.0
122.373299 40.0
122.407288 220.0
122.437462 144.0
122.454773 68.0
122.494423 192.0
122.547401 164.0
122.569328 328.0
122.604584 184.0
122.63237 224.0
122.667755 140.0
122.683929 216.0
122.714668 152.0
122.742264 140.0
122.758896 112.0
122.831673 164.0
122.849258 188.0
122.901062 168.0
122.956665 172.0
123.044075 316.0
123.078949 224.0
123.100929 116.0
123.153931 72.0
123.187065 120.0
123.217995 48.0
123.251137 140.0
123.271019 112.0
123.29287 180.0
123.359428 192.0
123.383743 180.0
123.423538 144.0
123.445648 212.0
123.481033 76.0
123.496513 48.0
123.5243 144.0
123.551819 132.0
123.600487 112.0
123.615479 128.0
123.642532 148.0
123.673729 252.0
123.691223 80.0
123.720001 80.0
123.848434 76.0
123.876373 184.0
123.914719 232.0
123.940208 124.0
123.967087 108.0
124.012932 224.0
124.050583 156.0
124.101059 144.0
124.123238 156.0
124.147629 104.0
124.169991 144.0
124.2071 196.0
124.212463 256.0
124.237915 312.0
124.313599 188.0
124.35173 104.0
124.368233 140.0
124.387238 52.0
124.4049 176.0
124.435051 156.0
124.458282 240.0
124.473824 148.0
124.493813 288.0
124.53627 168.0
124.546387 184.0
124.551949 236.0
124.569931 160.0
124.613754 152.0
124.632393 236.0
124.709305 196.0
124.775993 128.0
124.825371 172.0
124.853439 164.0
124.907196 168.0
124.940567 188.0
124.960587 148.0
124.98558 68.0
125.021744 156.0
125.072052 132.0
125.122772 124.0
125.157524 196.0
125.218796 488.0
125.247749 184.0
125.278938 112.0
125.296761 36.0
125.330177 128.0
125.361206 156.0
125.382408 200.0
125.40081 144.0
125.446068 188.0
125.469437 116.0
125.488426 216.0
125.513268 196.0
125.550858 164.0
125.572342 240.0
125.61554 232.0
125.63562 96.0
125.657127 348.0
125.677299 164.0
125.716629 468.0
125.778427 56.0
125.844467 128.0
125.869965 196.0
125.884331 120.0
125.904396 196.0
125.9506 184.0
125.983864 96.0
126.026314 224.0
126.04155 200.0
126.112137 276.0
126.129486 144.0
126.188644 184.0
126.205124 76.0
126.224518 160.0
126.247604 100.0
126.312462 152.0
126.33577 192.0
126.370567 148.0
126.399673 196.0
126.434692 184.0
126.462379 336.0
126.489235 116.0
126.509384 144.0
126.603424 152.0
126.619095 164.0
126.645821 396.0
126.670609 208.0
126.695251 200.0
126.719444 160.0
126.758118 140.0
126.768753 144.0
126.802223 184.0
126.837624 172.0
126.865562 164.0
126.884293 192.0
126.909958 140.0
126.937859 180.0
126.968933 196.0
127.038239 272.0
127.104134 184.0
127.144058 248.0
127.186157 152.0
127.211021 208.0
127.231232 64.0
127.259453 192.0
127.299759 140.0
127.332268 160.0
127.360237 168.0
127.402405 144.0
127.408638 32.0
127.41713 144.0
127.442673 196.0
127.519585 64.0
127.548447 168.0
127.581512 108.0
127.633202 188.0
127.636421 172.0
127.67244 164.0
127.700279 196.0
127.743591 224.0
127.815582 232.0
127.877922 348.0
127.932617 172.0
127.948372 124.0
128.05986 284.0
128.07869 212.0
128.082077 140.0
128.148819 144.0
128.16684 140.0
128.189377 140.0
128.240891 200.0
128.277267 92.0
128.302063 72.0
128.329636 116.0
128.376541 136.0
128.408051 160.0
128.435104 188.0
128.47345 160.0
128.548828 128.0
128.586273 56.0
128.626907 120.0
128.663025 152.0
128.687851 216.0
128.723984 144.0
128.744308 204.0
128.778183 212.0
128.812057 88.0
128.831345 120.0
128.895645 116.0
128.97023 100.0
128.986053 76.0
129.015442 192.0
129.04422 164.0
129.070969 880.0
129.090393 224.0
129.127243 188.0
129.152283 124.0
129.230286 176.0
129.266495 160.0
129.325333 164.0
129.345703 152.0
129.415878 56.0
129.463425 156.0
129.563095 124.0
129.61586 360.0
129.644653 112.0
129.760254 136.0
129.796341 136.0
129.819214 188.0
129.841888 124.0
129.875031 176.0
129.896317 120.0
129.914474 316.0
129.935211 164.0
129.968918 136.0
130.001663 276.0
130.034729 56.0
130.067566 404.0
130.102829 216.0
130.151596 280.0
130.181335 104.0
130.202728 72.0
130.269531 160.0
130.289352 172.0
130.321655 168.0
130.35376 164.0
130.425964 108.0
130.445847 132.0
130.469162 308.0
130.50267 228.0
130.564072 144.0
130.59317 196.0
130.618652 244.0
130.634506 192.0
130.670135 204.0
130.716309 160.0
130.723495 148.0
130.738678 324.0
130.771103 124.0
130.80069 28.0
130.847107 224.0
130.873535 108.0
130.889481 200.0
130.935013 136.0
130.974442 168.0
131.003693 136.0
131.060471 12420.0
131.133224 92.0
131.172256 180.0
131.239456 240.0
131.263168 40.0
131.309494 180.0
131.396271 112.0
131.424469 52.0
131.472427 364.0
131.498138 160.0
131.532516 128.0
131.55748 216.0
131.596298 172.0
131.618027 208.0
131.662521 60.0
131.680939 176.0
131.711349 156.0
131.717621 220.0
131.763977 180.0
131.834457 200.0
131.849838 128.0
131.897842 92.0
131.932068 164.0
132.001175 240.0
132.025482 308.0
132.068542 20820.0
132.153976 124.0
132.188293 68.0
132.214523 176.0
132.237045 104.0
132.253586 68.0
132.281494 72.0
132.306137 168.0
132.324738 312.0
132.35231 304.0
132.371414 216.0
132.400742 248.0
132.417221 140.0
132.453857 188.0
132.498962 116.0
132.519516 152.0
132.546616 200.0
132.566116 112.0
132.597412 140.0
132.664673 160.0
132.736572 224.0
132.813217 144.0
132.84787 140.0
132.898956 156.0
132.909332 148.0
132.945557 148.0
132.969742 132.0
133.005722 208.0
133.029465 180.0
133.068405 2144.0
133.116089 144.0
133.142715 128.0
133.183258 84.0
133.206024 132.0
133.231506 96.0
133.268265 224.0
133.304199 56.0
133.325699 140.0
133.355576 196.0
133.399246 68.0
133.427994 152.0
133.445236 208.0
133.47908 240.0
133.534439 152.0
133.551071 120.0
133.579559 176.0
133.606766 152.0
133.634476 140.0
133.659134 168.0
133.688156 156.0
133.725876 192.0
133.775528 160.0
133.796768 240.0
133.851471 104.0
133.891632 160.0
133.926743 132.0
133.946915 36.0
133.967041 152.0
133.999893 168.0
134.024796 188.0
134.030212 124.0
134.073364 692.0
134.101395 176.0
134.121338 148.0
134.136887 144.0
134.175049 132.0
134.194824 220.0
134.203934 128.0
134.209824 152.0
134.237305 120.0
134.255753 76.0
134.307266 164.0
134.341782 120.0
134.405807 148.0
134.44722 108.0
134.465988 148.0
134.495636 196.0
134.534927 136.0
134.558823 164.0
134.597473 128.0
134.617691 180.0
134.662277 208.0
134.67923 132.0
134.70282 208.0
134.731949 164.0
134.762466 168.0
134.790787 184.0
134.799896 144.0
134.832886 164.0
134.86795 116.0
134.909164 140.0
134.942947 196.0
135.010284 196.0
135.053131 1224.0
135.078445 1420.0
135.110352 96.0
135.13118 36.0
135.15123 176.0
135.198547 176.0
135.225998 168.0
135.230682 164.0
135.289856 184.0
135.366211 176.0
135.427475 184.0
135.483444 216.0
135.503769 296.0
135.582703 176.0
135.604355 152.0
135.620911 204.0
135.663818 108.0
135.682373 112.0
135.712509 144.0
135.731064 140.0
135.770477 172.0
135.786713 188.0
135.824417 292.0
135.847015 72.0
135.916626 228.0
135.95607 144.0
135.976959 156.0
136.014099 236.0
136.033447 188.0
136.050583 308.0
136.078323 436.0
136.110458 180.0
136.141785 108.0
136.230957 192.0
136.259583 212.0
136.328125 204.0
136.344055 172.0
136.369461 164.0
136.411301 128.0
136.457794 172.0
136.526871 184.0
136.547775 132.0
136.597717 204.0
136.668121 276.0
136.723602 156.0
136.746231 160.0
136.778824 156.0
136.808868 156.0
136.826782 104.0
136.836243 156.0
136.87056 104.0
136.893921 184.0
136.928284 244.0
136.951126 176.0
136.977097 220.0
137.017303 308.0
137.059494 688.0
137.091446 208.0
137.168228 68.0
137.200455 204.0
137.2379 144.0
137.29837 176.0
137.338028 180.0
137.361038 176.0
137.422012 56.0
137.445465 196.0
137.473953 172.0
137.536346 168.0
137.555023 224.0
137.608154 164.0
137.611572 124.0
137.661453 144.0
137.696747 336.0
137.737152 128.0
137.795563 128.0
137.844177 192.0
137.852936 172.0
137.862915 116.0
137.87088 152.0
137.898376 32.0
137.93811 188.0
137.987198 184.0
138.057892 172.0
138.119125 184.0
138.146225 60.0
138.171951 120.0
138.195175 156.0
138.214066 156.0
138.249176 88.0
138.29364 92.0
138.359177 176.0
138.394302 264.0
138.424744 100.0
138.466888 356.0
138.484406 156.0
138.512466 164.0
138.536057 136.0
138.57933 180.0
138.595734 144.0
138.616974 120.0
138.644928 176.0
138.66629 144.0
138.707062 144.0
138.728134 152.0
138.761597 192.0
138.820923 108.0
138.837921 148.0
138.87088 256.0
138.9207 124.0
138.938019 188.0
138.970871 132.0
139.036575 260.0
139.055344 148.0
139.104645 108.0
139.123413 204.0
139.15863 60.0
139.252731 160.0
139.271347 172.0
139.358261 176.0
139.38176 168.0
139.431107 156.0
139.512833 208.0
139.547256 200.0
139.607422 76.0
139.656815 160.0
139.673203 120.0
139.761765 104.0
139.820618 256.0
139.845764 196.0
139.904984 200.0
139.953323 184.0
140.023972 200.0
140.062653 148.0
140.158447 160.0
140.200653 48.0
140.238373 276.0
140.253494 220.0
140.275497 176.0
140.306732 184.0
140.328918 204.0
140.357666 152.0
140.416 84.0
140.450562 204.0
140.471802 76.0
140.493408 192.0
140.595459 132.0
140.648773 156.0
140.665298 132.0
140.685455 184.0
140.710144 152.0
140.75264 152.0
140.78334 144.0
140.802231 136.0
140.835297 120.0
140.863052 184.0
140.874435 236.0
140.910889 124.0
140.929794 48.0
140.953415 164.0
140.979416 176.0
141.01326 172.0
141.066681 168.0
141.127274 172.0
141.165878 100.0
141.206436 144.0
141.250809 208.0
141.272598 128.0
141.3909 56.0
141.451279 188.0
141.474854 172.0
141.509415 176.0
141.538086 132.0
141.574478 168.0
141.596863 192.0
141.622711 144.0
141.637558 212.0
141.656082 176.0
141.6763 172.0
141.703079 128.0
141.729065 188.0
141.743332 188.0
141.772171 72.0
141.801849 176.0
141.835144 216.0
141.855118 76.0
141.937683 180.0
141.946686 148.0
142.03009 152.0
142.059814 188.0
142.083405 120.0
142.118362 128.0
142.155731 152.0
142.181824 156.0
142.206161 84.0
142.244141 168.0
142.285568 152.0
142.341476 404.0
142.392471 184.0
142.422546 208.0
142.464767 128.0
142.505371 180.0
142.618423 128.0
142.633698 164.0
142.677612 172.0
142.709778 144.0
142.752563 192.0
142.775696 144.0
142.79686 276.0
142.842178 148.0
142.878632 128.0
142.9048 192.0
142.932816 108.0
142.940948 84.0
142.946014 124.0
143.009506 296.0
143.028198 164.0
143.048752 148.0
143.054077 304.0
143.087067 152.0
143.111862 96.0
143.180923 204.0
143.202362 112.0
143.232086 200.0
143.342072 172.0
143.381042 200.0
143.419174 80.0
143.454926 96.0
143.519287 100.0
143.540756 192.0
143.565674 204.0
143.609909 132.0
143.640915 176.0
143.674316 140.0
143.69101 128.0
143.714874 192.0
143.753632 180.0
143.778717 404.0
143.832687 132.0
143.860458 144.0
143.879547 72.0
143.901779 220.0
143.943466 172.0
143.964752 152.0
143.980881 184.0
144.056976 456.0
144.078903 544.0
144.101654 196.0
144.161774 176.0
144.187683 212.0
144.206802 44.0
144.234543 172.0
144.269043 188.0
144.290466 132.0
144.314377 76.0
144.345459 128.0
144.383667 184.0
144.427567 228.0
144.453079 148.0
144.483337 184.0
144.573975 172.0
144.594238 196.0
144.61702 208.0
144.673233 116.0
144.689987 140.0
144.739624 188.0
144.775528 176.0
144.872314 272.0
144.893555 180.0
144.94014 116.0
144.945938 60.0
144.954117 116.0
145.00856 148.0
145.030136 372.0
145.065109 2508.0
145.093063 300.0
145.164398 156.0
145.190765 72.0
145.240891 232.0
145.265121 128.0
145.340851 176.0
145.413879 132.0
145.447495 120.0
145.471497 104.0
145.505096 432.0
145.527527 176.0
145.561157 220.0
145.629959 180.0
145.651581 120.0
145.692413 304.0
145.759689 88.0
145.78389 112.0
145.798538 172.0
145.834183 152.0
145.9039 120.0
145.928101 124.0
145.979889 172.0
146.019638 252.0
146.047745 180.0
146.066833 184.0
146.117935 144.0
146.163101 156.0
146.187103 220.0
146.208878 168.0
146.279175 184.0
146.317688 104.0
146.339066 132.0
146.414001 352.0
146.440491 188.0
146.519989 160.0
146.547638 176.0
146.588196 116.0
146.6241 172.0
146.644318 208.0
146.679031 148.0
146.70314 204.0
146.746521 164.0
146.768311 176.0
146.814041 132.0
146.840576 180.0
146.876755 204.0
146.899063 32.0
146.929825 208.0
146.989319 176.0
147.012726 176.0
147.05513 10744.0
147.080002 3372.0
147.154755 136.0
147.175735 184.0
147.211868 168.0
147.258102 196.0
147.285736 108.0
147.332977 164.0
147.398209 120.0
147.418045 228.0
147.459015 196.0
147.482803 96.0
147.50531 368.0
147.541885 152.0
147.571106 136.0
147.596222 144.0
147.617279 212.0
147.644775 204.0
147.666489 168.0
147.700623 180.0
147.727966 80.0
147.756042 136.0
147.819824 100.0
147.84462 172.0
147.860245 364.0
147.86795 128.0
147.877289 156.0
147.929153 128.0
147.979141 368.0
147.999771 204.0
148.031067 300.0
148.059601 2292.0
148.159805 180.0
148.237869 104.0
148.276169 124.0
148.28714 168.0
148.297287 348.0
148.370392 304.0
148.387589 156.0
148.409363 112.0
148.42688 224.0
148.444626 132.0
148.474411 332.0
148.528229 208.0
148.532486 176.0
148.561508 232.0
148.598877 160.0
148.619949 240.0
148.638153 292.0
148.672562 172.0
148.721191 336.0
148.73732 184.0
148.760284 160.0
148.770203 288.0
148.799149 300.0
148.839813 384.0
148.874084 360.0
148.913666 268.0
148.935822 472.0
148.972366 484.0
149.009201 880.0
149.016937 1268.0
149.072113 428644.0
149.146118 196.0
149.164627 260.0
149.191406 104.0
149.210922 40.0
149.23259 220.0
149.257187 156.0
149.297302 360.0
149.341446 316.0
149.376312 188.0
149.382233 168.0
149.391418 256.0
149.445282 456.0
149.471634 8684.0
149.502045 428.0
149.540527 208.0
149.561005 204.0
149.596054 156.0
149.629608 100.0
149.650101 116.0
149.668015 116.0
149.676758 112.0
149.686584 40.0
149.71077 164.0
149.755295 236.0
149.782425 80.0
149.812256 176.0
149.835251 64.0
149.842392 76.0
149.884705 252.0
149.925354 56.0
149.949356 68.0
149.967316 128.0
149.971588 72.0
150.002289 296.0
150.076035 70908.0
150.140305 88.0
150.169479 236.0
150.200058 92.0
150.231094 116.0
150.259598 80.0
150.297867 200.0
150.339737 132.0
150.357437 160.0
150.412292 132.0
150.438309 84.0
150.443634 96.0
150.480804 116.0
150.518845 220.0
150.538727 52.0
150.557648 192.0
150.584137 44.0
150.608627 168.0
150.63298 164.0
150.659637 44.0
150.680374 132.0
150.733139 424.0
150.797256 244.0
150.821899 148.0
150.828583 112.0
150.847031 272.0
150.886902 272.0
150.913971 184.0
150.951981 160.0
150.955276 240.0
150.973892 240.0
151.000122 188.0
151.021301 200.0
151.044067 156.0
151.078232 4436.0
151.118286 236.0
151.134827 288.0
151.162003 240.0
151.20578 188.0
151.223816 364.0
151.239532 120.0
151.248215 112.0
151.264709 412.0
151.289734 304.0
151.335556 108.0
151.350555 672.0
151.396149 124.0
151.421906 124.0
151.455383 96.0
151.485504 276.0
151.518112 160.0
151.553848 60.0
151.559937 104.0
151.609299 188.0
151.629501 76.0
151.671814 104.0
151.708359 44.0
151.726837 124.0
151.738983 88.0
151.814011 72.0
151.838531 144.0
151.863052 48.0
151.929611 92.0
151.962814 72.0
151.981308 212.0
152.021805 164.0
152.049988 124.0
152.079849 420.0
152.111557 116.0
152.128067 116.0
152.16243 176.0
152.203232 120.0
152.242401 144.0
152.289261 80.0
152.294647 52.0
152.303833 124.0
152.326965 152.0
152.350662 240.0
152.360413 108.0
152.368591 176.0
152.386765 152.0
152.404846 104.0
152.435684 80.0
152.494049 120.0
152.538284 140.0
152.56041 44.0
152.577621 44.0
152.608551 124.0
152.680893 68.0
152.715118 144.0
152.736816 152.0
152.753036 84.0
152.818634 88.0
152.849564 112.0
152.892456 168.0
152.914963 84.0
152.939224 180.0
152.964218 52.0
153.000244 76.0
153.027832 92.0
153.060776 236.0
153.079544 208.0
153.098892 168.0
153.125793 156.0
153.14357 120.0
153.176498 176.0
153.223251 76.0
153.283218 164.0
153.334167 144.0
153.34407 148.0
153.377228 140.0
153.417084 100.0
153.435593 268.0
153.498444 48.0
153.518173 176.0
153.631638 80.0
153.651367 40.0
153.68837 76.0
153.708115 72.0
153.750061 164.0
153.795227 40.0
153.836456 112.0
153.853729 108.0
153.917831 164.0
153.96965 80.0
154.011765 120.0
154.064468 212.0
154.113052 52.0
154.179001 128.0
154.236618 116.0
154.270645 200.0
154.30336 164.0
154.347855 128.0
154.364639 112.0
154.427002 188.0
154.512863 152.0
154.545731 172.0
154.563049 164.0
154.602646 76.0
154.643646 184.0
154.650909 104.0
154.662567 132.0
154.756119 164.0
154.778397 140.0
154.847733 124.0
154.865082 68.0
154.907181 236.0
154.974075 128.0
155.047882 180.0
155.089645 264.0
155.254166 116.0
155.291367 36.0
155.385635 156.0
155.43277 128.0
155.477448 80.0
155.514664 120.0
155.566208 180.0
155.601547 84.0
155.638794 136.0
155.656174 276.0
155.689026 52.0
155.740387 132.0
155.774353 232.0
155.877243 72.0
155.921982 52.0
155.958862 168.0
156.028854 124.0
156.051239 68.0
156.070847 72.0
156.100967 96.0
156.153183 76.0
156.185516 120.0
156.222824 84.0
156.332306 112.0
156.374619 120.0
156.406967 144.0
156.444305 152.0
156.476669 240.0
156.528961 96.0
156.578766 172.0
156.623169 140.0
156.670914 32.0
156.730209 120.0
156.815445 172.0
156.87027 80.0
156.915924 168.0
157.064407 492.0
157.087845 160.0
157.132126 76.0
157.236923 100.0
157.336761 76.0
157.386703 144.0
157.491592 52.0
157.608093 336.0
157.73645 120.0
157.766449 84.0
157.796448 124.0
157.87146 76.0
157.896469 116.0
157.936493 88.0
157.967392 160.0
158.017044 60.0
158.062393 252.0
158.094101 132.0
158.136642 204.0
158.165756 68.0
158.206741 200.0
158.269165 124.0
158.294357 108.0
158.32692 72.0
158.361984 152.0
158.384521 116.0
158.519806 28.0
158.549881 216.0
158.587479 112.0
158.605011 64.0
158.650131 144.0
158.673645 240.0
158.722839 140.0
158.763199 132.0
158.814377 60.0
158.833679 100.0
158.941071 132.0
158.993881 240.0
159.015396 200.0
159.048355 160.0
159.054916 160.0
159.080414 972.0
159.102615 252.0
159.134323 124.0
159.189575 176.0
159.267426 148.0
159.368942 68.0
159.403091 136.0
159.470932 144.0
159.493561 188.0
159.56395 48.0
159.599152 120.0
159.616745 96.0
159.662003 144.0
159.734955 128.0
159.752548 156.0
159.815445 92.0
159.854874 132.0
159.908554 96.0
159.973999 156.0
160.049286 860.0
160.081589 124.0
160.110519 180.0
160.157227 192.0
160.202133 88.0
160.212479 120.0
160.224472 172.0
160.321579 96.0
160.352478 124.0
160.445007 132.0
160.533325 68.0
160.553497 148.0
160.573685 248.0
160.611511 84.0
160.638092 156.0
160.737656 52.0
160.833542 180.0
160.886383 196.0
160.936279 128.0
161.000565 264.0
161.023346 304.0
161.058868 3284.0
161.108185 420.0
161.219955 48.0
161.252808 84.0
161.295776 144.0
161.318527 52.0
161.33876 76.0
161.364029 184.0
161.445496 128.0
161.48288 108.0
161.543457 80.0
161.568878 132.0
161.629868 232.0
161.657196 84.0
161.663971 76.0
161.671127 128.0
161.710587 204.0
161.747757 204.0
161.844757 180.0
161.862473 104.0
161.913116 148.0
162.009369 76.0
162.032364 356.0
162.061188 528.0
162.107574 300.0
162.146194 196.0
162.174072 88.0
162.212097 56.0
162.239975 244.0
162.326187 164.0
162.343933 92.0
162.468216 136.0
162.485977 100.0
162.544327 80.0
162.577316 196.0
162.602692 64.0
162.681381 56.0
162.793091 124.0
162.810867 60.0
162.889603 56.0
162.922623 148.0
162.940414 88.0
162.962234 120.0
162.988678 64.0
163.009018 96.0
163.039902 748.0
163.075424 2376.0
163.115753 140.0
163.156433 60.0
163.202194 156.0
163.260681 36.0
163.288651 132.0
163.306458 216.0
163.359863 88.0
163.448257 156.0
163.534119 108.0
163.55835 200.0
163.606705 188.0
163.64299 144.0
163.684647 140.0
163.709229 224.0
163.782761 144.0
163.841003 176.0
163.875244 144.0
163.927628 152.0
163.95311 96.0
163.978592 164.0
164.041595 208.0
164.079056 340.0
164.100952 176.0
164.26416 168.0
164.337021 136.0
164.368759 80.0
164.447876 108.0
164.488708 44.0
164.506577 100.0
164.547501 144.0
164.603592 220.0
164.723633 124.0
164.886932 80.0
164.906357 140.0
164.99707 100.0
165.020065 144.0
165.053879 416.0
165.145981 200.0
165.162445 148.0
165.237457 160.0
165.257935 148.0
165.314224 144.0
165.406357 160.0
165.483154 164.0
165.508759 88.0
165.554855 80.0
165.595825 60.0
165.613754 48.0
165.913559 208.0
165.96228 188.0
165.980225 168.0
166.062286 132.0
166.0905 96.0
166.139709 216.0
166.195679 136.0
166.334259 156.0
166.38446 180.0
166.5448 40.0
166.706665 132.0
166.781189 152.0
166.85083 88.0
166.878876 96.0
166.91745 128.0
166.950867 36.0
166.997162 140.0
167.038315 152.0
167.069977 376.0
167.114075 196.0
167.143799 68.0
167.21843 176.0
167.241592 148.0
167.344559 72.0
167.460434 136.0
167.47847 212.0
167.548019 72.0
167.59697 180.0
167.615005 80.0
167.633041 60.0
167.663971 144.0
167.767059 128.0
167.832382 180.0
167.860565 136.0
167.942337 168.0
167.996567 88.0
168.061066 176.0
168.104935 68.0
168.143646 48.0
168.228821 76.0
168.285614 176.0
168.347595 44.0
168.375992 60.0
168.422485 136.0
168.470749 164.0
168.499985 116.0
168.530991 156.0
168.551651 100.0
168.673386 156.0
168.750671 104.0
168.782379 136.0
168.82048 152.0
168.848938 140.0
168.896942 100.0
168.967926 180.0
169.001556 132.0
169.019669 96.0
169.063095 260.0
169.099884 192.0
169.125763 80.0
169.162003 164.0
169.190475 28.0
169.21637 96.0
169.290298 164.0
169.545334 104.0
169.567551 140.0
169.604935 80.0
169.685303 104.0
169.807175 116.0
169.853867 116.0
170.035767 184.0
170.078308 180.0
170.204208 148.0
170.222382 56.0
170.253555 76.0
170.339264 236.0
170.357437 144.0
170.388611 92.0
170.443176 164.0
170.568527 136.0
170.705719 64.0
170.755127 124.0
170.78894 96.0
170.822754 144.0
170.853958 100.0
170.994476 92.0
171.047607 136.0
171.08403 144.0
171.120483 184.0
171.16246 180.0
171.247009 196.0
171.345993 40.0
171.382477 160.0
171.409424 164.0
171.435806 184.0
171.512772 68.0
171.53363 104.0
171.560928 144.0
171.627487 220.0
171.7005 116.0
171.763092 132.0
171.791626 208.0
171.855545 164.0
171.966599 48.0
172.012283 96.0
172.065002 324.0
172.125854 156.0
172.209412 188.0
172.266876 92.0
172.373993 112.0
172.495209 180.0
172.541275 108.0
172.726944 148.0
172.758331 168.0
172.818497 200.0
172.849899 184.0
172.925781 152.0
172.951965 52.0
173.01741 152.0
173.058182 1852.0
173.179749 56.0
173.200699 104.0
173.234756 148.0
173.570221 160.0
173.59906 172.0
173.617416 164.0
173.65152 176.0
173.75119 56.0
173.769562 204.0
173.787918 96.0
173.80629 36.0
173.840408 132.0
173.860519 180.0
173.968185 320.0
174.021515 136.0
174.063049 904.0
174.102921 156.0
174.167557 128.0
174.231613 48.0
174.334091 52.0
174.378769 92.0
174.397156 152.0
174.631989 76.0
174.649567 144.0
174.678513 168.0
174.702179 176.0
174.735657 44.0
174.761902 188.0
174.915329 60.0
174.989029 76.0
175.038574 692.0
175.076035 9024.0
175.249771 84.0
175.268219 104.0
175.326187 40.0
175.373627 148.0
175.405258 156.0
175.442047 84.0
175.474915 164.0
175.57663 60.0
175.641296 104.0
175.671585 48.0
175.809875 96.0
175.898529 156.0
175.917007 52.0
175.993561 180.0
176.040482 268.0
176.078415 1240.0
176.105057 144.0
176.13089 176.0
176.202209 116.0
176.236557 48.0
176.360764 116.0
176.404373 152.0
176.588135 176.0
176.648972 140.0
176.683365 200.0
176.725693 56.0
176.762741 60.0
176.828888 64.0
176.881836 176.0
176.937424 144.0
177.02507 196.0
177.054901 2388.0
177.083725 368.0
177.122787 28.0
177.162521 136.0
177.226913 156.0
177.300293 60.0
177.334747 148.0
177.361252 60.0
177.411621 48.0
177.528503 156.0
177.559219 88.0
177.643997 176.0
177.708649 108.0
177.9077 172.0
177.98468 152.0
178.060959 244.0
178.311432 124.0
178.359268 132.0
178.399139 148.0
178.42572 76.0
178.548035 44.0
178.798111 192.0
178.864655 80.0
178.904739 128.0
178.948105 232.0
179.005753 164.0
179.035324 240.0
179.070145 576.0
179.164886 176.0
179.194855 140.0
179.297226 260.0
179.354752 124.0
179.373413 76.0
179.57872 100.0
179.776138 156.0
179.920258 212.0
179.979004 204.0
180.078079 280.0
180.123215 252.0
180.152588 160.0
180.192673 188.0
180.214035 68.0
180.240753 136.0
180.272827 180.0
180.318253 160.0
180.41066 176.0
180.433197 128.0
180.588287 100.0
180.676559 44.0
180.727386 152.0
180.824997 144.0
180.861191 88.0
180.893311 104.0
181.011124 196.0
181.048599 148.0
181.075317 152.0
181.099487 48.0
181.150391 156.0
181.171814 184.0
181.228073 112.0
181.275406 80.0
181.340622 44.0
181.391556 148.0
181.41835 40.0
181.586594 140.0
181.638245 152.0
181.683838 176.0
181.723526 152.0
181.766205 120.0
181.887787 104.0
182.068405 1280.0
182.128326 136.0
182.188538 236.0
182.255707 136.0
182.400818 112.0
182.422333 88.0
182.540619 48.0
182.747726 200.0
182.769257 80.0
182.801544 64.0
182.829926 176.0
182.876892 68.0
182.958893 268.0
183.039734 236.0
183.068771 236.0
183.205399 168.0
183.229645 88.0
183.281708 100.0
183.307373 128.0
183.395172 160.0
183.423676 136.0
183.558472 160.0
183.593536 148.0
183.620499 176.0
183.696014 124.0
183.717606 136.0
183.934784 132.0
184.049057 152.0
184.100861 120.0
184.146774 172.0
184.250916 180.0
184.29805 84.0
184.341278 152.0
184.431976 116.0
184.506149 104.0
184.529388 356.0
184.668396 132.0
184.75766 40.0
184.792831 136.0
184.822586 204.0
184.995804 128.0
185.058304 1452.0
185.099091 292.0
185.188049 120.0
185.209717 104.0
185.263885 168.0
185.307236 224.0
185.464417 108.0
185.537598 224.0
185.575562 56.0
185.670059 160.0
185.708435 184.0
185.800659 132.0
186.058044 856.0
186.093765 120.0
186.191513 120.0
186.264847 132.0
186.408844 172.0
186.65892 176.0
186.740509 128.0
186.949982 76.0
187.036591 404.0
187.076279 1060.0
187.108246 224.0
187.162308 124.0
187.209915 148.0
187.258163 180.0
187.290298 220.0
187.312088 96.0
187.38089 124.0
187.445587 200.0
187.570953 204.0
187.733536 176.0
187.761795 56.0
187.80365 152.0
187.936386 132.0
187.959747 92.0
187.982773 180.0
188.048035 624.0
188.125854 160.0
188.247543 144.0
188.290726 188.0
188.310364 124.0
188.531647 244.0
188.551514 184.0
188.594513 112.0
188.630035 144.0
188.680618 248.0
188.720261 180.0
188.755798 140.0
189.015656 96.0
189.054962 2952.0
189.087448 568.0
189.133408 180.0
189.177139 140.0
189.197754 112.0
189.234039 132.0
189.257187 260.0
189.292114 156.0
189.377014 72.0
189.459976 80.0
189.497116 128.0
189.535904 184.0
189.66272 160.0
189.727753 164.0
189.788071 120.0
189.84552 172.0
189.999252 280.0
190.021194 128.0
190.061722 2940.0
190.106812 240.0
190.337555 152.0
190.421967 300.0
190.578552 132.0
190.682968 92.0
190.781921 192.0
190.882111 184.0
190.90506 164.0
190.924896 168.0
190.944153 168.0
191.035004 5588.0
191.070847 7256.0
191.11084 272.0
191.257797 92.0
191.309372 192.0
191.340378 208.0
191.370667 216.0
191.391052 128.0
191.43399 124.0
191.5056 132.0
191.534546 172.0
191.568954 40.0
191.756317 80.0
191.794891 172.0
191.819702 132.0
191.851059 64.0
191.880356 132.0
191.905167 80.0
191.988632 104.0
192.00882 156.0
192.03978 692.0
192.073364 1416.0
192.274246 80.0
192.304245 188.0
192.426605 164.0
192.451462 40.0
192.50116 132.0
192.559158 184.0
192.600586 180.0
192.630966 124.0
192.675613 172.0
192.810562 156.0
192.832672 168.0
192.865829 96.0
192.968124 104.0
193.028946 176.0
193.047089 188.0
193.07753 360.0
193.153397 128.0
193.17276 128.0
193.208725 136.0
193.228088 156.0
193.26683 40.0
193.291733 180.0
193.33046 148.0
193.407959 308.0
193.504852 276.0
193.593445 164.0
193.62439 116.0
193.646072 160.0
193.676529 204.0
193.756866 44.0
193.84375 164.0
193.870468 316.0
194.011826 56.0
194.094498 132.0
194.117188 192.0
194.341858 244.0
194.408447 108.0
194.461182 40.0
194.597198 48.0
194.713821 172.0
194.733261 104.0
194.922821 120.0
194.986084 120.0
195.077271 184.0
195.108383 84.0
195.355881 136.0
195.442123 56.0
195.469955 60.0
195.492218 168.0
195.581268 136.0
195.605011 168.0
195.636948 120.0
195.667572 188.0
195.708511 108.0
195.84021 60.0
195.87085 188.0
195.982285 212.0
196.040802 136.0
196.079819 176.0
196.106476 148.0
196.158493 192.0
196.213608 112.0
196.268875 92.0
196.327927 144.0
196.425552 84.0
196.461807 128.0
196.657135 132.0
196.759521 212.0
196.913986 140.0
197.006165 28.0
197.068069 140.0
197.096268 112.0
197.33873 164.0
197.543839 164.0
197.594498 156.0
197.615616 108.0
197.763931 116.0
197.822708 204.0
197.853516 32.0
197.954926 144.0
197.999115 132.0
198.050583 112.0
198.084976 404.0
198.119553 112.0
198.13916 136.0
198.312897 108.0
198.431824 140.0
198.453049 280.0
198.472687 128.0
198.581131 148.0
198.657776 140.0
198.685837 160.0
198.750366 120.0
198.958054 96.0
199.008591 168.0
199.040543 168.0
199.088608 476.0
199.236069 104.0
199.266968 84.0
199.337219 252.0
199.356888 64.0
199.403427 128.0
199.486176 156.0
199.508667 176.0
199.643524 116.0
199.789886 148.0
199.826447 112.0
199.922119 44.0
199.955887 132.0
199.981216 156.0
200.031067 120.0
200.051239 144.0
200.081726 108.0
200.086014 372.0
200.111801 124.0
200.13324 80.0
200.203629 160.0
200.262772 140.0
200.383896 124.0
200.488159 144.0
200.507889 204.0
200.569885 92.0
200.614777 104.0
200.67601 168.0
200.686371 248.0
200.789795 180.0
200.899811 168.0
200.947769 144.0
200.990082 80.0
201.016266 172.0
201.053726 3736.0
201.106506 368.0
201.251724 148.0
201.32077 116.0
201.35141 72.0
201.371185 60.0
201.489822 60.0
201.560455 124.0
201.667847 172.0
201.710236 68.0
201.75264 128.0
201.795044 80.0
201.916641 152.0
201.945663 156.0
201.976028 112.0
202.009979 44.0
202.056808 496.0
202.093262 156.0
202.137283 136.0
202.162766 44.0
202.206543 228.0
202.233505 68.0
202.290115 48.0
202.355225 84.0
202.375046 172.0
202.421463 132.0
202.455978 104.0
202.482651 172.0
202.539719 156.0
202.644119 112.0
202.69133 168.0
202.729126 60.0
202.771622 212.0
202.791473 156.0
202.844009 112.0
202.870834 104.0
202.897705 108.0
202.933197 92.0
202.972137 104.0
202.997513 112.0
203.035263 992.0
203.070145 20988.0
203.111099 356.0
203.155411 76.0
203.212006 80.0
203.306595 80.0
203.329071 72.0
203.3591 60.0
203.387085 200.0
203.421158 208.0
203.441025 196.0
203.467087 88.0
203.506317 48.0
203.554596 100.0
203.580139 148.0
203.615173 180.0
203.662506 92.0
203.717987 120.0
203.794312 176.0
203.860062 112.0
203.897766 144.0
203.932922 136.0
203.963684 116.0
204.011841 192.0
204.041031 612.0
204.072357 3424.0
204.116425 144.0
204.239502 308.0
204.262253 64.0
204.282166 36.0
204.32872 88.0
204.353287 216.0
204.395966 48.0
204.424423 112.0
204.484177 144.0
204.589493 76.0
204.837234 96.0
205.04985 696.0
205.078186 456.0
205.124252 276.0
205.323914 160.0
205.361694 124.0
205.381668 44.0
205.444412 152.0
205.555679 96.0
205.593597 112.0
205.641296 172.0
205.678406 176.0
205.70932 96.0
205.763168 196.0
205.826859 112.0
205.903961 124.0
205.988525 164.0
206.054688 452.0
206.090027 340.0
206.128174 128.0
206.248413 220.0
206.364014 124.0
206.501266 180.0
206.607101 164.0
206.678635 140.0
206.701523 76.0
206.724411 168.0
206.824585 156.0
206.856064 84.0
206.896149 148.0
206.969254 112.0
207.053513 196.0
207.072617 268.0
207.096588 312.0
207.188248 100.0
207.231216 68.0
207.337936 160.0
207.363037 92.0
207.417694 156.0
207.537903 132.0
207.648804 172.0
207.706314 160.0
207.773071 84.0
207.796021 164.0
207.939499 40.0
207.988297 136.0
208.074036 124.0
208.108856 104.0
208.145844 168.0
208.169159 76.0
208.215103 108.0
208.263931 172.0
208.435059 172.0
208.519638 184.0
208.594376 160.0
208.807129 180.0
208.841644 44.0
208.925064 236.0
208.976852 120.0
209.045914 180.0
209.084152 180.0
209.105484 176.0
209.147644 208.0
209.204208 188.0
209.328003 192.0
209.610291 100.0
209.71405 140.0
209.780334 136.0
209.803406 124.0
209.970642 40.0
210.04274 180.0
210.074631 148.0
210.104279 156.0
210.292511 204.0
210.461197 156.0
210.553604 96.0
210.57959 124.0
210.62291 192.0
210.770248 112.0
210.793365 120.0
210.822266 72.0
210.862717 208.0
210.897644 96.0
211.033279 120.0
211.061508 172.0
211.115677 128.0
211.2612 160.0
211.316711 36.0
211.441132 132.0
211.47876 52.0
211.578049 120.0
211.759598 196.0
211.794357 32.0
211.913132 36.0
212.02034 96.0
212.063522 124.0
212.073532 112.0
212.097061 152.0
212.117798 128.0
212.12822 164.0
212.179764 160.0
212.423355 92.0
212.484268 148.0
212.519089 72.0
212.594528 88.0
212.632248 52.0
212.745453 88.0
212.812225 132.0
212.83255 140.0
212.8703 88.0
212.966141 148.0
213.000992 120.0
213.052826 1564.0
213.096649 428.0
213.128815 48.0
213.163681 48.0
213.224716 192.0
213.349701 200.0
213.428192 44.0
213.535782 132.0
213.809265 156.0
213.838699 172.0
213.943146 96.0
214.004288 148.0
214.054749 924.0
214.094818 132.0
214.138245 120.0
214.216888 104.0
214.313019 180.0
214.33342 112.0
214.365463 40.0
214.412094 76.0
214.461639 152.0
214.549088 256.0
214.645309 76.0
214.718201 84.0
214.770706 104.0
214.799866 128.0
214.834869 68.0
215.009949 220.0
215.070145 2496.0
215.151596 180.0
215.251038 136.0
215.278519 124.0
215.334 340.0
215.374893 36.0
215.404099 156.0
215.477127 128.0
215.532639 44.0
215.652466 88.0
215.693375 152.0
215.713837 64.0
215.75769 204.0
215.854172 48.0
215.925354 236.0
215.990753 188.0
216.041168 644.0
216.070908 568.0
216.102798 160.0
216.174637 152.0
216.278366 168.0
216.366196 76.0
216.411346 88.0
216.453278 188.0
216.515518 100.0
216.594604 184.0
216.635605 116.0
216.749863 160.0
216.791199 116.0
216.823135 76.0
216.884674 196.0
216.913986 132.0
216.98024 40.0
217.050598 5544.0
217.125809 200.0
217.174942 40.0
217.386169 124.0
217.427261 100.0
217.471283 116.0
217.532928 48.0
217.566589 136.0
217.615128 96.0
217.656235 128.0
217.729645 52.0
217.811874 28.0
217.843994 116.0
217.875854 144.0
218.00882 124.0
218.056656 1804.0
218.093628 148.0
218.16156 132.0
218.240936 224.0
218.31781 140.0
218.351166 148.0
218.417389 68.0
218.452682 96.0
218.482101 36.0
218.517395 156.0
218.576248 112.0
218.63855 188.0
218.68808 164.0
218.750748 68.0
218.823486 92.0
218.869476 148.0
218.89415 52.0
218.926544 108.0
218.982208 40.0
218.999466 152.0
219.020782 56.0
219.065155 27224.0
219.13588 280.0
219.20639 36.0
219.270599 128.0
219.32251 80.0
219.345764 184.0
219.408203 136.0
219.451431 88.0
219.476044 216.0
219.493713 196.0
219.544464 132.0
219.570419 84.0
219.62355 104.0
219.655716 196.0
219.724304 100.0
219.796127 56.0
219.825638 176.0
219.873688 132.0
219.960938 136.0
220.018188 100.0
220.06778 2608.0
220.109482 200.0
220.157013 172.0
220.212357 48.0
220.262573 84.0
220.411911 80.0
220.720642 48.0
220.806412 72.0
220.841904 92.0
220.878357 172.0
220.922058 200.0
221.068741 552.0
221.115143 224.0
221.152557 44.0
221.211884 96.0
221.263916 176.0
221.312424 120.0
221.342026 116.0
221.407181 84.0
221.4664 56.0
221.490768 160.0
221.546906 68.0
221.58194 80.0
221.637177 88.0
221.667862 124.0
221.727127 48.0
221.792328 104.0
221.833832 188.0
221.87236 104.0
221.925735 156.0
221.979095 100.0
222.02951 44.0
222.091171 332.0
222.118393 112.0
222.138565 136.0
222.198593 204.0
222.270508 168.0
222.294037 212.0
222.332108 144.0
222.379593 128.0
222.563644 184.0
222.658676 80.0
222.738861 156.0
222.789368 144.0
222.83342 140.0
222.931976 40.0
223.040955 160.0
223.050552 116.0
223.056854 136.0
223.081497 104.0
223.141235 120.0
223.196533 76.0
223.38092 84.0
223.424362 152.0
223.604065 144.0
223.663605 116.0
223.766479 264.0
223.794586 156.0
223.904755 92.0
224.023895 176.0
224.070389 364.0
224.095398 80.0
224.125153 144.0
224.184784 120.0
224.387329 160.0
224.41066 144.0
224.43219 160.0
224.456055 44.0
224.48587 148.0
224.518677 120.0
224.640961 116.0
224.749893 148.0
224.897568 184.0
224.996078 100.0
225.049255 160.0
225.094604 152.0
225.161118 160.0
225.246918 68.0
225.416153 192.0
225.461472 128.0
225.539734 44.0
225.611481 164.0
225.662308 156.0
225.686218 64.0
225.707153 152.0
225.781906 224.0
225.874619 120.0
225.916504 236.0
225.942291 132.0
225.982315 120.0
226.061127 148.0
226.088211 120.0
226.452286 104.0
226.548141 160.0
226.611053 188.0
226.727921 64.0
226.811829 176.0
226.838806 216.0
226.877777 112.0
226.922745 52.0
226.946732 140.0
227.027695 80.0
227.078247 972.0
227.1828 112.0
227.285675 68.0
227.335831 128.0
227.36969 124.0
227.396698 32.0
227.453735 80.0
227.510757 120.0
227.546783 68.0
227.579819 76.0
227.612839 144.0
227.663895 164.0
227.720947 68.0
227.802048 84.0
227.901184 136.0
227.931229 92.0
228.006363 96.0
228.068268 260.0
228.118805 156.0
228.149628 120.0
228.213776 48.0
228.340073 152.0
228.43631 76.0
228.473862 124.0
228.589752 120.0
228.807571 180.0
228.830551 124.0
228.905823 180.0
228.953995 108.0
229.017242 160.0
229.074005 1204.0
229.116699 440.0
229.185944 152.0
229.222107 56.0
229.288406 204.0
229.32457 108.0
229.379135 112.0
229.463226 128.0
229.514481 168.0
229.554947 76.0
229.617004 132.0
229.651199 48.0
229.755768 64.0
229.8125 84.0
229.846268 120.0
229.885498 64.0
229.948395 176.0
229.988113 112.0
230.080582 756.0
230.131866 284.0
230.172272 88.0
230.268906 76.0
230.320236 232.0
230.34877 172.0
230.374619 176.0
230.410034 160.0
230.45015 96.0
230.489426 124.0
230.516617 116.0
230.543015 136.0
230.605911 220.0
230.620605 108.0
230.62587 264.0
230.670532 268.0
230.739716 148.0
230.767441 120.0
230.786026 244.0
230.809937 156.0
230.871918 172.0
230.904419 136.0
230.926193 216.0
230.951523 192.0
231.000229 212.0
231.025055 280.0
231.065598 110320.0
231.140686 220.0
231.151627 32.0
231.162094 96.0
231.183029 84.0
231.20668 228.0
231.275436 184.0
231.336487 244.0
231.405487 96.0
231.437531 96.0
231.470886 164.0
231.494583 120.0
231.519638 108.0
231.564911 304.0
231.598663 308.0
231.638168 152.0
231.684738 148.0
231.713699 128.0
231.763809 112.0
231.829926 88.0
231.907715 144.0
231.924957 312.0
231.967484 128.0
231.996628 116.0
232.020737 104.0
232.069046 13560.0
232.104385 816.0
232.153381 80.0
232.177383 104.0
232.219727 284.0
232.250687 56.0
232.262497 100.0
232.270905 124.0
232.302139 48.0
232.312347 104.0
232.334686 184.0
232.399979 104.0
232.426788 48.0
232.472198 96.0
232.490356 56.0
232.538727 100.0
232.57608 64.0
232.618484 128.0
232.651886 92.0
232.675659 72.0
232.79155 72.0
232.841309 176.0
232.924026 132.0
232.954086 224.0
233.002853 56.0
233.069351 1932.0
233.115234 684.0
233.192551 152.0
233.273972 72.0
233.316635 292.0
233.37291 96.0
233.422699 68.0
233.479141 104.0
233.509491 196.0
233.546051 104.0
233.572617 124.0
233.593063 72.0
233.620438 116.0
233.676407 200.0
233.695282 172.0
233.727768 52.0
233.775726 84.0
233.784821 64.0
233.82515 32.0
233.869232 192.0
233.913315 124.0
233.946899 44.0
233.968201 108.0
233.989517 44.0
234.067841 88.0
234.077026 320.0
234.118896 300.0
234.161514 132.0
234.266647 56.0
234.330612 28.0
234.382416 76.0
234.42572 76.0
234.449448 40.0
234.496841 116.0
234.620438 80.0
234.657181 80.0
234.690262 128.0
234.743546 168.0
234.983047 144.0
235.093735 240.0
235.144775 48.0
235.225479 136.0
235.251602 104.0
235.373734 60.0
235.41954 60.0
235.455322 184.0
235.49588 188.0
235.608902 152.0
235.636398 28.0
235.671249 108.0
235.756683 132.0
235.963409 168.0
236.070435 88.0
236.107132 296.0
236.131592 140.0
236.214172 216.0
236.284912 124.0
236.318192 68.0
236.394684 48.0
236.416107 52.0
236.605865 64.0
236.667099 68.0
236.737534 72.0
236.758972 48.0
236.948868 176.0
237.071793 104.0
237.093323 84.0
237.136215 160.0
237.187897 144.0
237.301315 132.0
237.325851 144.0
237.350372 44.0
237.466904 92.0
237.492859 156.0
237.595734 116.0
237.654037 148.0
237.822815 140.0
237.954803 140.0
238.010696 80.0
238.055817 116.0
238.077805 152.0
238.102203 112.0
238.246567 164.0
238.443207 132.0
238.48317 116.0
238.504684 28.0
238.646088 208.0
238.673767 40.0
238.75679 172.0
238.943024 88.0
238.978256 96.0
239.042877 108.0
239.101349 164.0
239.123032 176.0
239.182617 196.0
239.459778 132.0
239.498505 112.0
239.578598 104.0
239.809097 144.0
239.862091 144.0
239.926834 200.0
240.02858 124.0
240.0625 152.0
240.092392 144.0
240.14267 100.0
240.333939 132.0
240.503662 88.0
240.627136 92.0
240.729034 108.0
240.759628 212.0
240.781525 136.0
240.815506 144.0
240.838776 92.0
241.013214 140.0
241.049774 1064.0
241.079987 268.0
241.132233 120.0
241.328476 44.0
241.442886 120.0
241.470718 116.0
241.594437 128.0
241.730576 132.0
241.801758 40.0
241.882217 196.0
241.906982 92.0
241.934845 208.0
242.044174 248.0
242.081116 148.0
242.151596 196.0
242.29718 48.0
242.532455 108.0
242.607986 164.0
242.721786 52.0
242.7621 48.0
242.783813 40.0
242.914078 52.0
243.065353 2684.0
243.130402 248.0
243.21283 256.0
243.280243 48.0
243.357864 176.0
243.438583 36.0
243.494492 120.0
243.519333 64.0
243.584564 108.0
243.618729 44.0
243.649796 108.0
243.702606 64.0
243.792801 144.0
243.820694 96.0
243.910294 200.0
243.985428 128.0
244.070435 496.0
244.110489 256.0
244.193756 100.0
244.369385 132.0
244.392853 192.0
244.473755 112.0
244.588913 64.0
244.660507 60.0
244.697861 168.0
244.781921 72.0
245.077194 1300.0
245.116837 520.0
245.249222 88.0
245.336502 48.0
245.46434 120.0
245.498642 64.0
245.576599 44.0
245.616028 100.0
245.708771 140.0
245.79306 52.0
245.832428 184.0
245.868149 152.0
245.894836 112.0
245.938538 80.0
246.080505 348.0
246.114578 712.0
246.226349 108.0
246.363205 56.0
246.449539 144.0
246.472549 120.0
246.54982 104.0
246.616302 92.0
246.735077 80.0
246.846725 148.0
247.058685 3028.0
247.093369 1540.0
247.130661 324.0
247.260574 88.0
247.313782 100.0
247.392029 40.0
247.420212 88.0
247.529785 36.0
247.664459 208.0
247.730225 48.0
247.775253 108.0
248.065201 312.0
248.106079 128.0
248.282761 168.0
248.328918 32.0
248.771332 76.0
248.874939 48.0
249.077774 308.0
249.106613 152.0
249.117874 212.0
249.150177 100.0
249.195297 188.0
249.418411 76.0
249.444473 180.0
249.490707 132.0
249.563019 64.0
249.600754 92.0
249.732834 128.0
249.807968 180.0
249.956192 148.0
250.082703 336.0
250.119843 208.0
250.198532 120.0
250.560699 212.0
250.645767 108.0
250.686737 44.0
251.076385 308.0
251.106918 200.0
251.150177 116.0
251.352081 204.0
251.481461 120.0
251.847717 152.0
251.926682 144.0
252.057922 96.0
252.103943 540.0
252.211075 40.0
252.388107 220.0
252.527237 176.0
252.637955 56.0
252.938568 88.0
252.973389 196.0
253.091949 328.0
253.467453 176.0
253.63858 128.0
253.755875 196.0
253.781235 160.0
254.080917 524.0
254.112289 124.0
254.133301 116.0
254.158676 40.0
254.199936 160.0
254.234833 52.0
254.266571 36.0
254.458603 192.0
254.618958 96.0
254.692017 108.0
254.771423 100.0
254.933472 28.0
254.96434 168.0
255.063034 560.0
255.102615 312.0
255.152771 124.0
255.502609 148.0
255.540787 172.0
255.617142 84.0
255.706253 84.0
255.817657 44.0
256.059601 800.0
256.11142 404.0
256.154602 220.0
256.231628 88.0
256.349548 176.0
256.387787 76.0
256.515259 44.0
256.642792 64.0
256.68103 116.0
256.738434 120.0
256.823547 140.0
257.068909 3352.0
257.113434 400.0
257.193787 260.0
257.227692 216.0
257.268097 56.0
257.295227 80.0
257.325562 72.0
257.432404 64.0
257.50119 160.0
257.53952 84.0
257.570068 148.0
257.62146 116.0
257.750366 132.0
257.785492 88.0
257.817444 132.0
257.849426 60.0
257.894165 72.0
257.919037 164.0
257.995392 152.0
258.075134 1296.0
258.124329 184.0
258.154724 152.0
258.247284 172.0
258.325836 68.0
258.369507 148.0
258.432495 236.0
258.457001 140.0
258.482605 116.0
258.525421 196.0
258.567352 132.0
258.631226 116.0
258.671417 144.0
258.702179 140.0
258.732239 164.0
258.764771 152.0
258.818176 300.0
258.852753 160.0
258.898621 148.0
258.954376 256.0
259.060211 126576.0
259.127655 320.0
259.163544 228.0
259.236938 76.0
259.260742 76.0
259.289581 56.0
259.324402 88.0
259.356689 140.0
259.39743 256.0
259.432739 180.0
259.464966 156.0
259.473236 204.0
259.509338 64.0
259.535339 164.0
259.546265 76.0
259.586731 320.0
259.616974 168.0
259.640808 140.0
259.710419 240.0
259.778198 92.0
259.820374 152.0
259.843903 156.0
259.855377 140.0
259.924805 204.0
259.975861 148.0
260.062958 18540.0
260.127777 336.0
260.191895 148.0
260.261261 76.0
260.29364 148.0
260.325745 60.0
260.360626 56.0
260.396393 208.0
260.445129 124.0
260.50882 60.0
260.557007 80.0
260.608429 56.0
260.642639 92.0
260.706024 160.0
260.829163 56.0
260.878387 68.0
260.909149 112.0
260.971191 64.0
260.983093 56.0
261.065308 1984.0
261.161987 100.0
261.214417 88.0
261.227264 80.0
261.302155 252.0
261.452484 148.0
261.533844 88.0
261.593628 104.0
261.657135 56.0
261.740753 268.0
261.799713 108.0
261.856049 108.0
261.890594 80.0
261.903076 124.0
261.933899 136.0
261.993011 168.0
262.077515 280.0
262.108643 284.0
262.157318 76.0
262.207703 120.0
262.257202 112.0
262.291504 224.0
262.362427 128.0
262.409576 80.0
262.513947 92.0
262.607483 84.0
262.636505 120.0
262.685028 96.0
262.765533 56.0
262.810699 112.0
262.857086 160.0
262.907501 144.0
263.003113 96.0
263.082611 236.0
263.115631 212.0
263.191559 76.0
263.217407 92.0
263.278748 100.0
263.35553 156.0
263.563019 68.0
263.643799 68.0
263.7052 308.0
263.73233 92.0
263.789246 48.0
263.834503 80.0
263.866821 116.0
263.905609 96.0
264.005859 36.0
264.098328 416.0
264.168762 76.0
264.216095 48.0
264.403778 76.0
264.614014 76.0
264.727509 80.0
264.848663 172.0
265.038452 148.0
265.115082 200.0
265.127533 320.0
265.199493 156.0
265.223175 136.0
265.288696 320.0
265.459839 140.0
265.609039 132.0
265.80368 136.0
265.988678 160.0
266.034119 120.0
266.082245 480.0
266.113007 252.0
266.143646 172.0
266.32312 128.0
266.443298 56.0
266.550507 48.0
266.740265 120.0
266.953583 144.0
267.059448 152.0
267.115417 112.0
267.334198 180.0
267.575043 240.0
267.597473 176.0
267.649933 72.0
267.718323 76.0
267.9086 152.0
268.062592 192.0
268.10907 240.0
268.119354 264.0
268.231842 244.0
268.281982 56.0
268.725494 60.0
269.048615 48.0
269.079865 64.0
269.124969 928.0
269.154022 112.0
269.273895 60.0
269.364441 72.0
269.482971 108.0
269.636536 96.0
269.904602 144.0
270.009247 52.0
270.07193 708.0
270.116547 328.0
270.217285 80.0
270.46402 156.0
270.493469 36.0
270.555664 80.0
270.650604 84.0
270.8078 56.0
270.904541 120.0
271.060059 108.0
271.120941 284.0
271.335358 140.0
271.787964 52.0
271.820801 100.0
271.86673 52.0
271.981598 76.0
272.106628 1684.0
272.191711 60.0
272.283661 52.0
272.746918 60.0
272.806091 136.0
272.858673 88.0
272.904694 128.0
273.003357 48.0
273.078064 420.0
273.108551 900.0
273.154633 96.0
273.263214 80.0
273.539642 92.0
273.625214 76.0
273.697662 140.0
273.737183 84.0
273.776672 52.0
273.818756 252.0
273.947968 84.0
274.12088 2412.0
274.406036 100.0
274.478577 140.0
274.522919 68.0
274.60379 160.0
274.669861 48.0
274.851288 64.0
275.019592 120.0
275.07724 380.0
275.127258 3464.0
275.199738 56.0
275.264771 192.0
275.298584 104.0
275.351135 44.0
275.445526 116.0
275.535583 108.0
275.56778 52.0
275.607422 68.0
275.675323 88.0
275.751648 108.0
275.822235 68.0
275.90155 60.0
275.937927 132.0
275.997437 120.0
276.027191 40.0
276.097626 1696.0
276.131409 744.0
276.223633 100.0
276.386597 196.0
276.444641 76.0
276.576385 32.0
276.642578 60.0
276.745209 32.0
276.837921 52.0
276.894226 64.0
277.089966 452.0
277.102173 232.0
277.113159 488.0
277.136444 532.0
277.573547 60.0
277.599243 160.0
277.666412 124.0
277.729431 136.0
277.832245 72.0
278.013367 68.0
278.04129 88.0
278.099304 364.0
278.137543 292.0
278.200592 36.0
278.223846 60.0
278.489502 96.0
278.67218 96.0
278.89151 136.0
279.049591 376.0
279.111847 608.0
279.386963 152.0
279.470154 52.0
279.52005 88.0
279.646515 156.0
279.77301 96.0
280.009399 176.0
280.057434 180.0
280.094513 732.0
280.205933 140.0
280.329346 108.0
280.595856 44.0
280.996063 96.0
281.069458 120.0
281.103973 736.0
281.130341 224.0
281.459991 124.0
281.533478 64.0
281.657043 140.0
281.753906 180.0
282.00119 196.0
282.071381 164.0
282.126251 284.0
282.64325 84.0
282.683411 196.0
283.00473 172.0
283.139008 160.0
283.229095 108.0
283.25589 80.0
283.286041 212.0
283.413361 140.0
283.544037 148.0
283.919525 120.0
284.05368 196.0
284.127106 112.0
284.238373 108.0
284.651062 152.0
284.859283 104.0
284.899597 44.0
285.04071 72.0
285.119507 404.0
285.356659 76.0
285.507965 88.0
285.666046 112.0
285.820801 240.0
285.908295 104.0
285.962158 80.0
286.002533 84.0
286.071411 124.0
286.103516 304.0
286.180969 148.0
286.271881 120.0
286.33136 168.0
286.494171 112.0
286.595245 144.0
286.662628 172.0
286.827759 180.0
287.040161 80.0
287.081085 376.0
287.126831 9508.0
287.205414 100.0
287.262756 44.0
287.304749 132.0
287.397705 124.0
287.482056 32.0
287.603546 84.0
287.633911 48.0
287.667694 40.0
287.701447 104.0
287.801025 40.0
287.85675 112.0
287.94455 92.0
288.077637 120.0
288.129486 2152.0
288.201263 96.0
288.31955 64.0
288.468262 148.0
288.502075 60.0
288.542633 68.0
288.579834 144.0
288.64743 72.0
288.765808 72.0
288.828186 136.0
288.941711 88.0
288.965393 104.0
289.073883 204.0
289.097443 172.0
289.136597 476.0
289.276733 96.0
289.337646 116.0
289.395203 96.0
289.435852 44.0
289.511871 100.0
289.540802 52.0
289.696625 64.0
289.82196 56.0
289.893127 64.0
289.947357 44.0
290.004974 136.0
290.08139 464.0
290.138611 240.0
290.167664 72.0
290.228699 128.0
290.289734 124.0
290.683228 52.0
290.924194 64.0
290.990997 112.0
291.032837 156.0
291.079865 180.0
291.088898 204.0
291.413239 132.0
292.095245 200.0
292.293854 88.0
292.467438 148.0
292.760223 48.0
293.015686 116.0
293.093079 312.0
293.12265 644.0
293.230347 44.0
293.393951 160.0
293.574677 48.0
293.724731 64.0
293.864594 64.0
294.073486 132.0
294.114563 348.0
294.311707 76.0
294.35611 48.0
294.506348 64.0
294.820679 204.0
295.029175 88.0
295.10379 352.0
295.220642 84.0
295.665344 72.0
296.115784 204.0
296.278259 116.0
296.425568 80.0
297.042694 196.0
297.109528 904.0
297.375519 140.0
297.505951 64.0
297.612366 48.0
297.646729 52.0
297.76004 44.0
297.849335 104.0
298.116943 132.0
298.251343 124.0
298.715546 160.0
298.849701 80.0
299.126221 948.0
299.152557 108.0
299.86557 156.0
300.124084 128.0
300.189606 100.0
300.569427 164.0
300.638062 228.0
300.713989 72.0
300.741608 68.0
300.78302 104.0
300.834778 72.0
301.080383 120.0
301.349365 72.0
301.497955 120.0
301.549774 148.0
301.840179 116.0
301.919708 124.0
302.07486 168.0
302.141083 116.0
302.282928 92.0
302.442108 200.0
302.677521 60.0
303.110565 648.0
303.210999 84.0
303.595795 120.0
303.738007 112.0
303.803925 64.0
303.887177 88.0
304.036377 88.0
304.09671 3556.0
304.251587 132.0
304.289764 56.0
304.42865 40.0
304.452972 100.0
304.564087 84.0
304.657898 44.0
304.897644 52.0
304.96228 60.0
305.040131 104.0
305.101044 836.0
305.179199 44.0
305.405243 104.0
305.488708 52.0
305.578735 64.0
305.645264 72.0
305.687012 72.0
305.815796 48.0
306.073395 168.0
306.103027 212.0
306.132751 160.0
306.320679 96.0
306.393829 184.0
306.665619 108.0
306.728363 108.0
306.902649 112.0
307.104828 1856.0
307.18515 56.0
307.237488 56.0
307.464264 148.0
307.572479 40.0
307.740021 40.0
308.012421 72.0
308.088379 644.0
308.309387 56.0
308.400269 44.0
308.79184 84.0
308.942261 96.0
309.031097 140.0
309.046692 56.0
309.054199 132.0
309.096069 376.0
309.120148 1300.0
309.187164 44.0
309.691315 124.0
309.817413 100.0
309.859467 116.0
309.992615 132.0
310.062408 52.0
310.104187 456.0
310.150299 120.0
310.290527 120.0
310.318573 60.0
311.03421 112.0
311.106018 124.0
311.132507 132.0
311.174622 176.0
311.248352 100.0
311.329132 76.0
311.459076 208.0
311.659332 84.0
311.683929 152.0
311.877197 80.0
311.944519 108.0
312.12027 400.0
312.207672 40.0
312.32373 156.0
312.750397 76.0
313.13028 876.0
313.175507 92.0
313.54895 56.0
313.732239 60.0
313.87326 84.0
314.021393 108.0
314.075531 152.0
314.108337 196.0
314.13327 464.0
314.222443 120.0
314.410736 164.0
314.547119 88.0
314.607117 152.0
314.765991 52.0
314.861328 88.0
314.886047 92.0
314.924896 52.0
314.970673 100.0
315.120941 3908.0
315.18985 104.0
315.281738 212.0
315.424774 100.0
315.539764 48.0
315.589264 168.0
315.649078 100.0
315.734253 120.0
315.847412 156.0
315.882782 60.0
315.992462 64.0
316.076569 88.0
316.123474 716.0
316.197693 112.0
316.257416 96.0
316.452545 68.0
316.806702 164.0
317.061798 164.0
317.122284 180.0
317.179077 192.0
317.235016 132.0
317.84549 200.0
318.136505 100.0
318.168457 116.0
318.196869 176.0
318.36731 72.0
318.392151 44.0
318.502258 112.0
318.655029 128.0
318.765167 64.0
319.045929 44.0
319.070831 116.0
319.10614 184.0
320.024292 172.0
320.096069 256.0
320.139526 124.0
320.376892 60.0
320.701141 80.0
320.733215 140.0
320.779572 116.0
320.818787 88.0
320.861542 220.0
321.123047 2652.0
321.175354 112.0
321.243134 80.0
321.271667 64.0
321.296631 48.0
321.378693 112.0
321.453613 68.0
321.603516 28.0
321.675262 164.0
321.785553 48.0
322.124237 1000.0
322.396362 152.0
322.582214 60.0
322.610809 116.0
322.764557 148.0
322.875397 96.0
322.914734 36.0
323.039917 52.0
323.12973 268.0
323.333313 132.0
323.394165 84.0
323.437103 92.0
323.476501 120.0
323.841705 80.0
323.90976 84.0
324.058289 56.0
324.128296 76.0
324.160553 44.0
324.260895 36.0
324.330627 96.0
324.472382 76.0
324.508209 120.0
324.572754 116.0
324.820221 172.0
324.845337 48.0
325.057007 132.0
325.113922 236.0
325.204132 120.0
325.333344 124.0
325.548798 76.0
325.721161 116.0
326.138458 160.0
326.303345 72.0
326.796051 104.0
326.842834 36.0
327.051544 116.0
327.094757 200.0
327.136444 140.0
327.555664 88.0
328.149139 140.0
328.413513 128.0
328.70932 104.0
328.741638 84.0
328.868103 156.0
329.29776 172.0
329.369995 76.0
329.593994 88.0
329.897552 152.0
330.143433 100.0
330.447266 64.0
330.972076 52.0
331.106995 552.0
331.145874 104.0
331.290771 184.0
331.381348 80.0
331.547028 172.0
331.609619 44.0
331.682129 40.0
331.983032 76.0
332.022919 124.0
332.090576 2308.0
332.149872 172.0
332.197021 52.0
332.465515 52.0
332.672394 72.0
332.70871 40.0
332.890228 52.0
333.091431 324.0
333.217133 152.0
333.488434 176.0
333.656891 52.0
333.79599 212.0
333.933228 84.0
334.096436 392.0
334.446228 108.0
334.537231 92.0
334.575592 112.0
334.799377 112.0
335.052246 96.0
335.098083 100.0
335.180389 196.0
335.342224 104.0
335.560944 56.0
335.608337 48.0
335.735962 80.0
336.075195 180.0
336.113068 252.0
336.184662 92.0
336.513153 156.0
336.743225 76.0
337.002563 116.0
337.115387 2092.0
337.188934 120.0
337.265686 72.0
337.342438 148.0
337.368042 52.0
337.558167 120.0
337.671509 48.0
337.728149 100.0
337.755646 52.0
337.806854 144.0
338.119293 704.0
338.14743 156.0
338.494904 128.0
338.634064 68.0
338.963776 152.0
339.061707 52.0
339.095703 84.0
339.132477 284.0
339.399963 52.0
339.498962 76.0
340.118988 36.0
340.258484 84.0
340.828522 236.0
340.901245 100.0
341.162201 124.0
341.658661 136.0
341.76535 236.0
342.048737 96.0
342.11499 92.0
342.151794 228.0
342.497955 60.0
342.680847 200.0
343.176025 160.0
343.305054 68.0
344.065155 108.0
344.449188 40.0
344.515686 48.0
344.718872 104.0
345.010864 44.0
345.147675 44.0
345.591522 40.0
345.980103 100.0
346.148682 120.0
346.304779 88.0
346.409668 44.0
347.07959 100.0
347.10553 316.0
347.31781 52.0
347.343781 108.0
347.391998 56.0
347.551544 172.0
347.609406 160.0
347.751923 164.0
347.833588 168.0
347.926392 156.0
347.952362 56.0
348.104614 72.0
348.158417 108.0
348.342285 80.0
348.405457 168.0
348.505768 160.0
348.644012 76.0
348.736145 132.0
348.862518 52.0
348.945068 80.0
349.023438 380.0
349.117401 45228.0
349.229279 176.0
349.353699 96.0
349.420349 84.0
349.453857 180.0
349.502197 64.0
349.539307 76.0
349.613831 196.0
349.643616 144.0
349.677124 160.0
349.721344 64.0
349.799927 92.0
349.838989 156.0
349.870667 36.0
349.929993 180.0
349.967468 56.0
350.007599 92.0
350.120239 8220.0
350.194427 116.0
350.21994 176.0
350.271942 84.0
350.322266 60.0
350.399506 48.0
350.440491 44.0
350.471497 156.0
350.664062 68.0
350.781158 172.0
350.84671 136.0
350.926544 68.0
350.992096 52.0
351.033905 72.0
351.122498 1092.0
351.200958 120.0
351.307007 64.0
351.503113 48.0
351.53299 60.0
351.574036 84.0
351.61026 68.0
351.621918 48.0
351.634979 60.0
351.75473 72.0
351.79425 40.0
351.831573 144.0
351.906219 52.0
351.975311 96.0
352.047485 92.0
352.112518 172.0
352.125916 124.0
352.139679 340.0
352.247009 48.0
352.29718 100.0
352.336975 72.0
352.369354 56.0
352.415039 124.0
352.517303 148.0
352.576141 104.0
352.664551 84.0
352.698181 72.0
352.742493 80.0
352.771362 84.0
352.858948 52.0
353.139374 64.0
353.188019 104.0
353.337646 92.0
353.513489 112.0
353.700623 136.0
353.7966 56.0
354.110016 256.0
354.138702 112.0
354.224854 40.0
354.258545 144.0
354.303497 148.0
354.34848 56.0
354.382172 132.0
354.487091 68.0
354.858185 144.0
354.891907 168.0
355.126251 6000.0
355.386993 40.0
355.499573 40.0
355.56012 88.0
355.63092 92.0
355.844879 148.0
355.923737 76.0
355.968811 148.0
356.043915 48.0
356.128815 1096.0
356.438324 104.0
356.566101 96.0
356.829224 44.0
357.002197 156.0
357.134918 320.0
357.194 96.0
357.423492 44.0
357.577759 116.0
357.814911 100.0
357.862091 68.0
357.931641 96.0
358.031097 96.0
358.134979 80.0
358.31958 88.0
358.579559 60.0
358.673798 96.0
359.250732 164.0
360.156647 104.0
360.217072 64.0
360.34552 60.0
360.371979 80.0
360.53067 152.0
360.765015 176.0
360.946503 168.0
360.991852 48.0
361.476044 72.0
361.79776 44.0
362.055237 124.0
362.13855 68.0
362.18399 160.0
363.160675 144.0
363.526093 136.0
363.901855 60.0
364.087921 160.0
364.14502 112.0
364.198059 168.0
364.342407 176.0
364.84024 52.0
365.152985 284.0
365.181915 160.0
365.338409 144.0
365.631378 100.0
365.787445 36.0
365.96637 92.0
366.017822 108.0
366.309113 108.0
366.690125 96.0
366.865448 80.0
366.995087 116.0
367.059906 168.0
367.127411 4572.0
367.227692 184.0
367.281097 88.0
367.3078 68.0
367.349762 32.0
367.582489 112.0
367.646698 92.0
367.719849 44.0
367.780914 44.0
367.975616 52.0
368.049103 48.0
368.130493 1100.0
368.284912 72.0
368.40332 60.0
368.441528 100.0
368.49884 56.0
368.617279 44.0
368.663147 40.0
368.723999 52.0
368.827484 56.0
369.033905 40.0
369.133331 236.0
369.397217 120.0
369.62677 144.0
369.85257 48.0
369.924988 208.0
370.131439 80.0
370.216278 28.0
370.58783 128.0
370.649139 112.0
370.783234 72.0
371.143585 120.0
371.623016 64.0
371.803375 48.0
372.144989 112.0
372.229462 132.0
372.307983 72.0
372.375397 68.0
372.509827 84.0
372.578979 64.0
372.663483 152.0
373.005524 64.0
373.501526 60.0
374.198059 84.0
374.752655 108.0
376.137115 100.0
376.180725 108.0
377.196594 192.0
377.516388 128.0
377.636261 48.0
378.197266 264.0
378.534088 32.0
379.189117 132.0
379.906097 76.0
380.325165 40.0
380.433868 44.0
381.179718 268.0
381.331116 128.0
381.358307 52.0
381.389404 96.0
381.680969 76.0
382.132172 148.0
382.743225 116.0
382.902893 48.0
383.658783 120.0
383.883179 80.0
383.92392 152.0
383.966827 44.0
385.587006 44.0
385.743347 44.0
385.884064 40.0
385.973999 48.0
386.615509 92.0
387.170013 640.0
387.308502 56.0
388.068726 132.0
388.156036 176.0
388.539368 48.0
389.165497 144.0
390.177002 124.0
391.168335 204.0
391.215576 144.0
393.391571 184.0
393.478424 44.0
393.513947 64.0
393.620544 124.0
395.202484 380.0
395.355927 84.0
396.096283 104.0
396.186401 108.0
396.793732 140.0
397.265656 96.0
397.83313 68.0
397.924438 148.0
397.972076 120.0
398.698975 120.0
399.68515 80.0
399.8125 56.0
400.345947 144.0
400.377808 60.0
402.607056 76.0
402.646973 168.0
403.646027 104.0
404.526184 144.0
404.618256 112.0
404.710358 108.0
404.787567 208.0
405.042725 64.0
405.074768 64.0
405.179352 5040.0
405.44339 92.0
405.583649 80.0
405.776093 56.0
405.88031 60.0
405.928436 108.0
405.971619 92.0
406.068787 108.0
406.182159 3564.0
406.311462 80.0
406.514099 48.0
406.774963 32.0
407.182892 552.0
407.22467 120.0
407.317047 52.0
407.485779 96.0
408.173065 180.0
408.309784 100.0
408.422394 100.0
408.481232 64.0
408.655731 104.0
408.712067 76.0
408.803467 84.0
408.856934 116.0
408.991882 120.0
409.16684 64.0
409.319855 168.0
409.452728 100.0
409.529266 72.0
410.258575 156.0
410.311005 104.0
410.722321 48.0
412.915436 52.0
413.016541 88.0
413.425171 88.0
413.615387 64.0
413.748962 132.0
413.910919 44.0
414.958282 40.0
415.272552 68.0
415.75531 56.0
416.063812 68.0
416.847687 120.0
416.94928 140.0
417.010223 80.0
417.21347 140.0
417.416748 100.0
418.108307 132.0
418.340302 48.0
418.796356 168.0
418.877808 64.0
420.113831 148.0
420.210876 40.0
420.406708 64.0
420.545471 60.0
420.749573 120.0
420.847565 52.0
420.876129 88.0
420.949646 92.0
421.215118 148.0
421.26413 72.0
421.619598 192.0
421.795319 76.0
421.864838 112.0
421.979279 52.0
422.03653 168.0
422.111755 132.0
422.175568 168.0
422.261444 136.0
422.433228 72.0
422.506866 224.0
422.633698 96.0
422.709229 192.0
422.830109 36.0
423.011017 100.0
423.047028 120.0
423.078491 164.0
423.191284 18324.0
423.325439 36.0
423.3797 184.0
423.452393 52.0
423.481079 244.0
423.509735 64.0
423.595764 76.0
423.644928 68.0
423.690704 180.0
423.732819 76.0
423.798737 124.0
423.907135 96.0
423.944 52.0
423.994141 168.0
424.046478 60.0
424.107941 36.0
424.193665 4684.0
424.263702 48.0
424.300598 44.0
424.455383 64.0
424.517914 60.0
424.632751 48.0
424.686066 100.0
424.808228 92.0
424.936279 68.0
425.194214 1360.0
425.285095 52.0
425.379486 44.0
425.482117 76.0
425.543701 76.0
425.958466 100.0
426.163879 52.0
426.199402 136.0
426.299469 132.0
426.352905 72.0
426.385773 112.0
426.457306 128.0
426.752686 140.0
426.809753 112.0
426.915497 56.0
426.981903 60.0
427.03537 60.0
427.092926 56.0
427.121735 32.0
427.166962 48.0
427.232788 188.0
427.487885 60.0
427.681305 116.0
427.911835 104.0
428.167145 80.0
428.265991 76.0
428.756256 124.0
429.038239 48.0
429.2901 40.0
429.514862 44.0
429.72937 44.0
430.27002 72.0
431.166351 68.0
431.228333 80.0
432.717499 64.0
432.75061 96.0
432.92868 44.0
433.318024 60.0
433.4216 60.0
436.389252 100.0
436.788483 68.0
437.200348 64.0
437.400146 84.0
437.504211 100.0
438.070557 44.0
438.541382 80.0
439.6716 36.0
441.137634 44.0
441.225433 116.0
441.288147 92.0
442.036835 72.0
442.907623 68.0
442.957886 48.0
443.050049 88.0
447.522827 72.0
447.746002 128.0
447.969238 80.0
449.748627 44.0
450.09903 72.0
451.704987 72.0
454.229553 56.0
454.31015 52.0
454.793884 104.0
455.672913 60.0
455.838623 64.0
457.075989 68.0
457.650604 84.0
457.940155 84.0
458.136108 60.0
464.449677 108.0
467.246155 56.0
469.300507 48.0
469.671387 104.0
469.999237 80.0
470.892822 76.0
471.005127 92.0
471.761322 76.0
473.877563 92.0
475.87262 40.0
476.124481 116.0
476.458923 96.0
476.563202 52.0
477.89798 84.0
478.646637 112.0
478.755493 68.0
478.929688 44.0
479.321777 84.0
480.036652 64.0
481.42868 52.0
481.90918 80.0
482.219421 48.0
483.640869 96.0
483.921051 152.0
484.621796 100.0
484.683136 76.0
485.862518 52.0
486.086304 64.0
486.911591 104.0
487.113617 72.0
488.106873 88.0
491.28479 100.0
491.931 52.0
492.279785 52.0
494.237976 84.0
495.703613 124.0
496.412842 84.0
496.834198 92.0
498.174835 64.0
498.245911 92.0
498.49472 76.0
498.623596 64.0
499.788666 76.0
502.564484 64.0
502.792084 76.0
503.135773 72.0
504.131775 64.0
504.833618 68.0
505.182465 72.0
505.670197 80.0
505.965607 88.0
507.390259 96.0
508.17511 88.0
508.46228 56.0
508.686707 132.0
509.297363 52.0
510.488312 48.0
511.239563 36.0
512.117432 52.0
512.838318 108.0
516.350891 56.0
516.64032 76.0
520.560852 128.0
522.037659 56.0
522.11499 148.0
524.500732 96.0
524.60553 80.0
526.110962 40.0
527.24823 44.0
529.792236 88.0
530.502563 40.0
531.965881 84.0
532.581177 60.0
533.803589 100.0
537.539368 52.0
538.776733 40.0
540.311584 88.0
540.441101 48.0
543.350647 52.0
544.302124 52.0
547.860046 48.0
549.132568 64.0
550.303833 36.0
550.831543 44.0
555.944153 56.0
558.09552 80.0
559.379822 80.0
559.652893 112.0
559.75647 104.0
562.221863 36.0
563.218079 92.0
563.879517 64.0
564.101685 36.0
564.905518 60.0
564.93866 36.0
565.302979 80.0
566.804016 76.0
567.102539 64.0
568.183716 96.0
569.436829 48.0
572.209045 72.0
572.413818 116.0
572.871033 80.0
575.331665 104.0
575.858521 120.0
576.062317 96.0
577.362366 56.0
577.869385 84.0
577.993774 40.0
578.443665 56.0
578.563293 56.0
579.348694 68.0
580.604492 84.0
580.91626 72.0
582.846191 60.0
585.833862 80.0
586.440979 28.0
586.513306 84.0
590.196716 36.0
590.419189 88.0
590.936768 68.0
591.648132 108.0
594.109985 44.0
595.843079 100.0
596.48938 68.0
596.975586 36.0
598.055603 72.0
600.028442 92.0
600.281982 48.0
601.199097 48.0
601.69696 44.0
601.877563 76.0
602.624878 92.0
604.66394 68.0
605.045776 52.0
605.652954 112.0
609.567871 48.0
610.939636 68.0
612.628113 76.0
617.920349 64.0
619.405457 100.0
619.677917 136.0
620.684021 52.0
620.887329 96.0
620.966736 108.0
621.408203 64.0
622.803101 56.0
624.622314 104.0
625.303955 60.0
629.921021 48.0
630.091675 104.0
633.192078 80.0
637.340576 184.0
637.516479 76.0
639.331848 28.0
641.03894 104.0
642.51123 84.0
642.561646 52.0
644.465088 72.0
644.611572 56.0
646.841919 64.0
650.197205 36.0
653.723999 48.0
655.353394 52.0
656.938904 120.0
659.03717 68.0
663.151489 76.0
664.58728 92.0
665.408508 52.0
670.067993 148.0
671.568054 48.0
672.486389 116.0
674.810974 164.0
675.974731 60.0
677.693787 136.0
680.681396 80.0
681.502075 176.0
681.964539 88.0
682.801636 52.0
683.046082 96.0
684.586609 88.0
686.108032 44.0
687.182373 152.0
690.488831 192.0
692.765686 92.0
697.472534 88.0
699.00824 180.0
700.071533 236.0
700.798401 176.0
702.269165 88.0
702.775574 72.0
703.873474 188.0
706.547791 116.0
707.685669 84.0
709.121216 88.0
710.818237 80.0
711.099487 64.0
711.508179 48.0
713.431274 80.0
717.962402 104.0
719.434998 32.0
720.755371 88.0
723.310486 64.0
723.722717 40.0
725.329834 112.0
725.946411 92.0
726.911987 72.0
727.432556 68.0
727.953308 96.0
728.227234 72.0
731.367188 48.0
732.013184 72.0
735.339355 32.0
736.095154 100.0
736.802673 28.0
739.289856 128.0
740.675842 40.0
744.249695 48.0
746.74939 80.0
747.437134 132.0
748.594238 152.0
748.915588 64.0
749.345886 148.0
751.384888 64.0
751.510376 152.0
751.908752 164.0
753.770874 140.0
754.120605 112.0
755.307129 92.0
756.237244 148.0
756.729919 44.0
756.779175 100.0
757.841736 68.0
758.186951 72.0
759.080505 48.0
761.286438 60.0
761.511597 52.0
761.84668 68.0
762.001953 220.0
762.566467 84.0
763.451599 132.0
763.699036 64.0
763.836548 168.0
769.750122 72.0
769.788757 148.0
770.10907 52.0
770.258179 88.0
770.694641 156.0
770.794067 60.0
772.507935 44.0
773.49292 92.0
774.882874 200.0
775.298462 132.0
775.442566 80.0
775.747437 104.0
776.5625 140.0
777.899719 92.0
778.927002 48.0
780.021606 120.0
780.240173 168.0
781.244995 68.0
781.478638 40.0
782.675293 172.0
783.299072 48.0
784.001038 256.0
785.489685 148.0
786.142456 168.0
788.269958 208.0
789.807373 176.0
790.187805 148.0
790.338867 56.0
793.054871 68.0
793.150146 56.0
793.755615 68.0
793.839722 96.0
793.929443 216.0
794.782043 52.0
794.955994 104.0
795.191711 48.0
795.364197 204.0
796.404419 36.0
796.977417 148.0
797.21344 92.0
797.264038 44.0
798.208374 84.0
798.697693 52.0
799.879272 208.0
800.324036 176.0
800.402893 176.0
801.123779 40.0
803.530945 60.0
803.796143 192.0
805.376831 172.0
806.02655 144.0
807.716919 36.0
808.378845 204.0
809.329773 136.0
809.669556 128.0
811.352356 164.0
812.912109 92.0
813.462646 136.0
813.615906 164.0
814.251892 136.0
814.660828 180.0
815.882629 64.0
817.173584 160.0
817.276001 60.0
818.266357 248.0
818.357422 208.0
819.724426 172.0
821.81134 180.0
824.066528 164.0
825.518372 156.0
827.876038 72.0
828.07074 172.0
829.485962 216.0
829.789795 164.0
830.242798 212.0
832.01001 140.0
833.963013 132.0
834.164185 232.0
834.33667 240.0
834.5896 140.0
834.756348 196.0
836.378723 156.0
838.285034 184.0
839.259155 164.0
839.731995 116.0
839.818481 216.0
840.499207 160.0
841.769104 124.0
842.959045 60.0
844.126709 108.0
844.369568 152.0
844.450562 136.0
846.591858 144.0
846.840881 124.0
847.124695 124.0
847.321655 144.0
847.466492 164.0
848.016968 128.0
848.063354 132.0
848.846008 200.0
849.443359 128.0
850.174377 184.0
850.249817 132.0
851.230896 144.0
851.381897 188.0
851.439941 128.0
851.747742 60.0
852.421692 156.0
852.95636 84.0
853.095886 160.0
853.624939 52.0
853.677307 76.0
854.218201 148.0
854.619568 204.0
854.909607 124.0
855.265564 180.0
856.290222 140.0
856.430054 152.0
856.843628 140.0
857.158264 64.0
858.452332 176.0
858.843018 92.0
859.782349 184.0
859.858215 168.0
860.371887 160.0
860.903198 84.0
861.615784 40.0
861.847778 164.0
861.983887 144.0
862.137329 124.0
862.515686 108.0
862.609253 176.0
862.731995 136.0
863.585693 76.0
863.667542 36.0
865.39386 196.0
865.973633 148.0
866.711731 136.0
867.162964 128.0
867.49707 204.0
868.358948 192.0
868.640503 100.0
870.072388 224.0
870.201538 48.0
870.389404 148.0
870.530334 124.0
870.737976 232.0
870.994324 196.0
871.164673 132.0
871.492981 160.0
871.69928 212.0
874.633972 164.0
874.887085 168.0
874.993042 148.0
875.205017 160.0
875.52887 152.0
875.628967 68.0
876.418335 60.0
876.848511 184.0
877.274841 192.0
877.532288 172.0
877.874268 152.0
877.956787 268.0
878.151428 116.0
878.44635 64.0
879.237 200.0
879.514343 172.0
879.685547 48.0
879.803589 184.0
879.84491 104.0
880.305481 164.0
880.440979 160.0
880.64801 108.0
881.894653 76.0
881.936035 132.0
882.166565 84.0
882.314331 164.0
883.041626 172.0
884.467529 252.0
884.91156 96.0
885.426697 192.0
885.870911 84.0
886.155273 140.0
886.338928 136.0
886.47522 136.0
886.611511 336.0
886.842651 32.0
886.890076 176.0
887.097534 188.0
887.192383 144.0
887.465088 172.0
888.090698 156.0
888.396484 168.0
888.918335 188.0
889.345581 96.0
889.784851 88.0
891.174622 172.0
891.352905 148.0
891.495483 208.0
891.84613 224.0
891.98877 140.0
892.726013 152.0
893.082825 156.0
895.195557 176.0
896.375 220.0
896.783997 184.0
896.941162 108.0
897.227295 168.0
898.962952 192.0
899.231506 168.0
899.488159 164.0
899.846313 140.0
900.097107 152.0
900.246399 44.0
900.754028 72.0
902.128418 200.0
902.636597 160.0
903.773071 200.0
904.33075 104.0
904.419373 188.0
904.473206 140.0
904.862305 152.0
905.359314 176.0
905.443176 160.0
905.485046 132.0
905.718689 104.0
905.820496 332.0
907.048889 168.0
907.840271 168.0
907.930237 232.0
908.368042 164.0
908.94397 200.0
909.688171 172.0
909.916321 116.0
910.462708 156.0
911.513977 228.0
912.126953 180.0
912.905762 224.0
913.461853 152.0
914.388428 108.0
915.435913 144.0
916.176758 172.0
916.315308 112.0
916.369507 192.0
917.350342 192.0
917.617065 128.0
917.785889 148.0
918.521667 124.0
918.714661 200.0
919.116272 192.0
919.396484 152.0
919.752563 156.0
920.37439 168.0
920.966187 32.0
921.262146 128.0
922.041626 192.0
922.204773 92.0
922.591675 180.0
923.220459 128.0
923.462341 140.0
923.897888 180.0
924.067261 144.0
924.311157 156.0
924.445496 152.0
924.708679 76.0
924.787354 164.0
925.053711 116.0
925.150574 120.0
925.453247 180.0
925.574341 136.0
925.647034 128.0
926.076965 132.0
926.39801 148.0
926.658508 136.0
927.2099 200.0
927.949463 220.0
928.895447 148.0
929.538574 200.0
929.763062 44.0
929.920898 168.0
930.321472 116.0
930.382202 172.0
930.448975 120.0
930.491455 96.0
931.062256 188.0
931.487427 156.0
931.608887 132.0
932.836365 124.0
933.657166 152.0
933.912598 180.0
934.07074 168.0
934.49054 88.0
934.904297 268.0
934.953003 128.0
935.04425 140.0
935.512939 80.0
935.866028 164.0
936.107788 164.0
936.359253 148.0
936.499329 196.0
936.596802 180.0
936.919678 176.0
937.164734 176.0
937.32074 116.0
938.998169 156.0
939.437317 56.0
939.522766 120.0
939.742371 144.0
940.041382 132.0
940.236633 116.0
940.370911 184.0
940.651672 136.0
940.956909 32.0
941.048462 104.0
941.201111 220.0
941.616394 84.0
941.78125 84.0
942.312744 100.0
942.559204 232.0
942.746521 44.0
942.825989 152.0
942.926086 200.0
942.997131 168.0
943.156006 64.0
943.223267 140.0
943.559448 176.0
943.77832 180.0
944.311584 220.0
944.452271 60.0
944.972229 32.0
945.174133 124.0
945.535156 68.0
945.836426 92.0
946.630981 92.0
946.809265 104.0
946.906555 204.0
947.139282 184.0
947.64209 200.0
948.027649 72.0
948.548584 228.0
948.934814 132.0
949.163513 160.0
949.278137 196.0
949.632568 192.0
949.836243 108.0
949.958923 112.0
950.020264 172.0
950.376099 160.0
951.529968 248.0
951.609802 168.0
952.190186 228.0
952.449707 176.0
952.733643 84.0
953.077698 152.0
953.298889 264.0
953.495544 112.0
953.587769 208.0
953.772156 56.0
953.925781 28.0
954.638977 76.0
954.829651 184.0
954.921875 244.0
955.001831 132.0
955.18634 164.0
955.493958 124.0
955.783081 168.0
956.201538 32.0
956.367737 144.0
957.254272 168.0
957.814697 184.0
957.981018 200.0
958.067261 220.0
958.128845 104.0
958.498535 200.0
958.553955 164.0
958.794312 172.0
959.669617 140.0
960.378784 48.0
960.613159 128.0
960.909302 144.0
961.007996 156.0
961.143738 168.0
961.501648 48.0
961.92749 160.0
961.970703 104.0
962.305115 120.0
962.483154 164.0
962.971008 144.0
963.125427 200.0
963.502197 100.0
963.743164 160.0
963.934692 144.0
964.268433 176.0
964.453857 48.0
964.651611 164.0
964.830872 100.0
965.684204 64.0
966.001282 256.0
966.661682 208.0
966.766846 124.0
966.94635 204.0
967.014404 168.0
967.231018 148.0
967.676758 248.0
967.775818 148.0
967.850098 132.0
967.918213 124.0
968.054443 140.0
968.097778 72.0
968.97113 108.0
969.243774 136.0
969.504028 132.0
969.61554 140.0
969.795288 112.0
969.875854 136.0
970.080444 216.0
970.284973 152.0
970.346985 40.0
970.396606 160.0
970.57019 128.0
970.650818 204.0
970.793396 148.0
971.022888 120.0
971.4505 132.0
971.512878 136.0
971.773438 80.0
972.5802 152.0
973.126465 164.0
973.254822 224.0
973.828125 216.0
974.076599 196.0
974.387207 188.0
974.623291 124.0
975.375244 148.0
976.363831 192.0
976.625 164.0
976.69342 148.0
977.095398 156.0
977.228699 204.0
977.639832 168.0
977.850708 116.0
978.404663 144.0
979.158081 128.0
979.295105 160.0
979.600342 112.0
979.756042 120.0
980.821655 176.0
980.921387 144.0
981.825439 272.0
982.068115 136.0
982.34552 212.0
982.561462 140.0
983.291504 108.0
983.587036 160.0
984.12793 108.0
984.340271 116.0
984.458923 136.0
984.608765 144.0
985.058472 76.0
985.202148 132.0
985.439575 188.0
985.751953 100.0
986.183167 204.0
986.258179 228.0
986.342163 212.0
986.513733 140.0
986.626953 116.0
986.764526 132.0
986.814514 120.0
987.683777 48.0
987.827637 180.0
988.165466 192.0
988.69104 148.0
989.003967 176.0
989.367065 112.0
989.723877 176.0
989.936829 160.0
990.087097 84.0
990.262451 216.0
990.544312 104.0
990.594421 64.0
991.101868 164.0
991.496643 180.0
991.559326 40.0
991.709717 172.0
992.148499 112.0
992.273926 112.0
992.850769 152.0
993.001282 96.0
993.057739 168.0
993.264709 196.0
993.898315 152.0
994.243469 44.0
994.293396 176.0
994.431763 136.0
994.638855 168.0
994.971558 156.0
995.015503 40.0
995.097107 168.0
995.153625 44.0
995.24762 120.0
995.34198 188.0
995.995117 104.0
996.114441 148.0
996.416016 76.0
996.472534 168.0
996.692444 128.0
996.830688 100.0
997.000366 160.0
997.239197 92.0
997.559753 116.0
997.610046 188.0
997.767212 144.0
997.969177 184.0
998.128784 204.0
998.194702 128.0
998.540588 148.0
998.980896 160.0
999.037476 188.0
999.18219 180.0
999.27655 144.0
1000.119812 56.0
1000.321228 96.0
1000.447144 304.0
1000.724121 180.0
1000.805969 164.0
1000.931885 44.0
1001.265686 176.0
1001.429382 108.0
1001.511292 144.0
1001.707703 64.0
1001.834412 68.0
1002.989136 188.0
1003.237793 180.0
1003.672852 108.0
1003.969543 144.0
1004.240356 76.0
1004.423279 84.0
1005.028931 116.0
1005.508484 180.0
1005.653687 244.0
1006.019775 192.0
1006.167236 224.0
1006.365417 64.0
1006.85321 168.0
1007.090027 148.0
1007.364807 160.0
1007.566956 168.0
1007.850037 188.0
1007.946045 116.0
1008.274658 108.0
1008.394714 80.0
1008.748657 144.0
1009.182007 140.0
1009.38092 40.0
1009.444153 120.0
1009.507385 104.0
1009.690735 148.0
1009.937439 132.0
1010.152466 164.0
1010.525696 68.0
1010.709229 160.0
1010.759827 164.0
1010.829407 176.0
1011.082581 212.0
1011.424316 144.0
1011.576233 180.0
1011.63324 120.0
1011.753113 136.0
1012.139709 168.0
1012.335999 200.0
1012.410645 192.0
1012.519653 88.0
1012.779297 144.0
1012.836304 176.0
1012.977112 160.0
1013.53949 116.0
1014.553528 148.0
1014.889587 212.0
1015.124207 152.0
1015.225647 156.0
1015.327087 44.0
1015.517395 160.0
1015.612488 108.0
1015.847229 148.0
1016.005798 236.0
1016.39917 112.0
1016.44989 120.0
1016.970276 116.0
1017.027405 68.0
1017.071838 132.0
1017.376526 168.0
1017.452698 160.0
1017.757446 52.0
1018.335327 200.0
1018.811707 216.0
1018.919739 132.0
1019.129395 224.0
1019.300964 184.0
1019.440735 108.0
1019.853821 160.0
1020.343323 196.0
1020.451355 120.0
1020.540405 208.0
1020.623047 156.0
1020.756592 120.0
1021.099976 96.0
1021.163574 156.0
1021.545227 192.0
1021.615173 112.0
1021.707886 104.0
1021.80603 184.0
1021.977783 196.0
1022.193115 196.0
1022.212646 164.0
1022.28418 200.0
1022.525085 72.0
1022.843323 156.0
1022.974243 56.0
1023.085205 184.0
1023.25708 116.0
1023.301636 136.0
1023.422607 172.0
1023.782043 228.0
1023.839294 192.0
1024.053101 140.0
1024.142212 48.0
1024.390625 144.0
1024.594849 120.0
1024.862061 172.0
1025.034058 104.0
1025.416504 188.0
1025.531128 124.0
1025.601318 128.0
1025.786133 156.0
1025.918701 152.0
1026.130371 184.0
1026.245117 160.0
1026.391846 192.0
1026.563965 160.0
1026.812622 208.0
1026.901978 92.0
1026.997681 220.0
1027.137939 60.0
1027.718506 172.0
1027.769531 128.0
1027.929077 184.0
1028.289673 116.0
1028.711182 184.0
1029.109863 164.0
1029.588745 144.0
1029.639893 112.0
1029.748413 108.0
1030.016724 116.0
1030.201904 76.0
1030.316895 204.0
1030.37439 164.0
1030.553345 84.0
1030.693848 196.0
1030.80249 140.0
1030.904785 92.0
1030.981445 112.0
1031.47998 172.0
1031.742065 244.0
1032.29834 196.0
1032.803589 132.0
1033.212891 148.0
1033.321655 132.0
1033.552002 208.0
1033.5979 156.0
1033.654419 48.0
1034.115112 64.0
1034.307129 132.0
1034.768066 72.0
1034.864136 112.0
1034.922607 124.0
1035.286743 168.0
1035.338013 148.0
1035.453247 192.0
1035.574951 132.0
1035.885254 208.0
1036.113037 140.0
1036.234741 160.0
1036.305176 152.0
1036.356445 156.0
1037.003662 56.0
1037.353638 228.0
1037.45874 196.0
1037.503662 276.0
1037.644653 148.0
1037.849854 156.0
1038.196045 160.0
1038.266602 96.0
1038.600098 180.0
1038.657837 96.0
1039.543213 172.0
1039.883301 140.0
1040.178589 84.0
1040.647461 180.0
1040.799561 188.0
1041.334351 148.0
1042.008789 84.0
1042.098755 128.0
1042.445679 164.0
1042.657837 124.0
1042.857056 140.0
1042.917603 92.0
1042.98877 160.0
1043.120605 136.0
1043.223389 184.0
1043.358398 120.0
1043.564087 152.0
1043.9198 220.0
1043.988525 172.0
1044.329346 124.0
1044.419434 136.0
1044.598877 200.0
1044.696045 136.0
1045.108154 320.0
1045.333008 212.0
1045.513184 148.0
1045.648315 172.0
1045.706177 188.0
1046.07312 140.0
1046.177124 204.0
1046.246948 164.0
1046.446411 96.0
1046.86499 144.0
1047.103271 168.0
1047.424927 160.0
1047.625 444.0
1047.670044 144.0
1048.230591 144.0
1048.288574 68.0
1048.468994 84.0
1048.572144 144.0
1048.631592 88.0
1049.552002 60.0
1049.751831 180.0
1050.067871 104.0
1050.280762 112.0
1050.345215 144.0
1050.618652 152.0
1050.700073 156.0
1050.990356 196.0
1051.074219 132.0
1051.332397 32.0
1051.526245 196.0
1051.590454 108.0
1052.700928 176.0
1052.868774 60.0
1052.92041 152.0
1053.159424 216.0
1053.443604 148.0
1053.501709 184.0
1053.561035 180.0
1053.717285 156.0
1053.850586 144.0
1054.361084 92.0
1054.581909 144.0
1054.884644 188.0
1055.194946 44.0
1055.440674 100.0
1055.511719 80.0
1055.725098 112.0
1056.216675 104.0
1056.5271 168.0
1056.973633 140.0
1057.0448 152.0
1057.251831 40.0
1057.355347 176.0
1057.653076 136.0
1057.711304 140.0
1057.918457 136.0
1058.358765 120.0
1058.404053 144.0
1058.565918 140.0
1058.714844 160.0
1058.86377 152.0
1058.986816 104.0
1059.258911 184.0
1059.498657 184.0
1059.82251 52.0
1059.890747 200.0
1060.042847 148.0
1060.133545 148.0
1060.191895 208.0
1060.605713 164.0
1060.756104 168.0
1061.014404 184.0
1061.118774 68.0
1061.216064 176.0
1061.566162 148.0
1061.825562 60.0
1061.890381 180.0
1061.948853 52.0
1062.143433 140.0
1062.439575 144.0
1062.688354 180.0
1062.772705 168.0
1062.869995 144.0
1062.999756 340.0
1063.39563 180.0
1063.746094 56.0
1063.830444 124.0
1063.914917 164.0
1063.986328 36.0
1064.057739 116.0
1064.349854 152.0
1064.401855 180.0
1064.577148 176.0
1064.778442 152.0
1065.251099 160.0
1065.27063 124.0
1065.330566 180.0
1065.421509 128.0
1065.512451 160.0
1065.735962 192.0
1065.941284 192.0
1065.993286 424.0
1066.370239 160.0
1066.623657 148.0
1067.722412 100.0
1067.995605 200.0
1068.574585 56.0
1068.951904 180.0
1068.997437 124.0
1069.192749 108.0
1069.276489 140.0
1069.544189 132.0
1070.265259 168.0
1070.98645 120.0
1071.178589 160.0
1071.308594 124.0
1071.497681 148.0
1071.572876 208.0
1072.116699 64.0
1072.334351 152.0
1072.449097 44.0
1072.565063 156.0
1072.879272 140.0
1073.394409 184.0
1073.446533 104.0
1073.557373 128.0
1073.986206 160.0
1074.177002 164.0
1074.405273 160.0
1074.522705 112.0
1074.574951 148.0
1074.640137 232.0
1075.142822 184.0
1075.377563 148.0
1075.514648 104.0
1075.884644 136.0
1076.115967 252.0
1076.291504 192.0
1076.41687 312.0
1076.853149 200.0
1077.205811 108.0
1077.347412 200.0
1077.421387 152.0
1077.558594 164.0
1077.689209 56.0
1077.976685 136.0
1078.09436 144.0
1078.225098 60.0
1078.741455 116.0
1078.793701 168.0
1078.963623 156.0
1079.015991 100.0
1079.179443 172.0
1079.336304 112.0
1079.395142 168.0
1079.79541 184.0
1079.883057 180.0
1080.212646 240.0
1080.337036 128.0
1080.539795 172.0
1080.598633 152.0
1080.749146 132.0
1080.821167 72.0
1080.899658 124.0
1080.966309 164.0
1081.135254 120.0
1081.441528 188.0
1081.743896 172.0
1081.793213 196.0
1082.058105 192.0
1082.110474 156.0
1082.189087 112.0
1082.374146 216.0
1082.437866 204.0
1083.19104 172.0
1083.257446 152.0
1083.472778 196.0
1083.695435 100.0
1083.747925 148.0
1083.852783 136.0
1084.108276 68.0
1084.40979 204.0
1084.455566 264.0
1084.796509 136.0
1085.189819 132.0
1085.609497 104.0
1085.760254 108.0
1085.832397 192.0
1086.173462 128.0
1086.232544 168.0
1086.278442 64.0
1086.613037 160.0
1086.711426 72.0
1086.980469 80.0
1087.039429 128.0
1087.085449 192.0
1087.131348 168.0
1087.223267 220.0
1087.29541 104.0
1087.459473 104.0
1087.525146 176.0
1087.571045 120.0
1087.661499 200.0
1087.859863 220.0
1088.076538 100.0
1088.550781 212.0
1088.62146 40.0
1088.809326 224.0
1088.903809 124.0
1089.028687 168.0
1089.081177 132.0
1089.133789 208.0
1089.462158 176.0
1089.744019 176.0
1089.816895 176.0
1089.948364 200.0
1090.053467 136.0
1090.132324 192.0
1090.33606 152.0
1090.467529 204.0
1090.776367 160.0
1090.92334 164.0
1091.243164 84.0
1091.31543 160.0
1091.368042 168.0
1091.578491 192.0
1091.677612 152.0
1091.87439 136.0
1092.137451 184.0
1092.297363 172.0
1092.367676 164.0
1092.419189 120.0
1092.499268 180.0
1092.584839 120.0
1092.769165 164.0
1093.433594 124.0
1094.085205 180.0
1094.131348 72.0
1094.249878 64.0
1094.5 148.0
1094.578979 104.0
1094.644897 188.0
1094.81897 284.0
1094.921509 208.0
1095.119019 112.0
1095.250732 100.0
1095.339844 168.0
1095.428589 184.0
1095.534058 36.0
1095.626221 152.0
1095.672363 120.0
1095.869995 100.0
1095.928223 188.0
1095.954468 156.0
1096.028076 140.0
1096.100586 216.0
1096.476196 128.0
1096.528931 172.0
1096.687134 52.0
1096.838745 224.0
1096.990356 104.0
1097.141968 132.0
1097.207886 212.0
1097.441406 164.0
1097.581299 208.0
1097.860596 184.0
1098.025513 172.0
1098.500366 216.0
1098.566406 120.0
1098.664551 168.0
1098.999878 152.0
1099.23938 152.0
1099.58252 136.0
1099.668335 168.0
1099.714478 132.0
1099.843994 156.0
1100.262329 160.0
1100.552856 224.0
1101.120728 132.0
1101.213257 128.0
1101.464233 148.0
1101.536865 196.0
1101.900146 124.0
1102.098389 156.0
1102.23291 236.0
1102.336304 44.0
1102.395752 164.0
1102.4552 120.0
1102.514648 132.0
1102.792236 92.0
1103.241699 216.0
1103.334351 216.0
1103.641479 188.0
1103.876465 188.0
1104.114502 224.0
1104.207153 160.0
1104.418701 124.0
1104.577515 36.0
1104.908203 136.0
1105.027344 140.0
1105.295654 216.0
1105.397827 268.0
1105.463989 72.0
1105.510376 88.0
1105.927246 92.0
1106.072876 52.0
1106.169922 212.0
1106.37085 148.0
1106.43042 128.0
1106.741577 152.0
1106.787842 200.0
1106.893799 180.0
1107.032837 84.0
1107.370605 196.0
1107.748169 156.0
1107.867432 116.0
1107.913818 200.0
1108.137817 156.0
1108.211914 196.0
1108.436157 168.0
1108.462036 140.0
1108.530029 148.0
1108.581421 168.0
1108.734985 184.0
1108.848022 180.0
1109.19873 164.0
1109.345215 160.0
1109.683228 140.0
1109.838745 116.0
1109.892456 116.0
1110.127563 156.0
1110.41272 20.0
1110.518799 144.0
1110.737671 128.0
1110.835205 152.0
1111.143555 220.0
1111.485107 156.0
1111.622437 156.0
1111.739502 96.0
1111.827515 164.0
1112.045288 144.0
1112.141479 204.0
1112.263794 100.0
1112.316895 144.0
1112.569214 160.0
1112.814819 176.0
1113.100342 52.0
1113.171143 172.0
1113.246338 44.0
1113.304077 88.0
1113.445679 84.0
1113.581787 112.0
1113.684692 140.0
1114.216187 100.0
1114.30249 172.0
1114.395508 164.0
1114.535034 128.0
1114.641357 200.0
1114.754272 252.0
1114.885254 148.0
1114.94043 56.0
1115.153076 156.0
1115.317749 156.0
1115.40564 44.0
1115.664917 168.0
1115.837769 104.0
1115.950684 196.0
1116.097046 312.0
1116.236694 132.0
1116.382935 168.0
1116.662231 160.0
1116.822632 196.0
1117.260864 164.0
1117.757446 188.0
1118.075928 140.0
1118.305542 124.0
1118.571777 184.0
1118.824829 128.0
1118.94458 132.0
1119.384033 52.0
1119.437378 132.0
1120.209961 108.0
1120.496338 152.0
1121.231812 164.0
1121.307983 156.0
1121.434814 220.0
1121.687988 200.0
1121.737305 208.0
1121.795898 44.0
1121.915894 116.0
1122.0625 132.0
1122.122559 136.0
1122.422607 96.0
1122.655884 176.0
1122.855957 192.0
1123.009399 288.0
1123.109253 156.0
1123.229492 180.0
1123.318115 160.0
1123.523071 188.0
1123.749878 156.0
1123.883301 52.0
1123.976074 172.0
1124.262573 212.0
1125.017822 140.0
1125.483765 132.0
1125.504761 104.0
1125.605347 64.0
1125.997437 136.0
1126.106201 152.0
1126.446899 144.0
1126.95459 140.0
1127.017334 132.0
1127.529297 180.0
1127.589355 152.0
1127.709717 120.0
1127.833862 160.0
1127.930298 64.0
1127.977051 128.0
1128.073975 176.0
1128.605469 248.0
1128.659668 148.0
1129.0 80.0
1129.588623 100.0
1130.003296 88.0
1130.090332 104.0
1130.264282 108.0
1130.47168 88.0
1130.531982 148.0
1130.841187 224.0
1130.958618 144.0
1131.250732 204.0
1131.388672 196.0
1131.515869 460.0
1131.617798 172.0
1131.823853 88.0
1132.252441 168.0
1132.771729 212.0
1132.864868 124.0
1132.935547 180.0
1132.991577 160.0
1133.371094 256.0
1133.476318 324.0
1133.679321 144.0
1133.73291 108.0
1133.980835 148.0
1134.067871 148.0
1134.195312 100.0
1134.490356 60.0
1134.724976 132.0
1135.080322 316.0
1135.147339 104.0
1135.490723 156.0
1135.59668 156.0
1135.750977 208.0
1136.146851 152.0
1136.247314 100.0
1136.435181 164.0
1136.522461 224.0
1136.757324 208.0
1137.045776 176.0
1137.123901 160.0
1137.267334 160.0
1137.502197 32.0
1137.708618 128.0
1137.844604 172.0
1137.945312 32.0
1137.99231 168.0
1138.046021 112.0
1138.35437 180.0
1138.529419 56.0
1138.576538 124.0
1138.77124 188.0
1138.871948 160.0
1138.986206 184.0
1139.033203 136.0
1139.469849 256.0
1139.563843 64.0
1139.765503 112.0
1140.289673 144.0
1140.632446 104.0
1140.821045 144.0
1141.156738 136.0
1141.304688 148.0
1141.371948 116.0
1141.499634 160.0
1141.694702 36.0
1141.795532 124.0
1141.849365 124.0
1142.010742 140.0
1142.407593 104.0
1142.811279 212.0
1142.972778 104.0
1143.262085 140.0
1143.5448 124.0
1143.792603 112.0
1143.955322 312.0
1144.116943 180.0
1144.442627 300.0
1144.648804 196.0
1144.985107 152.0
1145.228027 152.0
1145.315552 116.0
1145.403076 100.0
1145.497437 136.0
1145.605225 44.0
1145.892212 200.0
1146.117188 200.0
1146.239502 120.0
1146.359741 188.0
1146.406982 180.0
1146.474365 164.0
1146.885498 156.0
1147.310059 204.0
1147.485352 164.0
1147.606812 204.0
1147.69165 216.0
1147.876465 152.0
1148.092285 124.0
1148.166382 120.0
1148.773438 184.0
1148.886963 564.0
1149.036499 208.0
1149.21582 176.0
1149.333374 184.0
1149.390747 328.0
1149.477539 132.0
1149.519531 220.0
1149.65625 220.0
1149.998657 200.0
1150.129761 116.0
1150.433472 136.0
1150.500977 132.0
1150.852051 188.0
1150.973633 116.0
1151.088379 224.0
1151.486816 240.0
1151.554321 140.0
1151.652344 196.0
1151.936646 180.0
1152.236572 124.0
1152.412231 204.0
1152.462158 172.0
1152.547363 212.0
1152.600586 120.0
1152.645264 132.0
1152.733398 112.0
1153.013672 96.0
1153.104736 144.0
1153.287354 148.0
1153.439453 92.0
1154.211304 148.0
1154.300293 160.0
1154.568604 172.0
1154.668335 128.0
1154.757935 128.0
1154.825562 120.0
1155.001343 52.0
1155.136719 252.0
1155.305786 188.0
1155.461426 188.0
1155.779419 136.0
1155.826782 144.0
1155.955322 204.0
1156.144775 28.0
1156.273315 84.0
1156.496704 172.0
1156.678223 180.0
1156.862183 224.0
1157.072144 44.0
1157.119507 164.0
1157.349731 112.0
1157.593384 136.0
1157.769531 84.0
1157.952393 228.0
1158.028687 168.0
1158.541626 120.0
1159.680054 88.0
1159.795288 152.0
1159.856201 160.0
1159.944336 152.0
1160.005371 288.0
1160.127319 148.0
1160.215454 168.0
1160.296875 164.0
1160.351074 176.0
1160.397339 88.0
1160.635864 124.0
1160.825684 136.0
1161.03418 204.0
1161.119873 180.0
1161.181519 156.0
1161.462646 144.0
1161.592285 128.0
1161.876953 156.0
1161.940796 20.0
1162.195923 108.0
1162.270508 116.0
1162.358765 188.0
1162.657349 204.0
1162.763672 132.0
1162.888062 152.0
1163.118774 208.0
1163.200317 160.0
1163.254272 176.0
1163.444092 220.0
1163.539673 116.0
1163.702637 208.0
1163.919922 276.0
1164.137207 220.0
1164.542358 180.0
1164.687256 156.0
1164.861084 216.0
1164.963623 136.0
1165.033691 40.0
1165.1698 168.0
1165.29187 136.0
1165.339478 116.0
1165.482178 148.0
1165.543213 152.0
1165.625488 168.0
1165.930664 164.0
1166.161621 200.0
1166.216064 184.0
1166.392822 76.0
1166.630737 52.0
1166.739502 240.0
1166.943359 64.0
1167.018188 120.0
1167.065796 204.0
1167.330933 60.0
1167.389771 200.0
1167.535034 92.0
1167.642578 172.0
1167.786621 76.0
1167.877319 168.0
1167.963501 132.0
1168.011108 148.0
1168.174316 172.0
1168.426025 140.0
1168.74585 172.0
1168.828369 156.0
1169.082153 236.0
1169.207153 156.0
1169.230469 124.0
1169.244751 184.0
1169.329712 164.0
1169.433105 100.0
1169.678101 164.0
1169.883667 160.0
1169.936768 96.0
1170.2323 180.0
1170.379395 144.0
1170.429688 188.0
1170.535889 156.0
1170.774292 192.0
1170.876465 116.0
1170.964111 208.0
1171.039673 148.0
1171.244263 120.0
1171.346436 92.0
1171.557617 104.0
1171.623047 132.0
1171.775513 156.0
1172.204834 212.0
1172.559204 192.0
1172.932373 132.0
1173.022217 216.0
1173.09082 116.0
1173.520264 148.0
1173.731689 312.0
1173.922607 120.0
1173.977173 160.0
1174.21582 184.0
1174.338623 160.0
1174.42041 148.0
1174.859375 212.0
1175.116699 196.0
1175.239014 156.0
1175.373047 244.0
1175.849609 152.0
1175.921509 192.0
1176.03064 120.0
1176.317383 132.0
1176.406128 196.0
1176.604004 132.0
1176.849854 136.0
1177.182373 164.0
1177.58728 128.0
1177.676147 108.0
1177.799072 156.0
1177.969849 208.0
1178.202026 160.0
1178.458496 164.0
1178.65271 164.0
1178.762329 56.0
1178.919556 188.0
1179.06189 96.0
1179.097412 232.0
1179.179199 84.0
1179.238403 172.0
1179.438965 148.0
1179.598389 236.0
1179.801147 72.0
1179.869507 84.0
1179.924316 40.0
1180.205933 164.0
1180.459229 136.0
1180.62854 160.0
1180.810303 172.0
1181.151611 192.0
1181.319336 152.0
1181.579224 196.0
1181.872925 136.0
1182.078735 140.0
1182.133545 176.0
1182.318237 148.0
1182.482544 92.0
1182.651733 116.0
1182.746338 296.0
1182.859009 184.0
1183.132812 168.0
1183.474243 100.0
1183.708496 176.0
1183.817505 44.0
1183.988647 128.0
1184.063965 140.0
1184.166748 112.0
1184.225708 184.0
1184.357666 172.0
1184.906494 100.0
1184.974976 180.0
1185.160034 188.0
1185.208008 148.0
1185.45459 128.0
1185.612061 136.0
1185.776733 124.0
1186.126221 236.0
1186.318237 164.0
1186.44165 196.0
1186.565063 164.0
1186.969482 168.0
1187.147827 128.0
1187.268433 164.0
1187.483887 144.0
1187.55249 112.0
1187.600464 120.0
1187.881714 208.0
1187.963623 72.0
1188.009766 208.0
1188.162964 140.0
1188.35498 160.0
1188.444214 148.0
1188.629517 196.0
1188.69812 152.0
1188.849121 180.0
1189.144531 164.0
1189.219604 144.0
1189.281494 128.0
1189.329468 184.0
1189.418701 216.0
1189.546875 140.0
1190.255493 180.0
1190.352417 40.0
1190.489746 148.0
1190.551514 84.0
1190.66687 80.0
1190.750732 72.0
1190.980347 140.0
1191.155884 140.0
1191.289062 156.0
1191.467773 208.0
1191.705566 180.0
1191.787964 144.0
1192.035278 172.0
1192.159058 204.0
1192.216309 168.0
1192.387329 168.0
1192.483887 240.0
1192.681274 252.0
1192.777588 124.0
1192.873779 120.0
1192.970093 224.0
1193.110596 132.0
1193.224365 156.0
1193.344849 168.0
1193.722656 164.0
1193.897583 412.0
1194.09082 112.0
1194.14209 172.0
1194.338379 212.0
1194.393433 104.0
1194.567017 180.0
1194.777466 148.0
1194.923096 148.0
1195.012573 72.0
1195.060669 120.0
1195.108887 180.0
1195.170776 140.0
1195.542358 84.0
1195.817627 160.0
1195.907104 156.0
1196.08606 136.0
1196.277222 152.0
1196.40271 92.0
1196.671265 164.0
1196.82959 136.0
1196.967285 164.0
1197.049927 196.0
1197.10498 128.0
1197.222046 96.0
1197.311646 108.0
1197.366699 116.0
1197.476929 44.0
1197.676636 168.0
1198.49646 144.0
1198.714111 224.0
1198.806519 164.0
1198.937378 92.0
1199.226929 120.0
1199.343994 136.0
1199.64856 184.0
1199.77832 160.0
1199.877441 172.0
1199.93689 200.0
1200.13208 156.0
1200.267822 116.0
1200.401611 248.0
1200.467773 96.0
1200.536743 160.0
1200.866943 172.0
1201.102295 136.0
1201.281616 160.0
1201.502441 192.0
1201.63208 172.0
1201.702515 140.0
1202.116455 196.0
1202.178589 156.0
1202.254517 140.0
1202.668579 196.0
1202.731689 132.0
1202.846191 184.0
1202.951538 172.0
1202.999878 116.0
1203.06897 120.0
1203.124146 92.0
1203.269165 136.0
1203.338135 232.0
1203.407227 164.0
1203.616089 208.0
1203.745483 152.0
1204.028687 196.0
1204.1875 64.0
1204.650269 164.0
1204.733154 176.0
1204.802246 136.0
1204.975464 124.0
1205.044067 88.0
1205.60376 192.0
1205.914795 168.0
1206.232666 60.0
1206.799561 164.0
1207.048462 196.0
1207.387329 108.0
1207.560181 72.0
1207.651001 156.0
1207.793579 220.0
1207.87146 144.0
1207.961426 136.0
1208.210449 112.0
1208.26001 296.0
1208.507935 76.0
1208.70166 140.0
1208.822998 184.0
1209.19397 412.0
1209.276001 152.0
1209.656738 320.0
1209.932007 120.0
1210.01416 176.0
1210.092896 196.0
1210.245117 192.0
1210.293579 60.0
1210.365479 160.0
1210.418213 100.0
1210.563721 104.0
1210.612183 124.0
1210.727051 88.0
1211.048462 92.0
1211.152344 148.0
1211.337402 196.0
1211.436401 140.0
1211.678833 132.0
1211.778931 188.0
1211.845093 116.0
1211.983643 164.0
1212.205444 232.0
1212.302368 140.0
1212.352417 180.0
1212.406372 164.0
1212.700806 188.0
1212.791138 188.0
1212.802734 232.0
1212.960815 120.0
1213.030151 68.0
1213.279175 176.0
1213.362915 148.0
1213.446045 172.0
1213.631714 216.0
1213.792725 108.0
1213.930054 96.0
1213.986938 152.0
1214.116211 196.0
1214.244019 184.0
1214.326782 52.0
1214.569458 152.0
1214.638794 156.0
1214.763672 108.0
1214.86084 232.0
1214.992676 104.0
1215.041138 64.0
1215.30481 132.0
1215.381104 192.0
1215.728149 132.0
1215.818359 152.0
1215.914062 196.0
1216.026489 48.0
1216.213867 80.0
1216.290283 44.0
1216.505493 188.0
1216.581787 136.0
1216.637329 132.0
1216.762329 216.0
1216.887207 132.0
1216.978638 176.0
1217.114868 160.0
1217.185791 128.0
1217.240234 172.0
1217.421875 184.0
1217.574707 172.0
1217.644165 48.0
1217.726562 172.0
1217.884644 168.0
1218.06897 100.0
1218.297119 92.0
1218.533203 164.0
1218.603394 160.0
1218.715576 168.0
1218.847656 116.0
1219.292847 152.0
1219.415771 212.0
1219.561768 188.0
1219.610352 200.0
1219.825806 128.0
1220.166504 144.0
1220.215332 136.0
1220.465454 140.0
1220.60791 132.0
1220.629395 68.0
1220.833984 132.0
1220.889648 348.0
1221.042603 176.0
1221.119141 92.0
1221.174683 184.0
1221.355591 200.0
1221.536377 144.0
1221.615723 160.0
1221.755981 180.0
1221.770752 100.0
1221.796021 148.0
1221.939941 124.0
1222.023438 144.0
1222.104004 192.0
1222.258545 196.0
1222.517456 216.0
1222.873047 116.0
1222.927979 192.0
1223.150757 68.0
1223.392944 116.0
1223.622925 184.0
1223.755005 148.0
1223.776245 128.0
1223.881714 136.0
1223.951416 212.0
1224.116333 208.0
1224.174194 104.0
1224.320435 168.0
1224.402954 160.0
1224.654663 216.0
1224.721436 176.0
1225.260742 88.0
1225.34436 52.0
1225.531738 152.0
1225.74231 136.0
1225.880859 200.0
1226.048096 68.0
1226.103882 276.0
1226.291992 104.0
1226.347778 76.0
1226.525513 132.0
1226.614136 168.0
1226.754639 296.0
1226.989014 176.0
1227.037842 180.0
1227.331421 164.0
1227.419556 204.0
1227.498047 124.0
1227.623535 64.0
1227.721191 128.0
1227.797852 56.0
1227.868408 68.0
1227.955811 136.0
1228.202393 156.0
1228.395752 196.0
1228.655884 152.0
1228.725586 128.0
1228.893066 220.0
1228.941895 136.0
1229.463379 140.0
1229.528076 200.0
1229.583862 56.0
1229.758301 208.0
1229.831909 156.0
1230.19104 156.0
1230.260864 132.0
1230.533203 168.0
1230.952148 148.0
1231.34314 144.0
1231.428101 128.0
1231.489868 76.0
1231.603882 180.0
1231.783203 148.0
1231.959229 392.0
1232.153442 120.0
1232.481812 288.0
1232.761353 120.0
1232.838135 112.0
1232.949951 248.0
1233.124756 160.0
1233.173584 196.0
1233.497803 176.0
1233.760742 196.0
1234.11731 124.0
1234.494873 160.0
1234.585815 148.0
1234.802612 132.0
1235.243286 176.0
1235.32019 152.0
1235.490723 204.0
1235.809937 204.0
1235.858887 164.0
1235.970825 176.0
1236.305054 184.0
1236.670654 92.0
1236.733643 176.0
1236.789673 164.0
1237.07666 184.0
1237.321655 200.0
1237.440674 156.0
1237.5177 92.0
1237.769775 132.0
1237.818726 108.0
1237.937744 120.0
1238.427979 60.0
1238.6521 204.0
1238.939331 216.0
1239.044434 208.0
1239.219604 204.0
1239.562866 124.0
1239.72229 168.0
1239.922852 208.0
1239.996216 96.0
1240.046509 144.0
1240.116577 96.0
1240.184082 212.0
1240.446045 124.0
1240.518066 188.0
1240.60022 192.0
1240.880615 100.0
1241.03186 148.0
1242.086792 208.0
1242.151733 200.0
1242.319702 208.0
1242.612915 196.0
1242.661987 132.0
1242.78125 168.0
1242.935669 180.0
1243.047974 208.0
1243.209351 156.0
1243.356689 136.0
1243.56543 184.0
1243.819946 160.0
1243.954346 192.0
1244.016479 112.0
1244.072632 124.0
1244.135864 156.0
1244.213013 96.0
1244.307251 148.0
1244.45874 176.0
1244.655396 156.0
1244.775757 136.0
1244.936401 164.0
1245.062622 200.0
1245.139893 68.0
1245.491089 84.0
1245.694702 172.0
1245.760132 180.0
1245.882568 176.0
1246.046021 300.0
1246.143677 152.0
1246.207642 116.0
1246.334106 52.0
1246.455811 264.0
1246.55896 160.0
1246.699463 160.0
1247.100098 120.0
1247.184448 176.0
1247.247681 180.0
1247.417603 220.0
1247.540039 204.0
1247.70459 144.0
1247.908447 136.0
1248.133423 168.0
1248.26001 144.0
1248.392822 132.0
1248.499146 52.0
1248.63269 120.0
1248.764404 184.0
1248.815552 220.0
1249.110962 192.0
1249.230103 124.0
1249.561279 172.0
1249.624512 152.0
1249.882935 72.0
1249.990356 152.0
1250.046997 116.0
1250.131104 204.0
1250.363403 140.0
1250.490112 164.0
1250.602661 212.0
1250.806763 164.0
1250.947632 112.0
1251.053223 168.0
1251.130615 296.0
1251.19397 172.0
1251.264404 140.0
1251.405151 128.0
1251.637573 160.0
1251.722046 184.0
1251.944092 164.0
1252.68689 164.0
1252.796509 156.0
1253.003906 180.0
1253.072876 180.0
1253.181885 92.0
1253.342041 108.0
1253.506958 172.0
1253.814209 96.0
1253.963623 144.0
1254.060913 76.0
1254.124268 148.0
1254.353149 160.0
1254.596558 52.0
1254.660034 120.0
1254.716431 228.0
1254.883057 232.0
1255.005493 272.0
1255.090088 64.0
1255.372192 192.0
1255.450806 208.0
1255.604858 144.0
1255.682495 212.0
1255.824219 168.0
1255.936401 188.0
1256.035034 280.0
1256.366577 384.0
1256.613525 120.0
1256.692017 224.0
1256.846436 184.0
1256.942993 188.0
1257.093384 108.0
1257.262695 164.0
1257.425049 128.0
1257.770874 164.0
1257.905029 76.0
1258.236816 140.0
1258.610962 132.0
1258.893433 140.0
1259.507812 184.0
1259.623657 100.0
1259.875122 132.0
1260.003906 148.0
1260.101196 180.0
1260.187622 224.0
1260.405029 112.0
1260.526367 188.0
1260.83606 304.0
1260.906738 164.0
1261.019897 116.0
1261.168335 120.0
1261.231934 204.0
1261.42981 120.0
1261.479248 152.0
1261.592407 136.0
1261.684448 156.0
1261.774292 152.0
1261.917603 216.0
1262.157959 196.0
1262.426636 168.0
1262.490356 156.0
1262.660034 128.0
1262.731201 132.0
1262.794434 176.0
1262.851074 152.0
1263.013672 92.0
1263.162231 36.0
1263.309814 180.0
1263.338379 156.0
1263.60791 192.0
1264.039551 172.0
1264.17395 196.0
1264.400391 136.0
1264.457031 180.0
1264.626831 232.0
1264.697632 256.0
1264.788452 136.0
1264.980835 168.0
1265.136841 180.0
1265.305908 172.0
1265.455078 216.0
1265.605835 112.0
1265.66748 172.0
1265.756836 72.0
1266.042847 144.0
1266.120728 120.0
1266.201538 180.0
1266.255249 288.0
1266.369385 108.0
1266.50354 144.0
1266.602295 168.0
1266.849121 212.0
1266.999023 132.0
1267.218628 120.0
1267.303711 176.0
1267.537476 128.0
1267.814941 124.0
1268.100098 228.0
1268.288696 68.0
1268.39502 212.0
1268.550903 148.0
1268.607666 92.0
1269.259888 140.0
1269.476807 116.0
1269.564819 184.0
1269.869751 132.0
1269.969116 120.0
1270.139282 116.0
1270.266968 144.0
1270.330811 200.0
1270.543579 192.0
1270.657104 144.0
1270.706787 48.0
1270.997681 136.0
1271.047363 148.0
1271.128296 156.0
1271.231812 160.0
1271.529907 144.0
1271.6521 252.0
1271.735718 172.0
1271.913208 176.0
1272.284058 60.0
1272.332031 136.0
1272.388794 96.0
1272.4646 188.0
1272.562622 152.0
1272.665649 260.0
1272.785522 156.0
1272.864502 172.0
1272.949707 176.0
1273.014404 176.0
1273.113037 80.0
1273.20166 192.0
1273.382935 140.0
1273.576782 160.0
1273.602539 48.0
1273.629272 156.0
1273.809082 120.0
1273.901367 96.0
1274.053101 280.0
1274.114502 192.0
1274.228149 156.0
1274.384521 64.0
1274.469727 168.0
1274.569214 148.0
1274.640259 144.0
1274.718506 148.0
1274.843506 140.0
1275.045288 40.0
1275.336792 160.0
1275.408569 200.0
1275.485962 32.0
1275.663696 136.0
1275.777466 124.0
1275.940918 156.0
1276.06897 124.0
1276.175537 64.0
1276.296387 212.0
1276.534912 180.0
1276.708862 124.0
1276.772827 112.0
1276.836426 140.0
1276.907959 252.0
1277.007568 168.0
1277.261353 192.0
1277.384521 188.0
1277.53064 180.0
1277.58374 116.0
1277.841309 456.0
1277.987915 180.0
1278.067505 128.0
1278.131592 132.0
1278.181396 140.0
1278.245361 164.0
1278.779175 200.0
1278.964111 220.0
1279.028198 84.0
1279.170532 136.0
1279.263184 208.0
1279.327148 160.0
1279.39563 148.0
1279.509033 160.0
1279.735962 328.0
1279.811279 228.0
1279.868286 136.0
1280.288452 144.0
1280.341431 216.0
1280.748779 144.0
1280.943604 120.0
1281.171631 152.0
1281.248047 168.0
1281.327759 152.0
1281.351318 140.0
1281.369507 160.0
1281.394897 104.0
1281.613281 112.0
1281.694824 132.0
1281.924805 156.0
1282.097534 168.0
1282.119019 276.0
1282.249023 164.0
1282.308472 172.0
1282.368652 216.0
1282.447021 188.0
1282.553955 120.0
1282.696533 144.0
1282.782104 188.0
1282.967407 132.0
1283.194702 140.0
1283.220825 116.0
1283.53064 136.0
1283.621826 180.0
1283.927368 364.0
1284.001343 152.0
1284.165283 208.0
1284.438843 216.0
1284.728882 116.0
1284.935669 208.0
1285.15686 292.0
1285.506592 176.0
1285.727783 112.0
1285.827637 176.0
1285.899048 124.0
1286.006104 112.0
1286.250732 160.0
1286.341553 172.0
1286.605713 176.0
1286.754517 136.0
1287.05542 164.0
1287.419678 84.0
1287.536377 140.0
1287.611694 192.0
1287.8125 176.0
1287.890991 104.0
1287.946777 168.0
1287.971436 136.0
1287.993408 204.0
1288.157471 120.0
1288.255249 144.0
1288.341064 160.0
1288.433228 184.0
1288.591064 208.0
1288.755371 136.0
1288.849854 148.0
1289.016724 228.0
1289.091187 120.0
1289.283936 152.0
1289.434082 156.0
1289.486572 224.0
1289.684448 164.0
1289.977417 140.0
1290.217285 156.0
1290.270508 128.0
1290.334106 152.0
1290.749634 208.0
1290.821045 80.0
1290.999878 228.0
1291.072876 132.0
1291.257324 148.0
1291.357422 188.0
1291.436157 68.0
1291.514771 152.0
1291.572021 172.0
1291.650635 76.0
1291.750854 160.0
1291.798828 112.0
1291.915405 132.0
1291.994019 136.0
1292.266113 108.0
1292.358887 132.0
1292.537842 180.0
1292.649292 184.0
1292.905396 184.0
1292.966919 208.0
1293.077881 60.0
1293.146118 128.0
1293.304565 176.0
1293.425171 188.0
1293.543213 128.0
1293.66394 180.0
1293.786987 232.0
1294.005981 156.0
1294.069458 148.0
1294.126709 44.0
1294.27002 212.0
1294.363037 172.0
1294.477661 108.0
1294.585083 120.0
1294.692505 64.0
1294.943115 156.0
1295.08313 196.0
1295.265381 128.0
1295.765381 160.0
1295.845703 152.0
1296.024414 340.0
1296.089233 176.0
1296.213989 264.0
1296.327026 128.0
1296.504883 164.0
1296.77002 220.0
1296.841675 164.0
1297.128418 124.0
1297.22876 140.0
1297.339111 176.0
1297.390625 160.0
1297.701904 168.0
1297.795166 136.0
1298.003052 128.0
1298.218262 152.0
1298.390259 180.0
1298.462036 160.0
1298.526611 128.0
1298.64624 152.0
1298.686523 148.0
1298.785034 132.0
1298.849365 196.0
1299.243896 148.0
1299.329956 124.0
1299.566772 140.0
1299.710205 188.0
1299.77478 172.0
1299.821899 164.0
1299.889648 44.0
1300.040283 68.0
1300.137329 80.0
1300.411499 184.0
1300.549805 76.0
1300.707764 80.0
1300.806519 188.0
1300.883789 188.0
1300.980469 172.0
1301.059448 100.0
1301.124146 212.0
1301.195923 224.0
1301.268555 156.0
1301.34668 136.0
1301.406494 156.0
1301.525024 168.0
1301.827759 148.0
1302.057495 156.0
1302.144409 172.0
1302.316162 132.0
1302.599731 132.0
1303.192505 164.0
1303.32666 228.0
1303.553589 204.0
1303.616455 192.0
1303.760132 140.0
1303.860718 120.0
1304.004517 156.0
1304.090698 112.0
1304.256104 156.0
1304.360352 196.0
1304.422241 200.0
1304.486084 172.0
1304.579468 176.0
1304.938965 120.0
1305.10437 144.0
1305.21936 184.0
1305.29126 272.0
1305.765869 180.0
1305.845947 140.0
1306.055054 120.0
1306.154297 212.0
1306.283813 184.0
1306.456421 188.0
1306.554565 160.0
1306.693848 188.0
1306.765747 140.0
1306.98877 108.0
1307.39917 160.0
1307.600464 156.0
1307.763672 148.0
1307.995483 176.0
1308.08728 204.0
1308.464233 164.0
1308.680298 128.0
1308.773804 168.0
1308.891113 176.0
1308.958374 204.0
1309.076294 240.0
1309.214844 116.0
1309.501099 124.0
1309.637939 184.0
1309.93335 192.0
1310.052002 152.0
1310.149414 176.0
1310.199829 104.0
1310.328857 204.0
1310.452026 184.0
1310.581665 128.0
1310.668213 224.0
1310.841064 132.0
1310.92041 116.0
1311.02124 176.0
1311.126465 132.0
1311.259033 128.0
1311.395996 160.0
1311.563721 120.0
1311.688721 228.0
1311.755127 68.0
1311.929443 128.0
1311.993286 200.0
1312.203369 232.0
1312.281372 140.0
1312.52063 124.0
1312.593994 132.0
1312.824341 192.0
1312.904785 128.0
1312.996582 180.0
1313.263428 140.0
1313.342285 216.0
1313.450928 152.0
1313.559082 196.0
1313.87915 224.0
1313.963013 176.0
1314.107422 236.0
1314.186768 204.0
1314.345459 132.0
1314.540283 200.0
1314.598022 180.0
1314.689453 348.0
1314.771484 204.0
1314.908325 184.0
1315.016235 160.0
1315.062256 192.0
1315.187744 232.0
1315.370239 104.0
1315.529053 120.0
1315.632202 164.0
1315.702271 124.0
1315.781738 52.0
1315.976685 212.0
1316.243774 40.0
1316.421143 192.0
1316.561523 200.0
1316.803223 216.0
1316.857666 128.0
1316.937134 180.0
1317.009277 168.0
1317.081543 192.0
1317.270874 92.0
1317.370483 204.0
1317.611328 136.0
1317.695557 140.0
1317.860718 144.0
1317.908569 152.0
1317.950806 124.0
1318.055176 172.0
1318.30249 172.0
1318.367432 188.0
1318.46875 120.0
1318.591553 204.0
1318.671021 148.0
1318.745605 364.0
1318.880615 156.0
1319.010742 92.0
1319.091919 164.0
1319.147217 132.0
1319.217896 208.0
1319.285522 176.0
1319.345825 220.0
1319.581909 100.0
1319.793457 148.0
1319.965088 116.0
1320.050415 224.0
1320.151611 160.0
1320.234863 144.0
1320.481934 180.0
1320.619019 132.0
1320.789551 152.0
1320.889893 184.0
1321.042725 64.0
1321.187378 84.0
1321.270508 136.0
1321.321533 348.0
1321.488525 172.0
1321.650391 128.0
1321.773438 136.0
1321.96875 136.0
1322.04834 188.0
1322.345093 184.0
1322.418335 132.0
1322.547729 124.0
1322.786621 164.0
1322.925903 228.0
1323.293335 144.0
1323.351318 132.0
1323.446655 164.0
1323.539307 204.0
1323.655396 108.0
1323.721191 140.0
1323.973999 176.0
1324.10437 192.0
1324.459229 196.0
1324.553467 120.0
1324.719971 92.0
1324.79248 180.0
1324.84314 132.0
1324.949707 148.0
1325.049683 168.0
1325.161987 152.0
1325.245239 180.0
1325.476807 164.0
1325.653564 136.0
1325.879272 140.0
1326.085815 124.0
1326.18689 208.0
1326.263428 192.0
1326.350342 120.0
1326.605713 176.0
1326.843384 112.0
1327.075317 172.0
1327.473877 136.0
1327.539429 132.0
1327.698975 192.0
1327.771484 84.0
1327.880249 172.0
1328.046997 140.0
1328.138916 184.0
1328.337158 60.0
1328.484741 128.0
1328.591064 112.0
1328.73938 204.0
1328.868042 212.0
1329.139526 148.0
1329.31665 184.0
1329.672241 152.0
1329.894653 140.0
1329.923096 92.0
1330.027832 152.0
1330.11499 280.0
1330.216553 176.0
1330.321533 152.0
1330.398071 392.0
1330.459351 164.0
1330.643799 220.0
1330.797363 88.0
1330.949829 208.0
1331.058716 128.0
1331.145874 372.0
1331.508911 128.0
1331.59314 88.0
1331.666016 136.0
1331.9375 76.0
1332.046387 116.0
1332.162598 152.0
1332.395142 160.0
1332.547729 128.0
1332.649414 160.0
1332.87854 144.0
1333.070801 28.0
1333.172607 160.0
1333.230713 104.0
1333.293213 148.0
1333.470581 52.0
1333.572266 208.0
1333.637695 76.0
1333.754028 184.0
1333.812134 80.0
1333.863037 56.0
1334.030151 160.0
1334.124756 164.0
1334.197388 168.0
1334.458252 132.0
1334.560913 180.0
1334.618896 196.0
1334.854004 132.0
1334.953613 104.0
1335.05542 112.0
1335.122681 188.0
1335.208862 160.0
1335.564453 120.0
1335.659058 56.0
1335.797241 156.0
1336.015503 152.0
1336.080933 144.0
1336.189941 156.0
1336.371948 200.0
1336.500244 120.0
1336.692139 176.0
1337.019531 116.0
1337.106934 200.0
1337.20874 196.0
1337.293335 252.0
1337.368896 148.0
1337.463501 188.0
1337.558105 124.0
1337.623657 148.0
1337.856567 212.0
1337.907593 204.0
1338.057983 176.0
1338.191528 188.0
1338.293457 96.0
1338.355835 212.0
1338.609253 220.0
1338.701172 244.0
1338.875977 80.0
1338.95166 272.0
1339.225342 172.0
1339.458618 100.0
1339.742676 108.0
1340.070557 172.0
1340.143433 120.0
1340.194336 176.0
1340.646118 160.0
1340.835693 136.0
1340.901245 200.0
1341.068848 188.0
1341.12207 220.0
1341.222778 192.0
1341.367676 184.0
1341.462524 80.0
1341.520752 136.0
1341.630127 168.0
1341.744019 188.0
1341.870728 100.0
1341.950928 152.0
1342.019653 168.0
1342.071899 108.0
1342.263916 184.0
1342.359253 132.0
1342.475098 208.0
1342.541504 124.0
1342.680664 152.0
1342.891479 384.0
1343.190674 168.0
1343.376099 132.0
1343.71582 160.0
1343.781494 116.0
1343.898315 124.0
1344.036865 136.0
1344.124512 196.0
1344.340088 176.0
1344.482056 80.0
1344.588257 180.0
1344.635254 252.0
1344.78125 356.0
1344.832275 108.0
1344.912598 196.0
1345.067139 180.0
1345.131592 80.0
1345.209473 184.0
1345.451416 196.0
1345.471069 160.0
1345.640625 276.0
1345.748413 132.0
1345.795898 228.0
1345.905396 128.0
1345.993042 96.0
1346.19519 156.0
1346.29248 148.0
1346.386353 136.0
1346.458862 168.0
1346.540771 180.0
1346.922974 324.0
1347.030151 160.0
1347.088501 192.0
1347.168945 172.0
1347.476685 164.0
1347.643188 144.0
1347.799927 176.0
1347.899536 152.0
1348.089478 116.0
1348.218018 200.0
1348.279541 68.0
1348.338013 156.0
1348.571777 200.0
1348.751099 168.0
1348.861084 232.0
1349.07251 244.0
1349.316162 220.0
1349.463623 156.0
1349.587891 168.0
1349.763428 112.0
1349.902344 112.0
1349.960815 196.0
1350.013062 316.0
1350.136353 348.0
1350.361572 188.0
1350.465454 184.0
1350.52771 140.0
1350.725098 160.0
1350.845825 212.0
1350.912109 120.0
1351.065308 144.0
1351.262817 96.0
1351.387207 208.0
1351.498291 172.0
1351.7677 132.0
1351.892212 200.0
1352.009155 148.0
1352.146606 108.0
1352.158691 84.0
1352.187866 144.0
1352.273438 144.0
1352.4021 152.0
1352.521484 112.0
1352.616577 156.0
1352.68811 152.0
1352.814209 192.0
1352.926636 128.0
1353.01001 228.0
1353.030029 168.0
1353.356079 132.0
1353.407227 172.0
1353.473145 80.0
1353.555054 308.0
1353.656372 164.0
1353.713989 396.0
1353.905151 188.0
1354.040161 120.0
1354.242065 156.0
1354.469116 168.0
1354.52771 208.0
1354.586304 164.0
1355.003906 192.0
1355.428833 144.0
1355.677979 144.0
1355.751343 68.0
1355.900513 144.0
1356.059082 124.0
1356.24231 120.0
1356.402588 204.0
1356.468384 196.0
1356.723389 220.0
1356.931396 128.0
1357.018311 216.0
1357.209961 184.0
1357.27832 160.0
1357.437256 100.0
1357.495972 188.0
1357.620605 176.0
1357.702393 192.0
1357.796631 148.0
1357.862671 96.0
1358.258057 216.0
1358.376831 164.0
1358.445557 164.0
1358.522827 236.0
1358.801758 160.0
1358.984985 148.0
1359.111572 168.0
1359.315186 116.0
1359.490479 168.0
1359.638062 76.0
1359.71875 116.0
1359.792114 128.0
1359.879883 180.0
1359.900391 172.0
1359.997681 136.0
1360.432739 204.0
1360.562866 96.0
1361.033691 216.0
1361.12085 180.0
1361.179565 76.0
1361.311768 164.0
1361.404663 224.0
1361.869263 192.0
1362.031494 96.0
1362.117188 192.0
1362.207764 40.0
1362.45752 164.0
1362.667725 304.0
1362.832275 132.0
1362.935059 184.0
1363.082031 168.0
1363.339233 136.0
1363.405396 172.0
1363.515625 208.0
1363.637939 184.0
1363.703857 120.0
1363.772827 304.0
1364.064819 196.0
1364.206543 104.0
1364.258057 192.0
1364.406982 228.0
1364.744263 148.0
1364.936279 156.0
1365.037354 56.0
1365.185913 136.0
1365.257935 180.0
1365.368286 184.0
1365.610962 80.0
1365.713867 120.0
1366.230469 260.0
1366.342529 180.0
1366.444824 180.0
1366.508423 124.0
1366.59668 188.0
1366.757812 328.0
1366.99353 140.0
1367.317749 196.0
1367.398804 156.0
1367.487061 128.0
1367.567993 144.0
1367.626953 172.0
1367.840332 36.0
1367.999756 196.0
1368.06897 148.0
1368.127441 172.0
1368.333618 56.0
1368.591309 136.0
1368.657593 160.0
1368.731323 228.0
1368.897461 172.0
1368.981323 184.0
1369.055176 208.0
1369.172974 152.0
1369.246704 88.0
1369.364502 168.0
1369.513794 188.0
1369.602417 184.0
1369.710693 120.0
1369.776978 108.0
1369.931641 172.0
1370.042114 160.0
1370.384277 144.0
1370.454712 212.0
1370.602051 72.0
1370.771484 308.0
1370.918945 180.0
1371.103149 164.0
1371.206299 228.0
1371.324219 172.0
1371.397949 388.0
1371.48645 152.0
1371.584351 168.0
1371.72229 140.0
1371.796021 228.0
1371.891846 192.0
1372.009766 160.0
1372.09082 84.0
1372.186646 128.0
1372.245728 112.0
1372.326782 192.0
1372.496338 204.0
1372.61438 128.0
1372.842896 196.0
1373.027954 168.0
1373.184204 132.0
1373.337036 160.0
1373.432983 72.0
1373.484619 156.0
1373.595215 132.0
1373.698486 136.0
1373.948608 176.0
1374.059937 64.0
1374.115967 264.0
1374.369873 140.0
1374.532104 124.0
1374.589233 192.0
1374.652466 144.0
1374.701904 176.0
1374.86731 152.0
1375.019165 168.0
1375.093872 120.0
1375.150757 184.0
1375.233276 64.0
1375.290161 220.0
1375.513672 144.0
1375.653931 112.0
1375.713013 160.0
1375.838501 152.0
1375.963989 212.0
1376.122681 164.0
1376.320923 124.0
1376.414429 140.0
1376.532593 164.0
1376.70813 204.0
1376.794678 236.0
1377.038574 184.0
1377.167603 60.0
1377.337524 116.0
1377.433594 64.0
1377.62561 160.0
1377.73645 136.0
1377.907959 220.0
1378.327515 144.0
1378.401367 52.0
1378.516846 120.0
1378.677979 176.0
1379.0 136.0
1379.265625 128.0
1379.376953 48.0
1379.474243 172.0
1379.539551 132.0
1379.643066 160.0
1379.805664 156.0
1379.886963 112.0
1379.997925 128.0
1380.109253 116.0
1380.127441 156.0
1380.155884 160.0
1380.234497 160.0
1380.315796 152.0
1380.404541 108.0
1380.478149 160.0
1380.55603 180.0
1380.72998 176.0
1380.811279 160.0
1380.8927 84.0
1380.966553 120.0
1381.067993 160.0
1381.21814 144.0
1381.321655 136.0
1381.373413 108.0
1381.521362 144.0
1381.73999 180.0
1381.752197 140.0
1381.891235 120.0
1381.957886 216.0
1382.142822 76.0
1382.230469 128.0
1382.505615 144.0
1382.587769 164.0
1382.949463 136.0
1383.008667 156.0
1383.125977 180.0
1383.141479 152.0
1383.25293 136.0
1383.364014 204.0
1383.415771 260.0
1383.495972 148.0
1383.60083 164.0
1383.726685 160.0
1384.045044 180.0
1384.252441 140.0
1384.37085 76.0
1384.50415 196.0
1384.704102 164.0
1384.981323 176.0
1385.059692 76.0
1385.195435 184.0
1385.311523 88.0
1385.378174 116.0
1385.830078 156.0
1385.904175 144.0
1386.008423 120.0
1386.175415 260.0
1386.24353 324.0
1386.356201 100.0
1386.541504 140.0
1386.645264 184.0
1386.911987 72.0
1387.000977 136.0
1387.104736 144.0
1387.184204 176.0
1387.253052 200.0
1387.394165 272.0
1387.482788 144.0
1387.564331 140.0
1387.816406 124.0
1387.882324 272.0
1387.949951 228.0
1388.127808 152.0
1388.193237 152.0
1388.439331 144.0
1388.613525 108.0
1388.700073 156.0
1388.795288 56.0
1389.134155 112.0
1389.231567 180.0
1389.455444 128.0
1389.55188 80.0
1389.880859 172.0
1390.071289 144.0
1390.130737 156.0
1390.501709 208.0
1390.650146 176.0
1390.702148 156.0
1390.768921 68.0
1390.861084 152.0
1390.947021 228.0
1391.22168 72.0
1391.325684 104.0
1391.414917 148.0
1391.859131 164.0
1391.971558 284.0
1392.11853 188.0
1392.209229 176.0
1392.440674 140.0
1392.473999 128.0
1392.505493 164.0
1392.581543 116.0
1392.758789 152.0
1392.877075 176.0
1392.944458 44.0
1393.069824 208.0
1393.204468 108.0
1393.330811 56.0
1393.382812 192.0
1393.457031 148.0
1393.537842 132.0
1393.703491 184.0
1393.83606 100.0
1394.070435 124.0
1394.23877 192.0
1394.348755 148.0
1394.459229 156.0
1394.559326 212.0
1394.735229 144.0
1394.787231 188.0
1394.995361 116.0
1395.112549 100.0
1395.359619 120.0
1395.538086 192.0
1395.678711 200.0
1395.813232 152.0
1396.043701 140.0
1396.244507 176.0
1396.345825 232.0
1396.698242 152.0
1396.802368 160.0
1396.958496 208.0
1397.235718 168.0
1397.315674 112.0
1397.382568 112.0
1397.519409 112.0
1397.687622 124.0
1397.821533 152.0
1397.891357 136.0
1397.917725 156.0
1397.94397 280.0
1398.137207 196.0
1398.33374 136.0
1398.498779 144.0
1398.646973 192.0
1398.7146 104.0
1398.992676 160.0
1399.213379 164.0
1399.265503 176.0
1399.33252 164.0
1399.50647 176.0
1399.574219 216.0
1399.868652 184.0
1400.179932 144.0
1400.456909 232.0
1400.604248 196.0
1400.699341 160.0
1400.98584 120.0
1401.099731 176.0
1401.149658 176.0
1401.209351 80.0
1401.328491 128.0
1401.447754 104.0
1401.604126 176.0
1401.932007 204.0
1402.066162 164.0
1402.364258 172.0
1402.548828 152.0
1402.573486 116.0
1402.604126 160.0
1402.766846 120.0
1403.035156 224.0
1403.199219 156.0
1403.299316 184.0
1403.460083 196.0
1403.601807 132.0
1403.735962 156.0
1403.811035 152.0
1403.922485 156.0
1404.519043 168.0
1404.571289 160.0
1404.638428 172.0
1404.726196 152.0
1404.825195 196.0
1405.354614 196.0
1405.482788 156.0
1405.585938 184.0
1405.779907 108.0
1405.906738 160.0
1405.964233 176.0
1406.177246 176.0
1406.290649 200.0
1406.362305 180.0
1406.496338 180.0
1406.712891 172.0
1406.765747 140.0
1406.884521 172.0
1406.969849 120.0
1406.990845 160.0
1407.145874 128.0
1407.215942 144.0
1407.414551 176.0
1407.488647 232.0
1407.802856 168.0
1407.928833 208.0
1408.03064 128.0
1408.124023 176.0
1408.19873 288.0
1408.348022 92.0
1408.422729 184.0
1408.572144 112.0
1408.858765 196.0
1408.953125 112.0
1409.125 336.0
1409.580688 96.0
1409.647949 148.0
1409.737671 148.0
1409.9021 164.0
1409.979126 204.0
1410.193481 152.0
1410.455078 144.0
1410.724243 180.0
1410.972656 200.0
1411.202637 120.0
1411.39856 168.0
1411.468262 152.0
1411.546631 128.0
1411.681274 72.0
1411.733521 112.0
1411.825806 176.0
1411.942993 32.0
1412.137451 164.0
1412.227173 216.0
1412.429077 44.0
1412.481445 180.0
1412.598755 112.0
1412.655884 152.0
1412.818115 196.0
1412.930298 248.0
1413.057495 124.0
1413.223389 124.0
1413.40332 176.0
1413.505005 152.0
1413.581177 76.0
1413.656006 208.0
1413.740845 144.0
1413.76123 160.0
1414.015259 120.0
1414.119995 160.0
1414.344604 164.0
1414.447388 196.0
1414.658936 188.0
1414.895508 204.0
1414.982666 132.0
1415.060059 200.0
1415.310303 132.0
1415.430054 100.0
1415.547852 276.0
1415.729614 176.0
1415.849487 180.0
1415.996094 76.0
1416.178955 152.0
1416.332886 176.0
1416.478638 184.0
1416.620972 132.0
1416.740723 132.0
1416.87561 96.0
1416.999756 168.0
1417.111816 168.0
1417.269287 164.0
1417.325195 60.0
1417.430054 200.0
1417.512451 88.0
1417.681885 100.0
1417.776367 152.0
1417.879639 136.0
1417.995605 180.0
1418.244751 164.0
1418.299438 192.0
1418.426758 168.0
1418.696655 136.0
1418.91333 160.0
1419.057129 184.0
1419.198975 140.0
1419.333984 228.0
1419.543945 240.0
1419.596436 168.0
1419.761353 72.0
1419.843872 76.0
1420.13916 212.0
1420.338867 140.0
1420.579468 148.0
1420.770142 180.0
1420.80249 60.0
1420.832153 168.0
1420.885254 124.0
1421.06897 160.0
1421.25415 184.0
1421.366699 148.0
1421.585815 172.0
1421.644287 132.0
1421.71936 120.0
1421.824341 132.0
1421.874878 188.0
1421.967041 136.0
1422.342285 156.0
1422.612549 192.0
1422.717529 140.0
1422.785156 188.0
1422.867676 324.0
1423.032837 156.0
1423.183105 292.0
1423.295654 192.0
1423.404541 232.0
1423.482544 172.0
1423.588501 204.0
1423.798828 104.0
1423.85791 228.0
1423.948975 136.0
1424.016602 200.0
1424.091675 148.0
1424.166748 140.0
1424.256226 132.0
1424.396362 228.0
1424.602417 116.0
1424.737671 124.0
1424.790283 340.0
1424.887939 224.0
1424.968506 212.0
1425.045654 128.0
1425.150879 196.0
1425.248535 184.0
1425.340088 204.0
1425.496582 156.0
1425.592407 216.0
1425.756836 252.0
1425.866943 116.0
1425.939209 156.0
1426.045166 144.0
1426.157837 156.0
1426.232666 180.0
1426.317261 116.0
1426.423218 216.0
1426.526245 108.0
1426.736694 120.0
1426.999756 116.0
1427.101807 204.0
1427.443481 156.0
1427.647339 200.0
1427.864502 164.0
1428.009277 156.0
1428.18042 136.0
1428.360962 128.0
1428.616699 172.0
1428.722046 112.0
1428.789673 132.0
1428.910156 164.0
1429.092651 104.0
1429.342285 104.0
1429.406738 140.0
1429.496948 140.0
1429.572266 136.0
1429.692627 140.0
1429.790405 156.0
1430.226929 72.0
1430.575928 136.0
1430.776489 164.0
1430.900513 164.0
1431.056519 240.0
1431.171387 212.0
1431.386353 156.0
1431.474365 364.0
1431.552002 200.0
1431.604736 96.0
1431.680054 156.0
1431.82312 112.0
1431.921021 172.0
1432.071655 92.0
1432.167114 292.0
1432.392212 236.0
1432.496582 104.0
1432.598877 152.0
1433.013306 288.0
1433.103638 40.0
1433.163208 200.0
1433.354248 200.0
1433.505127 272.0
1433.665527 272.0
1433.735352 236.0
1434.079468 180.0
1434.324951 164.0
1434.450439 208.0
1434.58374 232.0
1434.752075 140.0
1434.807007 120.0
1434.958008 96.0
1435.466675 184.0
1435.522339 96.0
1435.61377 184.0
1435.729614 188.0
1435.8927 112.0
1436.067993 140.0
1436.235718 76.0
1436.340332 208.0
1436.480225 204.0
1436.651855 168.0
1436.808472 140.0
1437.25061 208.0
1437.447998 192.0
1437.575073 120.0
1437.635376 128.0
1437.695801 108.0
1437.871826 192.0
1438.065552 212.0
1438.128662 232.0
1438.319824 192.0
1438.49585 160.0
1438.631714 180.0
1438.68457 76.0
1438.767578 156.0
1438.918579 148.0
1439.054443 112.0
1439.205444 132.0
1439.470337 52.0
1439.530151 200.0
1439.696289 232.0
1439.749146 52.0
1439.817139 136.0
1440.140625 152.0
1440.375977 96.0
1440.5271 108.0
1440.629028 92.0
1440.693237 172.0
1440.753662 164.0
1440.912354 220.0
1440.980347 124.0
1441.082153 160.0
1441.146606 112.0
1441.463867 180.0
1441.70166 156.0
1441.834839 180.0
1442.000488 116.0
1442.212036 60.0
1442.408569 160.0
1442.521973 112.0
1442.593262 168.0
1442.680786 164.0
1442.804443 120.0
1442.877319 168.0
1442.957397 236.0
1443.047485 176.0
1443.164551 128.0
1443.339233 128.0
1443.529175 164.0
1443.593018 152.0
1443.716553 144.0
1443.808838 160.0
1443.913208 188.0
1443.988037 160.0
1444.185425 156.0
1444.25354 200.0
1444.374512 80.0
1444.832764 336.0
1444.922485 160.0
1445.10083 124.0
1445.221802 216.0
1445.572998 116.0
1445.657471 188.0
1445.774292 160.0
1445.842407 332.0
1445.8927 108.0
1445.940674 176.0
1446.050415 192.0
1446.228271 328.0
1446.303711 180.0
1446.508423 200.0
1446.584106 136.0
1446.712769 204.0
1446.781616 236.0
1446.924683 132.0
1447.08374 124.0
1447.341187 164.0
1447.432007 196.0
1447.545654 160.0
1447.598633 132.0
1447.686035 408.0
1447.78418 204.0
1447.909058 192.0
1448.002441 156.0
1448.15979 192.0
1448.213501 212.0
1448.31665 176.0
1448.674072 60.0
1448.780151 156.0
1448.921265 112.0
1449.090698 132.0
1449.318237 196.0
1449.427856 132.0
1449.524902 148.0
1449.605957 164.0
1449.666626 356.0
1449.732544 172.0
1449.893921 156.0
1449.960571 152.0
1450.06543 244.0
1450.165894 140.0
1450.234985 172.0
1450.311401 148.0
1450.421021 176.0
1450.564209 168.0
1450.660645 216.0
1450.720093 104.0
1450.826294 236.0
1451.078613 140.0
1451.291016 216.0
1451.37207 176.0
1451.554077 76.0
1451.65271 172.0
1451.940796 140.0
1451.99292 120.0
1452.213867 148.0
1452.290771 208.0
1452.372559 172.0
1452.509644 44.0
1452.722778 132.0
1452.952515 204.0
1453.182983 176.0
1453.275879 84.0
1453.328979 136.0
1453.477661 160.0
1453.807007 136.0
1453.978882 212.0
1454.072632 96.0
1454.230713 176.0
1454.570068 228.0
1454.816528 144.0
1454.955933 120.0
1455.135376 164.0
1455.302368 164.0
1455.401123 144.0
1455.533203 200.0
1455.651611 128.0
1455.928223 168.0
1456.008545 136.0
1456.134521 196.0
1456.221191 80.0
1456.340698 136.0
1456.433838 216.0
1456.547852 116.0
1456.686646 176.0
1456.764893 312.0
1456.794556 180.0
1456.822632 220.0
1457.026367 232.0
1457.128418 120.0
1457.272339 304.0
1457.332153 156.0
1457.451782 172.0
1457.527832 88.0
1457.596191 160.0
1457.761719 148.0
1457.88501 116.0
1457.93811 164.0
1458.026123 124.0
1458.074951 160.0
1458.211792 208.0
1458.333374 212.0
1458.401733 48.0
1458.458008 120.0
1458.591797 76.0
1458.751465 144.0
1458.804565 112.0
1459.009888 204.0
1459.283569 204.0
1459.410034 184.0
1459.505249 176.0
1459.640869 48.0
1459.716919 220.0
1459.923462 148.0
1460.043945 192.0
1460.279663 128.0
1460.333008 192.0
1460.469849 104.0
1460.629639 200.0
1460.781738 188.0
1460.903442 168.0
1461.067261 156.0
1461.088623 236.0
1461.225586 348.0
1461.329468 244.0
1461.504395 148.0
1461.564209 132.0
1461.698364 112.0
1461.8302 172.0
1461.845825 140.0
1461.992554 144.0
1462.427734 364.0
1462.52417 128.0
1462.623169 132.0
1462.852051 160.0
1462.989746 240.0
1463.112549 300.0
1463.367065 184.0
1463.665405 172.0
1463.694214 156.0
1463.947876 240.0
1464.135132 88.0
1464.214355 72.0
1464.313354 44.0
1464.540894 292.0
1464.81604 164.0
1464.994507 168.0
1465.075073 148.0
1465.212158 56.0
1465.29541 184.0
1465.325195 168.0
1465.570312 180.0
1465.654053 132.0
1465.753174 180.0
1465.897949 60.0
1465.958862 176.0
1466.070312 156.0
1466.172241 156.0
1466.250488 104.0
1466.399414 168.0
1466.597168 112.0
1466.766724 128.0
1466.873535 208.0
1466.949707 240.0
1467.147949 52.0
1467.376587 144.0
1467.428955 200.0
1467.506226 104.0
1467.593262 116.0
1467.714233 180.0
1467.803589 288.0
1467.895142 120.0
1467.961548 144.0
1467.986328 104.0
1468.020142 140.0
1468.108643 212.0
1468.238281 232.0
1468.290771 184.0
1468.558594 200.0
1468.680542 116.0
1468.870605 176.0
1468.978027 152.0
1469.145874 116.0
1469.237427 148.0
1469.290894 48.0
1469.572998 160.0
1469.67395 184.0
1469.847778 188.0
1469.901245 172.0
1470.047363 136.0
1470.1073 84.0
1470.188477 168.0
1470.310181 128.0
1470.412476 148.0
1470.58313 168.0
1470.685425 184.0
1470.763428 152.0
1470.885742 72.0
1471.023071 112.0
1471.136719 212.0
1471.320801 176.0
1471.369873 140.0
1471.458252 168.0
1471.552979 120.0
1471.694946 208.0
1471.842896 236.0
1471.92395 140.0
1472.020874 132.0
1472.184326 132.0
1472.282959 228.0
1472.397461 188.0
1472.454956 228.0
1472.544067 176.0
1472.664795 184.0
1472.939209 188.0
1473.008423 72.0
1473.207031 224.0
1473.291138 168.0
1473.512695 164.0
1473.680786 108.0
1473.946655 184.0
1474.093384 184.0
1474.180054 228.0
1474.284424 76.0
1474.617798 320.0
1474.819336 96.0
1475.011597 216.0
1475.178589 132.0
1475.469116 156.0
1475.652588 180.0
1475.795898 172.0
1475.889648 220.0
1476.126709 196.0
1476.203125 80.0
1476.539551 120.0
1476.717163 228.0
1476.776733 172.0
1476.8573 88.0
1476.944946 160.0
1477.036743 116.0
1477.293213 128.0
1477.411621 164.0
1477.472778 120.0
1477.606567 148.0
1477.817017 184.0
1477.939453 148.0
1478.276123 100.0
1478.383301 52.0
1478.510254 252.0
1478.658813 152.0
1478.75061 164.0
1478.827148 152.0
1478.936157 168.0
1479.089844 172.0
1479.427979 136.0
1479.485474 144.0
1479.560913 60.0
1479.869263 148.0
1479.967773 64.0
1480.278809 160.0
1480.388916 180.0
1480.69519 52.0
1480.763184 172.0
1480.900879 140.0
1481.005615 140.0
1481.235352 108.0
1481.364502 200.0
1481.565918 176.0
1481.667969 220.0
1481.767578 188.0
1481.982666 220.0
1482.093384 192.0
1482.177734 168.0
1482.357544 200.0
1482.464844 184.0
1482.556763 164.0
1482.671753 144.0
1482.723877 124.0
1482.817383 176.0
1483.009766 124.0
1483.081055 236.0
1483.162231 136.0
1483.270386 160.0
1483.622192 216.0
1483.696411 100.0
1483.747559 180.0
1483.990234 240.0
1484.143555 120.0
1484.333618 176.0
1484.700317 184.0
1484.892456 176.0
1485.007446 196.0
1485.318481 144.0
1485.447266 136.0
1485.600708 204.0
1485.761841 108.0
1485.869141 136.0
1486.045654 56.0
1486.142334 152.0
1486.370239 160.0
1486.440186 220.0
1486.667114 168.0
1486.851318 164.0
1486.91272 180.0
1486.997192 112.0
1487.089233 88.0
1487.150635 128.0
1487.260376 352.0
1487.381104 132.0
1487.442383 184.0
1487.534424 128.0
1487.603516 168.0
1487.683838 180.0
1487.914307 156.0
1487.997559 148.0
1488.060181 168.0
1488.152222 156.0
1488.299194 124.0
1488.407959 160.0
1488.532471 172.0
1488.606201 188.0
1488.678467 92.0
1488.772217 200.0
1489.039307 80.0
1489.548584 204.0
1489.631104 168.0
1489.769043 144.0
1489.93042 168.0
1490.013672 152.0
1490.030762 128.0
1490.05481 160.0
1490.324341 220.0
1490.391357 144.0
1490.494263 244.0
1490.657349 284.0
1490.913452 168.0
1491.168945 172.0
1491.292114 180.0
1491.399902 212.0
1491.501221 108.0
1491.551758 128.0
1491.713135 144.0
1491.766968 300.0
1491.905884 180.0
1492.005249 176.0
1492.143677 220.0
1492.19751 112.0
1492.351318 124.0
1492.739746 192.0
1492.897217 160.0
1493.075195 176.0
1493.227905 164.0
1493.416382 160.0
1493.581665 128.0
1493.66626 192.0
1493.727051 224.0
1493.797119 140.0
1493.900391 140.0
1493.966309 164.0
1494.035522 144.0
1494.272827 180.0
1494.372437 168.0
1494.503052 244.0
1494.596069 168.0
1494.820068 136.0
1494.846191 132.0
1494.876343 184.0
1494.951172 168.0
1495.058838 48.0
1495.205078 216.0
1495.328247 264.0
1495.386841 120.0
1495.443604 148.0
1495.517578 180.0
1495.616821 144.0
1495.81311 140.0
1495.905518 160.0
1496.105591 120.0
1496.197998 220.0
1496.268311 224.0
1496.331787 240.0
1496.398193 120.0
1496.498291 172.0
1496.606934 284.0
1496.623657 184.0
1496.655273 152.0
1496.736938 160.0
1496.796875 244.0
1496.914062 232.0
1497.214355 160.0
1497.283691 124.0
1497.418091 124.0
1497.502563 172.0
1497.576416 112.0
1497.661133 232.0
1497.76123 76.0
1497.946899 156.0
1498.092041 212.0
1498.181274 212.0
1498.23877 96.0
1498.338989 128.0
1498.431396 156.0
1498.525146 120.0
1498.653564 152.0
1498.743408 160.0
1498.851196 160.0
1499.101196 108.0
1499.343872 188.0
1499.561401 120.0
1499.737305 204.0
1499.795532 136.0
1500.134521 132.0
1500.188232 192.0
1500.376221 200.0
1500.595581 216.0
1500.828369 132.0
1501.005371 192.0
1501.105957 116.0
1501.159912 116.0
1501.260132 196.0
1501.352417 132.0
1501.414429 132.0
1501.537842 148.0
1501.623169 216.0
1501.738281 92.0
1501.82312 60.0
1501.892578 164.0
1502.046875 188.0
1502.177979 132.0
1502.239624 148.0
1502.702515 172.0
1502.802856 128.0
1503.041992 164.0
1503.157837 136.0
1503.404663 124.0
1503.45874 144.0
1503.543579 148.0
1503.667114 160.0
1503.890869 104.0
1504.040405 112.0
1504.171387 292.0
