>compound MLS002153956-01!Karakoline39089-30-0
>formula C22H35NO4
>ionization [M+H]+
>parentmass 378.264465
#inchi InChI=1S/C22H35NO4/c1-4-23-10-20(2)6-5-16(24)22-12-7-11-14(27-3)9-21(26,17(12)18(11)25)13(19(22)23)8-15(20)22/h11-19,24-26H,4-10H2,1-3H3/t11-,12-,13+,14+,15-,16+,17-,18?,19?,20+,21+,22-/m1/s1
#inchikey HKQZUYOVMYOFIT
#Ion_Source LC-ESI
#Instrument qTof
#Compound_Source NIH Pharmacologically Active Library
#PI Dorrestein
#Data_Collector VP/LMS
#Scan -1
#Precursor_MZ 378.272
#ExactMass 377.257
#Charge 1
#CAS_Number N/A
#Pubmed_ID N/A
#Smiles CCN1C[C@]2(C)CC[C@H](O)[C@]3([C@@H]4C[C@H]5C(O)[C@@H]4[C@](O)(C[C@@H]5OC)[C@H]6C[C@@H]32)C61
#INCHI_AUX N/A
#Library_Class 1
#SpectrumID CCMSLIB00000086114
#IonMode Positive
#UpdateWorkflowName UPDATE-SINGLE-ANNOTATED-GOLD
#LibraryQualityString Gold
#TaskID d252d724072548979f1f6f1ced849daf
##Scan# 1131
#SpectrumFile p5-E05_GE5_01_18462.mzXML
#LibraryName Pharm_Active_Library.mgf
#MQScore -1
#Organism Pharm_Active_Library
#TIC_Query 0
#RT_Query -1
#MZErrorPPM -1
#SharedPeaks 0
#MassDiff 0
#LibMZ -1
#SpecMZ 378.272
#SpecCharge 0
#internalFilename spec-00000.mgf

>collision 10
45.222099 168.0
45.466019 144.0
45.515686 120.0
45.621826 164.0
45.641994 160.0
45.760395 228.0
45.872211 112.0
46.07058 100.0
46.108414 204.0
46.185482 152.0
46.227421 144.0
46.452324 88.0
46.487602 128.0
46.514744 88.0
46.72266 172.0
46.749874 176.0
46.828835 180.0
46.869705 200.0
46.886055 116.0
46.916042 100.0
47.038815 28.0
47.064754 180.0
47.247898 88.0
47.278 184.0
47.305374 112.0
47.351929 192.0
47.638599 236.0
47.683945 168.0
47.861401 152.0
47.886189 176.0
47.910984 144.0
47.943344 296.0
48.232506 132.0
48.550949 72.0
48.813408 176.0
48.871826 184.0
49.027328 208.0
49.079361 116.0
49.142128 104.0
49.382397 124.0
49.477551 108.0
50.019413 36.0
50.172962 160.0
50.281574 160.0
50.407257 176.0
51.075005 140.0
51.154377 156.0
51.268635 196.0
51.404106 116.0
51.531185 180.0
51.659851 112.0
51.717087 168.0
51.796967 224.0
51.920532 156.0
52.009487 184.0
52.174683 184.0
52.327183 144.0
52.485672 80.0
52.671841 100.0
52.910446 88.0
52.998795 144.0
53.098816 216.0
53.158295 56.0
53.251205 208.0
53.435818 232.0
53.645527 160.0
53.687813 148.0
53.806 120.0
54.054474 124.0
54.133522 144.0
54.178925 40.0
54.239006 152.0
54.338726 176.0
54.395958 188.0
54.47966 92.0
54.684048 188.0
55.564751 76.0
55.74144 120.0
56.009232 48.0
56.059887 172.0
56.100128 224.0
56.288116 160.0
56.528782 140.0
56.638073 148.0
56.657547 180.0
56.771461 204.0
56.834461 156.0
57.140965 76.0
57.160522 116.0
57.213203 140.0
57.228256 184.0
57.350613 200.0
57.835125 152.0
57.901741 116.0
58.042675 128.0
58.065418 204.0
58.22781 120.0
58.375221 168.0
58.401073 76.0
58.577641 220.0
58.865898 224.0
58.887276 144.0
58.96978 128.0
59.011055 128.0
59.147205 180.0
59.262062 160.0
59.278915 68.0
59.360161 172.0
59.544312 144.0
59.847252 192.0
60.00132 128.0
60.015194 88.0
60.086143 116.0
60.103115 140.0
60.254421 196.0
60.305416 132.0
60.323963 52.0
60.452335 220.0
60.703285 176.0
60.791706 132.0
60.867767 172.0
61.174049 160.0
61.328259 100.0
61.623196 192.0
61.832729 76.0
61.88752 132.0
61.961128 180.0
61.983067 180.0
61.998737 168.0
62.033218 104.0
62.086525 48.0
62.142998 120.0
62.179089 84.0
62.23246 140.0
62.290565 148.0
62.427303 144.0
62.4855 88.0
62.570484 184.0
62.691769 156.0
62.811592 44.0
63.18124 216.0
63.604343 156.0
63.801319 164.0
63.8522 104.0
64.194595 160.0
64.218513 172.0
64.33979 156.0
64.42762 120.0
64.464371 140.0
64.504326 160.0
64.691483 196.0
64.70269 136.0
64.813202 224.0
64.832436 208.0
65.148521 168.0
65.399368 120.0
65.653923 124.0
65.745872 164.0
65.765244 184.0
65.836281 160.0
65.850815 292.0
65.999481 96.0
66.02536 184.0
66.08683 116.0
66.452995 180.0
66.589348 200.0
66.629959 120.0
66.673836 140.0
66.719345 188.0
66.740479 108.0
66.839699 152.0
66.867363 144.0
66.966682 260.0
67.047157 220.0
67.269035 204.0
67.654457 176.0
67.775322 152.0
67.850708 164.0
68.052513 160.0
68.527832 148.0
69.009773 56.0
69.052773 132.0
69.272911 176.0
69.403839 108.0
69.430374 104.0
69.689323 204.0
69.712585 140.0
69.789047 164.0
69.970398 140.0
70.08532 236.0
70.213676 128.0
70.240364 184.0
70.270386 120.0
71.281715 144.0
71.382576 180.0
71.429665 148.0
71.832253 152.0
72.171715 220.0
72.54248 212.0
72.640831 128.0
72.703606 208.0
73.028107 128.0
73.074036 164.0
73.199989 108.0
73.252785 160.0
73.348206 148.0
73.445396 200.0
73.494873 308.0
73.648514 176.0
73.951149 136.0
73.966553 152.0
74.074432 152.0
74.125832 124.0
74.192673 244.0
74.32988 168.0
74.620155 128.0
75.249008 188.0
75.411385 176.0
75.435677 216.0
75.522041 160.0
75.647308 172.0
75.719345 188.0
75.809433 144.0
76.210258 176.0
76.410202 184.0
76.432823 124.0
76.504181 128.0
76.948738 192.0
77.198601 120.0
77.286064 168.0
77.403336 120.0
77.694283 112.0
77.836449 100.0
77.873322 64.0
77.943596 240.0
78.152832 108.0
78.200348 140.0
78.445183 116.0
78.59156 140.0
78.938225 208.0
79.100533 124.0
79.21032 164.0
79.544739 216.0
79.60405 140.0
79.64135 112.0
79.733734 192.0
79.826172 100.0
79.895538 124.0
80.221428 268.0
80.510475 168.0
80.676643 64.0
81.231773 136.0
81.488495 240.0
81.513649 168.0
81.587341 132.0
81.688042 188.0
81.851822 124.0
81.866226 224.0
82.095085 116.0
82.161827 160.0
82.358582 208.0
82.553772 152.0
82.622505 88.0
82.955711 140.0
82.984718 88.0
83.316841 116.0
83.374985 132.0
83.424065 176.0
83.569557 156.0
83.744308 188.0
83.826294 172.0
84.478096 220.0
84.54213 148.0
84.657463 184.0
85.057144 76.0
85.154457 176.0
85.566353 156.0
85.726601 148.0
86.090012 212.0
86.143578 140.0
86.184219 144.0
86.235962 176.0
86.343193 160.0
86.394981 120.0
86.583778 180.0
86.617119 200.0
86.667137 172.0
86.765373 112.0
86.921165 172.0
87.125404 164.0
87.298256 64.0
87.38382 144.0
87.553207 60.0
87.732079 180.0
87.750725 160.0
87.877548 180.0
88.015671 48.0
88.174454 96.0
88.423195 52.0
88.552376 224.0
88.891693 140.0
88.96489 180.0
89.079445 212.0
89.237892 244.0
89.362343 172.0
89.444237 120.0
89.493187 108.0
89.572754 128.0
89.730576 156.0
89.941856 152.0
90.10804 152.0
90.231125 156.0
90.403008 140.0
90.72879 168.0
90.984894 132.0
91.054932 1116.0
91.224258 56.0
91.404938 208.0
91.77446 132.0
91.9366 144.0
91.978584 188.0
92.04541 204.0
92.061066 180.0
92.102699 208.0
92.130211 248.0
92.14473 128.0
92.192497 184.0
92.286156 52.0
92.412392 132.0
92.567436 168.0
92.586586 176.0
92.662781 200.0
93.074158 200.0
93.129349 44.0
93.581253 104.0
93.789307 124.0
93.810516 64.0
94.073311 324.0
94.221565 192.0
94.285332 180.0
94.395515 136.0
94.538666 156.0
94.608345 168.0
94.629639 128.0
94.720657 196.0
94.939667 60.0
94.99398 164.0
95.049347 356.0
95.085793 304.0
95.417328 148.0
95.447807 184.0
95.588493 184.0
95.732544 140.0
95.781235 92.0
95.900085 112.0
95.954666 180.0
96.080727 296.0
96.134117 144.0
96.157532 96.0
96.397743 48.0
96.601448 208.0
96.618683 132.0
96.812454 48.0
96.892761 184.0
97.071121 188.0
97.648491 236.0
97.679962 192.0
97.937813 172.0
97.956528 168.0
98.000854 180.0
98.044205 152.0
98.071312 316.0
98.096588 1764.0
98.128967 236.0
98.241379 80.0
98.391357 176.0
98.511826 168.0
98.52565 156.0
98.588882 144.0
98.711441 128.0
98.808357 176.0
98.895432 128.0
98.946899 44.0
99.007378 220.0
99.036003 160.0
99.101067 268.0
99.295647 112.0
99.313492 156.0
99.482536 168.0
99.577469 180.0
99.78611 112.0
99.843781 168.0
99.967117 116.0
99.990997 116.0
100.012894 136.0
100.445274 64.0
100.471207 112.0
100.682785 148.0
101.010574 164.0
101.152641 156.0
101.204697 204.0
101.386978 236.0
101.517288 144.0
101.669746 168.0
101.737991 84.0
102.061455 176.0
102.212311 160.0
102.230423 176.0
102.310936 152.0
102.56781 148.0
102.689758 188.0
102.857224 232.0
102.978371 176.0
103.038406 392.0
103.062889 200.0
103.093529 132.0
103.200661 188.0
103.421608 108.0
103.481888 140.0
103.558838 196.0
103.59935 164.0
103.724991 168.0
103.84462 208.0
103.864899 92.0
103.883156 52.0
103.937935 44.0
104.045502 212.0
104.059715 148.0
104.161255 96.0
104.283165 140.0
104.472275 184.0
104.488548 148.0
104.891762 184.0
104.981468 200.0
105.039169 164.0
105.070061 1720.0
105.361107 216.0
105.516434 260.0
105.538918 160.0
106.075821 380.0
106.20858 96.0
106.270126 64.0
106.374786 224.0
106.395317 244.0
106.409355 172.0
106.478539 212.0
106.666481 188.0
106.697311 120.0
106.937065 128.0
107.052483 436.0
107.085106 916.0
107.158325 132.0
107.494408 176.0
107.667816 144.0
107.787628 128.0
107.802094 92.0
107.897171 128.0
108.048141 64.0
108.08284 168.0
108.229362 116.0
108.499619 48.0
108.621971 160.0
108.655159 136.0
108.993584 120.0
109.064468 376.0
109.100685 788.0
109.16404 84.0
109.274277 104.0
109.311729 36.0
109.484512 192.0
109.713707 212.0
110.05587 128.0
110.095909 2284.0
110.120605 152.0
110.156113 208.0
110.189537 60.0
110.268944 144.0
110.296112 216.0
110.480133 164.0
110.574287 144.0
110.630806 56.0
110.712463 156.0
110.915695 148.0
111.042816 308.0
111.079666 216.0
111.103683 468.0
111.230331 148.0
111.35421 56.0
111.420807 176.0
111.650536 104.0
111.808319 64.0
111.903046 136.0
112.073647 416.0
112.113182 436.0
112.145294 36.0
112.216972 148.0
112.242271 108.0
112.290771 116.0
112.778496 72.0
112.818657 176.0
113.061897 284.0
113.15715 156.0
113.377441 144.0
113.591583 200.0
113.606438 132.0
113.914238 204.0
113.937607 48.0
114.265007 176.0
114.316078 124.0
114.433144 188.0
114.974571 140.0
115.054085 380.0
115.111191 80.0
115.181671 64.0
115.519409 120.0
115.568619 84.0
115.733421 128.0
116.063339 356.0
116.149178 128.0
116.451813 132.0
116.488327 136.0
117.041 176.0
117.070206 580.0
117.174583 140.0
117.265091 104.0
117.35994 88.0
117.420319 144.0
117.564857 108.0
117.772118 132.0
117.845566 100.0
118.070374 264.0
118.236961 112.0
118.418816 100.0
118.556328 204.0
118.633331 132.0
118.865402 164.0
118.945702 208.0
119.050606 812.0
119.085251 780.0
119.410675 160.0
119.425896 128.0
119.800293 144.0
119.907059 104.0
120.007332 116.0
120.053123 176.0
120.090683 308.0
120.242928 180.0
120.745995 164.0
121.064926 268.0
121.104347 184.0
121.360741 128.0
121.400215 156.0
121.529633 220.0
121.67009 48.0
121.821617 156.0
121.856766 152.0
122.074562 188.0
122.09713 1272.0
122.126808 176.0
122.168953 84.0
122.247368 192.0
122.263565 68.0
122.446289 144.0
122.518974 40.0
122.534401 192.0
122.631355 116.0
122.86068 96.0
123.020271 164.0
123.041756 708.0
123.078987 636.0
123.100471 536.0
123.437141 200.0
123.457047 44.0
123.660583 108.0
123.682716 32.0
123.835487 172.0
124.021606 184.0
124.048203 176.0
124.112396 5448.0
124.154625 108.0
124.179947 96.0
124.274414 228.0
124.431992 120.0
124.511932 172.0
124.554939 176.0
124.583008 84.0
124.600777 56.0
124.631882 112.0
124.747452 168.0
124.787468 140.0
125.057739 432.0
125.093155 368.0
125.118011 1132.0
125.462036 196.0
125.624832 128.0
125.689529 132.0
125.794426 116.0
125.830147 132.0
126.026688 80.0
126.093727 204.0
126.109375 208.0
126.129463 600.0
126.382195 96.0
126.500809 180.0
126.673233 116.0
127.011711 48.0
127.07901 364.0
127.132256 468.0
127.17775 188.0
127.290001 136.0
127.346138 212.0
127.699005 184.0
127.728249 148.0
127.832809 172.0
127.912758 124.0
128.059723 484.0
128.081635 244.0
128.106415 172.0
128.126694 184.0
128.300217 160.0
128.419724 184.0
128.553131 216.0
128.79892 168.0
128.821518 240.0
128.875732 184.0
128.891556 36.0
128.977432 132.0
129.069427 1568.0
129.153793 180.0
129.169632 88.0
129.264648 164.0
129.411774 152.0
129.432159 192.0
129.640549 164.0
129.702545 160.0
129.821915 196.0
129.994308 80.0
130.075729 508.0
130.337189 68.0
130.792023 68.0
130.817062 192.0
130.937744 124.0
131.086731 2556.0
131.141068 200.0
131.275024 56.0
131.441544 176.0
131.519135 172.0
131.583054 88.0
131.619583 60.0
131.72464 212.0
131.747482 184.0
132.008041 172.0
132.087402 292.0
132.14299 180.0
132.23143 148.0
132.461197 44.0
132.477234 132.0
132.720169 52.0
132.855484 184.0
133.067734 416.0
133.081146 160.0
133.101135 1104.0
133.234283 180.0
133.298615 80.0
133.372147 152.0
133.551498 128.0
133.581406 160.0
133.675735 108.0
133.783905 252.0
134.064896 148.0
134.101959 212.0
134.212433 68.0
134.292648 168.0
134.466187 104.0
134.496185 136.0
134.713242 228.0
134.796417 140.0
135.009094 148.0
135.025284 120.0
135.080063 412.0
135.118393 844.0
135.171021 148.0
135.252014 204.0
135.416412 96.0
135.634201 176.0
135.703751 28.0
135.798828 172.0
135.819702 128.0
135.921783 136.0
135.979797 124.0
136.026215 148.0
136.088898 140.0
136.117767 496.0
136.23056 112.0
136.358368 188.0
136.428101 132.0
136.839874 56.0
136.926041 112.0
136.965622 92.0
137.059448 1232.0
137.087753 144.0
137.51355 68.0
137.952408 152.0
138.05896 140.0
138.088303 200.0
138.132736 200.0
138.350372 136.0
138.441681 180.0
138.593948 128.0
138.615036 180.0
138.98082 128.0
139.074692 184.0
139.109894 216.0
139.54451 124.0
139.568024 148.0
139.615051 136.0
139.739731 196.0
139.840912 140.0
140.07637 136.0
140.109344 480.0
140.523972 152.0
140.935104 196.0
141.017822 128.0
141.068161 932.0
141.110016 68.0
141.235336 148.0
141.768036 180.0
141.907883 88.0
141.926849 172.0
142.073471 276.0
142.121399 200.0
142.346848 136.0
142.387222 80.0
142.441849 168.0
142.551132 160.0
142.819778 116.0
143.040222 156.0
143.085403 2448.0
143.22113 180.0
143.238708 92.0
143.570007 120.0
143.677338 224.0
143.901672 140.0
144.088776 140.0
144.303055 132.0
144.384354 176.0
144.415451 76.0
144.436981 120.0
144.573349 252.0
144.671494 104.0
144.728943 128.0
144.824738 136.0
145.06105 404.0
145.101044 2356.0
145.27298 28.0
145.431351 56.0
145.51297 60.0
145.69548 60.0
146.067337 148.0
146.102753 564.0
146.703812 148.0
146.768906 432.0
146.884674 76.0
146.932922 192.0
147.046326 168.0
147.080139 340.0
147.114151 1052.0
147.154953 48.0
147.195999 84.0
147.345749 128.0
147.394073 88.0
147.60437 76.0
148.02298 88.0
148.080688 208.0
148.11644 556.0
148.141663 152.0
148.257339 156.0
148.385956 208.0
148.432495 160.0
148.609558 128.0
148.733322 204.0
148.89357 104.0
149.057678 308.0
149.078201 52.0
149.095215 160.0
149.128937 196.0
149.209457 52.0
149.298889 168.0
149.455093 140.0
149.530533 40.0
149.56218 132.0
149.654678 188.0
149.851959 52.0
150.127411 212.0
150.679047 100.0
151.077164 516.0
151.108322 224.0
151.128479 140.0
151.748566 136.0
151.814774 100.0
152.069992 124.0
152.12027 164.0
152.177917 40.0
152.214752 176.0
152.361435 196.0
152.406342 96.0
152.62265 164.0
152.693954 104.0
152.757904 96.0
152.812027 128.0
153.056641 172.0
153.371033 144.0
153.728638 200.0
154.078903 552.0
154.121262 152.0
155.044266 240.0
155.084183 944.0
155.25499 92.0
155.64209 204.0
155.693054 48.0
155.920319 100.0
156.094666 300.0
156.268433 164.0
156.424103 128.0
156.644348 148.0
156.684204 160.0
156.920975 188.0
156.950897 176.0
157.025711 116.0
157.065079 208.0
157.100845 1816.0
157.195343 76.0
157.262726 84.0
157.587357 172.0
157.724808 144.0
158.072433 204.0
158.101852 148.0
158.23764 116.0
158.340302 184.0
158.357834 152.0
158.437988 200.0
158.585831 196.0
158.625931 160.0
159.076981 336.0
159.116959 1372.0
159.200485 80.0
159.265793 68.0
159.293411 136.0
159.456741 192.0
159.733307 136.0
160.07811 160.0
160.119797 152.0
160.153671 120.0
160.390518 148.0
160.488831 136.0
160.57457 84.0
160.703842 148.0
160.763779 184.0
160.839493 200.0
161.044022 200.0
161.10437 228.0
161.116562 172.0
161.132584 336.0
161.373474 128.0
161.457169 112.0
161.587509 156.0
161.901382 168.0
161.934296 188.0
162.122955 456.0
162.167389 164.0
162.327103 156.0
162.353851 80.0
162.459 68.0
162.550323 120.0
162.616318 168.0
162.71785 156.0
162.78894 120.0
163.037903 188.0
163.073349 724.0
163.132812 312.0
163.154816 204.0
163.215836 28.0
163.27179 148.0
163.943863 64.0
164.081497 172.0
164.117203 180.0
164.145218 220.0
164.351852 92.0
164.397781 152.0
164.518326 176.0
165.066986 152.0
165.070251 144.0
165.08812 188.0
165.111313 132.0
165.174469 84.0
165.929916 136.0
166.04274 136.0
166.077545 444.0
166.122253 184.0
166.158173 76.0
166.327545 140.0
166.566345 220.0
166.771896 200.0
166.818161 160.0
167.085693 892.0
167.121643 144.0
167.471741 156.0
167.581635 176.0
167.654663 184.0
168.090286 276.0
168.490662 148.0
168.550095 84.0
168.795654 168.0
168.831848 164.0
169.041397 104.0
169.098816 1572.0
169.297668 152.0
169.336517 164.0
169.567093 172.0
169.590424 212.0
169.691528 228.0
169.725235 160.0
169.834152 108.0
170.058868 224.0
170.105881 572.0
170.540375 112.0
170.647385 172.0
170.788757 124.0
170.979919 136.0
171.008545 280.0
171.078522 540.0
171.116043 1628.0
171.733597 200.0
171.761551 156.0
171.996384 172.0
172.051208 192.0
172.085144 144.0
172.122513 416.0
172.14003 196.0
172.386856 152.0
172.482224 136.0
172.547577 168.0
172.654785 120.0
172.785568 144.0
172.811737 40.0
172.853607 180.0
172.99231 104.0
173.023727 88.0
173.063004 176.0
173.096954 524.0
173.133026 1096.0
173.235855 172.0
173.500534 140.0
173.781158 68.0
173.799515 128.0
173.93074 176.0
174.129547 456.0
174.248489 144.0
174.327316 148.0
174.36673 156.0
174.916443 196.0
175.112091 404.0
175.144806 140.0
175.206116 156.0
175.275375 120.0
175.324677 108.0
175.422211 176.0
175.514481 56.0
175.546127 124.0
175.633148 132.0
175.947174 172.0
176.081848 136.0
176.143188 792.0
176.19278 152.0
176.340759 84.0
176.755951 132.0
176.837982 200.0
176.88298 120.0
177.094803 324.0
177.123947 128.0
177.163681 112.0
177.593094 108.0
177.720428 64.0
177.794724 104.0
177.874344 168.0
177.96196 40.0
178.06456 200.0
178.085342 180.0
178.121002 144.0
178.152481 108.0
178.195679 124.0
178.308243 156.0
178.395004 172.0
178.493378 64.0
178.562515 72.0
178.77002 160.0
179.083969 680.0
179.486572 236.0
179.590576 172.0
179.641251 68.0
179.766663 208.0
179.892105 60.0
180.09137 752.0
180.109146 224.0
180.137924 144.0
180.493225 144.0
180.602875 72.0
180.81958 160.0
181.099716 1040.0
181.181076 104.0
181.454437 44.0
181.8246 120.0
181.931961 188.0
182.107635 552.0
182.154053 216.0
182.326797 144.0
182.504211 268.0
182.654816 184.0
182.77858 56.0
182.829697 128.0
182.862 40.0
182.985825 60.0
183.079254 132.0
183.117493 1536.0
183.187805 84.0
183.449188 52.0
183.551636 112.0
183.616364 48.0
183.64064 36.0
183.813293 284.0
184.081726 144.0
184.118225 180.0
184.158844 164.0
184.245285 120.0
184.312836 152.0
184.645325 188.0
185.092819 740.0
185.133362 1600.0
185.235382 152.0
185.31395 64.0
185.346451 196.0
185.37355 44.0
185.430466 136.0
185.712433 156.0
185.970184 60.0
186.057053 60.0
186.097214 328.0
186.137131 328.0
186.393845 40.0
186.491669 160.0
186.695572 36.0
186.948578 108.0
187.079224 260.0
187.107208 500.0
187.143753 256.0
187.245316 152.0
187.400574 204.0
187.493225 120.0
187.626785 172.0
187.703125 108.0
188.104263 284.0
188.141464 484.0
188.410034 88.0
188.636856 148.0
188.89389 52.0
188.978699 220.0
189.091751 324.0
189.131577 376.0
189.150482 616.0
190.088409 332.0
190.15683 444.0
190.200943 88.0
190.324478 172.0
190.450806 92.0
190.670593 104.0
190.832779 132.0
190.970276 104.0
191.085968 248.0
191.132584 156.0
191.164642 436.0
191.319733 172.0
191.399582 208.0
191.548294 200.0
191.680542 52.0
191.843155 120.0
191.895523 92.0
192.018814 220.0
192.095032 184.0
192.128693 132.0
192.17691 360.0
192.238327 144.0
192.292755 104.0
192.469421 140.0
192.668289 176.0
192.701431 204.0
192.723541 156.0
192.756699 204.0
193.10144 740.0
193.179871 136.0
193.298676 148.0
193.531189 152.0
193.588959 148.0
193.905151 152.0
194.077026 180.0
194.104095 620.0
194.438614 160.0
194.606964 76.0
194.662491 48.0
194.859711 116.0
194.940277 152.0
194.987534 164.0
195.078156 172.0
195.115479 1224.0
195.176559 32.0
195.223831 220.0
195.250427 128.0
195.630051 136.0
195.660675 56.0
195.752548 200.0
195.897949 136.0
196.058975 64.0
196.092422 144.0
196.127213 344.0
196.226227 60.0
196.524658 220.0
196.560928 208.0
196.915466 68.0
197.094696 256.0
197.132675 960.0
197.323441 120.0
197.785019 144.0
198.025558 176.0
198.104584 340.0
198.122986 144.0
198.135864 336.0
198.380096 152.0
198.479782 84.0
198.510635 168.0
198.763092 96.0
198.788345 136.0
198.902206 128.0
198.959564 76.0
199.113464 552.0
199.144806 1532.0
199.227341 136.0
199.369644 128.0
199.498245 124.0
199.543915 32.0
199.636703 124.0
199.676071 112.0
200.120682 368.0
200.146118 312.0
200.250214 56.0
200.329086 88.0
200.455872 116.0
200.599609 204.0
200.619339 140.0
200.870316 184.0
201.093216 388.0
201.125275 852.0
201.169434 304.0
201.451813 116.0
202.087921 140.0
202.12262 152.0
202.152908 136.0
202.260544 180.0
202.515381 220.0
202.77037 192.0
202.892578 172.0
203.110519 300.0
203.158478 196.0
203.587402 196.0
204.091949 140.0
204.110275 180.0
204.238251 152.0
204.360565 76.0
204.411789 128.0
204.687897 112.0
204.847397 144.0
204.867325 124.0
205.097733 56.0
205.153885 168.0
205.189362 156.0
205.252151 176.0
205.317673 44.0
205.371872 164.0
205.520203 120.0
205.711426 156.0
205.863831 116.0
205.928421 172.0
206.051254 136.0
206.10347 212.0
206.162277 108.0
206.194138 172.0
206.434265 52.0
206.648788 72.0
206.886337 60.0
207.11618 224.0
207.28157 140.0
207.39621 164.0
207.475082 148.0
207.662857 124.0
207.751785 184.0
207.789078 184.0
207.832108 92.0
207.918198 48.0
208.093292 120.0
208.125427 444.0
208.300064 64.0
208.659286 140.0
209.053329 184.0
209.092834 636.0
209.131302 2088.0
209.511139 120.0
209.531311 56.0
209.57164 60.0
210.096237 208.0
210.134048 364.0
210.335861 120.0
210.604401 184.0
211.111267 700.0
211.146408 812.0
211.639694 140.0
211.946716 180.0
212.05394 112.0
212.085815 148.0
212.125656 188.0
212.148315 176.0
212.436676 56.0
212.686234 192.0
212.840103 164.0
213.089813 176.0
213.126648 368.0
213.164093 232.0
213.209015 44.0
213.328186 40.0
213.456116 140.0
213.691711 140.0
214.040985 52.0
214.107956 40.0
214.131653 336.0
214.154358 312.0
214.393463 152.0
214.524612 144.0
215.106766 184.0
215.141647 124.0
215.166412 116.0
215.458466 152.0
215.853043 184.0
216.104584 80.0
216.17807 436.0
216.233337 220.0
216.271393 176.0
216.318222 108.0
216.927521 112.0
217.003738 104.0
217.114792 220.0
217.124313 212.0
217.155823 148.0
217.177795 372.0
217.314224 172.0
217.502441 252.0
217.546478 68.0
217.581711 164.0
217.605194 136.0
218.07814 128.0
218.110474 240.0
218.131042 148.0
218.154022 176.0
218.186768 172.0
218.360382 180.0
218.433914 120.0
218.763504 148.0
219.013794 180.0
219.116226 576.0
219.135849 260.0
219.369217 116.0
219.530106 84.0
219.591476 116.0
219.659317 128.0
219.718307 148.0
219.918564 200.0
220.12326 304.0
220.169922 156.0
220.941376 56.0
220.970963 152.0
221.132858 472.0
221.559631 148.0
221.651962 128.0
221.723083 248.0
222.095978 88.0
222.142593 780.0
222.716995 240.0
222.782349 76.0
222.820969 72.0
222.907135 124.0
222.960632 80.0
223.107925 208.0
223.149719 856.0
223.478027 200.0
223.763748 112.0
224.026733 208.0
224.070511 72.0
224.097321 60.0
224.11998 308.0
224.148117 344.0
224.246323 144.0
224.335739 184.0
224.601135 176.0
224.741348 40.0
224.962189 120.0
224.989059 124.0
225.129471 792.0
225.163986 316.0
225.251846 132.0
225.526733 84.0
225.607452 104.0
225.706116 208.0
225.780869 148.0
226.124924 56.0
226.167542 132.0
226.304535 132.0
226.385376 156.0
226.487198 68.0
226.812515 100.0
227.102005 132.0
227.14299 2016.0
227.227646 136.0
227.296646 64.0
227.329651 76.0
227.392685 56.0
227.489624 200.0
227.521744 40.0
227.623825 160.0
227.764984 136.0
227.822052 44.0
228.116562 156.0
228.145203 484.0
228.296951 48.0
228.417252 172.0
228.992142 176.0
229.121674 124.0
229.15506 300.0
229.186981 148.0
229.70047 80.0
229.812088 124.0
229.851318 68.0
230.026352 72.0
230.110886 140.0
230.152557 196.0
230.283005 56.0
230.415924 128.0
230.506561 168.0
230.539795 140.0
230.727203 96.0
230.863266 120.0
230.905609 132.0
230.984238 192.0
231.053818 140.0
231.172745 192.0
231.223267 204.0
231.304993 108.0
231.607788 128.0
231.738052 144.0
232.123886 512.0
232.174545 84.0
232.377777 184.0
232.496109 184.0
232.741989 188.0
232.796646 116.0
233.126572 288.0
233.176392 112.0
233.41655 140.0
233.46521 168.0
233.827225 56.0
234.101227 192.0
234.134293 200.0
234.177353 180.0
234.268738 92.0
234.521652 240.0
234.585663 152.0
234.616135 132.0
234.658829 168.0
234.75029 68.0
234.921616 164.0
234.942047 212.0
235.113724 148.0
235.149078 484.0
235.278137 180.0
235.549927 180.0
235.861603 108.0
235.9319 120.0
236.078674 156.0
236.109253 156.0
236.15802 300.0
236.268311 68.0
236.344116 72.0
236.418228 164.0
236.467194 180.0
236.73967 120.0
236.84993 36.0
236.9888 108.0
237.039871 100.0
237.123489 168.0
237.164734 1672.0
237.426117 132.0
237.683807 124.0
237.935471 164.0
238.006088 92.0
238.113571 172.0
238.165497 336.0
238.257935 148.0
238.405426 132.0
238.458984 140.0
238.679001 84.0
238.835846 108.0
238.885071 68.0
239.148743 148.0
239.18103 332.0
239.310562 200.0
239.405212 100.0
239.808807 164.0
240.009186 156.0
240.144318 308.0
240.177277 340.0
240.292938 184.0
240.657135 44.0
240.96907 148.0
241.151398 148.0
241.330688 176.0
241.491486 100.0
241.720413 52.0
241.992798 104.0
242.014465 60.0
242.113556 108.0
242.155624 220.0
242.187897 540.0
242.457443 124.0
242.898071 168.0
242.969055 124.0
243.139709 556.0
243.166458 188.0
243.205154 172.0
243.58992 132.0
243.720398 108.0
243.788757 120.0
243.854019 152.0
244.164352 388.0
244.206604 140.0
244.245789 152.0
244.547607 136.0
244.588058 176.0
244.899429 196.0
244.9991 164.0
245.155243 712.0
245.185715 144.0
245.249634 72.0
245.426086 168.0
245.669342 188.0
246.158157 204.0
246.192566 152.0
246.243683 184.0
246.862457 132.0
247.009445 176.0
247.14801 496.0
247.187775 116.0
247.369308 104.0
247.475754 192.0
247.626053 140.0
247.679306 200.0
247.704361 168.0
247.804611 60.0
247.94249 120.0
248.147995 164.0
248.171585 92.0
248.199539 140.0
248.246567 164.0
248.375153 88.0
248.409668 136.0
248.497498 184.0
248.914963 72.0
248.943222 148.0
249.043716 168.0
249.087692 40.0
249.167114 488.0
250.008896 180.0
250.074997 120.0
250.100174 116.0
250.128006 204.0
250.169342 172.0
250.296524 156.0
250.704865 64.0
250.88768 104.0
251.007477 188.0
251.144043 528.0
251.17691 188.0
251.348145 152.0
251.458603 120.0
251.603806 124.0
252.177536 180.0
252.525497 140.0
252.596069 44.0
252.831787 160.0
252.921982 156.0
253.064438 112.0
253.158096 1012.0
253.203766 432.0
253.276611 136.0
253.454025 184.0
253.875626 148.0
254.165009 176.0
254.198395 208.0
254.411835 40.0
254.45311 44.0
254.764343 68.0
254.920029 180.0
255.13092 216.0
255.174988 372.0
255.568695 44.0
255.594147 224.0
255.619598 120.0
256.052551 144.0
256.087585 48.0
256.164032 148.0
256.208893 144.0
256.393433 160.0
256.536865 184.0
256.702667 88.0
257.075867 232.0
257.169708 192.0
257.199188 176.0
257.375946 84.0
257.893463 180.0
258.184082 156.0
258.222382 216.0
258.286743 180.0
258.569397 152.0
258.821198 192.0
258.981323 76.0
259.166779 1144.0
259.201202 208.0
259.375427 164.0
259.485779 148.0
259.676819 184.0
260.169769 124.0
260.202545 148.0
260.492096 148.0
261.166351 184.0
261.233002 156.0
261.653015 112.0
262.168365 124.0
262.232819 48.0
262.600372 144.0
262.769592 164.0
262.910095 160.0
263.058563 116.0
263.184479 144.0
263.258728 124.0
263.287811 128.0
263.391144 76.0
263.837097 164.0
263.859741 64.0
263.892059 252.0
263.959961 148.0
264.040802 48.0
264.186371 200.0
264.218719 136.0
264.752777 108.0
264.775452 180.0
264.869385 136.0
265.028107 48.0
265.099396 144.0
265.159607 740.0
265.605164 80.0
265.858246 204.0
265.893921 132.0
266.16272 180.0
266.198212 164.0
266.264038 212.0
266.35498 112.0
266.510925 104.0
266.611664 104.0
266.800171 52.0
267.005035 136.0
267.177826 1148.0
267.652588 136.0
267.909882 84.0
268.172577 228.0
268.177521 204.0
268.292877 136.0
268.767334 156.0
268.871765 196.0
269.193787 420.0
269.77652 216.0
269.84845 56.0
270.126434 168.0
270.155853 60.0
270.185303 400.0
270.23111 32.0
270.656616 180.0
270.882568 176.0
271.06604 48.0
271.166321 156.0
271.207489 248.0
271.587311 156.0
271.659485 212.0
272.020447 176.0
272.053284 100.0
272.141907 140.0
272.1745 168.0
272.203583 252.0
272.66748 124.0
273.168854 140.0
273.206757 184.0
273.42392 80.0
273.535828 84.0
273.598358 152.0
273.631287 200.0
273.733368 96.0
273.763 152.0
274.049561 196.0
274.177338 168.0
274.204437 72.0
274.346161 64.0
274.445068 88.0
274.824402 132.0
274.854095 156.0
274.928162 168.0
275.16626 172.0
275.194061 160.0
275.560669 116.0
275.977112 136.0
276.039917 140.0
276.284668 68.0
276.337616 180.0
276.430267 52.0
276.466675 220.0
276.688416 120.0
276.940094 72.0
276.979828 132.0
277.029541 180.0
277.132233 52.0
277.181702 180.0
277.228333 108.0
277.569763 108.0
278.014252 180.0
278.120453 144.0
278.143707 84.0
278.243286 168.0
278.326294 196.0
278.412628 164.0
278.582031 132.0
278.688324 172.0
278.718231 168.0
278.754791 192.0
278.964172 168.0
279.170105 128.0
279.426422 100.0
279.702637 184.0
279.8591 136.0
279.92569 140.0
280.058929 144.0
280.181976 180.0
280.402069 124.0
280.578735 120.0
280.675446 116.0
280.896088 172.0
281.008972 124.0
281.122437 132.0
281.191925 156.0
281.279297 72.0
281.362732 32.0
281.656616 204.0
282.10437 196.0
282.217285 416.0
282.311676 64.0
282.422211 144.0
282.622559 148.0
282.950745 40.0
282.99762 192.0
283.164398 180.0
283.217682 280.0
283.433044 80.0
283.536926 180.0
283.570435 112.0
283.942596 56.0
284.073395 148.0
284.144775 176.0
284.199219 524.0
284.235168 264.0
284.335114 52.0
284.820435 152.0
285.18927 620.0
285.292389 100.0
285.329376 112.0
285.749756 48.0
285.790131 164.0
286.186401 276.0
286.220032 296.0
287.053284 60.0
287.174683 188.0
287.212067 200.0
287.24115 204.0
287.839508 136.0
287.921631 92.0
288.021881 164.0
288.163757 180.0
288.205078 204.0
288.278625 184.0
288.420593 104.0
288.657227 52.0
289.02594 120.0
289.140991 132.0
289.172974 128.0
289.203705 164.0
289.25946 172.0
289.415192 168.0
289.652252 176.0
289.875854 152.0
290.147003 116.0
290.214813 168.0
290.496307 168.0
290.526825 176.0
290.886536 180.0
291.0495 144.0
291.202301 144.0
291.715393 124.0
291.827576 152.0
292.179321 168.0
292.193756 184.0
292.203186 328.0
292.307159 68.0
292.402435 160.0
293.080109 124.0
293.203583 172.0
293.253906 140.0
293.424347 168.0
293.472076 144.0
293.615295 156.0
293.68692 212.0
294.007629 80.0
294.652954 124.0
294.721283 184.0
295.189575 164.0
295.21225 152.0
295.346893 100.0
295.50769 228.0
295.655975 120.0
295.812256 128.0
296.199188 104.0
297.018433 188.0
297.184937 396.0
297.375275 160.0
297.577698 128.0
297.89032 204.0
297.959015 220.0
298.020874 80.0
298.179199 268.0
298.563965 68.0
298.632751 76.0
298.928619 132.0
299.054535 180.0
299.19632 460.0
299.345154 124.0
299.507019 176.0
299.686157 152.0
299.713715 96.0
299.813629 276.0
300.192505 724.0
300.230743 688.0
300.372192 60.0
300.39978 48.0
300.427368 168.0
300.475677 52.0
300.572296 60.0
300.724121 184.0
300.94162 248.0
301.080444 176.0
301.189789 148.0
301.229462 236.0
301.276611 164.0
301.952209 136.0
302.005981 60.0
302.202393 292.0
303.124176 192.0
303.207367 108.0
303.262817 44.0
303.439606 176.0
303.703156 64.0
303.755188 104.0
303.918213 144.0
303.980682 128.0
304.053558 144.0
304.265289 32.0
304.612579 140.0
304.831451 64.0
304.918335 128.0
305.210327 164.0
305.652069 152.0
305.676422 156.0
305.857391 120.0
305.993988 156.0
306.104584 132.0
306.240417 144.0
306.595764 160.0
307.212555 152.0
307.699646 156.0
307.774811 208.0
307.799255 224.0
307.987854 180.0
308.113586 68.0
308.197449 160.0
309.313049 268.0
309.372955 180.0
309.470612 144.0
309.974976 148.0
310.130676 180.0
310.216248 1920.0
310.338074 224.0
310.39563 60.0
310.907776 172.0
311.051666 100.0
311.146454 88.0
311.218384 264.0
311.508179 168.0
311.543304 96.0
311.831421 56.0
311.915771 40.0
312.066956 40.0
312.123199 224.0
312.184509 288.0
312.221313 276.0
312.27887 60.0
312.503082 76.0
312.900787 136.0
312.953583 152.0
313.048676 152.0
313.202026 140.0
313.235321 220.0
313.534821 56.0
313.608826 128.0
314.046021 184.0
314.084808 172.0
314.21167 792.0
314.248474 644.0
314.423523 36.0
314.483521 176.0
314.901428 92.0
314.984924 100.0
315.211395 236.0
315.245514 484.0
315.387726 244.0
315.465485 60.0
315.617523 208.0
315.862427 64.0
316.180817 160.0
316.22699 176.0
316.303833 92.0
316.33197 136.0
316.537506 128.0
316.594177 216.0
316.654358 60.0
316.849182 148.0
316.962585 88.0
317.11142 240.0
317.200012 144.0
317.363098 128.0
317.41629 60.0
317.451752 80.0
317.561676 128.0
317.64682 208.0
317.84903 116.0
317.905823 176.0
318.196136 436.0
318.257233 196.0
318.338898 120.0
318.3815 64.0
318.406372 76.0
318.850464 104.0
319.117065 188.0
319.661255 296.0
319.778717 124.0
319.817841 108.0
319.853455 104.0
320.337738 96.0
320.829498 176.0
321.203918 160.0
321.535736 40.0
321.571442 136.0
321.807037 108.0
321.882019 176.0
321.964142 228.0
322.879028 112.0
322.936249 132.0
323.025665 96.0
323.297607 160.0
323.498016 152.0
323.569611 232.0
323.594696 100.0
324.030914 140.0
324.071045 164.0
324.13913 160.0
324.232758 180.0
324.361328 132.0
324.443756 216.0
324.827454 132.0
325.227875 168.0
325.509369 156.0
325.839813 104.0
325.958374 112.0
325.997894 108.0
326.13446 140.0
326.220734 192.0
326.249512 80.0
326.519165 164.0
327.116455 172.0
327.17334 220.0
327.23526 96.0
327.43689 116.0
327.566559 144.0
327.63501 188.0
327.905273 144.0
327.952118 136.0
327.988159 188.0
328.035004 124.0
328.089081 116.0
328.228638 7852.0
328.294617 60.0
328.341492 88.0
328.39267 204.0
328.599457 156.0
328.669769 36.0
328.73111 196.0
328.838348 228.0
329.099274 36.0
329.153442 156.0
329.23291 1360.0
329.355682 116.0
329.409851 72.0
329.532684 136.0
329.590515 180.0
329.753113 112.0
330.182129 132.0
330.233032 472.0
330.487213 208.0
330.621094 152.0
330.852753 180.0
331.240997 188.0
331.396545 144.0
331.450348 196.0
331.903442 136.0
332.124664 168.0
332.224121 2388.0
332.429413 112.0
332.560059 88.0
332.632629 56.0
332.763336 132.0
332.850464 120.0
332.901306 84.0
332.998199 100.0
333.021149 128.0
333.050201 148.0
333.220001 152.0
334.213531 184.0
334.242645 204.0
334.310455 176.0
334.424591 140.0
334.511963 160.0
334.77774 184.0
334.814148 160.0
335.014496 144.0
335.127441 140.0
335.284119 120.0
335.320557 156.0
335.670532 112.0
335.896637 176.0
335.958649 108.0
336.823792 136.0
337.243988 128.0
337.415802 160.0
337.562042 160.0
337.719299 136.0
337.880249 128.0
337.931488 184.0
338.132751 172.0
338.519806 196.0
338.780823 164.0
339.293884 84.0
339.557892 240.0
339.722961 100.0
339.858704 136.0
339.924744 124.0
339.983459 120.0
340.236725 212.0
340.51947 236.0
340.556183 112.0
341.289001 220.0
341.361023 76.0
341.497101 88.0
341.692078 180.0
341.761963 148.0
341.993805 40.0
342.165405 172.0
342.241333 4752.0
342.390381 212.0
342.560852 168.0
342.745087 56.0
342.818756 188.0
342.921967 144.0
343.246216 1132.0
343.304138 168.0
343.356995 180.0
343.416016 68.0
343.467651 164.0
343.519287 68.0
343.674225 180.0
343.729584 132.0
343.770996 124.0
343.855072 180.0
344.037994 156.0
344.202057 140.0
344.25647 372.0
344.311523 144.0
344.342407 120.0
344.512299 136.0
344.618164 160.0
344.855957 96.0
344.900299 104.0
345.055573 124.0
345.458649 64.0
345.558533 104.0
346.084106 56.0
346.132263 160.0
346.233978 188.0
346.306305 116.0
346.765717 80.0
347.040039 120.0
347.162415 156.0
347.214325 124.0
347.748566 36.0
347.885895 76.0
348.205231 144.0
348.859192 92.0
348.926117 208.0
349.022766 60.0
349.212433 68.0
349.558411 204.0
350.05722 44.0
350.113068 88.0
350.157776 184.0
350.250885 188.0
350.586182 152.0
350.638367 96.0
351.249847 144.0
351.649078 100.0
352.014923 48.0
352.0448 108.0
352.220337 180.0
353.888245 184.0
354.056732 56.0
354.097931 148.0
354.221527 108.0
354.356415 80.0
354.540009 116.0
354.689941 160.0
355.087372 112.0
355.121124 100.0
355.211151 192.0
355.286163 140.0
355.462494 208.0
355.552582 108.0
355.623871 156.0
355.652557 216.0
355.875397 116.0
356.262207 164.0
356.540253 72.0
356.701874 56.0
356.777069 112.0
357.081635 140.0
357.480408 168.0
357.599365 204.0
357.724579 132.0
357.853058 168.0
358.06015 136.0
358.090271 68.0
358.131714 112.0
358.229645 84.0
358.380341 100.0
358.587616 152.0
358.629059 88.0
358.666748 140.0
358.723297 64.0
358.796326 140.0
358.915558 68.0
358.968353 140.0
359.040009 116.0
359.10788 172.0
359.190887 136.0
359.228607 96.0
359.349304 28.0
359.379486 148.0
359.418549 312.0
359.454956 248.0
359.55307 84.0
359.602142 60.0
359.639893 140.0
359.689545 128.0
359.748108 108.0
359.82486 208.0
359.868469 116.0
359.931824 144.0
359.967773 164.0
360.006775 164.0
360.034515 144.0
360.069183 452.0
360.139069 408.0
360.173981 360.0
360.253845 55320.0
360.348907 204.0
360.418793 56.0
360.467896 168.0
360.582611 200.0
360.617737 268.0
360.677795 192.0
360.704681 84.0
360.756439 92.0
360.792206 168.0
360.824951 184.0
360.893738 92.0
360.954987 180.0
361.003723 148.0
361.034332 208.0
361.1138 160.0
361.146942 92.0
361.173615 96.0
361.256165 15308.0
361.318787 128.0
361.333862 216.0
361.351227 240.0
361.37973 140.0
361.438751 44.0
361.472809 28.0
361.512024 152.0
361.544708 32.0
361.557678 56.0
361.574158 56.0
361.587982 100.0
361.62796 52.0
361.701935 88.0
361.760437 80.0
361.802094 32.0
361.908081 56.0
361.956421 56.0
361.993134 84.0
362.020691 148.0
362.063354 164.0
362.115509 124.0
362.156921 124.0
362.201324 96.0
362.258759 2520.0
362.320923 56.0
362.385315 72.0
362.510864 60.0
362.578247 88.0
362.760498 60.0
362.798431 44.0
362.851501 88.0
362.878021 48.0
362.948181 72.0
363.002075 152.0
363.027924 96.0
363.097961 80.0
363.15686 60.0
363.215546 52.0
363.258514 340.0
363.31427 108.0
363.327576 180.0
363.374878 176.0
363.439362 52.0
363.465942 36.0
363.511475 84.0
363.542755 112.0
363.607422 112.0
363.625183 116.0
363.678436 144.0
363.717804 108.0
363.746765 112.0
363.811859 56.0
363.928986 64.0
364.004944 96.0
364.149231 40.0
364.213806 76.0
364.240417 68.0
364.490082 172.0
364.517731 32.0
364.61377 60.0
364.644104 176.0
364.80658 72.0
365.023315 192.0
365.160217 64.0
365.230011 132.0
365.361816 152.0
365.426483 112.0
365.593903 76.0
365.810852 72.0
366.347778 148.0
366.401123 32.0
366.473511 116.0
366.545898 160.0
367.210968 140.0
367.338928 32.0
368.048767 152.0
368.109863 100.0
368.216797 124.0
368.7211 148.0
368.774597 216.0
368.912201 44.0
369.046021 48.0
369.237213 104.0
369.351959 156.0
370.11734 136.0
370.68808 44.0
370.967865 36.0
371.539276 100.0
371.781006 40.0
371.888458 56.0
371.984406 176.0
372.207092 76.0
372.276215 144.0
372.551086 212.0
372.879944 156.0
373.013885 120.0
373.094604 156.0
373.723389 164.0
373.97934 276.0
374.214142 176.0
374.545349 176.0
374.922913 116.0
374.957611 60.0
375.181152 116.0
375.223572 100.0
375.262115 92.0
375.289124 68.0
375.373932 140.0
375.520477 120.0
375.859955 92.0
375.921692 164.0
376.091522 64.0
376.16098 88.0
376.240356 136.0
376.296112 148.0
376.365601 132.0
376.51535 72.0
376.54483 196.0
376.7034 188.0
376.735046 204.0
376.840668 244.0
376.964325 188.0
377.028137 112.0
377.118896 68.0
377.188477 116.0
377.387329 92.0
377.50238 64.0
377.529266 172.0
377.587585 124.0
377.6745 220.0
377.702759 132.0
377.763824 188.0
377.835999 132.0
377.89035 132.0
377.938873 128.0
378.035095 220.0
378.099182 304.0
378.176819 264.0
378.264465 81736.0
378.382599 192.0
378.472412 64.0
378.555908 172.0
378.590424 140.0
378.641907 204.0
378.670288 112.0
378.711945 132.0
378.766235 152.0
378.800598 180.0
378.856201 144.0
378.901062 132.0
378.985077 120.0
379.001587 64.0
379.036072 220.0
379.077148 60.0
379.126373 140.0
379.160156 180.0
379.268341 17288.0
379.378326 144.0
379.416443 52.0
379.444336 180.0
379.484314 96.0
379.532959 72.0
379.580292 72.0
379.592987 124.0
379.629913 128.0
379.65863 52.0
379.751038 68.0
379.781097 116.0
379.810364 64.0
379.844788 92.0
379.915649 180.0
380.003448 76.0
380.051819 88.0
380.093109 88.0
380.157288 48.0
380.219849 248.0
380.267639 3612.0
380.325562 80.0
380.350861 108.0
380.37915 68.0
380.434631 36.0
380.516174 116.0
380.545654 100.0
380.601593 108.0
380.648163 28.0
380.686432 144.0
380.721375 80.0
380.747589 100.0
380.869537 48.0
380.900604 64.0
380.939453 92.0
380.98822 80.0
381.077454 92.0
381.164795 88.0
381.216644 112.0
381.268372 404.0
381.312592 140.0
381.415924 136.0
381.448517 80.0
381.483246 120.0
381.526245 84.0
381.618805 96.0
381.670105 48.0
381.755646 184.0
381.802307 132.0
381.827942 68.0
381.868439 100.0
381.899567 48.0
381.951477 92.0
382.01236 96.0
382.070709 64.0
382.129059 72.0
382.214661 88.0
382.276917 92.0
382.302734 48.0
382.350861 44.0
382.420929 76.0
382.492798 232.0
382.548157 80.0
382.580505 160.0
382.621582 84.0
382.666168 48.0
382.872528 48.0
382.954315 96.0
383.106537 52.0
383.387909 68.0
383.769623 108.0
384.166565 68.0
384.88858 56.0
384.997925 48.0
385.0448 76.0
385.109802 56.0
385.818451 76.0
386.373779 108.0
387.454285 36.0
387.567902 108.0
388.100983 76.0
388.140198 28.0
388.246063 48.0
389.761292 60.0
389.792725 84.0
391.106262 56.0
391.153503 44.0
391.381836 84.0
391.819031 52.0
392.157898 108.0
392.899231 104.0
394.53418 72.0
395.048279 40.0
396.05368 84.0
398.227234 48.0
400.446533 100.0
400.725372 36.0
401.275391 72.0
401.738007 92.0
402.628082 72.0
403.031525 52.0
405.6008 68.0
412.76297 72.0
417.194397 84.0
419.278381 44.0
419.832825 128.0
429.891724 64.0
433.137207 140.0
437.006317 48.0
439.911072 160.0
444.783508 108.0
448.961365 76.0
454.35434 144.0
459.967285 68.0
465.795074 96.0
467.209351 60.0
472.096222 40.0
476.408844 80.0
480.98111 88.0
482.505676 64.0
488.148651 76.0
489.063721 104.0
503.723175 108.0
517.937561 92.0
524.562683 28.0
525.28772 120.0
532.593201 84.0
533.66394 100.0
534.648315 92.0
538.701111 76.0
541.47168 76.0
543.31189 52.0
543.45105 96.0
546.661865 164.0
547.271606 68.0
547.788574 80.0
550.517029 96.0
551.016785 48.0
554.245178 80.0
555.299927 60.0
558.56427 120.0
558.747742 88.0
561.276978 68.0
564.956116 92.0
565.046021 72.0
572.25531 48.0
572.440979 124.0
582.90741 84.0
585.929016 80.0
588.374084 64.0
588.813477 64.0
590.974243 136.0
593.38623 40.0
600.217529 100.0
600.895508 80.0
607.887512 80.0
616.44104 80.0
616.974854 40.0
618.617188 40.0
618.844971 48.0
630.150024 116.0
642.439941 44.0
645.065857 104.0
651.090149 128.0
652.207886 52.0
658.87323 216.0
666.851562 136.0
667.598206 100.0
674.092224 48.0
678.26355 112.0
680.05304 76.0
692.137146 40.0
697.730103 48.0
698.966064 68.0
701.209412 100.0
707.495178 172.0
715.383728 96.0
723.064514 68.0
727.100037 164.0
730.366699 52.0
732.988525 100.0
745.119141 72.0
763.204834 68.0
764.899231 52.0
770.01593 96.0
770.093262 60.0
771.469116 152.0
771.795288 64.0
789.987366 48.0
791.851257 64.0
804.52533 76.0
815.423462 156.0
825.651306 104.0
832.706238 36.0
839.260681 88.0
860.636414 44.0
862.266174 112.0
862.751343 40.0
868.906372 112.0
874.524048 212.0
877.599121 88.0
894.37616 136.0
901.186401 92.0
902.411682 48.0
903.577881 48.0
906.10437 116.0
907.860596 168.0
917.553223 148.0
926.836792 44.0
935.034729 76.0
947.515747 168.0
951.416138 76.0
954.223755 84.0
959.105408 72.0
967.655029 152.0
972.682556 56.0
974.545654 188.0
982.670715 184.0
986.336426 244.0
990.121704 80.0
991.913635 148.0
1004.035767 136.0
1019.507935 100.0
1027.511719 48.0
1030.716797 188.0
1038.790039 184.0
1038.8927 132.0
1040.875854 148.0
1046.720825 48.0
1047.09436 124.0
1055.464111 36.0
1057.514771 92.0
1058.712524 64.0
1062.990967 108.0
1069.092896 168.0
1069.756714 52.0
1075.917114 144.0
1078.850342 56.0
1081.427612 192.0
1082.933472 136.0
1083.188965 164.0
1088.442139 216.0
1110.563354 120.0
1111.392578 88.0
1119.016113 184.0
1124.088379 112.0
1125.944214 84.0
1126.685669 156.0
1128.383179 184.0
1129.52002 144.0
1130.516846 132.0
1131.018799 164.0
1133.32251 84.0
1152.620239 116.0
1152.897339 164.0
1155.148804 172.0
1157.524292 176.0
1161.88916 116.0
1164.033936 96.0
1166.921631 132.0
1167.798828 212.0
1170.092041 48.0
1172.108154 184.0
1172.721436 184.0
1173.38269 88.0
1179.92981 188.0
1182.043335 180.0
1182.200684 188.0
1182.453979 80.0
1187.434692 112.0
1193.053467 68.0
1193.945312 124.0
1202.798706 168.0
1202.88147 116.0
1206.383789 160.0
1209.44812 192.0
1210.950562 136.0
1214.977905 144.0
1215.206787 60.0
1224.890747 236.0
1230.371826 176.0
1234.627075 96.0
1237.762085 140.0
1237.811035 144.0
1240.052856 128.0
1240.150879 176.0
1243.973755 120.0
1245.307861 160.0
1246.677734 172.0
1253.23584 96.0
1254.793457 144.0
1259.387329 240.0
1264.237183 108.0
1267.423706 180.0
1268.734863 104.0
1270.387207 80.0
1272.402588 200.0
1282.023438 140.0
1282.176025 160.0
1287.019531 184.0
1288.112183 72.0
1288.719482 216.0
1290.020142 192.0
1290.599243 236.0
1294.377197 104.0
1306.190186 116.0
1309.421875 192.0
1311.50415 124.0
1313.775513 180.0
1316.626587 164.0
1320.080811 204.0
1322.982178 144.0
1326.524536 96.0
1329.258789 120.0
1330.136963 140.0
1332.598755 176.0
1334.422974 164.0
1340.989014 88.0
1344.861816 180.0
1350.275757 60.0
1351.753418 132.0
1355.297363 60.0
1356.594604 152.0
1358.846069 100.0
1359.484375 108.0
1361.275513 128.0
1363.08252 124.0
1364.317383 120.0
1365.464355 156.0
1369.158813 84.0
1374.016357 60.0
1375.588135 128.0
1376.008911 76.0
1379.503296 196.0
1379.606689 172.0
1385.601196 120.0
1386.52002 72.0
1388.173096 196.0
1389.923706 232.0
1399.934448 72.0
1400.8302 100.0
1402.439697 180.0
1403.550537 160.0
1403.915894 184.0
1404.37085 152.0
1412.77417 116.0
1416.374756 168.0
1417.423584 192.0
1420.167358 160.0
1421.165161 176.0
1424.641113 172.0
1430.431396 172.0
1430.90564 136.0
1444.285156 140.0
1447.228882 216.0
1450.956543 120.0
1451.138428 208.0
1453.322754 152.0
1461.406982 28.0
1468.659302 116.0
1469.818848 160.0
1471.849243 120.0
1474.660522 128.0
1483.470581 212.0
1485.00415 160.0
1486.300537 144.0
1486.622803 128.0
1487.075684 196.0
1487.620605 160.0
1487.973755 148.0
1489.386719 140.0
1490.131836 144.0
1493.275879 160.0
1493.529663 120.0
1494.083496 180.0
1497.323975 112.0
1498.756836 156.0
1498.818481 156.0
1500.521851 144.0
1501.161743 144.0
1503.09021 156.0
