>compound Disipal
>formula C18H23NO 
>ionization [M+H]+
>parentmass 270.18454
#inchi InChI=1S/C18H23NO/c1-15-9-7-8-12-17(15)18(20-14-13-19(2)3)16-10-5-4-6-11-16/h4-12,18H,13-14H2,1-3H3
#inchikey QVYRGXJJSLMXQH
#Ion_Source LC-ESI
#Instrument qTof
#Compound_Source Commercial
#PI Dorrestein
#Data_Collector Garg_Neha
#Scan -1
#Precursor_MZ 270.186
#ExactMass 269.178
#Charge 1
#CAS_Number N/A
#Pubmed_ID N/A
#Smiles N/A
#INCHI_AUX N/A
#Library_Class 1
#SpectrumID CCMSLIB00000076976
#IonMode Positive
#UpdateWorkflowName UPDATE-SINGLE-ANNOTATED-GOLD
#LibraryQualityString Gold
#TaskID 48f7f52fc6d249b5abbcc6e7b3df5969
##Scan# 1208
#SpectrumFile NCP002928_C2_D11_BA3_01_15697.mzXML
#LibraryName NIH_Clinical_Collection_2.mgf
#MQScore -1
#Organism NIHcollection2_04212014_2_mgf
#TIC_Query 0
#RT_Query -1
#MZErrorPPM -1
#SharedPeaks 0
#MassDiff 0
#LibMZ -1
#SpecMZ 270.186
#SpecCharge 0
#internalFilename spec-00000.mgf

>collision 10
44.90493 272.0
45.174751 160.0
45.196159 156.0
45.256393 184.0
45.448067 196.0
45.54607 156.0
45.637165 184.0
45.684528 196.0
45.704712 140.0
45.878456 160.0
46.029572 152.0
46.070091 160.0
46.159294 204.0
46.180237 192.0
46.287849 160.0
46.301392 188.0
46.314938 176.0
46.347919 196.0
46.451843 284.0
46.571297 140.0
46.582165 204.0
46.70042 180.0
46.779346 248.0
46.803852 140.0
46.813385 156.0
46.862423 152.0
47.124775 184.0
47.166756 172.0
47.1982 204.0
47.241966 164.0
47.299438 184.0
47.389828 140.0
47.4282 148.0
47.522827 168.0
47.540665 140.0
47.600754 148.0
47.77206 168.0
48.088425 148.0
48.406399 192.0
48.453495 220.0
48.556072 152.0
48.63377 152.0
48.660507 168.0
48.800476 180.0
48.8116 160.0
48.839386 212.0
48.868629 212.0
48.886719 152.0
48.98418 220.0
49.127029 232.0
49.28693 172.0
49.398781 156.0
49.48135 152.0
49.516357 180.0
49.579403 168.0
49.694389 148.0
49.791248 164.0
49.827503 200.0
49.898045 148.0
49.966957 208.0
50.154255 248.0
50.40971 156.0
50.494534 204.0
50.534107 164.0
50.807583 148.0
50.932507 176.0
50.980812 164.0
51.054737 156.0
51.117332 172.0
51.254032 184.0
51.292515 272.0
51.368092 148.0
51.474731 184.0
51.514896 124.0
51.633762 224.0
51.716747 172.0
51.740784 192.0
51.844364 116.0
51.936764 124.0
52.272034 208.0
52.514194 180.0
52.544487 172.0
52.561802 176.0
52.599327 144.0
52.746666 188.0
53.144699 172.0
53.253563 140.0
53.284321 168.0
53.508297 168.0
53.608803 180.0
53.633579 212.0
53.671482 152.0
53.705025 176.0
53.834919 176.0
54.016426 152.0
54.064831 180.0
54.122993 144.0
54.250462 208.0
54.289314 200.0
54.405968 244.0
54.439739 144.0
54.655304 180.0
54.77066 152.0
54.847282 200.0
54.864971 160.0
55.034939 160.0
55.088894 180.0
55.209015 176.0
55.219364 140.0
55.468121 164.0
55.481461 152.0
55.535011 180.0
55.551163 152.0
55.655052 148.0
55.727337 144.0
55.757553 204.0
55.77985 168.0
55.860149 176.0
55.950294 160.0
56.098415 164.0
56.159554 176.0
56.314781 216.0
56.528572 156.0
56.546528 180.0
56.610905 140.0
56.621387 176.0
56.735268 188.0
56.771255 192.0
56.814754 184.0
56.831257 140.0
56.852264 144.0
57.280777 204.0
57.341045 192.0
57.413414 156.0
57.428493 168.0
57.466209 152.0
57.522049 168.0
57.541676 144.0
57.582447 156.0
57.605103 232.0
57.647408 148.0
57.727528 548.0
57.927315 144.0
58.130486 208.0
58.14566 152.0
58.167938 136.0
58.414604 192.0
58.574177 200.0
58.630184 184.0
58.789417 156.0
58.801628 212.0
58.96505 228.0
59.02467 152.0
59.038433 152.0
59.052197 156.0
59.179211 192.0
59.466324 208.0
59.529793 184.0
59.596413 140.0
59.616226 152.0
59.662502 160.0
59.804024 244.0
59.825058 128.0
59.865604 140.0
60.184807 196.0
60.232681 172.0
60.326946 172.0
60.36869 152.0
60.548214 208.0
60.652023 236.0
60.759026 164.0
60.861462 148.0
61.041714 152.0
61.076115 168.0
61.103928 152.0
61.265842 200.0
61.42017 172.0
61.530968 240.0
61.754433 152.0
61.766945 348.0
61.807621 152.0
61.901543 160.0
61.926601 188.0
62.007942 192.0
62.218269 272.0
62.241821 168.0
62.316753 116.0
62.428822 228.0
62.501179 144.0
62.586178 160.0
62.635094 136.0
62.666508 156.0
62.710632 204.0
62.726395 180.0
62.888863 140.0
62.901493 156.0
63.141659 156.0
63.306248 264.0
63.484631 180.0
63.601143 172.0
64.245628 164.0
64.26796 148.0
64.282326 168.0
64.299553 176.0
64.410049 204.0
64.507523 208.0
64.523514 140.0
64.648277 160.0
64.670685 192.0
64.843658 216.0
65.211205 164.0
65.663528 128.0
65.703957 160.0
65.907394 160.0
65.930016 172.0
66.059364 192.0
66.188843 180.0
66.53907 180.0
66.641472 164.0
66.960228 212.0
67.136246 180.0
67.224335 148.0
67.278198 216.0
67.327187 188.0
67.356583 112.0
67.385986 168.0
67.446457 140.0
67.510101 112.0
67.559288 180.0
67.840965 192.0
67.980377 156.0
68.08873 144.0
68.267868 208.0
68.396194 192.0
68.534538 164.0
68.634148 148.0
69.079361 252.0
69.299248 156.0
69.375977 220.0
69.636299 220.0
70.088799 168.0
70.187149 176.0
70.492622 168.0
70.508614 152.0
70.713379 212.0
70.739761 152.0
70.752472 180.0
70.808807 188.0
70.870796 168.0
70.884201 168.0
70.924423 168.0
71.120674 176.0
71.520714 176.0
71.642525 252.0
71.793655 172.0
72.048538 188.0
72.12796 160.0
72.165154 296.0
72.176178 192.0
72.485405 140.0
72.50032 188.0
72.661407 152.0
72.725891 180.0
72.78421 192.0
72.849846 176.0
72.866837 160.0
72.916672 208.0
73.013023 140.0
73.030029 180.0
73.33535 164.0
73.394478 220.0
73.42347 148.0
73.64193 168.0
73.747864 144.0
73.782631 164.0
73.870979 152.0
74.184357 156.0
74.282967 208.0
74.313164 176.0
74.330147 176.0
74.438293 156.0
74.690933 252.0
74.721901 148.0
74.770081 156.0
74.904381 160.0
74.95607 216.0
75.093987 140.0
75.214767 184.0
75.320099 160.0
75.39785 164.0
75.439331 188.0
75.473915 156.0
75.51516 136.0
75.750824 156.0
76.009155 296.0
76.380951 148.0
76.514946 156.0
76.563705 152.0
76.638603 216.0
76.697861 160.0
76.800735 176.0
76.816437 144.0
77.004951 204.0
77.073082 148.0
77.116768 208.0
77.14299 148.0
77.260345 152.0
77.333656 196.0
77.51754 172.0
77.654289 152.0
77.727966 144.0
77.754295 140.0
77.803444 192.0
77.852608 148.0
77.875435 232.0
78.047554 136.0
78.331009 152.0
78.422638 160.0
78.450157 212.0
78.521378 160.0
78.551361 188.0
78.697838 160.0
78.747284 140.0
79.000061 304.0
79.058449 148.0
79.074379 192.0
79.33831 184.0
79.611557 140.0
79.725258 232.0
79.883499 152.0
80.106018 160.0
80.163033 148.0
80.277122 172.0
80.428772 152.0
80.44458 192.0
80.500191 152.0
80.532265 196.0
80.682442 172.0
80.703018 160.0
80.777222 160.0
80.80584 212.0
80.850578 180.0
80.961571 196.0
81.042183 204.0
81.269897 140.0
81.555435 148.0
81.57341 172.0
81.70649 268.0
81.833908 156.0
81.916252 124.0
81.962158 184.0
82.339195 156.0
82.554253 144.0
82.612129 152.0
82.755104 144.0
83.484566 148.0
83.553688 196.0
83.677444 232.0
83.748466 140.0
84.08577 192.0
84.506065 192.0
85.161827 148.0
85.304832 208.0
85.392105 140.0
85.412338 184.0
85.543266 156.0
85.561363 212.0
85.778923 152.0
86.512253 156.0
86.595482 152.0
86.667732 180.0
86.760399 196.0
86.849411 164.0
86.890221 188.0
86.945892 188.0
87.018173 132.0
87.098137 216.0
87.170601 176.0
87.312836 160.0
87.350945 156.0
87.394661 128.0
87.445023 144.0
87.520302 208.0
87.563133 176.0
87.714058 308.0
87.851021 168.0
87.96402 168.0
88.031235 168.0
88.162003 140.0
88.236771 192.0
88.438805 208.0
88.676674 156.0
88.744164 164.0
88.838112 124.0
89.209763 152.0
89.309425 140.0
89.335762 160.0
89.489929 148.0
89.559761 184.0
89.668884 220.0
89.898666 132.0
90.104942 168.0
90.15596 172.0
90.195648 172.0
90.254402 264.0
90.29586 156.0
90.310989 184.0
90.360176 196.0
90.41127 200.0
90.479408 184.0
90.85276 172.0
90.919601 228.0
91.006622 284.0
91.053963 164.0
91.074219 228.0
91.185059 192.0
91.339066 164.0
91.566689 232.0
91.637955 212.0
91.742775 172.0
91.86673 140.0
91.910614 144.0
92.241211 176.0
92.271606 172.0
92.340446 236.0
92.449493 204.0
92.516487 172.0
92.767441 172.0
92.836472 148.0
92.949646 168.0
93.09362 132.0
93.142349 172.0
93.25116 160.0
93.335747 180.0
93.412674 140.0
93.441528 192.0
93.664841 144.0
93.971367 312.0
93.990662 176.0
94.148956 188.0
94.177177 236.0
94.195168 264.0
94.286125 144.0
94.531731 188.0
94.611084 164.0
94.692413 200.0
94.816406 144.0
94.843544 204.0
95.285591 152.0
95.402603 176.0
95.470657 160.0
95.527061 148.0
95.696381 212.0
95.711952 144.0
95.747009 184.0
95.978905 156.0
96.228653 144.0
96.244278 180.0
96.496323 152.0
96.527611 160.0
96.61367 192.0
96.647148 108.0
96.760452 224.0
96.815277 184.0
96.976746 232.0
97.068069 168.0
97.160255 164.0
97.426575 208.0
97.651344 164.0
97.672981 180.0
98.336998 148.0
98.376472 152.0
98.396217 164.0
98.453217 152.0
98.475204 156.0
98.545563 252.0
98.57003 208.0
98.783562 164.0
98.822151 132.0
99.160881 136.0
99.383858 140.0
99.678406 188.0
99.710182 188.0
99.876541 188.0
100.053444 116.0
100.08551 172.0
100.141266 208.0
100.260811 140.0
100.29377 156.0
100.553986 180.0
100.627647 176.0
100.845261 208.0
100.891563 144.0
101.069565 196.0
101.223694 168.0
101.237717 184.0
101.339874 180.0
101.624588 248.0
101.921753 152.0
102.258484 244.0
102.337273 172.0
102.98188 140.0
103.054703 1460.0
103.096581 144.0
103.210793 148.0
103.326942 224.0
103.499771 164.0
103.817276 140.0
103.956161 156.0
103.993782 156.0
104.018143 152.0
104.054298 168.0
104.089203 216.0
104.322853 300.0
104.603577 168.0
104.625404 144.0
104.768532 144.0
104.801125 168.0
104.972351 208.0
104.989395 212.0
105.106979 140.0
105.384674 212.0
105.527748 228.0
105.671661 184.0
106.062065 184.0
106.075386 152.0
106.10511 148.0
106.293228 196.0
106.414917 176.0
106.544304 140.0
106.858459 164.0
107.00499 180.0
107.087364 140.0
107.23365 180.0
107.268684 144.0
107.431602 172.0
107.45842 144.0
107.503815 184.0
107.57193 184.0
107.673103 188.0
107.921074 140.0
107.970703 168.0
108.007935 144.0
108.094826 152.0
108.328789 148.0
108.354614 120.0
108.465553 180.0
108.48214 140.0
108.537453 176.0
108.639229 160.0
108.982307 152.0
109.278191 264.0
109.342064 116.0
109.450317 164.0
109.654472 144.0
109.689903 212.0
109.760788 196.0
109.787895 180.0
109.836288 220.0
109.890106 192.0
109.96315 212.0
110.086319 160.0
110.117645 180.0
110.213745 156.0
110.258347 116.0
110.793137 160.0
111.078392 188.0
111.252571 156.0
111.361763 212.0
111.397469 148.0
111.534058 164.0
111.552979 144.0
111.6539 180.0
111.938004 204.0
112.098099 204.0
112.464081 180.0
112.9151 160.0
112.963753 204.0
113.120346 152.0
113.353317 152.0
113.638878 196.0
113.760544 176.0
113.953804 208.0
114.040222 180.0
114.404678 160.0
114.794586 140.0
114.81591 168.0
114.847908 236.0
115.018608 288.0
115.053848 1152.0
115.110413 296.0
115.17662 192.0
115.497246 148.0
115.625046 164.0
115.976875 192.0
116.058464 504.0
116.142937 188.0
116.184883 152.0
116.259979 156.0
116.275002 172.0
116.328346 188.0
116.416695 204.0
116.49939 192.0
116.702118 140.0
116.745491 184.0
116.814323 152.0
117.063248 140.0
117.275124 160.0
117.358696 172.0
117.605125 176.0
117.663414 156.0
117.730354 208.0
117.842674 156.0
117.911827 196.0
118.035049 152.0
118.17997 224.0
118.407265 172.0
118.812614 208.0
118.921112 152.0
119.140427 156.0
119.190399 164.0
119.225174 152.0
119.267624 192.0
119.39257 176.0
119.562263 192.0
119.631912 184.0
119.749496 140.0
119.779396 224.0
119.987488 160.0
120.194855 124.0
120.285889 196.0
120.337761 216.0
120.54142 176.0
120.585129 148.0
120.742546 152.0
120.904442 140.0
121.000748 148.0
121.067436 176.0
121.103676 224.0
121.285538 156.0
121.333763 152.0
121.439018 164.0
121.496056 172.0
121.572853 148.0
122.148499 232.0
122.25293 180.0
122.566803 152.0
122.617485 152.0
122.82695 152.0
123.08075 156.0
123.164673 228.0
123.224319 156.0
123.412186 176.0
123.542114 220.0
123.951759 188.0
124.257111 116.0
124.362564 196.0
124.451363 168.0
124.651276 156.0
124.700165 164.0
125.214211 176.0
125.414635 192.0
125.493713 208.0
125.661156 136.0
125.897087 232.0
126.001526 152.0
126.269768 184.0
126.56292 152.0
126.580833 180.0
126.61219 148.0
126.740128 176.0
126.946098 204.0
127.056007 172.0
127.138 160.0
127.163719 180.0
127.680458 172.0
127.736687 184.0
127.801933 156.0
128.093643 136.0
128.173462 192.0
128.227539 164.0
128.321564 176.0
128.64032 152.0
128.69902 208.0
128.820984 200.0
129.070816 172.0
129.431625 148.0
129.599243 148.0
129.626434 164.0
129.75386 168.0
129.78511 148.0
129.807785 176.0
129.927994 148.0
130.082321 160.0
130.136795 172.0
130.457321 252.0
130.641342 208.0
130.818848 184.0
131.016968 152.0
131.062546 220.0
131.23349 200.0
131.299622 276.0
131.395416 176.0
131.461594 140.0
131.580292 164.0
131.66478 168.0
131.958832 180.0
132.254654 144.0
132.467606 212.0
132.676147 192.0
132.936325 148.0
133.000626 176.0
133.077652 180.0
133.109802 192.0
133.27977 156.0
133.348724 148.0
133.38089 160.0
133.44986 208.0
133.631561 172.0
133.746628 172.0
133.781158 180.0
133.80188 152.0
133.832382 160.0
133.917023 140.0
134.020676 152.0
134.202774 164.0
134.403442 192.0
134.426514 176.0
134.525528 192.0
134.574127 160.0
134.650452 148.0
134.692032 168.0
134.814484 148.0
135.031799 176.0
135.184479 180.0
135.203842 120.0
135.365051 284.0
135.462326 168.0
135.48317 240.0
135.656982 188.0
135.937622 224.0
135.958511 152.0
136.151199 140.0
136.232498 160.0
136.295227 248.0
136.448624 144.0
136.665802 132.0
136.750168 204.0
137.078217 132.0
137.126022 156.0
137.233032 168.0
137.34053 204.0
137.412842 196.0
137.452499 144.0
137.613556 192.0
137.697632 188.0
137.830414 128.0
137.898834 132.0
138.017776 196.0
138.384537 172.0
138.490509 144.0
138.75766 164.0
138.839722 160.0
138.933548 216.0
139.008743 172.0
139.034454 148.0
139.055328 392.0
139.109558 160.0
139.182343 156.0
139.466599 172.0
139.62648 208.0
139.666473 168.0
139.713516 156.0
140.060959 148.0
140.113739 148.0
140.139648 224.0
140.210342 188.0
140.253754 208.0
140.462631 156.0
140.601837 188.0
140.961777 164.0
141.070358 11976.0
141.502457 164.0
141.561646 220.0
141.658752 180.0
141.706131 204.0
141.771103 232.0
142.074326 1332.0
142.332321 212.0
142.641174 192.0
142.795731 236.0
142.971268 220.0
143.024139 308.0
143.160324 100.0
143.223068 132.0
143.703323 180.0
143.836975 148.0
143.987396 156.0
144.016052 184.0
144.066208 188.0
144.255005 176.0
144.388901 172.0
144.685608 184.0
144.87326 292.0
145.073715 152.0
145.131256 244.0
145.211884 204.0
145.726501 240.0
145.768341 164.0
145.930801 176.0
146.351868 252.0
146.375946 164.0
146.510818 188.0
146.810806 148.0
146.990631 236.0
147.02066 172.0
147.176498 160.0
147.219955 196.0
147.384216 144.0
147.69635 180.0
147.809799 176.0
147.904175 156.0
147.959854 156.0
148.017975 160.0
148.129379 152.0
149.112289 128.0
149.136368 164.0
149.440353 156.0
149.512054 240.0
150.048309 156.0
150.151657 152.0
150.185806 168.0
150.339508 256.0
150.454239 152.0
150.49086 152.0
150.520218 140.0
150.720459 156.0
150.942886 168.0
151.0522 420.0
151.174332 144.0
151.537628 176.0
151.607483 128.0
151.753372 204.0
151.785248 148.0
152.062866 1564.0
152.212372 172.0
152.31044 148.0
152.394882 248.0
152.457855 140.0
152.627472 164.0
152.765213 156.0
152.821793 144.0
152.903 152.0
153.016235 160.0
153.070038 16624.0
153.67923 164.0
153.805084 148.0
153.935944 164.0
153.975449 164.0
154.073822 1128.0
154.412903 172.0
154.608765 244.0
154.64859 204.0
154.771729 152.0
154.833649 140.0
154.862915 156.0
154.88884 112.0
154.977325 156.0
155.080734 280.0
155.152222 196.0
155.356644 152.0
155.42363 192.0
155.676834 156.0
155.897919 176.0
156.167648 188.0
156.253494 204.0
156.5746 228.0
156.659286 208.0
156.72905 192.0
156.803818 192.0
156.826248 180.0
156.945908 180.0
156.968353 184.0
157.212814 144.0
157.457016 152.0
157.579437 136.0
157.609863 188.0
157.752319 224.0
157.814819 188.0
158.177582 180.0
158.493134 196.0
158.563309 164.0
158.856674 192.0
158.958237 152.0
159.049896 140.0
159.177933 208.0
159.637787 168.0
160.0681 196.0
160.320007 168.0
160.369431 144.0
160.45108 212.0
160.609955 148.0
160.761108 276.0
160.791611 156.0
160.815369 120.0
160.965805 172.0
161.133362 148.0
161.203262 160.0
161.261383 184.0
161.30722 176.0
161.435822 164.0
161.511703 140.0
161.643265 168.0
161.807785 148.0
161.914139 200.0
162.114273 180.0
162.361679 108.0
162.504761 144.0
162.596634 176.0
162.672272 140.0
162.973434 156.0
163.054733 304.0
163.254105 168.0
163.410507 164.0
163.513901 200.0
163.584869 280.0
164.002625 152.0
164.059387 1048.0
164.147095 168.0
164.183563 148.0
164.255051 148.0
164.311172 252.0
164.362213 272.0
164.395386 152.0
164.45723 188.0
164.561768 172.0
164.609085 196.0
164.706863 152.0
164.732407 180.0
164.788971 144.0
164.864014 148.0
164.927917 180.0
164.995468 124.0
165.000916 232.0
165.028412 240.0
165.070435 118452.0
165.155502 160.0
165.172729 256.0
165.211151 136.0
165.313522 128.0
165.406647 200.0
165.437607 184.0
165.541519 184.0
165.618759 188.0
165.670471 156.0
165.697479 244.0
165.790405 208.0
165.832962 260.0
165.871445 100.0
165.89502 184.0
165.92691 260.0
165.953857 136.0
165.974609 244.0
165.994293 108.0
166.015518 512.0
166.078903 210700.0
166.180069 120.0
166.21817 260.0
166.265717 232.0
166.308731 124.0
166.328384 140.0
166.387619 240.0
166.42688 128.0
166.473907 172.0
166.500168 2572.0
166.680603 152.0
166.69928 188.0
166.814209 136.0
166.857269 196.0
166.917847 132.0
166.985931 168.0
167.027115 160.0
167.081284 35372.0
167.16832 244.0
167.275024 120.0
167.391937 180.0
167.463745 172.0
167.592224 204.0
167.636597 196.0
167.742264 128.0
167.836716 156.0
167.94902 184.0
167.971527 280.0
168.053085 312.0
168.083344 2740.0
168.156799 136.0
168.214859 104.0
168.255096 184.0
168.290298 364.0
168.329788 192.0
168.371689 160.0
168.395996 116.0
168.426788 108.0
168.486969 124.0
168.549515 128.0
168.62619 100.0
168.648361 124.0
168.73642 144.0
168.982117 176.0
169.022064 128.0
169.069382 160.0
169.249863 224.0
169.270599 136.0
169.432785 276.0
169.455917 120.0
169.994873 192.0
170.02739 212.0
170.065338 164.0
170.695602 180.0
170.7276 216.0
170.782455 168.0
170.807877 128.0
171.081711 188.0
171.173569 172.0
171.196274 168.0
171.273254 208.0
171.524551 140.0
171.69664 180.0
171.894897 200.0
171.923523 132.0
172.398895 140.0
172.448563 140.0
172.534286 156.0
172.554459 148.0
172.833725 112.0
173.076416 188.0
173.47464 160.0
173.818222 208.0
174.047256 140.0
174.133255 224.0
174.222565 148.0
174.257416 136.0
174.325027 144.0
174.377365 228.0
174.795731 156.0
174.827316 244.0
175.108337 188.0
175.169601 152.0
175.361954 264.0
175.744324 144.0
175.797104 160.0
175.820847 156.0
176.034683 152.0
176.257126 136.0
176.412506 140.0
176.563232 164.0
176.584381 152.0
177.06868 504.0
177.153488 152.0
177.452957 180.0
177.662476 164.0
177.726151 220.0
177.908707 148.0
178.077972 3644.0
178.172195 148.0
178.204071 216.0
178.270508 188.0
178.314377 148.0
178.431213 112.0
178.587357 132.0
178.709961 164.0
178.863602 144.0
178.892883 204.0
178.92749 216.0
178.972763 172.0
179.001389 228.0
179.085663 32072.0
179.147995 216.0
179.182312 240.0
179.257568 220.0
179.3013 264.0
179.412643 152.0
179.430374 196.0
179.583221 220.0
179.609695 184.0
179.770325 224.0
179.815048 104.0
179.849854 152.0
179.988678 192.0
180.026062 140.0
180.090805 7156.0
180.141846 136.0
180.199677 156.0
180.241776 172.0
180.263443 104.0
180.310486 112.0
180.34494 136.0
180.367599 144.0
180.41861 96.0
180.448959 148.0
180.50264 292.0
180.574844 328.0
180.645294 164.0
180.66304 600.0
180.69368 304.0
180.768661 184.0
180.805115 204.0
180.827087 388.0
180.850647 96.0
180.874573 328.0
180.910919 216.0
180.985153 148.0
181.006134 312.0
181.103043 399816.0
181.203217 364.0
181.258057 164.0
181.276733 360.0
181.351044 384.0
181.39772 624.0
181.416779 536.0
181.468964 216.0
181.514359 496.0
181.542099 11936.0
181.579315 320.0
181.609421 112.0
181.642273 372.0
181.775894 128.0
181.82103 304.0
181.854614 148.0
181.94101 180.0
181.982193 268.0
182.033066 156.0
182.054123 240.0
182.104996 110124.0
182.179169 184.0
182.213684 188.0
182.297836 132.0
182.468185 116.0
182.505508 140.0
182.549988 192.0
182.585556 152.0
182.654724 112.0
182.699417 124.0
182.750427 228.0
182.7771 168.0
182.831497 192.0
182.853943 248.0
182.908188 104.0
182.950333 148.0
183.015411 340.0
183.041565 188.0
183.079971 460.0
183.108536 7380.0
183.180984 232.0
183.210876 184.0
183.265182 284.0
183.302307 328.0
183.333572 336.0
183.430359 204.0
183.459518 176.0
183.511414 384.0
183.560211 324.0
183.600449 240.0
183.641449 196.0
183.673035 104.0
183.721909 112.0
183.742691 140.0
183.812729 128.0
184.088364 216.0
184.111481 504.0
184.328064 184.0
184.381775 116.0
184.438889 244.0
184.512436 124.0
184.609375 164.0
184.806503 128.0
185.352448 160.0
185.44458 140.0
185.531326 152.0
186.552063 96.0
188.753815 160.0
189.499557 188.0
189.864136 176.0
191.077469 100.0
191.107727 140.0
191.437668 104.0
193.075073 1424.0
193.69809 160.0
194.079041 392.0
195.188446 160.0
196.096008 164.0
197.057129 104.0
202.986755 144.0
204.979431 144.0
206.205002 132.0
228.782867 164.0
236.94043 156.0
253.909378 176.0
270.18454 3148.0
271.147156 148.0
271.187317 156.0
272.206757 140.0
273.087524 176.0
303.305054 120.0
322.93634 152.0
461.940094 200.0
479.401245 144.0
855.402466 144.0
941.610107 144.0
1123.062012 140.0
1230.347412 140.0
1231.262085 216.0
1240.631348 200.0
1247.2229 140.0
1252.732666 144.0
1300.296631 208.0
1331.108521 148.0
1332.321411 216.0
1332.67749 172.0
1336.967773 180.0
1339.363159 216.0
1372.651489 172.0
1375.307495 204.0
1384.490112 196.0
1389.478638 160.0
1394.572754 140.0
1428.596313 152.0
1431.486572 200.0
1434.266602 196.0
1435.133545 184.0
1438.12085 184.0
1438.875732 144.0
1439.374146 188.0
1441.912354 208.0
1444.853882 192.0
1445.95105 224.0
1447.836182 168.0
1448.949707 212.0
1452.087891 140.0
1453.772095 168.0
1457.56897 148.0
1463.951172 148.0
1471.772705 196.0
1472.408813 144.0
1473.057983 152.0
1482.491821 152.0
1487.369751 180.0
1495.848389 220.0
1500.308716 176.0
1503.980591 188.0
1511.182983 172.0
1513.953003 124.0
1514.488647 176.0
1524.06958 200.0
1524.776733 148.0
1525.064209 252.0
1535.61438 172.0
1544.135376 180.0
1548.181519 200.0
1550.272339 172.0
1551.966309 140.0
1565.033081 180.0
1565.450439 204.0
1568.105347 140.0
1572.837769 212.0
1575.222534 204.0
1576.581543 212.0
1581.888794 156.0
1583.052612 152.0
1585.35791 216.0
1591.314941 216.0
1592.180542 152.0
1594.587769 148.0
1599.988892 196.0
1603.294556 180.0
1604.059692 172.0
1609.676514 184.0
1612.264771 220.0
1612.800293 172.0
1613.799561 208.0
1616.283447 112.0
1620.651001 144.0
1623.26416 176.0
1625.598511 180.0
1627.797974 172.0
1629.211548 164.0
1631.542236 212.0
1635.660889 140.0
1639.341675 148.0
1641.800415 160.0
1645.205444 168.0
1649.494995 248.0
1650.877563 180.0
1651.969482 144.0
1652.244507 256.0
1654.980103 188.0
1658.893311 164.0
1665.725952 192.0
1676.115356 192.0
1679.988159 184.0
1680.240967 200.0
1684.935425 212.0
1688.87561 148.0
1690.814697 236.0
1691.313965 140.0
1693.115112 160.0
1694.311035 160.0
1699.738892 176.0
1701.060303 188.0
1703.063843 200.0
1706.06311 172.0
1707.814575 140.0
1708.678345 192.0
1711.287354 196.0
1713.494751 168.0
1718.639526 192.0
1718.944824 168.0
1720.257202 148.0
1724.287354 148.0
1726.057129 160.0
1726.156372 200.0
1727.598877 188.0
1727.959473 176.0
1728.737305 192.0
1729.341431 140.0
1730.574951 160.0
1730.856445 188.0
1733.822144 144.0
1736.350708 184.0
1736.408813 172.0
1740.358765 144.0
1741.645996 220.0
1752.86084 224.0
1754.069336 144.0
1756.579224 144.0
1758.005981 212.0
1760.126343 176.0
1762.674072 220.0
1767.841919 140.0
1768.988647 164.0
1769.105835 196.0
1771.332153 204.0
1771.693481 244.0
1775.113159 148.0
1777.07605 220.0
1777.629761 184.0
1783.290161 148.0
1783.466675 184.0
1785.215454 168.0
1787.074463 184.0
1787.411011 172.0
1791.797729 180.0
1792.303223 152.0
1792.961182 160.0
1793.660156 176.0
1795.574097 148.0
1795.919922 220.0
1799.785034 192.0
1802.724609 176.0
1803.054199 160.0
1803.383911 156.0
1804.541992 216.0
1805.64978 144.0
1805.861206 172.0
1806.647827 176.0
1807.409302 160.0
1808.22168 224.0
1808.594116 144.0
1810.829468 152.0
1811.499878 176.0
1812.4729 140.0
1814.176514 144.0
1814.362915 160.0
1815.762085 212.0
1819.300415 188.0
1820.166382 140.0
1821.890625 224.0
1825.542725 224.0
1826.054932 160.0
1828.157104 156.0
1829.016724 156.0
1832.269775 176.0
1832.499756 224.0
1833.760986 148.0
1837.564209 160.0
1838.946655 200.0
1841.405518 148.0
1843.079956 180.0
1843.737915 176.0
1844.190918 164.0
1844.302002 164.0
1846.668091 200.0
1847.081055 176.0
1848.347168 164.0
1848.603882 184.0
1849.947754 164.0
1854.17041 176.0
1857.720337 148.0
1861.342163 156.0
1864.714355 172.0
1865.148193 204.0
1866.575317 196.0
1867.340698 340.0
1869.577515 156.0
1873.80542 164.0
1874.348267 188.0
1875.062256 120.0
1877.468872 148.0
1879.073242 184.0
1882.456787 192.0
1885.022461 148.0
1886.716553 172.0
1887.650269 164.0
1888.445923 152.0
1889.141235 160.0
1890.617554 176.0
1891.119507 152.0
1895.57959 200.0
1895.819458 224.0
1897.261108 192.0
1898.828979 148.0
1899.255615 160.0
1900.599487 184.0
1903.864258 140.0
1904.380127 168.0
1905.558105 152.0
1906.49646 152.0
1910.035156 160.0
1911.792603 144.0
1912.079834 264.0
1912.280029 180.0
1914.639404 204.0
1916.216064 168.0
1916.913086 176.0
1917.052612 164.0
1917.478516 96.0
1919.143311 164.0
1921.642944 224.0
1922.145142 140.0
1922.940552 124.0
1924.676514 140.0
1925.15686 160.0
1927.401855 140.0
1928.083984 124.0
1929.420776 180.0
1929.796753 160.0
1931.204712 172.0
1932.359375 164.0
1932.613159 180.0
1933.129028 156.0
1934.022095 148.0
1935.512573 176.0
1935.869507 180.0
1936.018311 144.0
1936.184692 220.0
1937.209473 184.0
1938.120728 176.0
1938.628906 168.0
1938.79541 164.0
1939.119751 152.0
1946.067383 204.0
1946.611816 168.0
1946.831299 208.0
1947.955566 148.0
1951.110474 204.0
1952.4646 180.0
1953.810425 148.0
1954.171143 96.0
1955.191895 148.0
1955.799194 164.0
1955.913574 148.0
1957.559937 140.0
1958.819458 152.0
1959.311768 148.0
1960.572754 172.0
1961.877319 188.0
1962.388428 176.0
1967.549927 148.0
1968.8479 156.0
1968.998047 148.0
1969.210083 176.0
1971.869385 168.0
1971.940063 156.0
1972.974365 220.0
1975.366455 184.0
1975.813232 176.0
1976.928101 168.0
1979.096802 196.0
1982.880615 152.0
1983.53833 168.0
1984.625732 220.0
1986.559204 188.0
1986.674561 152.0
1989.833984 156.0
1990.011475 220.0
1990.197998 164.0
1991.80542 184.0
1992.160767 152.0
1994.580933 192.0
1996.053589 152.0
1996.373779 144.0
1998.811157 172.0
2002.140503 176.0
2003.236084 164.0
2003.402344 168.0
