>compound MLS001143539-01!
>formula C20H16O6
>ionization [M+H]+
>parentmass 353.100708
#inchi InChI=1S/C20H16O6/c21-20-15(6-13-2-4-17-19(8-13)26-11-24-17)14(9-22-20)5-12-1-3-16-18(7-12)25-10-23-16/h1-4,6-8,14H,5,9-11H2/b15-6+/t14-/m0/s1
#inchikey CMJGAYUQSLJSCR
#Ion_Source LC-ESI
#Instrument qTof
#Compound_Source NIH Natural Product Library
#PI Dorrestein
#Data_Collector VVP/LMS
#Scan -1
#Precursor_MZ 353.103
#ExactMass 352.095
#Charge 1
#CAS_Number N/A
#Pubmed_ID N/A
#Smiles O=C/1OC[C@H](Cc2ccc3OCOc3c2)\C1=C/c4ccc5OCOc5c4
#INCHI_AUX N/A
#Library_Class 1
#SpectrumID CCMSLIB00000080592
#IonMode Positive
#UpdateWorkflowName UPDATE-SINGLE-ANNOTATED-GOLD
#LibraryQualityString Gold
#TaskID b1d8e8f6646f4e71acdff9ca3d919d08
##Scan# 2333
#SpectrumFile p2-B11_GB11_01_17999.mzXML
#LibraryName NIH_Natural_Products_Library.mgf
#MQScore -1
#Organism NIH_Natural_Products_Library
#TIC_Query 0
#RT_Query -1
#MZErrorPPM -1
#SharedPeaks 0
#MassDiff 0
#LibMZ -1
#SpecMZ 353.103
#SpecCharge 0
#internalFilename spec-00000.mgf

>collision 10
95.242104 252.0
95.442574 188.0
95.483307 196.0
95.549881 260.0
95.617989 124.0
95.721161 188.0
95.830238 148.0
96.140282 144.0
96.159798 136.0
96.226166 36.0
96.357018 168.0
96.380463 140.0
96.519241 164.0
96.577911 140.0
96.675735 160.0
96.734451 152.0
96.859779 144.0
97.036148 104.0
97.0989 160.0
97.140083 88.0
97.318794 132.0
97.348724 172.0
97.414909 180.0
97.442688 144.0
97.560326 140.0
97.599648 132.0
97.676353 160.0
97.83181 156.0
97.888908 152.0
97.918449 116.0
97.973602 152.0
98.119896 172.0
98.198311 172.0
98.342339 140.0
98.51413 148.0
98.547714 148.0
98.63665 112.0
98.680138 108.0
98.820564 108.0
98.852226 136.0
98.875969 212.0
98.913574 72.0
99.042282 72.0
99.085861 120.0
99.202789 144.0
99.228561 152.0
99.260284 172.0
99.292015 148.0
99.323746 108.0
99.458679 228.0
99.532433 228.0
99.571846 148.0
99.619514 160.0
99.657265 124.0
99.675148 92.0
99.776512 76.0
99.856049 176.0
99.925674 228.0
100.114769 140.0
100.188469 100.0
100.421692 184.0
100.643196 72.0
100.760361 200.0
100.767639 132.0
100.776131 108.0
100.816986 64.0
100.888939 160.0
101.010925 128.0
101.116966 136.0
101.225075 52.0
101.371307 80.0
101.387337 168.0
101.449471 140.0
101.627968 96.0
101.74839 148.0
101.810211 172.0
101.842766 36.0
101.888496 188.0
101.925133 148.0
101.957291 124.0
102.001503 168.0
102.047813 1324.0
102.070282 228.0
102.10807 192.0
102.228149 180.0
102.401909 120.0
102.548988 140.0
102.613495 148.0
102.645355 100.0
102.675179 204.0
102.83741 44.0
102.924217 44.0
103.019142 316.0
103.054932 3968.0
103.09996 136.0
103.276031 228.0
103.326424 92.0
103.378647 84.0
103.466072 156.0
103.48024 144.0
103.573395 132.0
103.636871 60.0
103.662537 208.0
103.688881 128.0
103.703072 32.0
103.780106 140.0
103.869339 176.0
103.891647 84.0
103.940346 204.0
103.984993 88.0
104.05632 400.0
104.084465 68.0
104.173828 36.0
104.214455 220.0
104.460449 96.0
104.499107 312.0
104.692474 180.0
104.82489 148.0
104.877876 176.0
105.03421 1264.0
105.0895 88.0
105.127464 152.0
105.147102 168.0
105.218544 120.0
105.267853 264.0
105.396233 268.0
105.416672 148.0
105.467766 136.0
105.539314 120.0
105.588394 212.0
105.852379 132.0
106.036163 196.0
106.352615 180.0
106.408035 100.0
106.625778 200.0
106.650436 140.0
106.70594 172.0
106.821106 108.0
106.882828 268.0
106.950737 168.0
107.031029 104.0
107.04837 524.0
107.076332 92.0
107.098991 160.0
107.22467 88.0
107.361237 132.0
107.39373 40.0
107.672363 40.0
107.825241 144.0
108.053185 204.0
108.166519 148.0
108.232765 156.0
108.354965 148.0
108.626541 116.0
108.807083 136.0
108.906357 144.0
108.973236 148.0
109.037651 180.0
109.093773 172.0
109.174866 132.0
109.303833 152.0
109.3582 160.0
109.441216 140.0
109.455788 240.0
109.474533 68.0
109.491188 160.0
109.666199 252.0
109.722481 96.0
109.766159 152.0
109.962364 164.0
110.150131 108.0
110.194916 120.0
110.229675 168.0
110.363449 92.0
110.417816 220.0
110.478477 152.0
110.497307 136.0
110.562172 140.0
110.591476 128.0
110.886848 136.0
110.91404 172.0
111.02935 152.0
111.048225 52.0
111.363052 100.0
111.461182 164.0
111.560577 124.0
111.615242 108.0
111.632057 212.0
111.659401 40.0
111.74144 208.0
111.861389 160.0
111.876129 68.0
112.177368 128.0
112.3946 128.0
112.491676 184.0
112.656395 140.0
112.75782 96.0
112.8022 88.0
112.819115 148.0
112.838142 136.0
112.897346 60.0
112.969261 156.0
113.036964 168.0
113.063019 192.0
113.094574 108.0
113.13221 136.0
113.221138 160.0
113.303741 156.0
113.583206 236.0
113.693893 112.0
113.86586 168.0
113.980568 124.0
114.15947 224.0
114.501762 180.0
114.644493 164.0
114.689255 132.0
114.770264 212.0
114.849167 132.0
114.868362 188.0
114.925964 76.0
115.054947 1776.0
115.085815 220.0
115.182152 124.0
115.218468 92.0
115.335999 44.0
115.477112 236.0
115.502777 140.0
115.73391 132.0
115.757462 208.0
115.853844 160.0
115.920265 64.0
115.958839 156.0
115.975983 228.0
116.002899 144.0
116.059319 168.0
116.252647 116.0
116.334206 272.0
116.39003 112.0
116.525345 136.0
116.551125 56.0
116.594101 120.0
116.948975 172.0
116.996849 200.0
117.034355 1944.0
117.070641 1024.0
117.172928 72.0
117.244034 148.0
117.390625 164.0
117.431602 124.0
117.502785 144.0
117.627953 160.0
117.707832 164.0
117.770462 64.0
117.792656 168.0
117.824471 228.0
118.038803 136.0
118.075607 196.0
118.256943 212.0
118.28508 100.0
118.328377 136.0
118.435616 200.0
118.55468 124.0
118.701057 176.0
118.786301 144.0
119.020027 108.0
119.049484 452.0
119.080833 116.0
119.214439 256.0
119.260925 144.0
119.346176 176.0
119.382919 288.0
119.43512 128.0
119.620895 232.0
119.711517 104.0
119.785568 148.0
119.816063 156.0
119.885788 128.0
119.91848 196.0
119.95118 80.0
120.051468 152.0
120.180168 208.0
120.463982 148.0
120.524406 200.0
120.542633 188.0
120.599457 80.0
120.621315 56.0
120.726257 236.0
120.840004 148.0
120.980064 160.0
121.032608 160.0
121.190315 156.0
121.20565 112.0
121.251671 124.0
121.374435 128.0
121.420486 180.0
121.534554 268.0
121.826553 260.0
121.852913 132.0
122.303719 68.0
122.413803 148.0
122.497498 200.0
122.515114 176.0
122.599922 196.0
122.682602 120.0
122.856819 80.0
122.971558 160.0
123.002464 204.0
123.044792 184.0
123.360313 92.0
123.420006 120.0
123.486351 164.0
123.587158 196.0
123.647858 136.0
123.840477 96.0
123.92244 148.0
123.988914 140.0
124.022163 124.0
124.079796 256.0
124.15519 196.0
124.181801 44.0
124.236572 168.0
124.543587 176.0
124.621338 168.0
124.856964 180.0
124.88588 208.0
124.930367 132.0
124.99044 212.0
125.164055 124.0
125.402428 176.0
125.449234 80.0
125.545113 208.0
125.623177 168.0
125.678947 148.0
125.77491 68.0
125.844116 168.0
125.932808 212.0
126.029503 240.0
126.050545 316.0
126.103386 188.0
126.139008 192.0
126.294243 188.0
126.534973 140.0
126.644005 168.0
126.682777 192.0
126.71862 128.0
126.871017 88.0
127.055351 1292.0
127.169357 144.0
127.340927 172.0
127.480629 180.0
127.53981 184.0
127.692848 120.0
128.062439 1928.0
128.14566 204.0
128.312088 116.0
128.433853 204.0
128.480133 124.0
128.609863 212.0
128.654999 200.0
128.727249 84.0
128.874069 160.0
128.898926 84.0
128.980286 152.0
129.007416 80.0
129.033951 288.0
129.069458 1480.0
129.179276 44.0
129.405594 212.0
129.491638 64.0
129.530151 236.0
129.636627 196.0
129.833542 224.0
129.865601 180.0
129.892822 36.0
129.922318 196.0
130.041382 5288.0
130.072968 156.0
130.108414 168.0
130.160629 132.0
130.226486 160.0
130.262833 120.0
130.324173 136.0
130.376434 28.0
130.490082 176.0
130.544662 176.0
130.587875 112.0
130.788086 40.0
130.936081 88.0
130.965698 132.0
131.048645 3892.0
131.095551 184.0
131.129745 116.0
131.150253 164.0
131.170761 192.0
131.227753 56.0
131.405655 216.0
131.469543 56.0
131.486725 144.0
131.579117 172.0
131.631622 148.0
131.782379 48.0
131.846359 148.0
131.935501 124.0
131.953796 56.0
132.001816 364.0
132.056366 164.0
132.091003 200.0
132.180237 188.0
132.338165 168.0
132.547745 92.0
132.592438 144.0
132.748322 136.0
132.883652 164.0
132.902008 52.0
132.953949 176.0
133.027435 464.0
133.049545 392.0
133.108597 152.0
133.188965 68.0
133.255585 100.0
133.363602 172.0
133.467041 64.0
133.519943 152.0
133.694778 128.0
133.750015 180.0
133.860519 36.0
133.901978 168.0
133.977997 132.0
134.030441 136.0
134.042023 212.0
134.057693 372.0
134.39299 120.0
134.510681 164.0
134.533768 188.0
134.595215 184.0
134.669998 156.0
134.73703 216.0
134.783203 160.0
134.813248 212.0
134.840973 148.0
134.871017 124.0
134.887207 156.0
134.935745 116.0
134.958878 168.0
134.987823 424.0
135.011047 208.0
135.045227 38232.0
135.150848 52.0
135.18486 40.0
135.251068 100.0
135.336014 140.0
135.362686 108.0
135.417435 180.0
135.451813 136.0
135.468033 100.0
135.528259 40.0
135.572296 40.0
135.630829 92.0
135.665009 80.0
135.696472 132.0
135.725281 60.0
135.760071 164.0
135.787888 48.0
135.896927 60.0
135.950287 36.0
135.987427 72.0
136.015274 88.0
136.048294 4084.0
136.139221 104.0
136.177811 116.0
136.196396 60.0
136.240524 132.0
136.277695 52.0
136.298615 92.0
136.31488 80.0
136.41481 44.0
136.460495 148.0
136.517471 160.0
136.633408 108.0
136.662735 132.0
136.770706 168.0
136.825195 176.0
136.849854 200.0
136.868484 148.0
136.88945 84.0
136.933685 44.0
136.975616 56.0
137.049911 324.0
137.082016 168.0
137.138718 112.0
137.171356 52.0
137.387207 164.0
137.546906 176.0
137.658966 80.0
137.972061 68.0
137.997787 100.0
138.100677 164.0
138.121719 140.0
138.159149 112.0
138.238708 200.0
138.269135 228.0
138.451736 148.0
138.468124 120.0
138.575302 80.0
138.618057 188.0
138.725876 80.0
138.831375 96.0
138.88298 240.0
138.930527 208.0
138.967438 160.0
139.042526 168.0
139.354828 96.0
139.387726 156.0
139.596939 28.0
139.647476 164.0
139.68866 164.0
139.79689 112.0
139.874557 160.0
139.893387 280.0
139.999344 200.0
140.093552 96.0
140.119476 144.0
140.211365 180.0
140.369308 116.0
140.390533 312.0
140.527542 196.0
140.676025 184.0
140.770462 204.0
140.812088 188.0
140.895645 44.0
141.034943 184.0
141.22995 172.0
141.810059 120.0
141.8517 140.0
141.929947 180.0
141.989227 168.0
142.042389 188.0
142.081726 148.0
142.135345 228.0
142.425934 160.0
142.511459 64.0
142.547104 144.0
142.74202 128.0
142.758667 48.0
142.927551 148.0
143.050095 1336.0
143.225143 128.0
143.344269 72.0
143.43959 124.0
143.458664 36.0
143.656601 200.0
143.713928 184.0
143.742493 148.0
143.876144 164.0
143.923889 140.0
144.053497 344.0
144.131699 160.0
144.277496 200.0
144.294235 72.0
144.310974 32.0
144.332489 164.0
144.368088 172.0
144.509476 172.0
144.541946 176.0
144.600418 112.0
144.791946 88.0
144.820679 152.0
144.870987 172.0
144.933273 132.0
144.981201 168.0
144.997986 144.0
145.030762 1696.0
145.065247 1044.0
145.10585 28.0
145.142639 184.0
145.840408 80.0
145.881271 184.0
145.946381 152.0
146.035538 180.0
146.068832 148.0
146.230042 136.0
146.550323 204.0
146.600922 64.0
146.675644 176.0
146.861298 132.0
146.8806 148.0
146.900269 180.0
146.965042 192.0
147.045349 5320.0
147.078934 184.0
147.178268 76.0
147.235397 136.0
147.27887 44.0
147.421417 68.0
147.554352 56.0
147.614807 36.0
147.641403 180.0
147.704285 236.0
147.854294 32.0
147.902695 112.0
147.943848 108.0
147.965637 184.0
148.018906 184.0
148.048264 860.0
148.072189 128.0
148.106094 180.0
148.183609 72.0
148.227219 180.0
148.467209 156.0
148.49147 148.0
148.575531 160.0
148.615189 68.0
148.632172 28.0
148.729248 144.0
148.770508 96.0
148.848206 104.0
148.924728 152.0
148.959915 216.0
148.989075 168.0
149.024811 1808.0
149.060669 468.0
149.215088 72.0
149.275879 64.0
149.341537 172.0
149.392532 108.0
149.463181 300.0
149.511841 180.0
149.562958 44.0
149.689545 200.0
149.76445 196.0
149.816208 44.0
149.950226 164.0
149.998962 136.0
150.031189 496.0
150.062347 156.0
150.324554 80.0
150.364822 248.0
150.562576 160.0
150.6483 172.0
150.780014 64.0
150.84845 188.0
150.926682 176.0
151.041885 188.0
151.338806 192.0
151.455292 140.0
151.48468 200.0
151.511627 132.0
151.717484 176.0
151.960281 76.0
152.033905 112.0
152.061142 120.0
152.159088 104.0
152.330688 164.0
152.502991 164.0
152.584106 204.0
153.070099 340.0
153.315155 96.0
153.738098 176.0
153.882492 148.0
154.041229 144.0
154.075134 120.0
154.162476 184.0
154.359375 108.0
154.473129 56.0
154.621597 156.0
154.743805 368.0
154.963318 76.0
155.049637 3840.0
155.124405 128.0
155.151672 44.0
155.226517 168.0
155.536163 40.0
155.597992 128.0
155.640442 128.0
155.804352 56.0
155.851562 36.0
155.928604 144.0
156.055191 624.0
156.241898 68.0
156.286682 112.0
156.380264 160.0
156.440994 180.0
156.630249 128.0
156.859482 136.0
156.929291 136.0
157.063385 980.0
157.244034 68.0
157.315979 76.0
157.385895 124.0
157.485779 64.0
157.628189 108.0
157.795654 120.0
157.859207 200.0
157.91568 188.0
157.938187 180.0
158.010727 40.0
158.035751 244.0
158.066925 404.0
158.155869 52.0
158.320465 180.0
158.346161 212.0
158.433823 128.0
158.561615 92.0
158.61676 44.0
158.789764 224.0
158.817352 72.0
158.839935 360.0
158.892609 120.0
159.005524 152.0
159.045593 3428.0
159.148605 108.0
159.1828 208.0
159.228973 128.0
159.266647 44.0
159.314377 128.0
159.352051 60.0
159.374664 88.0
159.575745 100.0
159.66626 192.0
159.819016 232.0
159.885132 188.0
160.052521 13248.0
160.103149 72.0
160.16713 80.0
160.20491 48.0
160.28302 52.0
160.343491 104.0
160.396423 76.0
160.482132 72.0
160.554352 100.0
160.628403 36.0
160.777176 112.0
160.906006 124.0
160.980225 172.0
161.059265 3660.0
161.181305 112.0
161.26976 84.0
161.344193 108.0
161.466965 76.0
161.489731 244.0
161.540314 116.0
161.699722 200.0
162.034637 220.0
162.065384 512.0
162.17334 80.0
162.239243 84.0
162.312775 140.0
162.444656 80.0
162.629883 120.0
162.693344 168.0
163.03981 2648.0
163.071823 128.0
163.173508 64.0
163.196381 84.0
163.379501 68.0
163.545242 152.0
163.580536 104.0
163.628906 60.0
163.953751 200.0
163.975342 132.0
164.045151 372.0
164.192047 52.0
164.2099 164.0
164.334885 188.0
164.546036 192.0
164.564606 84.0
164.605453 52.0
164.643753 172.0
164.669296 136.0
164.707687 136.0
165.070557 1392.0
165.108887 84.0
165.249573 112.0
165.32634 288.0
165.374954 92.0
165.467117 60.0
165.513199 192.0
165.53772 104.0
165.710419 172.0
165.884689 220.0
165.95134 88.0
166.000061 152.0
166.021637 180.0
166.08252 224.0
166.443985 204.0
166.46196 160.0
166.780533 52.0
166.857651 128.0
167.050522 220.0
167.087708 248.0
167.20491 148.0
167.441757 148.0
167.464935 108.0
167.488113 108.0
167.611786 168.0
167.637543 76.0
167.727753 164.0
167.9366 140.0
168.0914 104.0
168.171402 144.0
168.359863 36.0
168.7061 164.0
168.752625 108.0
168.814682 128.0
168.853485 116.0
169.135498 204.0
169.211456 128.0
169.301193 196.0
169.324509 48.0
169.547302 172.0
169.638031 128.0
169.74173 72.0
169.793594 164.0
169.819534 156.0
169.86882 176.0
169.967407 36.0
170.068619 136.0
170.289307 212.0
170.398407 64.0
170.419189 140.0
170.770126 48.0
170.871582 176.0
170.918411 156.0
171.045151 308.0
171.196945 124.0
171.533051 120.0
171.626892 216.0
171.739029 76.0
171.911224 132.0
172.023453 148.0
172.050369 520.0
172.151382 96.0
172.255859 136.0
172.300262 56.0
172.424255 80.0
172.608688 152.0
172.653137 36.0
172.694992 32.0
173.059998 2640.0
173.111511 104.0
173.179199 32.0
173.212524 136.0
173.281357 164.0
173.517227 144.0
173.571106 164.0
173.590652 52.0
173.656204 160.0
173.716537 100.0
174.033035 160.0
174.0616 1000.0
174.149643 36.0
174.391373 152.0
174.472855 128.0
174.820053 92.0
174.841095 168.0
175.038483 4692.0
175.122803 216.0
175.196564 148.0
175.30986 76.0
175.373108 52.0
175.4021 56.0
175.451523 228.0
175.479935 92.0
175.512177 228.0
176.003616 132.0
176.045166 944.0
176.065277 444.0
176.148865 104.0
176.188492 28.0
176.276062 140.0
176.391968 52.0
176.563828 44.0
176.592926 48.0
176.751648 60.0
177.023941 184.0
177.051361 128.0
177.069824 768.0
177.395218 132.0
177.649796 120.0
178.077621 1512.0
178.156845 212.0
178.598099 148.0
179.035492 2100.0
179.084595 772.0
179.316971 68.0
179.348969 40.0
179.413681 200.0
179.484924 104.0
179.580933 112.0
179.61293 64.0
179.757004 420.0
179.831726 36.0
179.863754 40.0
179.989227 240.0
180.041031 160.0
180.062347 244.0
180.084183 108.0
180.160172 224.0
180.194901 148.0
180.304459 200.0
180.400681 112.0
180.470184 188.0
180.553085 140.0
180.587845 120.0
180.740341 172.0
180.900909 204.0
180.997299 68.0
181.03746 248.0
181.06424 368.0
181.219604 172.0
181.241043 148.0
182.01355 164.0
182.104858 136.0
182.268723 152.0
182.471268 200.0
182.658554 140.0
183.000336 48.0
183.044785 904.0
183.081924 240.0
183.21579 148.0
183.59314 176.0
183.725601 144.0
183.970886 172.0
184.052643 352.0
184.095078 92.0
184.205826 168.0
184.297897 144.0
184.462524 160.0
184.784348 124.0
184.830338 196.0
184.918213 160.0
184.968369 152.0
185.060837 6660.0
185.110947 96.0
185.212067 132.0
185.236435 48.0
185.453217 80.0
185.512161 260.0
185.694519 96.0
185.737915 144.0
185.851288 96.0
185.979401 68.0
186.027542 60.0
186.064972 1024.0
186.227783 100.0
186.305252 72.0
186.408493 92.0
186.884338 188.0
187.039246 1496.0
187.075546 280.0
187.129303 176.0
187.175583 136.0
187.268173 96.0
187.349899 56.0
187.627869 84.0
187.698761 228.0
187.821487 148.0
187.878769 148.0
187.938797 148.0
188.049713 804.0
188.077057 192.0
188.351013 180.0
188.616074 28.0
188.698074 240.0
188.878571 52.0
188.89772 168.0
188.930542 112.0
189.070251 4280.0
189.152191 96.0
189.318085 88.0
189.453415 144.0
189.475342 36.0
189.524658 124.0
189.658936 192.0
189.71376 192.0
189.883759 104.0
189.902954 144.0
190.037628 136.0
190.078171 8232.0
190.172958 88.0
190.210266 224.0
190.2612 64.0
190.48761 36.0
190.682693 160.0
190.746414 244.0
190.831131 128.0
190.931351 144.0
190.963135 152.0
190.985138 116.0
191.054138 336.0
191.086533 21000.0
191.161209 148.0
191.196976 148.0
191.224976 216.0
191.261383 156.0
191.281525 212.0
191.313217 140.0
191.405289 148.0
191.450256 56.0
191.541138 28.0
191.626541 36.0
191.64859 152.0
191.717468 128.0
191.769836 236.0
192.012451 32.0
192.090393 2736.0
192.191757 100.0
192.211075 60.0
192.300018 124.0
192.376678 124.0
192.423615 128.0
192.485275 132.0
192.520248 132.0
192.539581 40.0
192.575485 172.0
192.600342 164.0
192.62645 112.0
192.652832 68.0
192.68045 148.0
192.721893 92.0
192.796509 48.0
192.940231 104.0
192.970352 152.0
193.014893 164.0
193.037003 176.0
193.06395 180.0
193.095779 332.0
193.131042 216.0
193.33963 224.0
193.37175 108.0
193.452423 112.0
193.486008 104.0
193.513809 100.0
193.595993 180.0
193.767731 160.0
193.881332 80.0
193.900742 112.0
193.936768 196.0
194.067062 152.0
194.128983 168.0
194.508163 120.0
194.547012 148.0
194.892502 176.0
195.046829 168.0
195.080063 512.0
195.124863 168.0
195.311188 196.0
195.355698 40.0
195.522629 160.0
196.057343 280.0
196.113083 84.0
196.284393 196.0
196.550919 172.0
197.017181 144.0
197.442032 96.0
197.464401 180.0
197.534332 100.0
197.780579 160.0
197.828156 176.0
198.074585 76.0
198.107742 248.0
198.17543 80.0
198.508987 68.0
199.040482 984.0
199.2556 80.0
199.321365 224.0
199.348328 172.0
199.550705 176.0
199.666 156.0
199.741943 40.0
199.792572 184.0
200.060516 464.0
200.39505 132.0
200.547226 132.0
200.62616 140.0
200.657166 168.0
200.908173 120.0
200.992813 204.0
201.070709 2028.0
201.269424 144.0
201.455826 48.0
201.489731 64.0
201.605576 124.0
201.732758 120.0
201.761032 168.0
201.831711 44.0
202.078278 3636.0
202.230606 48.0
202.307022 124.0
202.349487 124.0
202.52626 76.0
202.550552 128.0
202.635544 188.0
202.703537 124.0
202.723373 132.0
202.768723 164.0
202.881058 152.0
203.023865 112.0
203.081451 3304.0
203.177032 84.0
203.276352 120.0
203.56778 60.0
203.602814 116.0
203.882568 176.0
204.054855 464.0
204.085968 428.0
204.174026 156.0
204.227356 128.0
204.370316 144.0
204.580917 88.0
204.941116 160.0
205.013855 136.0
205.065247 2036.0
205.094925 288.0
205.367371 148.0
205.410156 96.0
205.498596 132.0
205.521423 188.0
205.550903 180.0
205.612732 140.0
205.661255 60.0
205.737686 124.0
205.881088 60.0
205.986771 84.0
206.018188 92.0
206.075485 880.0
206.123901 148.0
206.232498 80.0
206.384018 48.0
206.463287 188.0
206.567047 48.0
206.750168 112.0
206.993484 168.0
207.075882 608.0
207.236954 140.0
207.454758 132.0
207.630768 116.0
208.085907 180.0
208.215134 172.0
208.31279 128.0
208.332901 88.0
208.427704 192.0
208.499542 48.0
209.060593 532.0
210.067383 152.0
210.195694 60.0
210.325562 96.0
210.790543 68.0
210.963959 144.0
211.042007 112.0
211.062256 216.0
211.287842 120.0
211.808914 192.0
212.037811 148.0
212.382828 216.0
212.826843 120.0
213.056412 1148.0
213.171478 124.0
213.416672 56.0
213.553345 124.0
214.056915 364.0
214.231567 128.0
214.251953 92.0
215.017441 176.0
215.028976 92.0
215.037155 128.0
215.080124 120.0
215.258209 216.0
215.304932 80.0
215.41008 132.0
215.430527 176.0
215.597076 132.0
216.048325 348.0
216.079758 160.0
216.225845 228.0
216.375122 160.0
216.503967 160.0
216.614716 192.0
217.028488 180.0
217.063263 644.0
217.282211 196.0
217.671082 88.0
217.873749 144.0
218.074142 4496.0
218.161545 60.0
218.169724 56.0
218.446991 72.0
218.861954 136.0
218.885513 212.0
218.966293 112.0
219.035568 212.0
219.081558 30472.0
219.138916 116.0
219.172882 64.0
219.190948 116.0
219.212479 84.0
219.236053 32.0
219.300903 80.0
219.430603 60.0
219.495468 48.0
219.553284 152.0
219.582108 72.0
219.621262 232.0
219.781586 40.0
219.834595 64.0
219.974701 92.0
220.008835 52.0
220.049179 140.0
220.083908 6356.0
220.125458 104.0
220.168289 48.0
220.230301 80.0
220.274612 48.0
220.30249 128.0
220.416428 120.0
220.521423 60.0
220.726791 60.0
220.759323 28.0
220.788895 88.0
220.836212 48.0
221.007797 68.0
221.090988 784.0
221.21199 40.0
221.374832 52.0
221.451843 64.0
221.618668 88.0
221.63063 124.0
221.682922 104.0
221.721451 100.0
221.780716 72.0
221.863724 92.0
221.940811 176.0
222.069107 604.0
222.098114 180.0
222.275986 32.0
222.421402 60.0
222.471863 108.0
222.522339 88.0
222.546097 108.0
222.567276 208.0
222.616486 136.0
223.076813 316.0
223.14328 48.0
223.595413 52.0
223.64006 112.0
223.675781 52.0
223.973541 112.0
224.083771 140.0
224.211899 100.0
224.590546 36.0
225.005325 256.0
225.357758 44.0
225.546021 44.0
225.785217 100.0
226.078384 88.0
226.120285 208.0
226.159195 148.0
226.25798 164.0
226.422668 216.0
227.007034 112.0
227.199005 140.0
227.895523 136.0
227.970657 176.0
228.602158 204.0
228.69545 32.0
228.731567 52.0
228.993515 52.0
229.06749 3408.0
229.252609 56.0
229.457581 100.0
229.629456 48.0
229.81105 80.0
229.952271 104.0
229.991516 124.0
230.071854 500.0
230.248154 84.0
230.39917 108.0
230.420319 72.0
230.553268 32.0
230.674164 208.0
230.910019 80.0
231.079437 2744.0
231.182281 88.0
231.369949 116.0
231.409302 68.0
231.760651 132.0
232.05162 160.0
232.086624 524.0
232.242661 88.0
232.834488 88.0
233.061127 544.0
233.357147 56.0
233.594345 156.0
233.697784 128.0
233.929077 104.0
234.066788 452.0
234.898102 96.0
235.076355 928.0
235.778595 112.0
235.814117 200.0
235.890533 144.0
236.086823 240.0
236.159607 168.0
236.294205 48.0
236.370697 116.0
236.401291 32.0
236.428833 168.0
236.67067 108.0
236.765594 184.0
236.802338 144.0
237.010651 84.0
237.054962 300.0
237.08107 300.0
237.091522 176.0
237.672958 228.0
238.090439 104.0
238.597427 132.0
238.677368 148.0
239.388184 68.0
239.560654 96.0
240.007538 148.0
240.220352 160.0
240.933456 76.0
241.066147 156.0
241.282669 132.0
241.307404 64.0
241.533157 100.0
241.557907 136.0
242.05928 200.0
242.784409 236.0
243.04808 116.0
243.076004 112.0
243.401932 116.0
243.423676 96.0
243.45163 264.0
243.585175 112.0
244.502396 108.0
244.742081 128.0
245.057114 188.0
245.31221 148.0
245.4151 180.0
246.066696 1228.0
246.235794 192.0
246.341995 124.0
246.441971 232.0
246.463837 120.0
246.601334 116.0
246.670105 216.0
246.82016 160.0
246.870193 160.0
246.992172 160.0
247.07663 14792.0
247.170502 64.0
247.192398 44.0
247.233078 108.0
247.292542 80.0
247.345749 48.0
247.373932 128.0
247.449066 48.0
247.502289 60.0
247.589966 64.0
247.652603 92.0
247.809235 72.0
247.856232 48.0
248.009796 32.0
248.044281 124.0
248.080856 2980.0
248.116379 160.0
248.273148 72.0
248.329605 44.0
248.738129 60.0
248.806564 148.0
248.900757 72.0
248.982407 92.0
249.057297 156.0
249.091187 5020.0
249.13945 52.0
249.174011 132.0
249.244827 156.0
249.409698 60.0
249.491425 92.0
249.526001 88.0
249.711533 140.0
249.758713 84.0
249.799606 132.0
249.821625 56.0
249.864227 140.0
249.893982 160.0
250.094208 588.0
250.20871 168.0
250.315765 68.0
250.416534 48.0
250.448029 108.0
250.520477 140.0
250.605545 100.0
250.794617 156.0
250.826141 104.0
250.908112 128.0
251.068909 52.0
251.096298 300.0
251.801086 84.0
252.019058 100.0
252.079086 120.0
252.101212 160.0
252.19603 80.0
252.550156 80.0
252.838058 92.0
253.208466 100.0
253.316162 228.0
253.503082 76.0
253.61084 96.0
254.381638 168.0
254.508621 100.0
254.772232 212.0
254.861191 128.0
254.889786 144.0
254.994659 128.0
255.987213 148.0
256.082764 124.0
257.060974 736.0
257.648956 144.0
258.062347 540.0
259.00531 108.0
259.0755 9584.0
259.122314 128.0
259.128693 140.0
259.159058 160.0
259.290466 60.0
259.357758 64.0
259.385315 72.0
259.518036 72.0
259.976746 64.0
260.08194 1804.0
260.162903 52.0
260.227112 164.0
260.811768 88.0
260.866425 88.0
261.004669 68.0
261.050507 224.0
261.088745 608.0
261.183289 52.0
261.479309 80.0
261.522614 64.0
261.690002 112.0
261.741516 92.0
261.860687 196.0
262.062195 1500.0
262.168518 36.0
262.38269 40.0
262.826691 72.0
262.895538 108.0
263.011719 132.0
263.067169 1192.0
263.3992 104.0
263.589813 52.0
263.664154 152.0
263.793427 200.0
263.835449 52.0
264.074524 268.0
264.258667 144.0
264.861267 48.0
265.080261 336.0
265.931244 96.0
266.06369 144.0
266.25589 72.0
267.06842 92.0
267.774689 56.0
268.067902 132.0
269.712769 48.0
270.072449 132.0
271.041473 128.0
271.067688 172.0
271.54303 64.0
271.618469 116.0
271.989258 176.0
272.091278 152.0
272.16983 32.0
272.448975 80.0
273.050507 184.0
273.136017 124.0
274.061035 248.0
274.535767 160.0
274.773254 92.0
274.885437 108.0
275.071228 6048.0
275.238617 52.0
275.268341 84.0
275.311279 120.0
275.44339 92.0
275.473114 108.0
275.935791 200.0
276.076294 2632.0
276.157349 80.0
276.263184 88.0
276.299591 124.0
276.425293 44.0
276.868896 92.0
276.955017 56.0
277.021271 100.0
277.086823 10524.0
277.230957 164.0
277.30954 84.0
277.345978 44.0
277.538269 48.0
277.996033 140.0
278.088684 2372.0
278.268188 56.0
278.856171 52.0
279.087646 428.0
279.742981 168.0
279.859009 156.0
279.894073 64.0
280.073914 148.0
280.100555 144.0
281.080627 144.0
281.712189 148.0
281.935608 104.0
285.14621 136.0
285.287384 88.0
285.556366 116.0
285.924713 52.0
286.054352 176.0
286.077911 132.0
286.987549 204.0
287.069092 2592.0
287.173035 48.0
287.385559 80.0
287.604919 48.0
287.888489 124.0
287.996582 200.0
288.07782 964.0
289.083038 512.0
289.163025 56.0
289.884369 112.0
290.057709 816.0
291.067474 432.0
291.961914 112.0
292.07431 264.0
293.081451 120.0
293.245422 60.0
293.825104 80.0
294.074219 108.0
294.29953 152.0
295.269989 60.0
296.660156 232.0
299.570801 148.0
302.059662 40.0
302.575287 44.0
302.741486 104.0
302.779572 152.0
303.064667 608.0
304.069031 228.0
304.080353 492.0
304.319183 64.0
304.350433 116.0
304.579651 100.0
304.701233 52.0
305.080414 5496.0
305.142609 168.0
305.201721 44.0
305.500793 40.0
305.598236 56.0
305.685211 116.0
305.737396 200.0
306.088989 1784.0
306.437317 100.0
306.621979 52.0
306.810211 164.0
307.019409 120.0
307.09549 1140.0
307.172882 80.0
307.319397 20.0
307.635101 44.0
307.87442 68.0
307.923309 80.0
307.947754 64.0
307.993164 84.0
308.099579 520.0
308.657166 116.0
308.870514 48.0
309.041931 124.0
309.102142 228.0
310.092468 108.0
310.635956 88.0
311.204468 40.0
312.758301 164.0
314.986786 108.0
315.069855 148.0
315.874023 68.0
316.06839 184.0
316.457947 128.0
316.542908 140.0
316.982147 164.0
317.008118 124.0
317.080933 5188.0
317.165619 188.0
317.269257 64.0
317.481995 48.0
317.694794 52.0
318.085388 744.0
318.268433 32.0
318.788361 36.0
319.063843 392.0
319.09259 288.0
319.26828 84.0
319.492371 84.0
319.524384 100.0
319.858887 84.0
320.068024 756.0
320.350281 124.0
320.378784 32.0
321.069 200.0
321.105957 136.0
321.72406 88.0
322.076752 148.0
322.305389 108.0
322.391144 104.0
323.811432 88.0
325.403564 116.0
325.909973 88.0
326.23703 120.0
326.557068 68.0
328.613953 140.0
328.819641 64.0
332.935944 44.0
333.059418 128.0
333.66629 48.0
334.07666 128.0
335.088379 484.0
335.785522 120.0
336.091949 108.0
336.500732 60.0
337.081482 100.0
337.107086 172.0
339.673584 60.0
348.058685 160.0
349.691437 76.0
352.211151 200.0
353.100708 156.0
353.351318 208.0
353.740509 112.0
354.118683 164.0
356.283051 116.0
356.407013 84.0
357.106232 124.0
358.959106 140.0
368.562683 84.0
370.1922 84.0
370.72467 64.0
372.159271 60.0
372.623993 60.0
374.166199 32.0
380.906616 100.0
381.295166 60.0
391.494263 92.0
402.853943 84.0
405.422638 124.0
406.216492 60.0
407.123566 132.0
407.380646 96.0
410.447418 84.0
413.825256 152.0
413.982056 72.0
415.58429 112.0
416.416473 84.0
427.380432 20.0
428.07608 136.0
439.270721 48.0
443.368195 84.0
454.38208 68.0
465.95636 96.0
470.128693 92.0
470.953278 140.0
471.074219 84.0
482.36377 64.0
497.074036 88.0
518.86438 52.0
526.170837 68.0
528.744263 56.0
530.159363 56.0
534.379211 40.0
536.861938 108.0
545.073914 100.0
552.201782 72.0
552.276611 44.0
556.968506 64.0
577.56427 128.0
583.097168 68.0
595.329468 44.0
596.053223 44.0
603.227234 76.0
612.64917 64.0
613.57074 108.0
615.23822 112.0
620.571472 52.0
638.649231 36.0
638.940979 160.0
646.332458 56.0
648.327576 104.0
657.573364 92.0
666.838318 52.0
671.389404 76.0
671.734985 124.0
672.298096 136.0
680.470764 140.0
680.68335 80.0
681.914551 48.0
686.089172 112.0
691.144775 32.0
727.960999 44.0
735.077332 60.0
735.498291 52.0
755.659729 168.0
780.641418 112.0
786.357239 40.0
788.457153 216.0
789.770996 60.0
790.481506 52.0
802.563721 92.0
817.967529 100.0
820.565247 96.0
822.698914 52.0
824.40094 132.0
833.776367 44.0
838.835571 84.0
839.688904 176.0
843.019958 188.0
843.603699 208.0
848.9245 144.0
849.904785 64.0
858.402344 172.0
858.636292 204.0
861.765076 212.0
870.545349 104.0
875.467346 100.0
882.530518 96.0
885.12207 200.0
891.540466 84.0
923.181641 136.0
926.24408 44.0
927.213501 156.0
933.137817 100.0
934.457581 108.0
936.009644 48.0
936.746582 76.0
938.922485 72.0
941.479492 172.0
949.226624 200.0
953.480774 176.0
956.405273 40.0
957.972351 84.0
963.419434 196.0
965.650818 148.0
984.899841 224.0
986.730835 176.0
995.358398 192.0
1000.362854 208.0
1003.304749 156.0
1005.40509 208.0
1008.398621 116.0
1008.961182 140.0
1012.01062 184.0
1015.451538 168.0
1018.078857 112.0
1026.363892 76.0
1027.594849 132.0
1028.462646 216.0
1035.674927 132.0
1036.51416 140.0
1042.925293 144.0
1043.536011 156.0
1055.974976 128.0
1056.602417 180.0
1057.339966 168.0
1057.585938 180.0
1058.323975 144.0
1058.375732 164.0
1060.837646 60.0
1061.233032 232.0
1062.406982 156.0
1063.529541 240.0
1066.010376 132.0
1070.075562 132.0
1070.238281 144.0
1075.212036 168.0
1075.570923 208.0
1079.562744 212.0
1083.13623 72.0
1083.856812 164.0
1087.096069 180.0
1087.397949 208.0
1087.575195 128.0
1088.907959 196.0
1089.124268 112.0
1090.018188 128.0
1094.161865 200.0
1094.978271 148.0
1096.012573 196.0
1096.243164 144.0
1098.874023 76.0
1100.807983 112.0
1102.115845 72.0
1103.405273 200.0
1103.688843 220.0
1103.86084 100.0
1108.706421 88.0
1109.926147 116.0
1110.549561 104.0
1114.080811 172.0
1116.653198 56.0
1121.880127 172.0
1124.321289 176.0
1125.783203 136.0
1127.834229 208.0
1130.077393 224.0
1133.315063 132.0
1134.011963 248.0
1138.661377 212.0
1144.202026 180.0
1146.613403 168.0
1147.503174 152.0
1147.611084 192.0
1155.404785 136.0
1156.609253 148.0
1157.848267 56.0
1158.004028 260.0
1160.287598 164.0
1165.669922 92.0
1166.757324 152.0
1166.852539 136.0
1167.954224 176.0
1168.029785 208.0
1169.192383 56.0
1169.478271 144.0
1172.399902 200.0
1172.529419 36.0
1174.411133 208.0
1175.03186 136.0
1175.332153 180.0
1175.63916 112.0
1175.8302 140.0
1176.526489 136.0
1177.209229 248.0
1177.645386 156.0
1180.28418 208.0
1183.493164 152.0
1184.349121 144.0
1186.445923 176.0
1190.500977 176.0
1191.105347 188.0
1192.933105 128.0
1196.276245 72.0
1197.736084 164.0
1197.935913 176.0
1201.279053 160.0
1201.734375 188.0
1202.348511 132.0
1205.836182 164.0
1206.451294 132.0
1207.668335 148.0
1208.308838 88.0
1208.699097 192.0
1210.651123 156.0
1210.852051 160.0
1211.606934 168.0
1213.554443 244.0
1218.002808 128.0
1218.079102 180.0
1218.690552 200.0
1219.614746 176.0
1225.383545 212.0
1225.554932 68.0
1227.544312 184.0
1229.350952 148.0
1230.223389 124.0
1230.802856 192.0
1233.821167 132.0
1234.184692 124.0
1235.50647 140.0
1235.695435 72.0
1235.766235 168.0
1236.388062 200.0
1236.619019 256.0
1237.76709 156.0
1238.082275 148.0
1238.950806 228.0
1239.434204 216.0
1241.046265 140.0
1243.052368 208.0
1244.821289 144.0
1244.954712 184.0
1248.21521 172.0
1248.573853 168.0
1249.896362 104.0
1250.515625 200.0
1250.916748 112.0
1251.071655 164.0
1251.584595 148.0
1254.375366 176.0
1254.840698 156.0
1256.180542 128.0
1257.387085 168.0
1260.762817 96.0
1263.039307 164.0
1263.980225 180.0
1265.755371 96.0
1265.939819 192.0
1266.026001 256.0
1267.49939 188.0
1268.55542 36.0
1269.051636 60.0
1269.916748 148.0
1271.158203 176.0
1271.662109 204.0
1271.775635 172.0
1273.579102 156.0
1275.00708 52.0
1275.675171 148.0
1277.943848 220.0
1278.000732 188.0
1279.744507 112.0
1280.51355 148.0
1281.311401 136.0
1282.1521 220.0
1285.703613 256.0
1286.039062 104.0
1288.28833 112.0
1292.692505 36.0
1294.653931 168.0
1295.484741 116.0
1296.143799 152.0
1300.030396 184.0
1303.00293 180.0
1303.211304 156.0
1305.180664 168.0
1306.259399 164.0
1306.849365 84.0
1308.720703 116.0
1309.296753 148.0
1311.984253 164.0
1312.308716 184.0
1312.359131 128.0
1316.13269 164.0
1320.613159 180.0
1323.16748 140.0
1323.81189 180.0
1325.115601 156.0
1325.369263 124.0
1327.449463 184.0
1329.591797 192.0
1330.097534 140.0
1331.331787 92.0
1331.477051 108.0
1334.87793 64.0
1334.950684 252.0
1336.922119 100.0
1337.256836 52.0
1337.489746 176.0
1338.421631 144.0
1339.761719 180.0
1340.308105 152.0
1341.889648 56.0
1342.334473 124.0
1343.340942 80.0
1343.764038 96.0
1343.975586 156.0
1345.610474 112.0
1348.473877 52.0
1348.641968 220.0
1351.391602 132.0
1351.940308 72.0
1352.628296 172.0
1354.378296 212.0
1354.722534 180.0
1355.418579 192.0
1356.994385 140.0
1357.720337 200.0
1360.523193 144.0
1362.248901 124.0
1363.689087 212.0
1364.247681 200.0
1365.35791 184.0
1365.769775 116.0
1366.211182 152.0
1367.542969 136.0
1367.874146 128.0
1367.999268 172.0
1369.685547 148.0
1369.85498 148.0
1370.577026 116.0
1371.173828 124.0
1371.638184 264.0
1373.024292 136.0
1374.713623 196.0
1375.229126 180.0
1376.433472 124.0
1377.430542 52.0
1377.511841 232.0
1379.802612 120.0
1380.401489 112.0
1384.210693 192.0
1386.1604 212.0
1386.731079 132.0
1387.138794 56.0
1388.599365 128.0
1389.556274 104.0
1390.127563 96.0
1390.862305 180.0
1391.419067 68.0
1391.574951 144.0
1391.938843 72.0
1392.948853 132.0
1393.023071 184.0
1396.010864 152.0
1396.590942 196.0
1397.431519 128.0
1398.026855 104.0
1398.480835 124.0
1398.555176 184.0
1399.336792 160.0
1399.70166 236.0
1399.783569 152.0
1403.464478 148.0
1404.83667 120.0
1408.501831 244.0
1410.078247 180.0
1410.377197 160.0
1410.765869 136.0
1411.633179 68.0
1416.28064 40.0
1417.966431 180.0
1418.153809 164.0
1419.690674 152.0
1421.64856 100.0
1422.414062 164.0
1424.92981 128.0
1425.914185 156.0
1427.695801 48.0
1432.143677 44.0
1433.921753 112.0
1434.833862 144.0
1436.130859 148.0
1436.575806 180.0
1439.375854 200.0
1439.662842 164.0
1440.078125 136.0
1440.999756 168.0
1442.261719 164.0
1442.427979 164.0
1442.685059 180.0
1442.934448 200.0
1445.513672 180.0
1446.414185 168.0
1446.883545 176.0
1450.011841 208.0
1450.53479 104.0
1451.899536 116.0
1452.293945 196.0
1453.113159 148.0
1454.964966 164.0
1456.778809 144.0
1456.977417 96.0
1457.266113 68.0
1458.16272 64.0
1458.565552 116.0
1458.717651 168.0
1460.671875 176.0
1460.998901 92.0
1461.108398 204.0
1461.812988 204.0
1461.88916 160.0
1463.426636 64.0
1464.332886 136.0
1465.163086 148.0
1466.831909 176.0
1467.945068 136.0
1468.448364 120.0
1469.928345 48.0
1470.515869 240.0
1471.134155 124.0
1471.317383 128.0
1472.722412 164.0
1472.775879 164.0
1480.883179 152.0
1481.013428 216.0
1482.630005 196.0
1482.813843 148.0
1482.921143 212.0
1483.273804 148.0
1484.9375 132.0
1485.765991 180.0
1485.873291 152.0
1487.078125 156.0
1487.937744 228.0
1488.075195 160.0
1488.459839 124.0
1490.341675 108.0
1490.456909 188.0
1490.748901 284.0
1492.163208 120.0
1493.855103 148.0
1494.362793 180.0
1496.417725 188.0
1497.518921 116.0
1497.572754 172.0
1497.711426 160.0
1497.842407 196.0
1499.275391 180.0
1501.318237 212.0
1501.904419 100.0
1502.282349 164.0
1502.513794 108.0
1503.092407 48.0
