>compound MLS000736510-01!Santonin
>formula C15H18O3
>ionization [M+H]+
>parentmass 247.1328708880905
#inchi InChI=1S/C15H18O3/c1-8-10-4-6-15(3)7-5-11(16)9(2)12(15)13(10)18-14(8)17/h5,7-8,10,13H,4,6H2,1-3H3/t8?,10?,13?,15-/m0/s1
#inchikey XJHDMGJURBVLLE
#Ion_Source LC-ESI
#Instrument qTof
#Compound_Source NIH Pharmacologically Active Library
#PI Dorrestein
#Data_Collector VP/LMS
#Scan -1
#Precursor_MZ 247.128
#ExactMass 246.126
#Charge 1
#CAS_Number N/A
#Pubmed_ID N/A
#Smiles CC1C2CC[C@@]3(C)C=CC(=O)C(=C3C2OC1=O)C
#INCHI_AUX N/A
#Library_Class 1
#SpectrumID CCMSLIB00000085338
#IonMode Positive
#UpdateWorkflowName UPDATE-SINGLE-ANNOTATED-GOLD
#LibraryQualityString Gold
#TaskID d252d724072548979f1f6f1ced849daf
##Scan# 1829
#SpectrumFile p3-H07_GH7_01_18312.mzXML
#LibraryName Pharm_Active_Library.mgf
#MQScore -1
#Organism Pharm_Active_Library
#TIC_Query 0
#RT_Query -1
#MZErrorPPM -1
#SharedPeaks 0
#MassDiff 0
#LibMZ -1
#SpecMZ 247.128
#SpecCharge 0
#internalFilename spec-00000.mgf

>collision 10
44.951271 156.0
45.004665 188.0
45.167721 168.0
46.606339 156.0
47.054474 180.0
47.93512 168.0
48.212517 88.0
48.285793 164.0
48.420395 176.0
48.511505 84.0
48.550331 124.0
48.775269 216.0
49.13039 188.0
49.184814 128.0
49.338486 116.0
50.138626 156.0
50.423729 216.0
50.725235 148.0
50.878452 124.0
51.073147 132.0
51.637997 172.0
51.742462 196.0
52.20253 220.0
53.8335 176.0
53.970863 168.0
54.307709 128.0
54.401627 84.0
54.527958 68.0
54.938801 172.0
55.058365 124.0
55.240177 148.0
55.256451 176.0
55.371918 196.0
55.447479 44.0
55.851353 128.0
56.492817 160.0
56.693466 200.0
56.802921 140.0
56.838932 128.0
56.941017 188.0
57.588692 132.0
58.057892 104.0
58.194469 168.0
58.222847 64.0
58.430058 176.0
58.463535 44.0
58.724072 156.0
59.576733 96.0
59.67202 176.0
59.788933 148.0
60.338093 176.0
60.375206 212.0
60.894421 196.0
61.062286 164.0
61.108955 116.0
61.143192 172.0
61.593815 164.0
61.903503 108.0
62.129215 120.0
62.231236 156.0
62.63385 224.0
62.660633 148.0
62.722095 172.0
63.001419 40.0
63.290867 168.0
64.000664 152.0
64.402565 148.0
64.455284 76.0
64.528816 92.0
65.214958 124.0
65.348434 60.0
65.399628 188.0
65.748085 52.0
65.759377 188.0
65.812653 92.0
66.009796 160.0
66.03891 132.0
66.106865 88.0
66.276894 160.0
66.741142 128.0
67.319443 160.0
67.609016 196.0
67.874405 72.0
67.930176 72.0
68.064758 180.0
68.606087 168.0
69.183128 188.0
69.296944 220.0
69.422928 172.0
69.816528 60.0
70.037903 140.0
70.212914 232.0
70.236267 40.0
70.990593 268.0
71.076149 72.0
71.275978 156.0
71.339844 144.0
71.358337 88.0
71.422249 140.0
71.541725 184.0
73.053017 220.0
73.361267 144.0
73.388542 48.0
73.685539 148.0
73.774406 240.0
73.829124 136.0
74.186996 172.0
74.428925 120.0
74.946686 152.0
75.100121 208.0
75.162231 164.0
75.376358 168.0
75.573486 124.0
76.100418 132.0
76.14904 136.0
76.258507 160.0
76.65358 172.0
76.742477 296.0
76.820961 180.0
76.887268 148.0
77.324211 208.0
77.350464 108.0
77.700974 212.0
77.929222 140.0
78.106789 220.0
78.156052 232.0
79.215393 128.0
79.291588 220.0
79.330589 176.0
79.454735 76.0
79.522163 176.0
80.155304 124.0
80.337166 176.0
80.465668 164.0
81.154533 208.0
81.400368 124.0
81.549484 212.0
81.758118 248.0
82.008476 172.0
82.367561 196.0
82.4814 120.0
82.60437 144.0
83.048172 140.0
83.244186 212.0
83.293228 140.0
83.311394 132.0
83.520447 176.0
83.53318 180.0
85.353043 200.0
86.658073 56.0
87.594429 184.0
87.609337 72.0
88.378578 164.0
88.764458 136.0
89.057236 196.0
89.258331 140.0
89.738495 192.0
89.917709 176.0
90.248306 184.0
90.499962 68.0
90.871468 32.0
90.973953 108.0
91.023323 196.0
91.052818 264.0
91.144897 236.0
91.504395 124.0
91.6987 148.0
92.053558 200.0
92.238892 152.0
92.809425 156.0
93.064629 228.0
93.279808 200.0
93.297104 180.0
93.36441 48.0
93.76487 216.0
93.793777 148.0
94.996605 188.0
95.157684 120.0
95.700165 60.0
95.996361 260.0
96.031464 60.0
96.049019 172.0
96.420006 120.0
96.674248 260.0
97.028793 156.0
97.064087 164.0
97.087624 56.0
97.279915 176.0
97.700478 180.0
97.899284 132.0
98.597687 44.0
98.81916 100.0
99.643501 200.0
100.55603 148.0
100.605934 100.0
101.075638 104.0
101.189728 188.0
101.235786 128.0
101.65477 256.0
101.909798 48.0
102.126915 68.0
102.230919 156.0
102.372459 148.0
102.785713 176.0
103.053787 156.0
103.25441 56.0
103.359604 200.0
103.758629 160.0
103.949295 212.0
104.136078 192.0
104.972549 124.0
105.015373 244.0
105.069344 1812.0
105.103104 40.0
106.074776 272.0
106.257118 160.0
107.051987 184.0
107.085381 412.0
107.714691 164.0
107.952385 120.0
107.968933 228.0
108.403687 212.0
108.440987 84.0
108.571609 196.0
109.136452 228.0
109.230042 176.0
109.702759 112.0
109.819534 176.0
110.471275 232.0
110.818825 200.0
110.906837 144.0
110.944572 188.0
111.563896 36.0
111.612259 240.0
111.828949 124.0
112.326233 160.0
112.737961 208.0
113.080589 44.0
114.047798 248.0
114.122208 152.0
114.17112 172.0
114.294502 152.0
114.437119 144.0
114.635216 92.0
114.686371 104.0
115.05442 1620.0
115.095993 132.0
115.125885 48.0
115.149376 240.0
115.910995 100.0
116.01387 176.0
116.061035 692.0
116.112511 132.0
116.146828 56.0
116.814903 124.0
116.851479 92.0
117.069168 908.0
117.561974 156.0
117.709366 36.0
117.916763 144.0
118.075081 480.0
118.301804 156.0
118.505386 152.0
119.045517 164.0
119.085175 292.0
121.066124 472.0
121.101883 188.0
121.117538 172.0
121.591148 184.0
121.698555 188.0
122.065933 152.0
122.104263 196.0
122.49707 160.0
122.580795 136.0
122.995438 180.0
123.079231 172.0
123.191971 184.0
123.23616 180.0
124.006287 204.0
124.194756 36.0
124.523262 104.0
124.792152 136.0
124.954521 152.0
125.846069 168.0
126.147682 124.0
127.054916 316.0
127.072632 60.0
127.622932 180.0
128.061508 1180.0
128.097809 212.0
128.271332 56.0
128.598404 204.0
128.690964 152.0
128.867142 64.0
128.934525 152.0
128.955276 160.0
129.069763 2564.0
129.129379 64.0
129.419052 152.0
129.509628 124.0
129.570801 72.0
129.7724 152.0
130.035675 212.0
130.077286 2008.0
130.900055 176.0
131.049164 540.0
131.084061 568.0
132.086426 196.0
132.1642 48.0
132.82402 192.0
133.064438 416.0
133.386627 184.0
133.671829 108.0
133.968842 220.0
134.010315 52.0
134.073288 288.0
134.107101 224.0
134.206238 176.0
134.366898 196.0
134.390762 132.0
134.473846 176.0
134.727859 88.0
134.790237 196.0
134.993668 132.0
135.080154 6564.0
135.128815 316.0
135.238907 176.0
135.832108 60.0
136.031677 172.0
136.084259 524.0
136.150101 44.0
136.912933 172.0
137.029404 180.0
137.066681 160.0
137.085327 196.0
137.187881 176.0
137.341797 152.0
137.493454 196.0
137.885818 120.0
137.998032 160.0
138.173447 196.0
138.26236 52.0
139.053726 156.0
139.740952 196.0
140.062622 272.0
140.084473 128.0
140.157501 100.0
141.069733 848.0
141.487289 156.0
141.814194 160.0
142.075836 264.0
142.604584 156.0
142.718704 136.0
143.042267 144.0
143.085526 604.0
143.979324 228.0
144.010376 44.0
144.05806 316.0
144.085312 152.0
144.105942 364.0
144.21347 120.0
144.342575 72.0
144.725433 92.0
144.933823 200.0
145.020111 152.0
145.063721 1580.0
145.099564 2448.0
145.128967 156.0
145.240707 32.0
145.277618 216.0
145.655975 104.0
145.919189 84.0
146.00209 236.0
146.07225 780.0
146.107346 328.0
146.305283 156.0
146.384735 92.0
146.500351 64.0
146.613602 80.0
146.736542 100.0
147.042908 176.0
147.081619 288.0
147.118637 148.0
147.233643 204.0
147.603378 52.0
147.727295 156.0
148.082565 148.0
148.3685 64.0
149.09639 1188.0
149.585617 60.0
150.098053 248.0
150.112534 108.0
150.32901 44.0
150.455948 144.0
150.854156 208.0
150.973969 60.0
151.198395 152.0
151.223526 100.0
151.360611 108.0
152.064224 136.0
153.069641 1000.0
153.313629 132.0
153.555237 92.0
153.713135 96.0
153.856293 84.0
154.072113 300.0
154.343033 76.0
154.798355 136.0
155.003967 144.0
155.084793 2776.0
155.145721 144.0
155.460251 96.0
155.589325 36.0
155.653885 104.0
155.865036 220.0
156.057877 156.0
156.089005 436.0
156.292725 52.0
156.693604 212.0
156.922897 52.0
157.040115 180.0
157.063995 1844.0
157.100281 172.0
157.277786 64.0
157.943817 176.0
158.014374 172.0
158.031891 144.0
158.072693 12236.0
158.110123 484.0
158.512665 96.0
158.833588 40.0
159.014236 168.0
159.044357 148.0
159.078384 3200.0
159.348236 108.0
159.551437 160.0
159.979492 168.0
160.082031 460.0
160.899704 120.0
161.008286 108.0
161.095322 1420.0
161.253357 72.0
161.351944 116.0
161.407562 108.0
161.577042 32.0
162.096756 472.0
162.869919 92.0
163.256256 216.0
163.737259 144.0
163.826416 52.0
163.933426 100.0
164.071075 172.0
164.709061 92.0
165.069427 136.0
165.532608 152.0
166.62532 124.0
167.064941 144.0
167.088104 128.0
167.170441 68.0
168.087845 128.0
168.821503 112.0
168.945648 220.0
169.064682 276.0
169.099213 444.0
170.000229 224.0
170.140396 108.0
170.55864 64.0
170.982605 104.0
171.079895 912.0
171.394073 52.0
171.730377 148.0
172.088104 1320.0
172.176682 44.0
172.474548 48.0
172.845932 116.0
172.927063 132.0
173.008209 104.0
173.051132 224.0
173.095383 7888.0
173.133118 284.0
173.170563 80.0
173.196747 52.0
173.254379 84.0
173.29631 108.0
173.401123 32.0
173.435196 76.0
173.76825 84.0
174.066544 132.0
174.100937 1272.0
174.139526 204.0
174.190933 56.0
174.309174 48.0
174.45636 48.0
174.548386 52.0
174.877243 44.0
175.061539 96.0
175.113708 180.0
175.306534 32.0
175.324982 72.0
176.090088 192.0
176.50766 108.0
176.830414 52.0
177.091125 144.0
177.132263 156.0
177.187897 84.0
177.694305 48.0
178.073914 144.0
178.887589 120.0
179.495071 28.0
179.769836 32.0
180.568649 48.0
181.074493 196.0
183.091507 136.0
183.120102 116.0
184.416245 76.0
185.096878 180.0
186.103333 1220.0
187.109222 700.0
187.186264 80.0
188.082443 188.0
188.394562 68.0
189.097534 152.0
189.120804 152.0
189.469742 44.0
191.110245 416.0
194.111496 136.0
196.086212 396.0
199.073746 152.0
199.121048 176.0
200.079941 168.0
201.126129 940.0
204.069305 164.0
205.122681 132.0
212.076324 140.0
212.113998 128.0
212.659332 192.0
213.123978 112.0
214.008224 180.0
214.911819 84.0
223.394409 108.0
227.641724 96.0
229.123428 220.0
234.101379 300.0
237.705612 132.0
238.688599 80.0
245.111938 156.0
274.635101 104.0
290.777374 56.0
307.956604 144.0
324.534332 76.0
329.414642 88.0
349.34845 56.0
357.328613 52.0
423.910156 60.0
441.141693 172.0
550.707153 100.0
556.044739 116.0
586.31958 160.0
694.626831 88.0
699.34552 140.0
725.717896 164.0
860.907837 44.0
865.34613 216.0
888.722961 260.0
893.422668 160.0
895.613342 184.0
900.58197 152.0
906.552979 52.0
917.878601 204.0
931.557312 180.0
953.973267 212.0
960.24176 200.0
978.497864 200.0
986.427185 164.0
1003.945312 252.0
1014.993042 192.0
1026.369019 144.0
1029.055298 192.0
1032.832275 180.0
1043.947266 192.0
1044.294556 144.0
1063.517456 108.0
1065.972534 240.0
1068.007446 148.0
1083.158081 140.0
1092.743042 136.0
1105.332764 160.0
1105.961548 124.0
1114.217773 80.0
1122.044678 164.0
1132.174805 116.0
1143.171387 168.0
1152.896118 104.0
1163.137085 220.0
1165.711304 164.0
1169.14563 56.0
1185.734985 136.0
1190.616455 220.0
1191.265503 192.0
1193.121094 212.0
1204.270874 224.0
1209.615967 120.0
1210.453735 120.0
1216.881592 216.0
1218.347046 108.0
1221.11377 160.0
1225.095337 216.0
1225.680664 156.0
1229.655762 208.0
1240.245483 192.0
1243.401733 60.0
1243.457886 200.0
1243.717651 144.0
1249.712402 116.0
1253.23291 192.0
1260.204224 164.0
1268.988037 176.0
1269.463135 92.0
1271.960571 172.0
1285.205444 168.0
1286.033203 288.0
1287.989746 196.0
1290.963013 132.0
1292.350708 152.0
1303.098755 172.0
1304.018555 192.0
1308.48584 204.0
1310.459351 124.0
1310.776367 40.0
1312.866943 88.0
1317.30603 124.0
1318.151367 40.0
1324.105347 212.0
1334.264526 84.0
1334.963379 128.0
1337.130493 148.0
1340.385864 140.0
1342.091553 44.0
1342.383301 108.0
1347.872803 128.0
1351.719238 128.0
1352.721924 180.0
1356.406616 60.0
1358.841431 188.0
1362.490356 248.0
1362.857788 192.0
1372.058105 212.0
1373.355957 164.0
1388.325806 140.0
1397.365967 120.0
1400.209595 136.0
1400.611816 136.0
1402.3927 124.0
1406.16687 164.0
1409.512573 256.0
1415.669189 124.0
1419.830444 220.0
1420.136108 160.0
1426.443604 192.0
1428.301025 216.0
1432.48645 144.0
1434.114136 88.0
1437.545776 116.0
1438.383545 120.0
1438.93457 192.0
1445.102173 188.0
1449.744019 84.0
1449.910767 160.0
1450.10022 160.0
1450.3125 68.0
1454.82605 216.0
1459.673584 148.0
1460.190796 140.0
1462.085205 180.0
1466.495117 216.0
1467.348877 108.0
1467.676758 176.0
1468.996216 208.0
1469.621826 204.0
1470.2323 288.0
1470.774292 204.0
1475.992432 240.0
1476.665405 116.0
1477.36145 172.0
1477.828125 72.0
1479.022095 152.0
1481.403564 156.0
1481.618164 180.0
1485.543335 204.0
1487.599976 148.0
1490.585693 176.0
1491.379395 148.0
1492.224976 212.0
1492.894043 192.0
1493.317017 144.0
1495.302124 168.0
1496.857178 204.0
1499.415771 160.0
