>compound Ranolazine
>formula C24H33N3O4 
>ionization [M+H]+
>parentmass 428.252777
#inchi InChI=1S/C24H33N3O4/c1-18-7-6-8-19(2)24(18)25-23(29)16-27-13-11-26(12-14-27)15-20(28)17-31-22-10-5-4-9-21(22)30-3/h4-10,20,28H,11-17H2,1-3H3,(H,25,29)
#inchikey XKLMZUWKNUAPSZ
#Ion_Source LC-ESI
#Instrument qTof
#Compound_Source Isolated
#PI Sirenas
#Data_Collector Ed Esquenazi 
#Scan -1
#Precursor_MZ 428.255
#ExactMass 0.0
#Charge 1
#CAS_Number N/A
#Pubmed_ID N/A
#Smiles N/A
#INCHI_AUX N/A
#Library_Class 3
#SpectrumID CCMSLIB00000006035
#IonMode Positive
#UpdateWorkflowName UPDATE-SINGLE-ANNOTATED-BRONZE
#LibraryQualityString Bronze
#TaskID d19310cd93df49b68e9fcbec27720eb5
##Scan# 3
#SpectrumFile Ranolazine.mgf
#LibraryName fda_library.mgf
#MQScore -1
#Organism fda_library
#TIC_Query 0
#RT_Query -1
#MZErrorPPM -1
#SharedPeaks 0
#MassDiff 0
#LibMZ -1
#SpecMZ 428.255
#SpecCharge 0
#internalFilename spec-00000.mgf

>collision 10
100.046936 2.4
100.075798 11280.870117
100.096687 451.949493
100.117393 113.996902
100.127739 4.053571
100.133911 93.742996
100.15432 98.391586
100.168556 19.007071
100.182976 21.11935
100.19384 87.123306
100.203735 12.67045
100.220573 15.25872
100.239632 12.7094
100.25016 20.027849
100.273232 6.05
100.282738 28.607731
100.306221 106.613297
100.32917 16.440599
100.339432 5.76923
100.350929 52.430771
100.374428 39.712818
100.390564 20.116671
100.417511 24.5609
100.424088 35.72757
100.430084 7.338542
100.458923 32.62698
100.474083 10.41177
100.482613 16.27
100.487915 12.66774
100.51313 9.558333
100.544212 10.23077
100.565956 11.06945
100.586937 14.48316
100.608208 43.02116
100.66436 30.520241
100.693832 25.08
100.705727 9.405142
100.712273 13.00079
100.73568 11.86667
100.748001 21.144051
100.762428 8.68889
100.780113 20.65556
100.825684 23.84322
100.908234 13.19947
100.925041 24.49577
100.936211 8.122549
100.988243 7.240079
101.00251 2.008333
101.030602 10.02216
101.045509 5.414216
101.069435 13.03499
101.079979 124.085197
101.086456 15.45833
101.10743 16038.740234
101.142647 24.71512
101.156868 25.0928
101.165512 22.157049
101.180969 18.78676
101.195686 29.406349
101.212364 17.09886
101.231415 35.06842
101.248451 49.970249
101.265572 21.979231
101.303535 3.055556
101.31073 27.07143
101.323891 57.10416
101.329643 36.076851
101.363159 53.272369
101.392799 31.08923
101.400429 33.89949
101.42347 59.104839
101.440186 10.66848
101.448059 4.782407
101.464668 14.0
101.477646 15.55952
101.492477 10.53333
101.50563 75.787697
101.523834 16.07843
101.553154 32.728432
101.570679 19.926279
101.601952 38.243629
101.606125 17.875
101.623077 67.110001
101.642151 31.498289
101.657013 14.97543
101.673279 9.5
101.883095 7.857143
102.036667 4.003205
102.091545 1150.180054
102.110153 167.354797
102.135628 21.751381
102.159698 7.719017
102.274689 8.927083
102.286789 4.8
102.344627 2.733333
102.455276 5.444445
102.498909 5.884804
102.531883 6.791667
102.694992 5.028846
102.786552 6.666667
103.005341 5.041667
103.05439 1349.989014
103.079498 3.003205
103.213783 7.378623
103.259583 12.6
103.27079 9.599999
103.298607 2.333333
103.413315 9.631173
103.436562 12.00134
103.506485 12.44841
103.535637 4.333333
103.811935 6.666667
104.490051 6.335
104.564705 8.284091
104.597252 9.926471
104.607445 6.520061
104.637169 5.136111
104.863777 5.0
105.00042 16.53178
105.033516 98.41996
105.069832 1766.418945
105.170357 2.367424
105.190712 19.01375
105.22094 22.26885
105.231033 11.03852
105.345871 22.729731
105.473846 13.00379
105.620384 5.0625
105.881538 5.391026
105.996124 4.69697
106.065941 852.111023
106.09864 5.428572
106.147713 10.17339
106.214722 12.67029
106.390549 14.64844
106.633614 5.708333
106.684921 4.734848
106.699287 13.0947
106.771179 4.083333
106.864334 14.4422
106.958183 12.68494
107.049179 3443.149902
107.091347 6.006945
107.150299 5.136111
107.177711 5.345238
107.199463 11.0496
107.22364 23.116501
107.361893 19.375
107.379585 4.453432
107.419212 6.380208
107.424881 11.13038
107.451599 15.83712
107.491501 17.01071
107.542137 16.84816
108.079903 834.075928
108.122887 30.10409
108.308022 12.01965
108.434563 7.314103
108.518082 12.03157
108.638184 7.35
108.690727 5.884804
108.820053 7.296568
109.028084 399.005798
109.064941 1465.303955
109.074905 899.830383
109.087929 76.674103
109.109634 6.025641
109.156883 2.003788
109.203812 11.6864
109.302658 12.675
109.379189 11.3344
109.392288 4.017857
109.455139 7.102564
109.502174 7.615
109.542496 9.450582
109.55497 20.120279
109.606529 14.18519
109.674057 17.81818
109.982689 6.741667
110.034813 317.953003
110.05938 978.652588
110.083107 360.714294
110.093338 242.074905
110.133636 21.32889
110.147751 9.001126
110.246429 19.07756
110.256416 6.761364
110.315422 43.888378
110.392616 4.166667
110.422966 30.00696
110.434563 6.231482
110.454224 28.930559
110.465622 18.085711
110.483574 7.827381
110.489403 23.875
110.501251 27.38526
110.513298 6.025
110.521744 114.593201
110.53511 16.000731
110.567444 40.033508
110.604897 10.5307
110.612053 44.74305
110.629829 27.9214
110.645271 6.001984
110.659508 17.34936
110.670258 60.888039
110.677849 24.667521
110.703819 56.001572
110.728477 19.125
110.73571 29.43261
110.772881 48.985088
110.788933 8.573413
110.80262 38.15509
110.809639 21.360559
110.820572 10.33488
110.835403 12.67622
110.901169 4.0
110.980698 15.86678
110.992798 17.959351
111.09198 43652.769531
111.136375 62.771351
111.190636 26.77524
111.227783 22.258459
111.251907 33.482689
111.264381 30.17725
111.301849 57.130661
111.327034 49.932289
111.348846 128.899597
111.364799 33.598518
111.377724 43.455219
111.392853 23.05192
111.398689 41.747761
111.433723 61.84079
111.444046 10.27179
111.451393 11.68
111.45993 110.443901
111.469025 32.370609
111.477341 108.603104
111.496201 35.719978
111.507889 51.671661
111.544434 36.35194
111.56395 125.402901
111.586769 12.23906
111.595169 63.199429
111.627831 21.03788
111.645447 24.42424
111.653481 11.05556
111.690315 17.42803
111.712303 6.775537
111.727409 29.06349
111.743576 27.79491
111.789421 5.120098
111.873138 20.6199
111.914627 2.367424
111.934807 33.712631
111.980919 8.0
112.075668 7307.805176
112.12291 15.46944
112.144585 30.18849
112.166161 14.48571
112.179771 9.678763
112.190826 9.802928
112.213882 57.69339
112.230659 16.938271
112.243973 22.87097
112.257317 39.213058
112.278442 31.23782
112.28698 12.45833
112.294456 21.04167
112.334518 13.80682
112.372063 48.937908
112.379013 33.01923
112.402481 99.502419
112.420982 30.657049
112.458778 81.310699
112.485931 14.15802
112.492928 209.752808
112.511276 19.36389
112.5243 132.193604
112.551735 47.551361
112.566986 32.766411
112.582451 43.299332
112.59536 33.347698
112.607597 8.68889
112.615807 44.161739
112.626724 35.814999
112.649673 77.960251
112.668221 20.76157
112.677773 20.873131
112.685127 23.361111
112.702332 122.816704
112.731819 22.370831
112.74189 14.93895
112.762581 21.67432
112.773247 21.189461
112.801102 11.02815
112.81073 15.33333
112.818863 19.91667
112.836594 7.668011
112.851463 25.289289
112.860809 22.98391
112.943321 22.9053
113.024864 38.166889
113.044182 28.21847
113.107437 63901.320312
113.153175 86.011543
113.167709 65.521729
113.242645 30.30682
113.268692 19.10594
113.284035 29.813169
113.3312 23.67024
113.354149 55.378361
113.408195 29.093439
113.415268 118.427498
113.439651 46.16293
113.470215 15.20824
113.541771 104.636299
113.562965 58.3512
113.576599 15.68297
113.593719 91.562317
113.60656 34.432541
113.631683 70.871521
113.66214 44.759029
113.679649 35.457909
113.716492 64.413612
113.729012 21.04623
113.747375 21.255051
113.753845 11.89352
113.771049 49.667042
113.78949 32.08889
113.812325 19.49679
113.822754 34.636971
113.876167 30.378731
113.929382 7.041667
113.940514 20.35918
113.951691 20.1047
113.962524 16.81649
113.99749 14.56061
114.060936 37.704102
114.091003 5679.609863
114.115021 26571.640625
114.161674 169.390396
114.229164 104.481201
114.241905 105.209297
114.257744 44.878441
114.275719 46.827991
114.297394 13.85494
114.308792 52.80249
114.320641 32.831989
114.328644 32.724209
114.338417 69.51902
114.354645 58.50898
114.37719 20.29554
114.406784 58.50621
114.428024 70.485268
114.437729 17.21847
114.475113 27.54735
114.509628 48.80257
114.546425 13.92064
114.556725 18.771931
114.573418 37.60318
114.583824 19.92598
114.598358 19.76956
114.612595 64.990013
114.67041 28.59259
114.684837 16.29348
114.771019 44.367088
114.78791 12.52273
114.803894 33.690491
114.871025 8.721774
114.911232 11.32328
114.97567 33.048241
114.993858 5.692308
115.054504 107.972
115.094276 82.024551
115.262856 5.695513
115.32515 9.668651
115.369087 4.791667
115.444977 6.041667
115.494598 16.02696
115.651405 12.72588
115.713562 10.06833
115.842255 5.668333
116.275406 8.177083
116.284508 4.336111
116.355797 13.33642
116.457214 14.48563
116.475655 6.240079
116.524658 20.88805
116.867859 16.203329
116.88176 7.696428
117.013435 13.33333
117.052399 26.69841
117.069397 124.290604
117.220482 1.720238
117.990471 5.034091
118.041199 134.915497
118.322906 12.16447
118.428886 8.429762
118.448074 24.63266
118.750916 4.8
118.769997 39.704571
118.920837 3.816667
119.04892 3379.822998
119.085571 148.069199
119.095314 8.002778
119.130318 10.81037
119.147057 8.388158
119.235939 16.32843
119.301247 4.666667
119.324043 4.010417
119.362068 18.33621
119.468498 12.93056
119.483627 4.714286
119.49131 15.37634
119.53315 9.009616
119.6511 7.736842
120.080505 2468.97998
120.142487 17.722191
120.157845 7.260803
120.173279 4.005952
120.199692 12.8179
120.230202 19.17453
120.284225 29.361111
120.379021 7.028153
120.407799 52.276699
120.455887 6.231482
120.504951 22.342859
120.526756 15.49516
120.61338 15.74697
120.624771 13.16346
120.634895 15.17778
120.789284 29.472969
120.80674 9.458333
120.822716 15.49167
120.836266 19.44537
120.929405 2.666667
121.028099 948.000671
121.064522 3225.11499
121.112061 12.52381
121.132034 13.39167
121.167213 17.91667
121.21331 17.82456
121.257759 21.790211
121.317627 8.865196
121.355614 14.75343
121.411743 2.672619
121.425255 11.15195
121.43869 18.35161
121.46817 27.82604
121.503906 17.197399
121.517006 16.395201
121.652275 7.680555
121.659706 8.336111
121.672722 4.080128
121.699341 4.055556
121.726448 6.482143
121.74427 7.12037
121.757103 11.7451
121.799446 6.394608
121.879913 8.338889
122.036018 7060.003906
122.08284 294.382599
122.096664 3755.878906
122.134186 14.40653
122.151199 10.39484
122.179764 53.123058
122.201874 46.048019
122.218353 37.65041
122.241203 8.008721
122.248894 10.69551
122.259552 14.02222
122.268356 16.92161
122.302834 4.695513
122.322945 21.90197
122.329727 27.337641
122.341698 23.367821
122.36393 17.415649
122.371422 4.733333
122.379379 21.012819
122.396378 6.964285
122.403275 6.107143
122.421059 45.77264
122.434074 30.536591
122.441078 5.00463
122.45472 63.505379
122.482536 8.370614
122.491348 16.73387
122.50219 18.07222
122.523445 12.04167
122.637695 13.34099
122.645386 9.690476
122.745789 6.681667
122.772575 10.05797
122.787994 6.458333
122.891663 57.486801
123.043571 2794.530029
123.135185 11.69928
123.154617 16.341669
123.166084 24.89119
123.206627 46.138611
123.21637 11.45833
123.226822 59.39399
123.246193 27.363979
123.285706 21.682211
123.29348 5.003205
123.336761 8.223765
123.366913 6.333333
123.389481 25.685129
123.421356 57.39167
123.460922 25.158979
123.487656 40.548649
123.510353 15.71667
123.521523 7.737069
123.555717 14.10526
123.60276 14.03571
123.664627 10.66774
123.931541 8.422101
124.074768 505.896698
124.099464 10448.730469
124.148163 70.511757
124.197762 8.744445
124.214142 29.42157
124.240746 52.141361
124.252144 3.375
124.258781 17.75
124.284111 8.339286
124.30188 13.09405
124.347763 28.978849
124.363396 8.630952
124.372124 5.815476
124.40097 27.458719
124.430992 22.128469
124.51416 34.534828
124.525055 13.85227
124.575386 9.016666
124.598289 8.552536
124.614265 9.388888
124.666939 10.07143
124.738083 9.009616
124.75811 14.84232
124.777428 4.721491
124.791885 14.0
124.810318 14.39126
124.862938 12.67816
124.884468 17.425711
124.929291 16.592951
124.97995 4.225
125.008057 20.96303
125.057297 246.658096
125.082077 64.383774
125.190582 4.669445
125.220764 22.163401
125.276382 17.723761
125.31427 10.44907
125.377396 25.93611
125.477898 9.057971
125.548058 4.083333
125.645729 10.01786
125.680618 11.0
125.696335 7.260803
126.091835 224.813293
126.115181 190.476898
126.157013 7.097222
126.477219 7.680555
126.536194 20.004311
126.739769 4.694444
127.051147 28.959681
127.085861 321.786987
127.09594 77.518539
127.122795 1935.194946
127.175751 12.03
127.186638 7.001263
127.215782 8.881667
127.240509 42.90527
127.269043 10.67539
127.386597 5.875
127.465347 2.339286
127.563568 13.3344
127.575356 7.027778
127.646095 3.335526
128.095001 102.789597
128.109222 24.476851
128.204834 4.734848
128.319092 4.017857
128.418045 7.410257
128.463409 5.148809
128.948425 15.91667
129.092407 65.435989
129.103958 110.013702
129.931976 14.53186
130.099869 68.041656
130.328888 7.605556
130.39238 14.0119
131.049194 1315.843018
131.285278 16.92399
131.311691 8.708333
131.355118 17.099211
131.399368 13.93056
131.523254 7.347222
131.566895 12.78392
131.878342 12.67816
131.898331 9.66821
131.982239 7.854167
132.070068 62.05751
132.080826 264.557587
132.101578 15.90705
132.174255 21.226851
132.186325 12.55408
132.370209 12.0
132.467422 28.90675
132.518372 6.146739
132.722656 6.022223
132.952957 61.75526
133.02565 14.62976
133.064529 1610.468994
133.084793 252.486298
133.111038 5.225
133.133438 7.757576
133.147827 3.680556
133.228134 10.37045
133.288361 10.69253
133.303375 22.02083
133.372925 21.48
133.391983 14.16026
133.44104 8.486112
133.489212 5.44079
133.52565 14.27161
133.533112 12.85417
133.706848 9.927469
133.766739 9.497093
133.833145 10.25
133.96817 10.00833
133.984116 8.333333
134.033936 100.745499
134.042023 5.510417
134.095993 5512.981934
134.131134 4.333333
134.146042 69.538437
134.164322 11.90675
134.184753 20.652309
134.205872 11.75556
134.21376 40.531872
134.239456 4.854167
134.266129 38.061161
134.282166 4.680556
134.290451 59.727631
134.322632 12.33929
134.332367 34.722221
134.354843 15.13611
134.36322 20.74943
134.372528 14.54688
134.392639 23.925989
134.415329 3.688725
134.449066 14.05179
134.467773 6.349638
134.487961 9.130208
134.517365 29.11087
134.546951 5.054487
134.556641 22.76626
134.570892 19.193609
134.58075 14.75238
134.601486 7.774123
134.620392 6.041667
134.704651 9.0
134.754349 14.03704
134.814758 17.33889
134.924011 15.82447
135.04335 898.740417
135.080597 1870.66394
135.154938 10.35556
135.321136 7.884804
135.453812 14.8848
135.510345 9.088768
135.587708 12.125
135.636154 7.667735
135.797852 5.5
135.875305 11.33409
135.991333 5.721154
136.057602 27.42979
136.114075 2.333333
136.314819 23.407829
136.382645 13.33823
136.39888 8.694445
136.43573 21.48572
136.448975 23.038099
136.492447 39.68774
136.547714 28.014999
136.610291 3.355392
136.621017 9.1875
136.640762 27.55522
136.670792 5.802778
136.683487 9.699275
136.762817 9.875
136.774078 47.47118
136.814285 20.164619
136.846909 3.185606
136.878784 11.03261
136.927902 9.605556
136.942673 14.68254
137.03508 22.58824
137.059631 6288.367188
137.107132 6583.538086
137.157913 71.38269
137.174606 111.826797
137.205444 30.63323
137.218811 13.8631
137.233826 19.77866
137.256958 34.57967
137.279419 74.163628
137.29425 13.02315
137.306488 9.391666
137.32309 29.67708
137.351074 56.609058
137.381393 19.41223
137.397675 47.434101
137.416779 11.2402
137.424225 30.139931
137.444717 47.376919
137.458069 28.504101
137.470459 10.16667
137.478561 11.49405
137.506454 31.60141
137.522446 9.363637
137.558838 17.091221
137.571609 21.41618
137.582764 22.27368
137.608978 39.532799
137.624939 39.125259
137.653763 41.406399
137.690643 28.54077
137.712372 11.69643
138.089035 38.001911
138.114563 5950.242188
138.217041 10.33435
138.31723 43.15152
138.352097 6.080883
138.369583 19.339279
138.397064 8.41586
138.470749 21.082319
138.483459 24.78723
138.523956 4.0
138.536896 8.888888
138.545837 25.03894
138.57814 58.66568
138.64682 7.001263
138.679611 13.13043
138.712128 16.019609
138.737122 13.90645
138.753876 18.27
138.793869 23.16667
138.849579 33.483662
139.015747 11.06061
139.086685 2478.202881
139.122467 3159.077881
139.188004 15.69928
139.206085 16.57222
139.22821 25.8848
139.299973 32.254791
139.315765 20.41667
139.34819 15.76042
139.360504 7.680555
139.382782 7.558333
139.409378 4.773809
139.417984 5.787879
139.435135 15.87111
139.463196 19.70546
139.486481 37.740582
139.646683 14.90741
139.660461 16.334181
139.676804 14.00181
139.685135 11.02315
139.701584 22.333851
139.793121 42.49649
139.833221 11.18056
139.904099 16.375
139.915482 7.348333
140.232513 11.68883
140.258087 8.001985
140.35202 5.335784
140.365234 6.446428
140.393356 13.51062
140.417969 10.33333
140.459244 23.830059
140.48851 15.42857
140.558548 19.96711
140.578979 30.625
140.640366 6.148148
140.686478 4.363636
140.81813 3.666667
140.946182 6.564103
140.971207 7.714285
141.101746 1267.343994
141.239487 6.146739
141.309814 13.5
141.364349 14.17926
141.508392 13.6674
141.565887 8.061275
141.632568 10.69482
142.17131 21.02149
142.200363 16.84639
142.528824 3.115741
143.048981 93.755882
143.085938 159.473099
143.117645 740.372009
143.235153 24.445379
143.301804 2.333333
143.332947 11.48761
143.342957 27.862009
143.424942 10.05449
143.52034 18.887581
143.598053 8.45
143.743881 19.271669
144.326645 5.002193
144.478851 8.388441
144.692703 5.703947
145.064957 219.621704
145.083817 57.26413
145.727432 3.028846
146.0392 34.51923
146.060837 78.377434
146.096954 188.182495
146.245453 10.97283
146.269684 6.004902
146.295197 5.695513
146.38031 27.7293
146.518036 6.710784
146.585419 2.041667
146.645432 5.041667
146.812119 8.185897
147.043259 3749.322998
147.155884 30.48941
147.169876 8.668103
147.181396 32.458679
147.213669 6.671053
147.228073 9.253739
147.30336 25.39683
147.365494 35.35038
147.418564 11.54833
147.466843 22.891529
147.500748 13.89855
147.529434 17.124689
147.564224 1.672619
147.732224 4.816667
148.073471 304.410095
148.111923 993.325378
148.214035 29.881069
148.22377 14.15
148.258499 5.633333
148.270676 17.14583
148.292679 7.736111
148.389343 6.003205
148.398026 13.875
148.456131 30.48485
148.550552 7.866667
148.590378 5.560185
148.677322 4.125
148.884079 4.933333
149.058929 2534.833984
149.092056 58.284088
149.164047 15.24492
149.19281 6.222222
149.204224 5.121212
149.228897 13.22715
149.271011 13.41026
149.297729 4.0
149.323227 11.24575
149.333618 10.84028
149.349457 5.013889
149.390213 15.57615
149.472092 10.10227
149.582169 4.59375
149.608185 10.45833
149.778351 11.66865
149.812515 6.380208
149.854736 8.703704
150.088104 88.184013
150.144791 7.711957
150.183228 10.52365
150.22583 9.724638
150.285431 5.75
150.338852 4.791667
150.396576 12.74167
150.566284 9.673612
150.656845 8.880051
150.690216 6.746795
150.763168 12.78305
151.036499 380.224792
151.075653 1349.348022
151.128098 7.189167
151.216705 11.32003
151.246613 5.083333
151.370743 5.666667
151.487045 3.703704
151.622665 29.57143
151.7005 16.671301
151.85054 20.389641
152.661819 5.340278
153.102524 144.680603
153.328079 16.627029
153.638641 19.450581
153.721054 15.66954
154.105927 53.940121
154.164032 16.48167
154.187241 7.339285
154.206039 14.37255
154.216675 68.726303
154.260422 31.80089
154.280304 16.99412
154.303635 27.087259
154.32074 21.396971
154.348679 112.192001
154.373047 16.66667
154.396164 7.671256
154.42247 105.374496
154.439941 25.60577
154.456573 33.571499
154.483658 45.733929
154.50766 31.328341
154.527115 42.179508
154.550323 7.705246
154.61087 13.66667
154.619522 5.694445
154.688751 4.083333
154.697403 11.83712
154.759613 16.964149
154.814285 18.12381
155.05069 10.86833
155.065414 10.74898
155.097382 130.697601
155.117798 33360.179688
155.168106 29.56019
155.232285 68.566559
155.275864 34.861099
155.294998 30.671301
155.307724 18.72464
155.353287 48.2342
155.364914 10.71627
155.382233 83.396217
155.406281 93.358002
155.439499 84.793747
155.461975 48.524769
155.492813 64.186279
155.529922 14.45279
155.539169 5.747549
155.560333 6.8
155.569168 51.569759
155.583389 16.573721
155.594376 15.5787
155.60466 31.101589
155.636139 56.181759
155.650742 10.88158
155.682831 44.542
155.701187 37.933891
155.719696 71.637177
155.730316 35.546719
155.746887 78.510437
155.774658 80.762772
155.811279 19.027781
155.825241 48.858398
155.86615 15.4
156.057343 60.755772
156.174118 34.94574
156.209274 21.03409
156.511322 7.415
156.593292 7.407609
156.624542 6.335784
156.637802 26.68873
156.683868 17.82095
156.968719 7.033333
157.035294 6.75
157.108185 11.16376
157.132996 1340.041016
157.28241 5.939394
157.300125 14.3787
157.313202 8.348333
157.352463 9.338889
157.370239 13.45588
157.387375 7.403736
157.397293 26.24707
157.448334 4.016667
157.714935 9.267858
157.939987 14.28482
157.955551 22.68145
157.998978 6.679598
158.095016 126.152603
158.249557 15.08599
158.327805 20.496731
158.422195 2.815476
158.507004 5.166667
158.523682 17.19956
158.54512 8.088889
158.734482 4.741667
159.317963 17.15243
160.039139 9.397059
160.052994 35.333328
160.073578 679.088928
160.110626 44.34985
160.148911 22.460131
160.246582 6.833333
160.295349 61.97337
160.373566 15.06136
160.395966 18.102779
160.404633 31.588579
160.413635 31.42247
160.474915 8.462607
160.612289 23.75758
160.74826 3.670455
161.059418 5708.84082
161.107208 75.437073
161.174332 17.701151
161.204086 12.21726
161.242569 36.109798
161.27269 13.59572
161.322266 22.85601
161.343414 67.015312
161.361938 2.680556
161.376587 59.294312
161.415466 13.52083
161.430984 11.25962
161.45816 14.45185
161.476868 14.3912
161.498688 20.8652
161.538452 39.393162
161.636078 10.67262
161.66864 13.91159
161.768768 18.79747
161.901535 8.369253
161.994995 17.81897
162.052155 23.028009
162.09198 103.7547
162.123413 29.612141
162.189392 3.688725
162.212189 19.394409
162.366699 4.481482
162.429611 55.09293
162.464111 5.88587
163.074921 3693.812012
163.147781 7.708333
163.165558 3.678571
163.183517 13.78316
163.204742 44.272129
163.248398 13.05357
163.290207 6.44079
163.355591 5.720238
163.41864 8.506945
163.445648 15.33969
163.486374 7.111111
163.555054 6.55147
163.565903 8.640152
163.605789 4.001812
163.652313 4.017857
163.730408 4.007576
163.75267 8.802928
163.920837 4.386905
164.104568 25.71468
164.322998 4.083333
165.053055 40.38776
165.100372 79.510773
165.475571 10.67402
166.108017 48.347229
167.06929 178.468002
167.115784 87.745613
167.329926 9.875
167.425354 5.884804
167.713852 16.64929
167.810104 11.59414
168.07251 66.668373
170.134491 7.001984
171.105896 52.961361
171.41391 32.505058
172.097992 100.603699
172.119415 10.36742
173.107086 115.723396
174.092178 54.351601
175.082352 62.0023
176.072769 77.939636
176.108444 64.001068
176.124695 59.085678
177.056458 36.418449
177.08876 14.51894
177.955353 7.338542
177.973892 27.67605
178.001755 14.00085
178.038895 11.67083
178.10289 14.82821
178.136383 8.070402
178.146622 25.93854
178.174454 9.708333
178.233902 8.724999
178.326645 11.61404
178.486542 83.932343
178.57399 9.375
178.61615 10.45581
178.768417 10.88889
178.854477 5.958333
179.014633 10.21429
179.041733 154.1259
179.069672 7794.74707
179.139633 40.410801
179.18042 18.50662
179.196609 3.358333
179.210541 7.748333
179.224594 6.345238
179.243439 32.439831
179.256073 28.493059
179.28511 8.20119
179.294418 4.017857
179.307922 48.101711
179.340393 36.810902
179.354706 5.680555
179.368607 32.05143
179.415558 6.334677
179.434204 14.00872
179.457504 27.753759
179.509689 10.45581
179.594818 48.984718
179.628601 33.572399
179.900497 9.429762
180.02652 4.408333
180.098358 65.986557
180.859909 48.742401
180.937881 4.345238
180.95192 12.0
181.228119 9.681818
183.159149 25.35
183.332245 18.340691
183.396698 3.75
183.511368 8.018518
183.572662 5.160714
184.100952 21.06074
184.615799 5.742284
185.087006 5.013889
185.103683 46.057968
185.123383 78.550323
185.358658 11.375
186.090988 1223.562988
186.145874 5.337121
186.22226 31.649771
186.335648 4.703703
186.392639 14.67949
186.506653 15.56474
186.518555 8.818548
186.578598 33.457069
186.616562 7.703703
186.738449 6.741667
187.077011 93.678612
187.126175 57.69342
187.296249 7.969086
187.329483 17.852369
188.105667 260.919189
188.156662 2.041667
188.173615 7.429762
188.713593 17.533331
189.090591 23.66667
189.101166 469.100189
189.112228 50.185501
189.145599 3.291667
189.340561 2.14881
190.327347 5.388889
190.394028 20.071211
190.475647 8.681818
190.774353 9.963542
190.909119 4.630952
191.076233 39.027
191.116745 2112.931885
191.146439 6.095238
191.158737 10.51868
191.201309 6.401515
191.314072 15.37245
191.341217 8.011905
191.364914 8.383333
191.408234 7.041667
191.433609 29.74843
191.451553 7.130208
191.591156 13.34347
191.615753 39.818851
191.62973 3.367424
191.721725 22.884661
191.793472 4.669117
191.813019 19.35648
191.85611 10.08333
192.367249 16.841181
192.59433 5.939394
192.792068 6.369253
192.96048 13.93895
193.271118 12.00397
197.134933 9.019736
198.122559 4.341667
199.11882 51.303391
199.30864 9.748563
200.100876 28.005751
201.143417 31.29365
201.505844 8.667683
202.084229 25.015551
202.109619 28.91106
203.065765 23.408331
203.117828 1047.921021
203.153564 71.334396
203.177612 3.386905
203.21785 5.786765
203.256561 18.00605
203.272903 14.72115
203.322296 10.85799
203.525757 10.32143
203.603088 9.426724
203.987564 11.67
204.022354 16.42589
204.052246 18.457371
204.10379 90.744926
204.633896 6.336538
204.713196 16.10417
205.133713 1084.578979
205.231796 10.32143
205.373108 4.815476
205.421112 16.41296
205.535919 4.080128
205.677917 12.54167
206.113098 92.52578
206.399506 5.371913
206.894669 5.336538
207.144867 7.162634
207.796295 14.66733
208.037537 24.61335
208.095901 41.367561
208.127411 13.00309
208.694931 6.033602
209.109222 23.52632
213.141068 78.667488
215.093842 136.303696
215.116837 33.214539
215.146851 16.33452
215.785019 9.095239
216.122406 71.435188
216.659851 7.028153
217.134705 572.912903
217.331177 9.735544
217.398285 18.08333
217.43544 12.69459
217.499451 8.185897
217.58783 4.166667
217.682632 3.25
217.787354 16.721149
218.882797 7.148809
219.148483 399.821411
219.212311 7.116379
219.459625 14.36218
220.132477 35.967918
222.112244 359.510712
222.935074 11.78914
222.957352 14.95833
223.150986 18.08333
223.373108 6.428572
223.414703 12.74423
224.126724 2265.3479
224.17453 4.688725
224.186798 4.306818
224.209 10.60556
224.238235 4.669445
224.285385 12.09127
224.321991 3.226852
224.362091 9.003472
224.429779 12.67803
224.471527 15.18526
224.664352 28.340429
224.803619 33.07399
224.873047 6.334877
225.034805 6.742284
225.441864 10.11638
225.600662 11.10426
226.23671 12.33333
226.919739 10.00595
229.041748 5.88587
229.130768 291.145813
229.208084 4.002778
229.449493 10.68056
231.108093 13.64477
231.147583 129.0755
231.785538 2.666667
232.023941 5.371913
232.103439 8.33477
232.144119 156.521103
232.304886 11.56944
232.516113 20.067419
232.840729 8.361486
233.123978 92.434639
233.16568 25.56053
233.46489 7.125
233.956833 5.702587
233.978287 3.066667
234.164627 36.667351
234.409805 8.081897
234.755463 7.37037
235.144119 50.809521
235.701279 19.51042
236.127899 1375.062012
236.341721 6.916667
236.593399 7.041667
237.080093 6.013889
237.267624 9.768939
237.605347 10.2937
238.139786 91.135223
239.138153 41.942402
242.160217 76.727463
243.037277 11.48761
243.144531 9.06586
243.719894 4.349638
244.535233 5.017857
244.867203 7.337963
245.101608 35.605068
245.123062 4.380952
245.151382 1780.823975
245.246277 20.824129
245.308182 4.388889
245.413025 16.715139
245.452194 5.560185
245.559052 6.05
245.690872 7.656609
245.765701 5.5
245.880875 10.36687
246.137268 171.091003
246.448456 6.0625
246.716171 7.078432
246.804367 7.354167
248.127396 66.058327
248.151978 1152.265015
248.325272 11.08232
248.424973 11.80595
248.484283 10.08232
248.533203 5.19853
248.772827 6.054487
248.906723 13.34524
248.978378 6.8
249.203186 3.695513
249.323959 7.068182
249.934143 12.73387
251.40477 6.095238
256.143982 16.408331
258.162781 120.872101
258.470001 5.774123
258.614655 16.415001
258.755798 10.24242
258.884186 8.166667
259.058105 6.306159
259.141907 15.33409
259.180908 5.0
259.592072 22.09375
259.668304 18.04598
259.785706 5.19853
259.976959 10.34833
260.127869 12.34375
260.174438 3528.968994
260.242218 12.72123
260.33606 4.814815
260.369965 17.066669
260.492615 25.369841
260.515594 9.070402
260.530365 15.71102
260.544525 43.36491
260.609283 30.59535
260.627106 56.420929
260.677673 8.818548
260.722687 34.650162
260.768341 17.66729
260.802063 5.666667
260.971069 5.265351
261.015564 37.355282
261.159576 879.931274
261.308594 4.59375
261.398071 9.344048
261.4552 7.166667
261.477264 6.615
261.583588 15.41049
261.774963 29.79142
261.881927 14.76025
261.966034 17.41667
262.225372 2.333333
262.247925 10.46377
262.3815 23.81855
262.507751 15.23
262.566895 23.780081
262.74408 19.987829
262.848663 8.306818
263.138397 341.523499
263.430939 2.520833
264.146454 6607.809082
264.217285 103.832603
264.244141 24.17803
264.270508 3.640152
264.301666 45.8405
264.335602 3.361111
264.356842 11.23518
264.381805 15.33409
264.421417 14.25
264.457977 32.77
264.491333 56.132359
264.534729 30.810711
264.56958 26.02541
264.630096 9.927469
264.67926 20.778509
264.751617 22.961121
264.83667 25.36162
264.891144 12.17014
264.937439 9.430555
265.072357 25.66667
265.092987 37.087078
265.196655 38.737091
265.24231 17.78788
265.636292 17.10268
265.712769 7.075
266.254608 11.95833
266.518341 3.4
267.169586 57.634178
267.752502 7.019608
267.888367 11.02885
271.166809 18.070181
272.166534 21.55192
272.492432 10.92287
275.551636 4.669445
277.153473 576.848389
277.221802 5.668651
277.39032 81.74704
277.407166 4.363636
277.447174 10.77412
277.473511 13.74746
277.523895 101.833504
277.546753 9.421875
277.570251 38.48111
277.632172 32.96743
277.673767 3.675
277.694061 6.75
277.729248 8.510417
277.760925 11.87963
277.787323 29.70673
277.81311 36.937149
277.827423 1.833333
277.873657 11.86667
277.924103 14.88971
278.108734 99.990021
278.432465 34.861759
278.688934 14.34167
278.894958 24.08333
278.984833 2.694444
279.169739 16884.960938
279.239502 45.987301
279.287537 19.086149
279.299316 11.66667
279.324402 49.523811
279.354553 23.52899
279.447845 89.617401
279.475464 54.43998
279.526123 3.36218
279.542816 60.72887
279.573517 83.635391
279.627747 60.50338
279.649658 4.518939
279.6716 20.26087
279.695129 17.369049
279.727844 37.149601
279.747833 49.459171
279.764557 7.068182
279.799561 12.00102
279.833649 34.612518
279.875244 25.33379
279.899536 38.664921
279.921478 17.21512
279.95874 4.387821
279.976105 52.34444
280.013885 25.981831
280.053162 23.995449
280.10611 75.80014
280.210327 9.716269
280.370087 20.42247
280.854828 19.211109
280.929626 12.81649
281.250671 8.969087
281.495514 10.66667
282.413025 8.755208
282.483093 30.19577
283.811798 3.815476
284.186859 7.351852
284.51535 8.666667
285.096588 4.35307
285.187988 60.333328
285.214081 3.36218
285.284302 66.877678
286.192383 861.163513
286.257385 8.127416
286.323792 65.279381
286.366791 6.348333
286.413605 4.440476
286.464752 4.761905
286.490387 4.337121
286.519897 17.03252
286.537811 7.37037
286.790833 11.76136
286.914581 14.61111
286.938141 7.070402
286.975739 5.510417
287.109039 6.334459
287.457672 16.46944
287.562439 9.681666
287.868866 7.704545
288.118011 40.719219
288.20639 671.93219
288.414276 5.125
288.462524 14.56061
288.501068 4.963235
288.522034 7.008333
288.537354 5.71627
288.86377 15.52083
288.986633 14.33404
289.181824 13.67539
289.667145 9.336805
289.708588 5.030303
289.732269 9.388514
290.160828 132.772598
290.183228 59.473911
290.578674 25.92708
295.164215 23.430559
297.176239 37.817108
302.222443 7.340278
302.390533 14.48214
302.454041 9.053572
302.70694 6.673611
302.948608 11.67064
303.177673 15.44817
303.863617 3.0
304.170135 32.79694
304.201172 1920.027954
304.282196 2.408333
304.350891 10.50672
304.385376 17.435419
304.448914 14.65988
304.531067 8.671296
304.567505 8.004386
304.646393 27.727909
304.73645 10.78333
304.798492 14.89655
304.863953 24.068621
304.931885 4.340909
305.108429 17.60952
305.132324 9.737069
305.229767 17.10714
305.350983 5.069444
305.480621 6.160088
306.300262 8.086538
306.468323 41.286591
307.128784 10.76894
308.166199 13.34295
328.138763 16.30225
334.712311 9.334302
364.424103 13.09091
376.032471 14.00833
407.555573 4.0
407.89563 7.382936
410.242249 195.225601
411.371002 11.34921
411.724152 7.336538
423.541168 11.85965
425.47525 2.416667
425.704468 4.120098
425.91983 8.240196
426.099335 11.74383
426.128174 5.88587
426.22821 34.422619
426.258453 5.333333
426.767426 12.04167
427.307831 3.449074
427.5961 26.96899
427.939362 4.684524
428.252777 1878.032959
428.36441 5.027778
428.459045 24.31172
428.580444 7.372807
428.649628 22.87031
428.686066 15.68153
428.716034 20.88759
428.79068 35.084641
428.847687 45.293159
428.883636 15.26882
429.063049 6.097222
429.091919 11.71902
429.116211 11.18939
429.401855 7.429762
429.957123 20.335529
430.29538 8.522727
431.155426 7.721847
431.885315 17.3613
506.840576 6.25
522.299561 11.04545
547.025452 7.364899
549.477295 8.015151
595.308899 4.111111
616.38446 6.666667
617.049805 7.605556
688.084167 85.001228
729.886108 11.3869
832.153809 24.334089
843.508667 4.375
1081.407227 2.833333
1081.95874 6.041667
1083.245728 3.083333
1186.236816 8.160714
1290.89209 6.041667
1590.024292 16.930969
