>compound Trilostane
>formula C20H27NO3
>ionization [M+H]+
>parentmass 330.206573
#inchi InChI=1S/C20H27NO3/c1-18-7-6-14-12(13(18)3-4-15(18)22)5-8-20-17(24-20)16(23)11(10-21)9-19(14,20)2/h12-15,17,22-23H,3-9H2,1-2H3/t12-,13-,14+,15+,17+,18-,19+,20+/m0/s1
#inchikey KVJXBPDAXMEYOA
#Ion_Source LC-ESI
#Instrument qTof
#Compound_Source Commercial
#PI Dorrestein
#Data_Collector Garg_Neha
#Scan -1
#Precursor_MZ 330.206
#ExactMass 329.199
#Charge 1
#CAS_Number 13647-35-3, 27107-98-8, 28414-46-2
#Pubmed_ID N/A
#Smiles C1(=C([C@@]2([C@]3([C@](C1)([C@]4([C@@](CC3)([C@]5([C@](CC4)([C@@H](CC5)O)C)[H])[H])[H])C)O2)[H])O)C#N
#INCHI_AUX N/A
#Library_Class 1
#SpectrumID CCMSLIB00000078135
#IonMode Positive
#UpdateWorkflowName UPDATE-SINGLE-ANNOTATED-GOLD
#LibraryQualityString Gold
#TaskID 77f51c88eb8b467eb4a01dd2d0cb90d2
##Scan# 1285
#SpectrumFile Plate2_61_88_GG8_01_16496.mzXML
#LibraryName FDALibrary_2_04302014.mgf
#MQScore -1
#Organism FDALibrary_2_04302014
#TIC_Query 0
#RT_Query -1
#MZErrorPPM -1
#SharedPeaks 0
#MassDiff 0
#LibMZ -1
#SpecMZ 330.206
#SpecCharge 0
#internalFilename spec-00000.mgf

>collision 10
46.697483 152.0
60.654686 140.0
63.169659 192.0
71.101631 140.0
75.828163 144.0
75.998108 156.0
95.087334 160.0
97.993004 172.0
101.926888 188.0
105.075447 164.0
107.084808 200.0
109.100716 184.0
112.04084 204.0
114.003799 180.0
115.03894 220.0
115.053886 172.0
117.068359 172.0
119.084236 184.0
121.019402 212.0
121.098236 176.0
122.068253 152.0
124.070885 184.0
124.086403 204.0
125.059395 252.0
128.061966 200.0
129.06778 208.0
130.072113 204.0
130.94751 152.0
131.002167 316.0
131.086472 148.0
132.957138 212.0
133.065018 212.0
133.10228 192.0
134.058701 196.0
135.082748 200.0
135.118546 212.0
138.057037 152.0
141.070679 144.0
145.100464 172.0
146.06665 244.0
147.118073 168.0
147.298416 184.0
148.082108 144.0
149.436661 160.0
149.645981 184.0
152.070099 176.0
158.098679 144.0
159.116959 168.0
159.244431 164.0
160.127228 444.0
160.757492 160.0
161.13118 148.0
162.093979 144.0
162.133209 164.0
164.833206 180.0
167.846848 220.0
168.055771 192.0
169.105453 208.0
170.339203 148.0
172.071014 144.0
172.124451 300.0
173.132568 328.0
175.110245 152.0
175.141678 120.0
176.101944 196.0
179.088516 232.0
183.087219 188.0
183.122238 152.0
184.07692 184.0
185.090958 160.0
187.113754 160.0
189.095535 248.0
189.168106 148.0
190.090347 140.0
191.101517 160.0
199.100113 176.0
199.141418 192.0
200.122849 160.0
200.525681 176.0
201.162521 808.0
202.129745 156.0
202.163101 188.0
203.178085 204.0
212.160736 180.0
213.165909 164.0
214.165802 180.0
216.522797 156.0
218.110123 168.0
219.18013 328.0
223.013855 208.0
228.146439 184.0
229.206299 176.0
230.104706 152.0
232.116821 152.0
238.12558 132.0
239.178101 184.0
239.586975 228.0
240.183578 120.0
249.1633 140.0
259.157898 164.0
267.179352 140.0
272.260773 188.0
272.566284 172.0
275.211273 140.0
284.199738 172.0
285.186523 204.0
286.186707 244.0
289.866699 180.0
294.188416 276.0
295.168396 168.0
302.216217 176.0
303.1922 392.0
304.197906 156.0
312.193604 332.0
313.184662 144.0
314.936981 188.0
328.026001 152.0
329.185669 120.0
330.206573 6960.0
331.208862 1580.0
332.104767 160.0
332.211578 348.0
333.186523 152.0
334.532104 148.0
348.206604 240.0
367.059357 164.0
428.263214 152.0
1512.725952 204.0
1546.970581 192.0
1645.103149 168.0
1765.401611 172.0
1858.254517 196.0
1929.658936 180.0
1937.124023 148.0
1980.072876 224.0
