>compound MLS001148177-01!
>formula C17H20F6N2O3
>ionization [M+H]+
>parentmass 415.146454
#inchi InChI=1S/C17H20F6N2O3/c18-16(19,20)9-27-12-4-5-14(28-10-17(21,22)23)13(7-12)15(26)25-8-11-3-1-2-6-24-11/h4-5,7,11,24H,1-3,6,8-10H2,(H,25,26)
#inchikey DJBNUMBKLMJRSA
#origInchi InChI=1S/C17H20F6N2O3.C2H4O2/c18-16(19,20)9-27-12-4-5-14(28-10-17(21,22)23)13(7-12)15(26)25-8-11-3-1-2-6-24-11;1-2(3)4/h4-5,7,11,24H,1-3,6,8-10H2,(H,25,26);1H3,(H,3,4)
#Ion_Source LC-ESI
#Instrument qTof
#Compound_Source NIH Pharmacologically Active Library
#PI Dorrestein
#Data_Collector VP/LMS
#Scan -1
#Precursor_MZ 415.15
#ExactMass 414.138
#Charge 1
#CAS_Number N/A
#Pubmed_ID N/A
#Smiles FC(F)(F)COc1ccc(OCC(F)(F)F)c(c1)C(=O)NCC2CCCCN2.CC(=O)O
#INCHI_AUX N/A
#Library_Class 1
#SpectrumID CCMSLIB00000084819
#IonMode Positive
#UpdateWorkflowName UPDATE-SINGLE-ANNOTATED-GOLD
#LibraryQualityString Gold
#TaskID d252d724072548979f1f6f1ced849daf
##Scan# 1694
#SpectrumFile p3-B02_GB2_01_18235.mzXML
#LibraryName Pharm_Active_Library.mgf
#MQScore -1
#Organism Pharm_Active_Library
#TIC_Query 0
#RT_Query -1
#MZErrorPPM -1
#SharedPeaks 0
#MassDiff 0
#LibMZ -1
#SpecMZ 415.15
#SpecCharge 0
#internalFilename spec-00000.mgf

>collision 10
44.935688 140.0
44.974709 168.0
45.090591 96.0
45.141392 196.0
45.208279 156.0
45.602577 160.0
45.76046 176.0
45.843483 140.0
45.952244 164.0
45.997242 116.0
46.006691 96.0
46.053951 168.0
46.113403 156.0
46.201298 84.0
46.217808 156.0
46.250011 136.0
46.313652 232.0
46.323135 164.0
46.442421 164.0
46.708652 188.0
46.854313 108.0
46.951092 176.0
46.971554 180.0
47.082108 72.0
47.108059 124.0
47.120354 168.0
47.129921 164.0
47.154518 188.0
47.181858 216.0
47.263226 152.0
47.333733 232.0
47.402222 172.0
47.540726 220.0
47.760551 180.0
47.861019 80.0
47.945843 180.0
47.991917 140.0
48.002949 152.0
48.029152 252.0
48.092625 104.0
48.146469 144.0
48.186527 56.0
48.299889 128.0
48.442467 96.0
48.510368 208.0
48.646317 148.0
48.808872 68.0
48.988411 216.0
49.009308 104.0
49.09713 136.0
49.111118 140.0
49.128613 196.0
49.170868 164.0
49.196198 208.0
49.285583 164.0
49.323318 80.0
49.337296 64.0
49.359669 168.0
49.37645 80.0
49.401627 172.0
49.422611 248.0
49.560455 144.0
49.684612 168.0
49.80534 208.0
49.846081 128.0
49.884029 64.0
50.137383 124.0
50.240314 208.0
50.27861 144.0
50.433773 152.0
50.449322 44.0
50.573803 108.0
50.73671 56.0
50.857285 120.0
50.955269 112.0
51.212749 128.0
51.235542 128.0
51.256916 180.0
51.286842 112.0
51.393803 40.0
51.438042 100.0
51.509441 120.0
51.535156 176.0
51.633793 132.0
51.798393 172.0
51.971867 184.0
51.991955 180.0
52.05225 72.0
52.072353 136.0
52.121197 172.0
52.139881 192.0
52.179295 176.0
52.257793 172.0
52.622444 128.0
52.662876 192.0
52.732231 216.0
52.881203 172.0
52.976768 160.0
53.052128 52.0
53.217522 76.0
53.383171 96.0
53.393353 168.0
53.424385 228.0
53.487926 108.0
53.505692 176.0
53.604439 104.0
53.704082 224.0
53.750259 156.0
53.897739 124.0
53.979595 116.0
54.017624 152.0
54.055664 132.0
54.076153 124.0
54.147655 124.0
54.298851 80.0
54.548462 168.0
54.602863 124.0
54.685257 208.0
54.862019 84.0
54.98592 104.0
55.015442 140.0
55.0494 192.0
55.10701 36.0
55.206047 172.0
55.2519 148.0
55.293331 168.0
55.339222 156.0
55.364395 144.0
55.444393 132.0
55.52 140.0
55.536316 96.0
55.565304 192.0
55.637222 136.0
55.723362 72.0
55.747135 188.0
55.89584 172.0
55.940491 132.0
56.003029 144.0
56.023884 184.0
56.083488 40.0
56.101376 132.0
56.186382 176.0
56.225178 184.0
56.358082 80.0
56.435802 88.0
56.504604 128.0
56.524055 204.0
56.562969 204.0
56.582428 136.0
56.670795 168.0
56.760731 124.0
56.840229 92.0
56.961838 140.0
56.985878 120.0
57.041481 156.0
57.053509 92.0
57.073051 200.0
57.105175 156.0
57.120388 228.0
57.149765 212.0
57.163307 152.0
57.243088 216.0
57.514462 152.0
57.577877 140.0
57.645859 244.0
57.706318 124.0
57.845501 236.0
57.871239 132.0
57.931816 136.0
58.019714 136.0
58.080372 168.0
58.106049 108.0
58.245823 216.0
58.256458 200.0
58.394779 132.0
58.501293 140.0
58.53022 176.0
58.629238 48.0
58.650574 156.0
58.700886 96.0
58.714611 160.0
58.855003 144.0
58.877907 136.0
58.915367 336.0
59.016106 216.0
59.039902 52.0
59.088852 192.0
59.153126 132.0
59.168434 136.0
59.252666 116.0
59.343094 160.0
59.373764 88.0
59.389099 112.0
59.412109 192.0
59.508797 156.0
59.622471 108.0
59.776253 120.0
59.827042 84.0
60.220249 180.0
60.280502 116.0
60.37944 104.0
60.455246 108.0
60.470722 136.0
60.501678 164.0
60.548134 140.0
60.566719 100.0
60.619396 184.0
60.658142 172.0
60.704655 188.0
60.763596 216.0
61.050957 132.0
61.105396 332.0
61.228371 100.0
61.240829 184.0
61.326523 144.0
61.34211 240.0
61.524632 148.0
61.560543 200.0
61.585529 100.0
61.660526 176.0
61.710548 196.0
61.795006 116.0
61.910839 168.0
61.929634 184.0
62.027195 196.0
62.080086 176.0
62.117729 76.0
62.207176 112.0
62.247997 84.0
62.273125 144.0
62.304539 224.0
62.337536 168.0
62.40041 28.0
62.493206 72.0
62.731014 172.0
62.762543 132.0
62.786198 168.0
62.809856 192.0
63.084618 160.0
63.193741 44.0
63.279209 212.0
63.315628 260.0
63.570862 156.0
63.666164 124.0
63.742363 164.0
63.801311 180.0
63.839333 152.0
63.874321 216.0
63.904549 116.0
63.955471 64.0
63.996864 108.0
64.109962 96.0
64.202423 208.0
64.250275 148.0
64.357483 272.0
64.38755 140.0
64.405121 140.0
64.481812 184.0
64.53936 160.0
64.654533 96.0
64.702553 140.0
64.734573 188.0
64.761803 224.0
64.821075 72.0
64.870964 128.0
64.938637 220.0
64.960617 116.0
65.135536 128.0
65.175697 208.0
65.237953 152.0
65.254456 80.0
65.293045 196.0
65.397629 208.0
65.492622 144.0
65.505508 148.0
65.516785 200.0
65.563515 116.0
65.616333 256.0
65.634079 160.0
65.647278 100.0
65.673149 160.0
65.707024 180.0
65.777145 188.0
65.795784 164.0
65.834534 156.0
65.976723 212.0
66.04464 80.0
66.099648 184.0
66.191917 148.0
66.211349 136.0
66.310173 152.0
66.38961 92.0
66.451256 52.0
66.553505 108.0
66.568123 164.0
66.588043 180.0
66.953537 108.0
67.010544 132.0
67.038246 60.0
67.059433 52.0
67.082253 172.0
67.159172 164.0
67.189888 160.0
67.23394 36.0
67.247002 56.0
67.269852 152.0
67.291077 220.0
67.346596 68.0
67.521477 244.0
67.59182 72.0
67.69986 116.0
67.812904 176.0
67.850601 136.0
67.981819 140.0
68.065544 192.0
68.228203 128.0
68.374405 172.0
68.3927 160.0
68.583763 220.0
68.79821 176.0
68.809761 100.0
68.902252 188.0
68.978271 244.0
69.021255 140.0
69.042747 160.0
69.094025 216.0
69.158562 136.0
69.22644 240.0
69.292694 144.0
69.339096 232.0
69.421982 172.0
69.464905 160.0
69.584595 192.0
69.602859 116.0
69.63607 136.0
69.687569 172.0
69.730774 176.0
69.760696 196.0
69.78109 120.0
70.006943 84.0
70.126892 164.0
70.155228 72.0
70.231934 208.0
70.270302 168.0
70.291992 156.0
70.418869 152.0
70.525803 76.0
70.565926 120.0
70.781769 200.0
70.826981 160.0
70.939255 164.0
70.999611 176.0
71.034836 104.0
71.049934 184.0
71.086845 168.0
71.198128 180.0
71.214439 124.0
71.232918 212.0
71.395149 228.0
71.582741 52.0
71.604111 228.0
71.731003 172.0
71.825432 160.0
71.977753 172.0
72.038124 180.0
72.075294 148.0
72.162498 148.0
72.347595 148.0
72.395004 152.0
72.47213 128.0
72.572922 80.0
72.67469 112.0
72.734085 192.0
72.854652 108.0
72.866547 48.0
72.892036 180.0
72.919228 180.0
72.980423 120.0
73.079071 192.0
73.184601 184.0
73.288498 76.0
73.363487 188.0
73.423164 96.0
73.453682 148.0
73.534058 120.0
73.552834 200.0
73.569908 184.0
73.699707 148.0
73.810806 204.0
73.949379 144.0
73.963074 184.0
74.060669 212.0
74.142906 180.0
74.165192 56.0
74.229118 152.0
74.281784 172.0
74.297226 200.0
74.312668 132.0
74.417366 144.0
74.443123 120.0
74.594315 104.0
74.745659 156.0
74.777245 148.0
74.805878 180.0
74.833443 188.0
74.856339 188.0
74.893715 204.0
74.979858 196.0
75.022598 136.0
75.133324 148.0
75.213097 212.0
75.53756 164.0
75.573891 152.0
75.632729 212.0
75.696785 168.0
75.743721 120.0
75.842316 160.0
75.854446 72.0
75.913391 164.0
75.986244 80.0
76.121628 176.0
76.436256 104.0
76.749794 144.0
76.775948 140.0
76.798622 104.0
76.840492 228.0
76.873642 180.0
76.920761 48.0
76.981873 120.0
77.030777 40.0
77.130379 108.0
77.156601 148.0
77.203804 128.0
77.252785 452.0
77.308769 68.0
77.47686 148.0
77.573242 192.0
77.667931 172.0
77.724068 160.0
77.792519 136.0
77.827629 36.0
77.853973 204.0
77.894363 224.0
77.931259 188.0
78.004097 188.0
78.056053 116.0
78.220703 168.0
78.283058 172.0
78.376419 52.0
78.589767 180.0
78.780434 132.0
78.814003 76.0
78.987259 152.0
79.012611 156.0
79.148308 112.0
79.203209 108.0
79.26796 160.0
79.353836 192.0
79.401718 140.0
79.463799 180.0
79.479767 236.0
79.602249 104.0
79.623558 176.0
79.733711 180.0
79.929321 160.0
80.002289 116.0
80.157242 136.0
80.342674 56.0
80.431892 160.0
80.580116 92.0
80.730263 96.0
80.8806 140.0
80.939629 136.0
81.26046 124.0
81.283783 108.0
81.414825 148.0
81.429199 128.0
81.504646 188.0
81.551369 124.0
81.569344 188.0
81.733002 152.0
81.764763 264.0
81.826599 144.0
81.846397 172.0
81.977898 128.0
82.125732 148.0
82.156395 232.0
82.199699 164.0
82.257454 76.0
82.288139 148.0
82.363991 196.0
82.387474 128.0
82.40554 128.0
82.434448 152.0
82.513977 168.0
82.533867 64.0
82.822128 112.0
82.843346 124.0
82.959328 144.0
82.972015 188.0
83.039108 196.0
83.160667 124.0
83.202415 212.0
83.216942 36.0
83.231468 160.0
83.25013 204.0
83.304115 76.0
83.34227 136.0
83.378609 68.0
83.440414 132.0
83.514969 248.0
83.667824 284.0
83.713341 192.0
83.820816 132.0
83.901016 172.0
83.968475 232.0
84.001312 76.0
84.023201 60.0
84.035973 128.0
84.125397 164.0
84.150955 156.0
84.172867 156.0
84.194778 84.0
84.220352 104.0
84.28064 92.0
84.344597 160.0
84.489059 176.0
84.578728 116.0
84.606186 148.0
84.697746 160.0
84.716064 140.0
84.78569 188.0
84.875359 236.0
84.961716 180.0
85.194862 184.0
85.244469 180.0
85.257332 96.0
85.457764 176.0
85.506645 192.0
85.584763 104.0
85.605019 244.0
85.617912 160.0
85.665802 212.0
85.733971 228.0
85.798485 140.0
85.859329 92.0
86.005089 180.0
86.029083 132.0
86.052505 256.0
86.101089 108.0
86.197151 120.0
86.39138 160.0
86.419037 64.0
86.533783 172.0
86.630089 156.0
86.680115 220.0
86.79689 168.0
86.900757 56.0
87.017685 160.0
87.069679 140.0
87.231323 168.0
87.300163 168.0
87.354057 172.0
87.437782 72.0
87.48246 48.0
87.50666 72.0
87.530861 112.0
87.558647 152.0
87.640762 176.0
88.004471 104.0
88.116531 228.0
88.20623 36.0
88.246269 144.0
88.275406 164.0
88.406357 84.0
88.451271 116.0
88.531776 184.0
88.556129 124.0
88.578995 152.0
88.734146 172.0
88.792274 112.0
88.807281 184.0
88.850426 108.0
88.906715 176.0
88.961143 100.0
89.03437 88.0
89.336983 168.0
89.361443 72.0
89.453659 144.0
89.528969 124.0
89.574173 144.0
89.602432 152.0
89.693512 180.0
89.728699 156.0
89.78904 136.0
89.809784 164.0
89.853172 192.0
89.889023 176.0
89.945641 180.0
89.973961 148.0
90.045708 144.0
90.151505 60.0
90.463585 116.0
90.503342 68.0
90.520378 152.0
90.558258 160.0
90.893806 168.0
90.927963 172.0
90.964027 116.0
90.998199 164.0
91.091255 188.0
91.126198 140.0
91.197662 132.0
91.214767 200.0
91.28701 168.0
91.30983 128.0
91.355484 180.0
91.446815 96.0
91.522964 208.0
91.570572 304.0
91.665825 168.0
91.696312 144.0
91.709656 96.0
91.761124 256.0
91.90799 184.0
91.976692 228.0
92.116081 156.0
92.131363 68.0
92.189362 244.0
92.372231 220.0
92.38945 164.0
92.468559 128.0
92.559792 112.0
92.600006 108.0
92.663216 104.0
92.782043 180.0
92.839561 164.0
92.897102 148.0
92.939308 36.0
92.962379 172.0
93.054466 200.0
93.127853 204.0
93.192757 96.0
93.235031 52.0
93.290771 172.0
93.367683 140.0
93.452316 184.0
93.494652 164.0
93.694901 276.0
93.783546 132.0
93.833664 204.0
93.874153 188.0
94.045853 124.0
94.065155 120.0
94.150108 120.0
94.188736 80.0
94.240898 212.0
94.291145 124.0
94.389732 128.0
94.430344 224.0
94.467094 180.0
94.532173 176.0
94.641273 128.0
94.705177 120.0
94.957138 136.0
95.08593 168.0
95.16478 104.0
95.242455 88.0
95.349586 144.0
95.477623 144.0
95.500961 160.0
95.559326 100.0
95.611862 152.0
95.646896 128.0
95.886459 128.0
95.903999 180.0
95.921547 132.0
96.081833 448.0
96.180977 196.0
96.208641 116.0
96.235634 140.0
96.326805 112.0
96.370399 208.0
96.429024 136.0
96.473984 176.0
96.747864 140.0
96.771355 156.0
96.859482 196.0
96.904533 176.0
96.922173 156.0
97.012321 72.0
97.043312 208.0
97.089485 628.0
97.319534 160.0
97.348717 204.0
97.442108 188.0
97.679977 124.0
97.701622 172.0
97.768997 148.0
97.888603 140.0
97.913048 164.0
97.940613 200.0
97.969353 172.0
97.987083 156.0
98.028458 156.0
98.05014 188.0
98.067879 152.0
98.096939 15060.0
98.130005 224.0
98.151711 76.0
98.175049 128.0
98.207008 148.0
98.24662 216.0
98.302353 76.0
98.339134 180.0
98.43087 48.0
98.472336 72.0
98.529625 80.0
98.57309 176.0
98.594826 76.0
98.640717 204.0
98.703552 208.0
98.818268 148.0
98.921181 64.0
98.992455 160.0
99.028099 196.0
99.099846 1272.0
99.17868 164.0
99.295662 156.0
99.373024 156.0
99.408737 180.0
99.577484 172.0
99.598328 156.0
99.720535 184.0
99.790108 192.0
99.813965 76.0
99.835838 108.0
99.855728 112.0
99.939278 64.0
100.006935 108.0
100.040779 124.0
100.075394 196.0
100.108475 144.0
100.13237 144.0
100.178185 44.0
100.275818 44.0
100.688797 140.0
100.844635 204.0
100.884613 144.0
100.958588 184.0
101.020943 184.0
101.230743 168.0
101.286423 220.0
101.306854 180.0
101.415054 180.0
101.461159 212.0
101.535355 148.0
101.56945 92.0
101.645683 168.0
101.85247 140.0
101.991112 172.0
102.015236 188.0
102.164047 128.0
102.300888 152.0
102.327057 176.0
102.363297 96.0
102.387466 224.0
102.407608 200.0
102.425735 124.0
102.447891 104.0
102.560127 160.0
102.567497 112.0
102.571701 200.0
102.586937 152.0
102.818893 176.0
102.942909 164.0
102.986465 172.0
103.088799 172.0
103.164284 96.0
103.227379 96.0
103.40094 180.0
103.467735 228.0
103.768097 156.0
103.848694 124.0
104.017097 212.0
104.071915 92.0
104.104988 152.0
104.275055 156.0
104.327904 288.0
104.344162 184.0
104.384834 140.0
104.429573 192.0
104.44381 224.0
104.468216 232.0
104.74099 116.0
104.786194 188.0
105.121826 220.0
105.28759 116.0
105.338654 188.0
105.401436 148.0
105.43264 116.0
105.516441 256.0
105.598236 148.0
105.649376 152.0
105.694382 100.0
105.716896 112.0
105.7435 132.0
105.808998 96.0
105.837662 116.0
106.044518 164.0
106.147072 168.0
106.263985 168.0
106.385063 148.0
106.419968 128.0
106.567848 120.0
106.631554 188.0
106.697327 156.0
106.717888 140.0
106.754898 60.0
106.824829 52.0
106.891884 196.0
106.977104 124.0
107.012001 592.0
107.16066 156.0
107.207787 124.0
107.335594 208.0
107.573814 188.0
107.663048 140.0
107.866173 116.0
107.934402 112.0
108.017128 296.0
108.031609 144.0
108.046089 168.0
108.06321 160.0
108.083328 184.0
108.114365 104.0
108.172318 216.0
108.26342 184.0
108.483047 92.0
108.499626 172.0
108.545242 228.0
108.60331 204.0
108.802521 132.0
108.941658 140.0
108.966583 104.0
109.043472 332.0
109.120384 180.0
109.170288 132.0
109.20356 160.0
109.255562 208.0
109.284691 124.0
109.330467 148.0
109.392906 152.0
109.411644 92.0
109.430382 180.0
109.515762 160.0
109.636597 128.0
109.734566 212.0
109.936897 68.0
109.959854 96.0
110.024384 144.0
110.083023 176.0
110.14254 152.0
110.159256 152.0
110.205299 148.0
110.266861 180.0
110.375565 176.0
110.44458 120.0
110.471771 220.0
110.517799 140.0
110.560394 56.0
110.599411 92.0
110.848633 240.0
110.877968 64.0
110.901024 192.0
110.957626 140.0
111.027412 180.0
111.084862 172.0
111.129601 212.0
111.146385 136.0
111.177864 136.0
111.313911 168.0
111.352112 140.0
111.406723 136.0
111.440338 140.0
111.461349 164.0
111.690506 168.0
111.799904 232.0
111.87262 352.0
112.086288 160.0
112.101044 196.0
112.170593 152.0
112.343506 180.0
112.53978 184.0
112.68129 104.0
112.860939 112.0
113.104225 144.0
113.205849 164.0
113.271507 148.0
113.330826 140.0
113.430428 160.0
113.532196 204.0
113.555527 88.0
113.716774 204.0
113.778328 172.0
113.86454 120.0
113.914238 120.0
113.993706 172.0
114.028976 124.0
114.084244 104.0
114.107628 152.0
114.126762 156.0
114.154404 168.0
114.199066 284.0
114.222458 140.0
114.311813 188.0
114.394821 196.0
114.667175 208.0
114.810295 128.0
114.946823 100.0
115.001396 140.0
115.038597 156.0
115.145355 180.0
115.168846 120.0
115.311996 156.0
115.337646 184.0
115.485176 84.0
115.545074 64.0
115.600708 244.0
115.626389 28.0
115.712006 104.0
115.784813 180.0
115.842636 136.0
115.885483 168.0
115.960487 68.0
116.037659 152.0
116.089119 196.0
116.144875 124.0
116.33091 132.0
116.389526 148.0
116.516251 180.0
116.625839 208.0
116.731186 124.0
116.859306 176.0
116.892517 112.0
116.924797 116.0
116.987213 232.0
117.114258 60.0
117.213356 92.0
117.247833 172.0
117.328621 192.0
117.406128 188.0
117.433998 92.0
117.472069 148.0
117.504433 148.0
117.52169 88.0
117.571587 164.0
117.718117 184.0
117.741867 112.0
117.830429 204.0
117.847717 276.0
117.862839 104.0
117.880127 196.0
118.006897 172.0
118.310539 196.0
118.327858 124.0
118.442627 204.0
118.457794 76.0
118.477287 212.0
118.633118 132.0
118.707031 200.0
118.788727 192.0
118.826324 156.0
118.939171 92.0
119.080299 148.0
119.223686 188.0
119.421532 116.0
119.525948 120.0
119.716347 240.0
119.748001 184.0
119.782845 164.0
119.824234 152.0
119.917938 100.0
119.935371 212.0
120.007317 304.0
120.042503 144.0
120.309448 164.0
120.411011 156.0
120.448135 188.0
120.762886 100.0
120.891579 92.0
120.92041 108.0
121.024635 196.0
121.042999 244.0
121.200714 196.0
121.395798 228.0
121.426498 92.0
121.549347 60.0
121.722755 76.0
121.749107 160.0
121.777657 136.0
121.897491 132.0
121.968819 128.0
122.084465 212.0
122.320755 100.0
122.406616 116.0
122.459473 160.0
122.50573 48.0
122.667473 180.0
122.82756 180.0
122.948906 184.0
122.975395 120.0
123.026161 32.0
123.099022 96.0
123.189575 132.0
123.338997 148.0
123.354065 164.0
123.64222 172.0
123.844315 252.0
123.901909 180.0
123.952866 196.0
124.00605 176.0
124.072899 180.0
124.112457 236.0
124.176765 156.0
124.343163 200.0
124.429733 160.0
124.547424 148.0
124.722961 184.0
124.78965 208.0
124.874153 148.0
124.914185 188.0
124.960907 168.0
125.041008 48.0
125.178734 176.0
125.272575 124.0
125.348328 152.0
125.508812 184.0
125.537804 200.0
125.593559 124.0
125.635941 132.0
125.680565 176.0
125.738579 64.0
125.88369 216.0
125.906021 116.0
125.981964 60.0
126.104858 84.0
126.374382 272.0
126.433617 152.0
126.53434 136.0
126.58136 132.0
126.677666 176.0
126.769524 116.0
126.998199 184.0
127.021332 960.0
127.184433 220.0
127.222588 212.0
127.256264 40.0
127.38652 108.0
127.419518 116.0
127.483131 136.0
127.631485 184.0
127.65847 44.0
127.683212 192.0
127.746185 180.0
127.86544 104.0
127.883446 128.0
127.982491 172.0
128.036545 192.0
128.059067 172.0
128.115372 172.0
128.200989 156.0
128.257339 212.0
128.309799 188.0
128.473816 152.0
128.516678 92.0
128.591141 140.0
128.645309 160.0
128.685959 184.0
128.713043 168.0
128.73111 92.0
128.798859 112.0
128.829391 180.0
128.993729 152.0
129.013535 176.0
129.063278 116.0
129.230652 156.0
129.253281 160.0
129.556656 128.0
129.68808 112.0
129.758362 164.0
129.830917 136.0
129.860397 156.0
129.976089 112.0
130.024368 132.0
130.062332 128.0
130.11908 60.0
130.16449 160.0
130.284866 172.0
130.300766 136.0
130.323486 52.0
130.375748 116.0
130.466675 136.0
130.51442 128.0
130.543304 204.0
130.572281 120.0
130.598557 224.0
130.803345 128.0
130.821548 200.0
131.049286 96.0
131.085754 136.0
131.22023 148.0
131.306885 144.0
131.459732 228.0
131.49852 124.0
131.735992 136.0
131.91423 140.0
131.932449 148.0
132.010254 220.0
132.046844 160.0
132.083435 100.0
132.351196 208.0
132.447388 132.0
132.798065 168.0
132.825592 176.0
132.853119 136.0
132.944885 192.0
133.02063 156.0
133.043579 80.0
133.162994 220.0
133.277847 372.0
133.30542 116.0
133.485764 184.0
133.526108 164.0
133.54451 144.0
133.613525 224.0
133.728577 152.0
133.7677 108.0
133.820923 176.0
134.016678 180.0
134.064819 180.0
134.186981 180.0
134.456863 84.0
134.49379 116.0
134.641556 212.0
134.669266 204.0
134.75705 152.0
134.807877 208.0
134.863342 112.0
134.92807 156.0
134.967377 124.0
135.008789 4548.0
135.140289 100.0
135.163986 60.0
135.203323 132.0
135.35611 56.0
135.503616 168.0
135.58313 200.0
135.645706 176.0
135.693756 160.0
135.777863 188.0
135.824249 144.0
135.846054 160.0
135.872955 40.0
135.944885 220.0
136.011826 376.0
136.102737 108.0
136.195633 152.0
136.219467 120.0
136.267639 148.0
136.337341 196.0
136.437302 28.0
136.50705 128.0
136.565186 136.0
136.599503 112.0
136.693146 220.0
136.711761 224.0
136.89566 88.0
137.024078 212.0
137.060745 128.0
137.112305 188.0
137.143555 124.0
137.200882 116.0
137.247513 120.0
137.346756 144.0
137.378113 160.0
137.501785 128.0
137.550797 92.0
137.604492 184.0
137.781982 160.0
137.812347 188.0
137.847397 136.0
137.866104 56.0
137.980621 144.0
138.025055 48.0
138.05545 136.0
138.106903 76.0
138.134964 160.0
138.174423 176.0
138.366653 140.0
138.450943 104.0
138.572739 140.0
138.631317 68.0
138.666473 156.0
138.682877 84.0
138.835266 176.0
138.884521 124.0
138.980713 96.0
138.997131 88.0
139.301208 200.0
139.34462 120.0
139.372818 184.0
139.440964 132.0
139.652573 28.0
139.699615 160.0
139.83844 124.0
140.069183 184.0
140.349625 52.0
140.51001 192.0
140.653961 164.0
140.682281 76.0
140.715332 180.0
140.873566 36.0
140.911362 124.0
141.015335 136.0
141.043686 100.0
141.081512 184.0
141.171356 96.0
141.209198 228.0
141.268326 108.0
141.287186 124.0
141.365341 108.0
141.443436 128.0
141.469711 196.0
141.559448 152.0
141.590225 140.0
141.635239 208.0
141.753845 120.0
141.84375 164.0
141.95755 164.0
142.018173 192.0
142.083252 132.0
142.18663 160.0
142.367508 260.0
142.529617 148.0
142.553375 148.0
142.631805 84.0
142.753357 160.0
142.788727 148.0
142.819641 176.0
142.869598 128.0
142.938599 172.0
143.021896 124.0
143.04808 120.0
143.148071 220.0
143.319305 176.0
143.324219 156.0
143.357697 148.0
143.43634 228.0
143.488785 184.0
143.586105 192.0
143.605637 224.0
143.629486 148.0
144.11171 160.0
144.197739 140.0
144.221634 136.0
144.349167 128.0
144.427261 92.0
144.499023 212.0
144.534912 220.0
144.637817 80.0
144.685699 140.0
144.799835 132.0
144.884476 144.0
145.185898 132.0
145.222458 160.0
145.332809 136.0
145.352005 52.0
145.459991 124.0
145.476807 64.0
145.619629 116.0
145.654495 28.0
145.790756 212.0
145.923645 128.0
146.070343 148.0
146.190628 144.0
146.220123 188.0
146.503632 180.0
146.621704 48.0
146.640976 132.0
146.797684 108.0
146.97377 152.0
147.012375 192.0
147.20549 96.0
147.249542 184.0
147.331085 128.0
147.448776 124.0
147.558258 200.0
147.582443 132.0
147.616287 144.0
148.020386 108.0
148.041168 192.0
148.185089 112.0
148.216599 200.0
148.233551 148.0
148.265732 200.0
148.437164 64.0
148.468689 136.0
148.549713 172.0
148.572998 40.0
148.626373 156.0
149.012421 208.0
149.044006 156.0
149.359421 172.0
149.389236 208.0
149.418427 120.0
149.471954 124.0
149.501144 112.0
149.518188 144.0
149.547394 124.0
149.566864 200.0
149.608047 148.0
149.669113 148.0
149.703201 156.0
149.778702 176.0
149.839447 132.0
150.03212 136.0
150.139404 164.0
150.168671 116.0
150.185745 96.0
150.288208 148.0
150.366959 236.0
150.441956 228.0
150.539627 172.0
150.586029 148.0
150.62999 208.0
150.691071 144.0
150.781479 128.0
150.823029 164.0
150.891464 104.0
150.964828 156.0
151.018631 188.0
151.094452 156.0
151.111588 204.0
151.17276 120.0
151.239014 108.0
151.314713 140.0
151.410217 188.0
151.571899 136.0
151.770432 160.0
151.934753 136.0
151.966644 152.0
152.033096 464.0
152.113892 248.0
152.204727 164.0
152.36438 84.0
152.381577 420.0
152.470032 160.0
152.488144 108.0
152.765076 224.0
152.885635 120.0
152.949631 168.0
153.019287 1020.0
153.136398 164.0
153.161392 88.0
153.18602 156.0
153.264862 60.0
153.437378 104.0
153.592743 168.0
153.626434 152.0
153.69635 52.0
153.792603 116.0
153.82222 180.0
153.918503 164.0
153.955536 64.0
154.022232 184.0
154.079041 44.0
154.114243 192.0
154.160583 60.0
154.219894 156.0
154.271805 76.0
154.376846 132.0
154.407791 176.0
154.519104 200.0
154.548798 144.0
154.573532 140.0
154.761658 188.0
154.91272 180.0
155.003418 244.0
155.012634 148.0
155.022964 292.0
155.091125 128.0
155.284515 148.0
155.314941 152.0
155.396149 112.0
155.466431 196.0
155.5103 96.0
155.557449 132.0
155.689041 112.0
155.738708 176.0
155.990448 220.0
156.138855 112.0
156.345337 196.0
156.424988 152.0
156.442413 136.0
156.554459 140.0
156.576935 136.0
156.597336 236.0
156.975586 112.0
157.010498 124.0
157.032944 144.0
157.065369 152.0
157.152679 156.0
157.255005 196.0
157.279953 156.0
157.414764 228.0
157.449738 108.0
157.497192 152.0
157.527161 120.0
157.629593 92.0
157.672073 208.0
157.722061 136.0
157.817062 56.0
157.837067 40.0
157.909592 64.0
157.964615 104.0
157.984619 92.0
158.089706 156.0
158.150238 196.0
158.292465 240.0
158.419449 148.0
158.556931 120.0
158.623184 52.0
158.648239 148.0
158.725967 200.0
158.823776 108.0
158.873947 152.0
158.944199 112.0
158.986847 128.0
159.037048 140.0
159.170105 140.0
159.257996 120.0
159.340897 180.0
159.376068 36.0
159.506744 132.0
159.554504 136.0
159.759598 152.0
159.811035 100.0
159.868912 148.0
159.926804 140.0
159.949448 132.0
159.982178 132.0
160.067703 144.0
160.072678 140.0
160.196228 144.0
160.264252 148.0
160.433105 176.0
160.502853 328.0
160.531433 128.0
160.586914 36.0
160.660065 108.0
160.718094 200.0
160.788742 72.0
160.829132 120.0
160.924103 180.0
160.942734 144.0
161.020065 224.0
161.061432 176.0
161.130753 144.0
161.296417 228.0
161.564468 172.0
161.744125 80.0
161.888443 160.0
161.918823 52.0
162.089783 164.0
162.134171 196.0
162.201492 184.0
162.250763 200.0
162.349884 168.0
162.386414 216.0
162.534821 168.0
162.669327 40.0
162.715027 152.0
162.732803 196.0
162.875015 92.0
162.953766 112.0
163.080811 152.0
163.302017 120.0
163.375778 52.0
163.434296 148.0
163.784042 200.0
163.966507 84.0
163.999634 184.0
164.036591 280.0
164.109253 112.0
164.272476 120.0
164.305634 336.0
164.338806 144.0
164.379623 192.0
164.526276 356.0
164.660431 148.0
164.721741 132.0
164.839264 192.0
165.025848 220.0
165.064194 176.0
165.110229 172.0
165.235565 112.0
165.460785 236.0
165.527618 152.0
165.566467 188.0
165.593933 104.0
165.622101 148.0
165.656265 144.0
165.727142 192.0
165.896286 144.0
165.91423 104.0
166.050125 152.0
166.078339 188.0
166.098862 228.0
166.186081 76.0
166.220871 172.0
166.376007 136.0
166.426331 172.0
166.469955 100.0
166.571167 92.0
166.605698 108.0
166.613983 48.0
166.624237 140.0
166.648239 116.0
166.725327 164.0
166.820419 144.0
166.841599 236.0
166.948975 148.0
167.028259 280.0
167.069855 208.0
167.231964 164.0
167.293747 152.0
167.327209 164.0
167.507477 128.0
167.703308 128.0
167.796097 60.0
167.832199 108.0
167.876038 40.0
167.976624 120.0
168.078293 160.0
168.185623 176.0
168.244995 160.0
168.350861 176.0
168.380051 132.0
168.495499 204.0
168.60144 88.0
168.721741 360.0
168.769455 164.0
168.818588 184.0
169.002243 156.0
169.074692 96.0
169.098831 224.0
169.16011 64.0
169.304352 232.0
169.336182 72.0
169.395752 144.0
169.431198 112.0
169.53389 76.0
169.628967 104.0
169.659378 176.0
169.704147 172.0
169.867523 164.0
169.973892 164.0
170.015762 124.0
170.038773 224.0
170.121826 68.0
170.163361 80.0
170.236893 176.0
170.311386 76.0
170.353287 152.0
170.407501 152.0
170.589417 100.0
170.631012 52.0
170.649216 148.0
170.688217 228.0
170.732422 164.0
170.800034 92.0
170.906708 164.0
171.025055 308.0
171.265945 128.0
171.362335 184.0
171.432693 128.0
171.453354 164.0
171.484818 80.0
171.742935 144.0
171.82901 140.0
171.854004 132.0
171.879776 132.0
172.053452 144.0
172.131775 120.0
172.22319 160.0
172.270203 128.0
172.445267 48.0
172.745956 124.0
172.782593 104.0
172.871552 96.0
172.889862 48.0
173.094055 148.0
173.206665 160.0
173.272156 144.0
173.306213 176.0
173.356003 156.0
173.413651 124.0
173.628632 204.0
173.732422 260.0
173.796524 100.0
173.835876 76.0
173.893616 176.0
173.922485 132.0
174.022232 196.0
174.061615 176.0
174.095764 176.0
174.229721 220.0
174.437317 80.0
174.639786 160.0
174.671341 72.0
175.002625 136.0
175.036865 144.0
175.066132 136.0
175.292664 108.0
175.358551 168.0
175.440262 156.0
175.482452 228.0
175.553635 104.0
175.630127 156.0
175.759384 260.0
175.828003 180.0
175.928299 108.0
175.952057 108.0
176.037338 160.0
176.10257 100.0
176.237289 160.0
176.426422 228.0
176.578293 300.0
176.723785 204.0
176.879929 132.0
176.905899 168.0
176.975235 72.0
177.036636 312.0
177.073715 144.0
177.099686 132.0
177.144714 92.0
177.226852 72.0
177.439865 204.0
177.459732 152.0
177.587372 156.0
177.666946 28.0
177.704086 104.0
177.728149 184.0
177.762466 52.0
177.781036 152.0
178.002258 156.0
178.02388 100.0
178.042206 200.0
178.155411 140.0
178.269653 164.0
178.361328 292.0
178.413193 128.0
178.469025 168.0
178.514221 264.0
178.631241 180.0
178.676468 212.0
178.703735 144.0
178.873398 204.0
178.902679 152.0
178.955917 152.0
179.07309 156.0
179.145004 176.0
179.192963 52.0
179.3022 176.0
179.390167 148.0
179.42215 144.0
179.478134 136.0
179.507477 112.0
179.774231 140.0
179.840942 240.0
179.961075 40.0
180.09726 176.0
180.118637 76.0
180.14534 232.0
180.302994 44.0
180.373962 72.0
180.43396 124.0
180.469162 120.0
180.519516 232.0
180.645233 108.0
180.714783 116.0
180.83252 140.0
180.853943 172.0
180.882462 128.0
181.027573 836.0
181.143112 104.0
181.271713 136.0
181.478104 156.0
181.504929 132.0
181.636337 116.0
181.663162 212.0
181.69339 204.0
181.719498 140.0
181.740952 192.0
181.797302 184.0
181.893921 100.0
181.920776 192.0
181.982513 228.0
182.012054 160.0
182.030853 188.0
182.076508 144.0
182.149017 184.0
182.30484 96.0
182.48494 104.0
182.665115 148.0
182.770035 124.0
182.799637 156.0
182.834625 156.0
182.891144 160.0
182.97998 152.0
183.010803 160.0
183.044586 244.0
183.100037 244.0
183.163086 280.0
183.276245 36.0
183.332825 52.0
183.365158 72.0
183.459503 80.0
183.675232 136.0
183.721085 244.0
183.750763 280.0
183.86409 104.0
184.028748 180.0
184.134842 248.0
184.225754 156.0
184.420456 68.0
184.623215 212.0
184.734116 116.0
184.804443 124.0
184.828796 84.0
184.850449 164.0
184.983063 176.0
185.023666 100.0
185.199677 144.0
185.283646 136.0
185.364929 116.0
185.608887 108.0
185.633301 160.0
185.692963 108.0
185.823166 84.0
185.901855 136.0
186.029419 176.0
186.189606 124.0
186.379761 92.0
186.578156 124.0
186.686172 160.0
186.774078 160.0
186.798431 208.0
186.836517 140.0
186.975281 176.0
187.037125 376.0
187.075714 160.0
187.14949 132.0
187.20668 60.0
187.291107 76.0
187.410965 124.0
187.43277 228.0
187.489304 204.0
187.582657 64.0
187.697174 184.0
187.716248 136.0
187.738068 152.0
188.002686 216.0
188.04837 200.0
188.105301 896.0
188.166458 180.0
188.371262 120.0
188.409515 180.0
188.434097 100.0
188.543396 164.0
188.663666 132.0
188.745682 172.0
188.786697 176.0
188.967224 140.0
189.016327 144.0
189.052917 2752.0
189.082153 108.0
189.113129 324.0
189.202591 204.0
189.243652 96.0
189.265564 120.0
189.287476 212.0
189.369629 200.0
189.388794 52.0
189.410706 164.0
189.564133 200.0
189.621689 120.0
189.813583 100.0
189.865601 136.0
189.909561 208.0
189.93425 144.0
190.023407 2468.0
190.051437 388.0
190.148254 116.0
190.181183 152.0
190.406326 124.0
190.44751 244.0
190.476929 96.0
190.56839 168.0
190.711288 144.0
190.749771 176.0
190.834991 144.0
190.906479 40.0
190.94223 240.0
190.969727 256.0
191.028061 332.0
191.063263 160.0
191.088013 124.0
191.125153 152.0
191.240311 212.0
191.376999 136.0
191.492661 144.0
191.542694 140.0
191.611115 144.0
191.660706 132.0
192.041443 248.0
192.079742 156.0
192.131958 164.0
192.141815 152.0
192.18457 192.0
192.252686 140.0
192.358444 180.0
192.419174 188.0
192.526855 144.0
192.631454 152.0
192.695358 136.0
192.717453 108.0
192.822464 116.0
192.946838 40.0
193.021149 96.0
193.047653 320.0
193.121048 160.0
193.172134 180.0
193.262131 216.0
193.442017 120.0
193.52507 100.0
193.555527 28.0
193.574921 124.0
193.663544 152.0
193.741104 288.0
193.840836 212.0
193.890717 148.0
194.023773 176.0
194.051941 200.0
194.15686 68.0
194.17627 84.0
194.21788 204.0
194.592499 200.0
194.678574 120.0
194.756348 52.0
194.859116 56.0
194.892456 124.0
195.192657 124.0
195.223404 200.0
195.604401 132.0
195.626678 172.0
195.668427 208.0
195.687912 132.0
195.715759 116.0
195.743607 164.0
195.930222 68.0
196.022156 120.0
196.044449 128.0
196.063965 160.0
196.116913 164.0
196.236786 160.0
196.298126 288.0
196.402985 196.0
196.440369 156.0
196.543594 56.0
196.627304 28.0
196.716614 148.0
196.769653 72.0
196.808746 212.0
196.833878 140.0
196.875763 124.0
196.938156 152.0
197.012619 164.0
197.04895 148.0
197.165634 168.0
197.297668 152.0
197.32843 236.0
197.423492 216.0
197.490616 208.0
197.557739 160.0
197.755524 216.0
198.011948 184.0
198.057892 136.0
198.089615 76.0
198.282944 108.0
198.322174 160.0
198.344604 76.0
198.369827 128.0
198.439453 220.0
198.507202 64.0
198.681107 244.0
198.706345 112.0
198.807358 140.0
199.118973 220.0
199.177963 180.0
199.272461 156.0
199.298767 132.0
199.404236 248.0
199.487061 132.0
199.537659 136.0
199.582642 116.0
199.650131 48.0
199.863541 152.0
199.894867 164.0
199.941177 96.0
199.974976 132.0
200.023987 164.0
200.086258 160.0
200.212967 172.0
200.232681 116.0
200.27774 112.0
200.418594 148.0
200.446777 84.0
200.528503 144.0
200.607422 172.0
200.634628 196.0
200.692001 132.0
200.85556 136.0
200.880951 124.0
201.019196 44.0
201.047409 180.0
201.346664 56.0
201.417267 148.0
201.773331 164.0
201.832703 200.0
202.015259 312.0
202.053314 120.0
202.090088 136.0
202.109894 192.0
202.194794 132.0
202.252518 100.0
202.433945 200.0
202.698853 128.0
202.749863 40.0
202.805267 168.0
202.92276 172.0
202.965302 148.0
202.987976 116.0
203.031662 596.0
203.146393 140.0
203.193649 140.0
203.248947 160.0
203.34259 48.0
203.406448 140.0
203.620819 140.0
203.788406 152.0
203.819656 100.0
203.902069 40.0
203.930496 192.0
203.991348 156.0
204.040115 160.0
204.057724 200.0
204.102936 720.0
204.194901 140.0
204.437439 156.0
204.502167 220.0
204.529388 128.0
204.644501 124.0
204.68721 112.0
204.715683 172.0
204.747971 144.0
204.912216 160.0
205.057556 208.0
205.101624 280.0
205.222885 140.0
205.416809 144.0
205.459 152.0
205.493835 88.0
205.53093 168.0
205.562317 136.0
205.598755 156.0
205.724991 192.0
205.75354 324.0
205.862045 204.0
205.926437 140.0
206.053406 120.0
206.109131 168.0
206.207718 208.0
206.31633 208.0
206.367798 120.0
206.479309 112.0
206.536514 180.0
206.665253 80.0
206.75351 132.0
206.834091 140.0
206.94574 144.0
207.043823 1104.0
207.077545 136.0
207.130478 204.0
207.226425 80.0
207.358231 184.0
207.439819 112.0
207.560272 192.0
207.639191 52.0
207.863556 132.0
207.900253 160.0
207.966263 148.0
208.000702 152.0
208.048325 208.0
208.095444 56.0
208.202103 136.0
208.253387 172.0
208.313705 88.0
208.370987 132.0
208.434372 152.0
208.57518 204.0
208.695923 208.0
208.967178 296.0
209.022751 24232.0
209.111923 144.0
209.174728 176.0
209.221436 140.0
209.245453 52.0
209.274048 72.0
209.323181 160.0
209.369263 132.0
209.40094 44.0
209.458542 104.0
209.498871 72.0
209.519043 72.0
209.591064 176.0
209.65654 72.0
209.713318 188.0
209.766861 120.0
209.870651 224.0
209.905258 152.0
209.928329 48.0
209.980225 116.0
210.026031 2992.0
210.070816 152.0
210.2341 120.0
210.300659 172.0
210.366867 160.0
210.43544 224.0
210.568985 56.0
210.684525 36.0
210.746063 188.0
211.016525 172.0
211.092056 40.0
211.132538 116.0
211.257019 228.0
211.303192 136.0
211.392883 104.0
211.458481 120.0
211.549179 172.0
211.595505 60.0
211.638931 156.0
211.751862 108.0
211.798203 120.0
211.818481 244.0
211.870621 144.0
211.98941 136.0
212.044479 140.0
212.089218 192.0
212.195206 92.0
212.327103 172.0
212.353088 152.0
212.380798 48.0
212.830612 188.0
212.929337 176.0
213.007217 64.0
213.036804 132.0
213.066574 148.0
213.09491 196.0
213.164642 108.0
213.257645 156.0
213.375214 108.0
213.447586 212.0
213.600739 168.0
213.68692 160.0
213.827682 116.0
213.868439 156.0
213.894623 128.0
214.025635 216.0
214.063492 196.0
214.083694 128.0
214.185806 144.0
214.453873 104.0
214.585037 88.0
214.719177 100.0
214.83876 144.0
214.87085 96.0
214.92337 100.0
215.030731 1412.0
215.060852 192.0
215.09848 120.0
215.268143 172.0
215.359909 168.0
215.489792 56.0
215.714813 108.0
215.813431 164.0
215.942886 156.0
216.031693 344.0
216.066559 184.0
216.100052 600.0
216.152817 84.0
216.18277 160.0
216.250076 72.0
216.361313 100.0
216.449142 52.0
216.639511 144.0
216.856354 152.0
216.917908 140.0
217.008209 652.0
217.035767 916.0
217.087952 124.0
217.110214 204.0
217.16127 76.0
217.190598 188.0
217.219925 156.0
217.319504 144.0
217.366623 120.0
217.413574 132.0
217.454651 136.0
217.6073 144.0
217.639603 84.0
217.742371 80.0
217.762939 64.0
217.789368 172.0
217.838562 176.0
217.863541 208.0
217.925125 204.0
217.968567 276.0
218.019379 25500.0
218.091995 208.0
218.124329 48.0
218.150787 52.0
218.174301 128.0
218.241928 184.0
218.286026 136.0
218.402863 192.0
218.430145 100.0
218.459549 144.0
218.486038 40.0
218.509567 68.0
218.606155 140.0
218.61351 208.0
218.659637 32.0
218.692017 152.0
218.727325 60.0
218.809753 80.0
218.942261 136.0
219.02417 4860.0
219.077744 72.0
219.21463 208.0
219.251587 132.0
219.329727 88.0
219.416641 140.0
219.475616 132.0
219.539215 112.0
219.696808 228.0
219.811874 96.0
219.941727 108.0
220.032013 1180.0
220.090668 168.0
220.136581 120.0
220.185715 132.0
220.219269 200.0
220.251755 148.0
220.299026 48.0
220.331512 116.0
220.366974 284.0
220.434921 136.0
220.473343 132.0
220.614532 240.0
220.644775 76.0
220.665482 252.0
220.697998 144.0
220.733475 160.0
220.774872 80.0
220.949387 132.0
221.022369 360.0
221.091415 184.0
221.174286 64.0
221.242371 104.0
221.289734 172.0
221.334152 124.0
221.467407 76.0
221.571091 172.0
221.603683 292.0
221.754807 204.0
221.775558 148.0
222.028717 188.0
222.083908 116.0
222.14917 124.0
222.250031 104.0
222.279709 196.0
222.33609 180.0
222.401382 88.0
222.442932 176.0
222.493408 148.0
222.514191 76.0
222.61554 120.0
222.663834 72.0
222.772552 180.0
222.836655 160.0
222.980545 80.0
223.04393 212.0
223.147873 176.0
223.220032 156.0
223.265945 116.0
223.296707 116.0
223.611038 120.0
223.643967 132.0
223.765823 188.0
223.810486 180.0
223.849197 132.0
223.905777 164.0
223.986191 128.0
224.036835 120.0
224.078537 56.0
224.221573 156.0
224.483902 100.0
224.531616 124.0
224.585312 116.0
224.637177 204.0
224.701645 228.0
224.774475 204.0
224.862778 60.0
224.883667 100.0
224.961273 144.0
224.982178 140.0
225.033127 5800.0
225.073181 124.0
225.101593 96.0
225.163727 144.0
225.256897 64.0
225.310669 108.0
225.417374 120.0
225.574646 144.0
225.678284 76.0
225.714157 136.0
225.735092 140.0
225.88858 272.0
225.929504 48.0
225.968384 252.0
226.040894 572.0
226.082092 136.0
226.18045 88.0
226.285629 132.0
226.390427 168.0
226.471298 92.0
226.543182 132.0
226.618073 104.0
226.731949 200.0
226.938782 180.0
227.034729 172.0
227.070724 148.0
227.232697 176.0
227.262695 108.0
227.334717 112.0
227.457764 148.0
227.52681 148.0
227.684006 248.0
227.732529 212.0
227.882095 80.0
228.013412 164.0
228.074173 164.0
228.247879 196.0
228.410278 144.0
228.539642 156.0
228.623901 148.0
228.664886 296.0
228.867722 240.0
229.009262 212.0
229.045395 124.0
229.090576 188.0
229.13118 136.0
229.171921 204.0
229.500458 156.0
229.542664 148.0
229.811111 176.0
229.847321 128.0
229.877502 96.0
229.913712 168.0
230.011047 192.0
230.069992 200.0
230.203506 132.0
230.326416 172.0
230.354584 172.0
230.490479 112.0
230.565186 160.0
230.632507 108.0
230.708084 124.0
230.78064 144.0
230.827011 224.0
230.893036 116.0
230.928818 48.0
231.025009 600.0
231.107834 296.0
231.173859 148.0
231.243469 180.0
231.291885 60.0
231.397842 100.0
231.431152 148.0
231.467484 140.0
231.512909 88.0
231.579529 128.0
231.60376 108.0
231.667374 164.0
231.706757 116.0
231.730988 176.0
231.773651 244.0
231.843109 184.0
231.882507 100.0
231.903717 132.0
231.955246 204.0
231.979492 180.0
232.027161 212.0
232.096756 36708.0
232.139877 80.0
232.1978 60.0
232.242371 144.0
232.28273 68.0
232.316101 80.0
232.342529 168.0
232.378586 60.0
232.391602 36.0
232.405289 56.0
232.440491 32.0
232.466522 76.0
232.495575 68.0
232.537643 232.0
232.591888 184.0
232.641342 204.0
232.707474 100.0
232.717621 144.0
232.750427 72.0
232.795639 40.0
232.830215 52.0
232.882797 80.0
232.915649 124.0
233.025528 624.0
233.052856 100.0
233.098785 4972.0
233.233124 80.0
233.273071 84.0
233.300003 220.0
233.34256 128.0
233.415543 52.0
233.446365 88.0
233.50676 180.0
233.528061 28.0
233.569809 132.0
233.605759 228.0
233.616791 164.0
233.667984 160.0
233.695358 212.0
233.7836 56.0
233.844467 48.0
233.941879 108.0
233.966232 48.0
233.998657 112.0
234.030472 280.0
234.104004 376.0
234.206787 184.0
234.255524 152.0
234.291351 100.0
234.353012 84.0
234.384003 116.0
234.453568 136.0
234.523666 136.0
234.555847 72.0
234.607803 96.0
234.642548 160.0
234.711319 80.0
234.743652 124.0
234.776718 120.0
234.822464 108.0
234.845139 160.0
234.898712 68.0
234.944473 136.0
234.968872 140.0
235.034882 860.0
235.107407 188.0
235.133652 160.0
235.260956 152.0
235.347321 136.0
235.390076 76.0
235.467896 140.0
235.570267 124.0
235.605759 200.0
235.686356 68.0
235.728394 164.0
235.86972 48.0
235.937485 160.0
235.979782 152.0
236.029282 10412.0
236.117386 196.0
236.184662 124.0
236.232117 76.0
236.266571 124.0
236.291733 48.0
236.362106 92.0
236.434952 188.0
236.483749 176.0
236.631439 92.0
236.697281 112.0
236.794189 96.0
236.827423 240.0
236.876434 216.0
236.918564 184.0
236.94072 228.0
237.016953 20272.0
237.08963 48.0
237.133804 360.0
237.156647 124.0
237.201248 76.0
237.253357 104.0
237.300446 100.0
237.448822 96.0
237.523209 72.0
237.583359 72.0
237.6091 176.0
237.665405 80.0
237.758896 44.0
237.839249 64.0
237.894501 80.0
237.922134 92.0
237.946686 88.0
237.983261 92.0
238.020096 3408.0
238.054916 160.0
238.13707 40.0
238.190338 116.0
238.216934 132.0
238.296799 56.0
238.318314 32.0
238.358261 92.0
238.410492 148.0
238.453522 108.0
238.514984 28.0
238.650116 84.0
238.698639 120.0
238.742508 40.0
238.776337 40.0
238.905518 112.0
238.927048 148.0
238.95166 172.0
238.988586 76.0
239.018204 176.0
239.046951 140.0
239.054825 136.0
239.078918 212.0
239.130142 52.0
239.205841 212.0
239.234787 84.0
239.465729 148.0
239.496521 60.0
239.708374 136.0
239.776886 60.0
239.82312 88.0
239.863693 220.0
239.926849 172.0
240.014252 192.0
240.091339 80.0
240.177704 48.0
240.319611 92.0
240.350464 164.0
240.41217 84.0
240.547974 68.0
240.588104 76.0
240.828964 132.0
240.893829 88.0
240.937073 68.0
241.004059 144.0
241.085388 112.0
241.209015 164.0
241.396088 172.0
241.511749 44.0
241.629578 200.0
241.700745 128.0
241.781189 168.0
241.836899 140.0
241.867859 156.0
241.929764 116.0
242.047409 204.0
242.073853 144.0
242.112442 184.0
242.199158 44.0
242.264206 156.0
242.326172 116.0
242.387344 220.0
242.422226 152.0
242.459412 52.0
242.544128 108.0
242.632996 208.0
242.667099 76.0
242.694992 32.0
242.85936 72.0
242.961716 32.0
243.023773 44.0
243.098236 84.0
243.353851 240.0
243.675766 148.0
243.831131 60.0
243.855988 48.0
243.880859 140.0
243.95546 128.0
244.005203 276.0
244.056992 184.0
244.097855 140.0
244.120239 260.0
244.179337 44.0
244.381409 212.0
244.420502 184.0
244.449982 60.0
244.515335 184.0
244.579865 136.0
244.751907 144.0
244.792389 80.0
244.829758 156.0
244.874481 144.0
244.976151 128.0
245.01976 120.0
245.069183 204.0
245.530945 168.0
245.646347 124.0
245.718094 88.0
245.839783 144.0
245.962769 128.0
245.992722 192.0
246.039642 1944.0
246.119415 124.0
246.180054 132.0
246.28624 144.0
246.398697 136.0
246.564301 136.0
246.614304 144.0
246.798737 116.0
246.826889 244.0
247.040314 464.0
247.124023 108.0
247.221024 176.0
247.246063 136.0
247.477692 56.0
247.512131 136.0
247.800293 108.0
247.84729 128.0
247.874649 232.0
247.906815 100.0
247.963348 108.0
248.050995 108.0
248.076065 184.0
248.185791 132.0
248.546509 100.0
248.697144 72.0
248.782516 60.0
248.895309 128.0
249.02919 284.0
249.051102 136.0
249.08963 240.0
249.123352 316.0
249.168167 188.0
249.372406 108.0
249.488708 160.0
249.55159 64.0
249.727692 108.0
249.75914 56.0
249.813629 172.0
250.067947 160.0
250.108078 152.0
250.174042 136.0
250.178619 116.0
250.192032 56.0
250.204056 92.0
250.234314 76.0
250.492538 144.0
250.795029 140.0
250.836014 280.0
250.908508 100.0
250.94635 180.0
251.034805 688.0
251.069321 92.0
251.144806 184.0
251.214417 96.0
251.485764 96.0
251.523651 40.0
251.558365 32.0
251.841599 132.0
251.912033 44.0
252.044724 140.0
252.123459 96.0
252.294403 124.0
252.376617 124.0
252.484116 244.0
252.522079 128.0
252.574509 180.0
252.673904 36.0
252.810593 200.0
252.876419 60.0
252.966507 216.0
252.989166 264.0
253.028366 12232.0
253.092712 172.0
253.11702 56.0
253.17157 176.0
253.196182 40.0
253.273575 156.0
253.323608 104.0
253.349823 168.0
253.383072 260.0
253.427414 112.0
253.49295 88.0
253.570023 88.0
253.598541 64.0
253.623322 216.0
253.687286 140.0
253.7285 168.0
253.817276 160.0
253.896561 152.0
253.987152 124.0
254.032486 3156.0
254.267731 80.0
254.410568 64.0
254.458191 120.0
254.503937 88.0
254.547089 172.0
254.590546 216.0
254.642227 96.0
254.807541 104.0
254.848846 56.0
254.874252 48.0
254.953705 52.0
254.975525 184.0
255.041367 572.0
255.066071 180.0
255.214355 64.0
255.380707 192.0
255.435699 192.0
255.48468 176.0
255.513321 68.0
255.567398 84.0
255.631042 156.0
255.720154 128.0
255.771072 148.0
255.863388 68.0
255.897888 172.0
255.990753 184.0
256.060822 188.0
256.108582 44.0
256.235992 80.0
256.576996 168.0
256.630188 340.0
256.663086 140.0
256.694122 168.0
256.784271 180.0
256.835602 44.0
256.994812 144.0
257.017151 160.0
257.259705 112.0
257.368225 200.0
257.432098 84.0
257.582214 180.0
257.709991 128.0
257.745148 76.0
257.799469 124.0
257.888947 192.0
258.066833 192.0
258.400574 108.0
258.572449 212.0
258.624573 196.0
258.797455 116.0
258.829468 100.0
258.871094 108.0
258.944763 196.0
259.027344 184.0
259.040039 144.0
259.092102 136.0
259.226654 192.0
259.261902 184.0
259.306793 148.0
259.643402 216.0
259.726807 168.0
259.784546 164.0
259.941742 188.0
260.05423 860.0
260.100861 208.0
260.168335 100.0
260.201721 144.0
260.587128 52.0
260.702789 92.0
260.786346 228.0
260.873138 64.0
260.924591 216.0
260.985657 176.0
261.018066 348.0
261.056885 284.0
261.24295 136.0
261.329803 44.0
261.400604 208.0
261.461731 116.0
261.538086 116.0
261.600128 216.0
261.625885 184.0
261.783661 140.0
261.909271 108.0
261.941467 128.0
261.986572 32.0
262.031677 136.0
262.344269 120.0
262.37973 100.0
262.505493 108.0
262.611908 104.0
262.681732 136.0
262.962708 280.0
263.011993 196.0
263.057251 216.0
263.141113 76.0
263.19278 124.0
263.26059 168.0
263.514648 212.0
263.538361 124.0
263.602997 192.0
263.680542 204.0
263.987671 88.0
264.010315 160.0
264.395264 148.0
264.424408 172.0
264.881409 192.0
265.104492 72.0
265.720551 144.0
265.824371 144.0
265.853577 136.0
265.911987 56.0
266.151703 184.0
266.269104 208.0
266.343811 176.0
266.402283 68.0
266.46402 176.0
266.652466 108.0
266.675232 108.0
266.785736 108.0
266.880035 152.0
266.928802 180.0
266.960388 168.0
267.055634 184.0
267.114166 180.0
267.215027 152.0
267.257324 140.0
267.303253 136.0
267.393982 192.0
267.472107 188.0
267.516144 104.0
267.774902 108.0
267.87262 56.0
268.058319 148.0
268.090912 56.0
268.143036 164.0
268.182159 100.0
268.394043 120.0
268.511444 124.0
268.617157 116.0
268.998047 128.0
269.098816 128.0
269.26535 152.0
269.294739 104.0
269.363312 64.0
269.62796 36.0
269.696594 100.0
269.77832 116.0
270.046448 136.0
270.108307 124.0
270.149597 156.0
270.432526 48.0
270.488159 152.0
270.540527 112.0
270.838531 152.0
270.962982 88.0
271.012146 140.0
271.039825 196.0
271.06543 152.0
271.23172 188.0
271.513458 124.0
271.546478 156.0
271.723602 160.0
271.74472 120.0
271.881104 152.0
272.01239 124.0
272.050842 384.0
272.360443 200.0
272.383423 76.0
272.499115 92.0
272.533173 164.0
272.580536 132.0
272.665985 120.0
272.729858 232.0
272.808197 152.0
272.978302 136.0
273.032166 260.0
273.060394 220.0
273.336823 168.0
273.363159 164.0
273.478333 28.0
273.519867 144.0
273.557343 152.0
273.856964 140.0
274.072235 380.0
274.433655 192.0
274.598541 120.0
274.734741 204.0
275.04715 128.0
275.051727 124.0
275.065765 172.0
275.112152 176.0
275.122375 116.0
275.130493 148.0
275.192505 156.0
275.265167 356.0
275.466614 232.0
275.562408 188.0
275.631805 104.0
275.75238 232.0
275.849915 108.0
275.91275 516.0
275.99527 212.0
276.054901 172.0
276.144196 144.0
276.173981 100.0
276.256653 140.0
276.332764 152.0
276.39563 48.0
276.47171 28.0
276.51474 48.0
276.594177 148.0
276.630585 128.0
276.70343 68.0
276.766815 160.0
276.825928 52.0
276.860962 152.0
277.183685 156.0
277.22345 160.0
277.312927 92.0
277.525085 120.0
277.571503 140.0
277.687561 152.0
277.757233 156.0
277.936371 204.0
278.167358 244.0
278.299194 180.0
278.80304 128.0
278.856232 268.0
278.963531 176.0
279.027802 312.0
279.102234 156.0
279.195343 136.0
279.291779 32.0
279.524658 132.0
279.564575 328.0
279.611176 224.0
279.714355 64.0
279.744324 176.0
279.820892 196.0
280.110596 196.0
280.360474 44.0
280.500458 188.0
280.590485 152.0
280.650482 172.0
280.721985 136.0
280.772858 160.0
280.873932 76.0
280.950653 196.0
281.023804 11300.0
281.088837 164.0
281.137482 44.0
281.164185 48.0
281.201355 60.0
281.229675 116.0
281.304382 48.0
281.361115 84.0
281.403931 44.0
281.492828 108.0
281.711761 108.0
281.892181 128.0
281.915588 204.0
282.027802 1212.0
282.089355 112.0
282.279938 124.0
282.631165 124.0
282.661255 88.0
282.740997 180.0
282.862061 104.0
282.922333 160.0
282.949097 160.0
283.030151 156.0
283.059601 132.0
283.183502 116.0
283.29068 144.0
283.344299 124.0
283.411285 240.0
283.540863 156.0
283.626373 204.0
283.676056 112.0
283.702881 140.0
283.739746 96.0
283.768433 180.0
283.85376 84.0
283.877228 136.0
283.97583 136.0
284.008026 36.0
284.041565 168.0
284.146515 208.0
284.222717 60.0
284.316681 132.0
284.460999 148.0
284.765778 160.0
284.887451 148.0
285.001678 136.0
285.12265 80.0
285.230225 136.0
285.287354 84.0
285.334412 200.0
285.408386 204.0
285.536163 244.0
285.603455 208.0
285.640442 128.0
285.76828 104.0
285.835571 56.0
285.923065 76.0
285.983643 216.0
286.074524 176.0
286.100464 452.0
286.182343 144.0
286.239502 152.0
286.296753 204.0
286.329041 108.0
286.417999 216.0
286.488739 136.0
286.519043 108.0
286.579681 148.0
286.724579 64.0
286.815582 132.0
286.862762 192.0
286.97403 148.0
287.049042 1348.0
287.109589 180.0
287.237701 148.0
287.349884 144.0
287.402374 148.0
287.508301 144.0
287.625122 56.0
287.679108 100.0
287.766876 48.0
287.878326 124.0
288.048981 292.0
288.108002 112.0
288.145142 212.0
288.182312 160.0
288.324249 64.0
288.401764 128.0
288.472961 156.0
288.926086 56.0
288.953156 32.0
289.003906 172.0
289.071594 160.0
289.140686 240.0
289.254333 176.0
289.29834 164.0
289.325439 132.0
289.369446 132.0
289.515045 212.0
289.745361 116.0
289.786011 84.0
289.86734 92.0
289.89444 140.0
289.984222 160.0
290.135773 160.0
290.297852 148.0
290.335144 208.0
290.433502 212.0
290.518311 168.0
290.570435 260.0
290.7117 52.0
290.905151 128.0
291.06131 164.0
291.360199 160.0
291.416168 168.0
291.479126 164.0
291.547089 104.0
291.768005 148.0
291.80542 60.0
291.958435 180.0
292.002625 80.0
292.060455 144.0
292.17514 240.0
292.451721 128.0
292.625336 196.0
292.666199 80.0
292.707062 136.0
292.850098 148.0
293.270691 164.0
293.361206 136.0
293.490753 116.0
293.514618 116.0
293.807922 152.0
294.024078 172.0
294.115051 144.0
294.145752 188.0
294.181274 140.0
294.815186 148.0
294.859589 80.0
294.883514 92.0
294.929932 104.0
295.088623 256.0
295.252747 92.0
295.456451 120.0
295.570892 120.0
295.642731 236.0
295.707764 120.0
295.789917 336.0
295.824158 92.0
295.882355 124.0
296.009033 184.0
296.078156 148.0
296.19397 40.0
296.217926 140.0
296.307007 52.0
296.348114 120.0
296.498901 100.0
296.588013 120.0
296.653137 120.0
296.749115 72.0
296.831421 108.0
296.889709 128.0
297.009735 52.0
297.088531 136.0
297.160675 204.0
297.194977 228.0
297.28421 156.0
297.410187 164.0
297.53476 152.0
297.792297 156.0
297.874725 56.0
298.032776 216.0
298.059418 164.0
298.104187 4580.0
298.252716 212.0
298.321442 80.0
298.407379 96.0
298.493347 128.0
298.562134 172.0
298.654999 48.0
298.778809 260.0
298.809784 136.0
298.854523 72.0
298.929993 68.0
298.97757 184.0
299.036896 88.0
299.108734 880.0
299.174561 100.0
299.214081 192.0
299.257202 148.0
299.28476 136.0
299.339844 112.0
299.367401 124.0
299.391479 152.0
299.415588 260.0
299.460358 80.0
299.516205 132.0
299.553375 52.0
299.636047 44.0
299.67395 96.0
299.731232 260.0
299.808319 108.0
299.847778 116.0
299.890411 164.0
299.916992 136.0
299.960236 52.0
299.9841 176.0
300.00824 168.0
300.042725 112.0
300.084442 152.0
300.135681 120.0
300.180634 136.0
300.240601 184.0
300.303101 108.0
300.332947 120.0
300.393768 132.0
300.407227 68.0
300.456543 164.0
300.486847 144.0
300.500061 156.0
300.512329 240.0
300.554657 120.0
300.579987 144.0
300.610321 140.0
300.637054 220.0
300.691681 168.0
300.747833 336.0
300.780579 244.0
300.817841 364.0
300.866638 224.0
300.911774 220.0
300.936188 244.0
300.980621 396.0
301.031006 213984.0
301.135529 108.0
301.18222 92.0
301.229401 160.0
301.261322 168.0
301.293671 204.0
301.31012 108.0
301.323669 192.0
301.34021 176.0
301.412231 224.0
301.439423 272.0
301.486481 176.0
301.539551 68.0
301.545197 140.0
301.598572 752.0
301.635132 160.0
301.684113 356.0
301.690338 128.0
301.736633 256.0
301.781036 152.0
301.790741 128.0
301.819092 100.0
301.861908 92.0
301.916809 120.0
301.96228 88.0
301.967468 240.0
302.032867 25280.0
302.162048 48.0
302.16925 96.0
302.211334 172.0
302.255096 136.0
302.332733 84.0
302.372528 88.0
302.3862 116.0
302.435425 60.0
302.464111 96.0
302.499817 132.0
302.570312 156.0
302.641266 60.0
302.680389 148.0
302.743439 84.0
302.820801 144.0
302.851532 80.0
302.8815 160.0
302.906952 52.0
302.917877 152.0
302.940582 148.0
302.978973 56.0
302.993683 36.0
303.032959 2164.0
303.115601 212.0
303.215851 32.0
303.256714 116.0
303.312897 40.0
303.358826 48.0
303.383728 120.0
303.395294 52.0
303.408813 160.0
303.467621 120.0
303.506317 40.0
303.587585 164.0
303.628021 116.0
303.67984 260.0
303.728699 164.0
303.754364 88.0
303.764984 52.0
303.779968 108.0
303.830109 224.0
303.869324 100.0
303.90152 152.0
303.931366 120.0
303.978119 108.0
304.020386 516.0
304.088776 108.0
304.111786 172.0
304.154602 284.0
304.193359 348.0
304.25 128.0
304.332428 72.0
304.39679 76.0
304.423096 60.0
304.485596 36.0
304.514496 212.0
304.648834 144.0
304.692505 196.0
304.732208 72.0
304.794769 156.0
304.834991 104.0
304.863037 124.0
304.883057 136.0
304.978943 88.0
305.003784 56.0
305.030823 100.0
305.072815 188.0
305.131897 96.0
305.173615 68.0
305.208374 88.0
305.295319 144.0
305.397736 104.0
305.465729 52.0
305.613281 88.0
305.6745 60.0
305.855133 84.0
305.912506 88.0
305.952911 80.0
306.022552 200.0
306.109589 76.0
306.249908 56.0
306.299896 112.0
306.423065 196.0
306.447479 56.0
306.489288 96.0
306.545013 208.0
306.628662 48.0
306.670471 52.0
306.820374 124.0
306.865204 56.0
306.907532 36.0
307.060974 172.0
307.10144 140.0
307.176056 224.0
307.303009 104.0
307.357483 56.0
307.420288 84.0
307.549408 44.0
307.650635 88.0
307.748413 192.0
308.090668 96.0
308.144806 80.0
308.26535 192.0
308.401642 104.0
308.482056 160.0
308.583435 112.0
308.712799 164.0
308.747772 104.0
308.852692 92.0
309.024109 148.0
309.062592 196.0
309.115082 32.0
309.416077 184.0
309.45108 184.0
309.542145 132.0
309.642914 144.0
309.734741 80.0
309.776794 68.0
309.896423 88.0
309.994019 84.0
310.77243 104.0
310.905762 72.0
310.972443 128.0
311.098816 76.0
311.168121 124.0
311.660736 40.0
312.177429 160.0
312.536224 176.0
312.592529 96.0
312.83429 104.0
312.863525 144.0
312.95282 120.0
313.018433 116.0
313.071289 380.0
313.148743 164.0
313.17691 180.0
313.353058 128.0
313.377716 220.0
313.441132 80.0
313.501038 148.0
313.571533 80.0
313.603241 84.0
313.663147 104.0
313.980469 344.0
314.060059 1196.0
314.100677 1668.0
314.241516 116.0
314.63324 140.0
314.6698 72.0
314.707397 168.0
314.79306 92.0
314.892914 156.0
314.975769 188.0
315.004028 92.0
315.054321 168.0
315.108337 9112.0
315.155945 36.0
315.206085 84.0
315.231995 108.0
315.304352 40.0
315.336182 40.0
315.505829 60.0
315.763947 72.0
315.940826 184.0
316.111969 1684.0
316.153107 128.0
316.322998 140.0
316.400879 204.0
316.616852 64.0
316.643646 120.0
316.694763 92.0
316.819977 252.0
317.109558 616.0
317.201477 52.0
317.364532 52.0
317.389374 112.0
317.431915 208.0
317.456726 100.0
317.630524 72.0
317.665985 64.0
317.754669 64.0
317.896606 184.0
317.953369 96.0
318.056671 2984.0
318.237366 152.0
318.31546 104.0
318.361633 152.0
318.517914 52.0
318.586334 136.0
318.652893 60.0
318.699097 220.0
318.74527 64.0
318.802124 188.0
318.844788 44.0
318.912292 60.0
318.944305 92.0
318.99762 144.0
319.056519 748.0
319.267822 268.0
319.317627 188.0
319.46701 108.0
319.527466 60.0
319.577301 120.0
319.758759 96.0
319.797913 124.0
320.018616 48.0
320.069885 192.0
320.23941 128.0
320.40683 132.0
320.552917 84.0
320.699005 104.0
321.490753 140.0
321.654938 56.0
321.765594 96.0
321.822723 32.0
321.904846 96.0
322.044128 100.0
322.233429 136.0
322.265594 116.0
322.290619 48.0
322.480011 156.0
322.515747 132.0
322.782745 152.0
322.934082 40.0
322.98056 44.0
323.066406 96.0
323.107025 92.0
323.198792 172.0
323.49585 128.0
323.773773 204.0
324.007935 68.0
324.058075 88.0
324.086761 240.0
324.328552 204.0
324.595734 132.0
324.692566 40.0
325.105103 128.0
325.266602 64.0
325.446106 124.0
325.561005 152.0
325.823212 160.0
325.934601 84.0
326.182556 88.0
326.34433 216.0
326.387482 140.0
326.819122 184.0
326.903076 84.0
327.081238 372.0
327.168213 84.0
327.305023 60.0
327.644196 184.0
327.892212 84.0
328.076019 180.0
328.17337 176.0
328.335632 96.0
328.503204 112.0
328.591736 164.0
328.645844 52.0
328.728851 196.0
328.90567 64.0
329.044647 184.0
329.107849 184.0
329.194489 116.0
329.891815 124.0
330.021973 80.0
330.054504 112.0
330.090668 168.0
330.155762 216.0
330.600708 152.0
330.687561 152.0
330.951813 104.0
331.313995 192.0
331.393707 40.0
331.535004 188.0
331.797729 100.0
331.846741 72.0
332.077911 180.0
332.145294 148.0
332.430725 152.0
332.496033 44.0
332.848145 288.0
333.069672 164.0
333.31308 56.0
333.385773 132.0
333.520233 128.0
334.324005 216.0
334.518921 108.0
334.713501 156.0
334.899231 116.0
335.001221 80.0
335.375671 120.0
335.536926 164.0
335.832275 244.0
337.252563 56.0
337.577942 212.0
337.768127 112.0
338.123016 32.0
338.423187 64.0
338.485443 120.0
338.664886 160.0
338.804077 212.0
338.898712 180.0
338.92865 60.0
339.236481 32.0
339.753571 96.0
340.58316 124.0
340.946869 204.0
341.079193 100.0
341.461548 152.0
341.535126 196.0
341.564545 160.0
342.149658 136.0
342.238007 68.0
342.587524 164.0
343.05957 124.0
343.097198 96.0
343.463928 188.0
343.974396 176.0
344.103577 128.0
344.236511 104.0
344.354675 80.0
344.385193 168.0
344.483978 112.0
344.557861 188.0
344.809113 172.0
345.049377 88.0
345.075256 148.0
345.134399 56.0
346.233429 140.0
346.300079 36.0
346.47049 92.0
346.570526 88.0
346.726166 88.0
346.944824 80.0
347.515961 56.0
347.708923 104.0
347.812866 120.0
348.158142 132.0
348.236115 116.0
348.544464 112.0
348.570465 100.0
349.332642 144.0
349.593079 184.0
349.920624 192.0
350.14032 168.0
350.196167 84.0
350.73642 172.0
350.777435 108.0
350.803528 204.0
350.915375 116.0
351.441254 140.0
351.553192 72.0
351.69873 108.0
352.344757 112.0
353.077362 120.0
353.339203 156.0
353.507568 140.0
353.821991 148.0
354.196442 44.0
354.436218 136.0
354.874725 176.0
354.99472 76.0
355.730103 116.0
356.222015 120.0
356.387299 104.0
356.443665 100.0
356.578949 132.0
356.657867 92.0
357.067688 140.0
357.173004 112.0
357.978394 132.0
358.249573 32.0
358.377655 152.0
358.731934 112.0
358.894043 124.0
359.067505 176.0
360.139343 148.0
360.218689 148.0
360.328217 76.0
360.400024 184.0
360.524719 128.0
360.7099 48.0
360.914062 92.0
361.224152 168.0
361.626434 88.0
361.88559 88.0
362.268921 192.0
362.462158 144.0
362.746399 148.0
362.894257 80.0
362.947327 188.0
363.045929 248.0
363.737061 76.0
364.009766 100.0
364.116089 148.0
364.499786 116.0
364.526367 204.0
364.758209 104.0
365.263947 144.0
365.635925 88.0
365.830902 108.0
365.913116 268.0
366.45929 88.0
366.813721 148.0
367.053894 212.0
367.313232 132.0
367.475861 188.0
367.587921 96.0
367.767273 216.0
367.889435 104.0
368.1185 104.0
368.171967 168.0
368.211304 108.0
368.489014 56.0
368.722076 56.0
368.863495 160.0
368.97818 112.0
369.068634 104.0
369.349121 288.0
369.433289 180.0
369.528931 92.0
370.090485 540.0
370.141327 188.0
370.217896 160.0
370.465912 144.0
370.627777 148.0
370.712067 176.0
370.781036 192.0
370.834686 264.0
370.934357 56.0
371.103027 160.0
371.160553 180.0
371.260254 276.0
371.605469 140.0
371.831848 116.0
371.923981 76.0
372.008423 160.0
372.741302 136.0
372.876465 100.0
373.156494 156.0
373.695526 112.0
374.064972 180.0
374.696533 180.0
374.798798 100.0
374.943115 124.0
375.232208 48.0
375.270782 176.0
375.344025 48.0
375.860901 60.0
375.893921 216.0
376.053833 228.0
376.131042 108.0
376.374268 148.0
376.513275 52.0
376.911163 104.0
376.956421 140.0
377.319824 92.0
378.032532 176.0
378.245392 48.0
378.411835 160.0
378.438934 44.0
378.752625 60.0
378.928101 208.0
379.031555 44.0
379.074188 172.0
379.333862 116.0
379.597473 152.0
379.663422 64.0
379.954315 104.0
380.016388 136.0
380.128906 72.0
380.699554 140.0
381.200653 56.0
381.414398 52.0
381.733215 128.0
382.406219 204.0
382.589172 136.0
382.764374 108.0
383.181122 148.0
383.21228 48.0
383.262939 52.0
383.469482 64.0
383.520142 76.0
383.551331 120.0
383.816406 132.0
383.868256 176.0
383.941193 144.0
384.058197 156.0
384.101105 132.0
384.331268 224.0
384.483459 164.0
385.026123 168.0
385.416748 148.0
385.999146 188.0
386.120605 324.0
386.280731 140.0
386.801147 152.0
387.020386 256.0
387.119446 268.0
387.521729 84.0
387.635345 120.0
387.811707 64.0
388.105713 60.0
388.148865 224.0
388.482208 124.0
389.0159 196.0
389.184723 264.0
389.561737 164.0
389.683502 152.0
389.817108 120.0
389.868195 116.0
390.056854 164.0
390.198364 48.0
390.796173 120.0
390.827637 96.0
390.855194 112.0
390.918152 36.0
390.945709 168.0
391.024414 168.0
391.209412 148.0
391.359009 136.0
391.441681 252.0
391.638611 112.0
391.867065 208.0
391.914368 64.0
391.980225 168.0
392.064087 104.0
392.225677 140.0
392.316345 72.0
392.462219 208.0
392.55011 116.0
392.619965 108.0
392.781647 68.0
392.816711 144.0
392.860535 128.0
393.002563 108.0
393.349854 140.0
393.378937 164.0
393.673615 120.0
393.713104 164.0
393.807892 184.0
393.86319 168.0
393.922424 108.0
393.950073 52.0
394.139709 164.0
394.183411 144.0
394.22406 184.0
394.620026 236.0
394.693085 60.0
394.795898 48.0
394.908722 144.0
394.950134 120.0
395.038361 160.0
395.121857 196.0
395.237396 148.0
395.432831 108.0
395.527832 72.0
395.562531 136.0
395.624603 88.0
395.735657 56.0
395.778046 96.0
395.849701 252.0
395.892059 256.0
395.998993 32.0
396.112152 204.0
396.210175 208.0
396.25943 80.0
396.319733 124.0
396.397858 164.0
396.486298 120.0
396.544556 160.0
396.615509 152.0
396.684479 40.0
396.735992 144.0
396.771667 88.0
396.826996 180.0
396.870789 104.0
396.928802 276.0
396.956238 184.0
397.009216 44.0
397.046661 220.0
397.129822 792.0
397.157257 312.0
397.254852 124.0
397.341431 60.0
397.388947 112.0
397.43985 160.0
397.470245 212.0
397.532776 148.0
397.611481 144.0
397.697327 260.0
397.727112 192.0
397.764679 88.0
397.776031 152.0
397.814545 304.0
397.842133 192.0
397.886292 96.0
397.944244 116.0
397.972961 264.0
398.00293 124.0
398.055786 488.0
398.11969 150436.0
398.210632 252.0
398.263916 240.0
398.293488 136.0
398.329376 244.0
398.381592 256.0
398.413086 116.0
398.476562 140.0
398.505951 136.0
398.520874 244.0
398.555695 212.0
398.588928 148.0
398.654266 164.0
398.706726 400.0
398.776093 564.0
398.828308 120.0
398.850677 96.0
398.888855 120.0
398.93103 228.0
398.965057 192.0
398.989594 104.0
399.057526 84.0
399.122467 34080.0
399.18631 196.0
399.281158 124.0
399.33493 100.0
399.375458 168.0
399.432983 76.0
399.447662 84.0
399.493256 120.0
399.521912 124.0
399.569 140.0
399.623535 56.0
399.695709 80.0
399.732391 120.0
399.812653 108.0
399.854034 176.0
399.907532 164.0
399.936127 188.0
399.996704 64.0
400.024353 116.0
400.124847 3352.0
400.199219 108.0
400.227753 68.0
400.314392 56.0
400.372284 88.0
400.424408 236.0
400.504181 112.0
400.595886 52.0
400.660889 120.0
400.727997 72.0
400.785858 104.0
400.841614 80.0
400.934235 100.0
400.968964 92.0
400.99585 40.0
401.048615 156.0
401.13266 640.0
401.224976 80.0
401.280792 100.0
401.345184 60.0
401.38623 216.0
401.407288 124.0
401.416718 112.0
401.448822 172.0
401.491333 220.0
401.522339 84.0
401.531281 88.0
401.5784 152.0
401.61084 112.0
401.6763 176.0
401.748047 92.0
401.794037 220.0
401.855499 128.0
401.865723 76.0
401.888306 208.0
401.952148 72.0
402.016724 128.0
402.069855 52.0
402.132721 80.0
402.171295 96.0
402.205566 48.0
402.238739 92.0
402.274719 136.0
402.343811 44.0
402.383972 144.0
402.437103 144.0
402.504974 224.0
402.568848 40.0
402.640747 76.0
402.672699 52.0
402.704651 124.0
402.752747 100.0
402.800507 48.0
402.876404 60.0
402.916351 160.0
402.960297 48.0
403.000244 76.0
403.108124 72.0
403.164093 60.0
403.217377 84.0
403.276642 96.0
403.33194 104.0
403.503845 160.0
403.539825 52.0
403.607788 52.0
403.687744 80.0
403.763733 48.0
403.883728 96.0
404.105347 72.0
404.135742 36.0
404.407867 44.0
404.474335 92.0
404.632019 80.0
404.966797 60.0
405.096558 76.0
405.264832 60.0
405.473206 84.0
406.178864 32.0
406.57605 104.0
406.772736 192.0
406.913239 48.0
407.033691 40.0
407.254547 32.0
407.318817 36.0
407.708527 60.0
407.748718 124.0
408.508636 68.0
409.2854 48.0
409.514923 32.0
409.853302 76.0
409.974213 184.0
410.236176 84.0
410.506317 48.0
410.57486 84.0
410.849152 96.0
410.889496 108.0
411.079132 136.0
411.200195 124.0
411.268799 236.0
411.458527 76.0
411.506958 88.0
412.141083 36.0
412.22998 76.0
412.419922 108.0
412.533112 44.0
412.583435 132.0
412.666504 80.0
412.93573 76.0
413.135376 708.0
413.208466 48.0
413.268036 116.0
413.321747 188.0
413.471466 64.0
413.556458 76.0
413.661713 124.0
413.710266 108.0
413.745056 108.0
413.761139 64.0
413.81958 68.0
413.847931 168.0
413.884369 96.0
414.126923 76.0
414.136719 140.0
414.244812 60.0
414.273163 156.0
414.305573 104.0
414.350311 92.0
414.382538 180.0
414.452606 96.0
414.568939 36.0
414.59729 64.0
414.672943 144.0
414.714813 104.0
414.79184 72.0
414.876068 36.0
415.004822 120.0
415.055359 124.0
415.146454 27448.0
415.247284 172.0
415.30307 100.0
415.340973 84.0
415.407715 140.0
415.472778 88.0
415.53598 48.0
415.560883 44.0
415.639435 56.0
415.678223 92.0
415.769287 40.0
415.837952 100.0
415.886993 120.0
415.94342 40.0
415.99057 140.0
416.04837 164.0
416.147827 6192.0
416.276733 92.0
416.313843 88.0
416.423767 124.0
416.46759 36.0
416.524475 36.0
416.585388 204.0
416.636597 72.0
416.693695 128.0
416.766693 140.0
416.804779 152.0
416.910431 52.0
417.046082 96.0
417.151825 556.0
417.223419 136.0
417.268127 72.0
417.368286 76.0
417.483643 80.0
417.660553 104.0
417.718353 56.0
417.776489 40.0
417.939209 64.0
417.967682 64.0
418.146759 132.0
418.186371 76.0
418.275696 88.0
418.331604 48.0
418.517181 172.0
418.594543 100.0
418.69635 112.0
418.728943 76.0
418.761505 152.0
418.826691 100.0
418.868134 88.0
418.92511 96.0
418.952942 156.0
419.129089 192.0
419.213715 96.0
419.531616 88.0
419.585236 52.0
419.649841 116.0
419.690613 68.0
419.772186 36.0
419.812958 80.0
419.870056 64.0
419.89859 52.0
419.972015 52.0
420.45343 60.0
420.563629 84.0
420.694244 108.0
420.833038 120.0
421.202728 92.0
421.253693 48.0
421.408936 132.0
421.694092 92.0
421.838043 92.0
422.287811 32.0
422.541412 56.0
423.33548 72.0
423.769653 84.0
423.95813 44.0
425.171997 96.0
425.627655 52.0
426.321869 148.0
427.341614 36.0
427.991913 172.0
428.222534 64.0
430.36026 108.0
430.899628 64.0
431.164093 144.0
431.288055 44.0
431.540222 56.0
432.342682 80.0
432.56662 80.0
434.347961 84.0
435.464447 104.0
435.543365 40.0
435.6763 48.0
435.838348 120.0
436.245605 116.0
436.487854 76.0
436.532501 80.0
438.351562 104.0
439.310516 116.0
442.712677 92.0
442.762939 108.0
443.969879 28.0
445.304443 108.0
447.099609 100.0
452.024231 60.0
452.455933 48.0
453.493744 108.0
456.263367 92.0
457.031128 44.0
464.597504 84.0
465.232635 88.0
466.38382 64.0
467.837738 40.0
469.12146 104.0
469.250793 60.0
475.115173 64.0
475.158539 64.0
477.608551 44.0
478.274261 48.0
479.027557 108.0
479.267181 124.0
479.406616 152.0
481.723358 40.0
484.25592 140.0
488.201294 84.0
489.900208 124.0
494.293182 40.0
496.135651 72.0
498.621277 48.0
498.670166 40.0
502.651428 80.0
505.569427 76.0
507.849792 32.0
508.25354 52.0
508.35675 148.0
510.751343 60.0
513.93634 56.0
515.326965 36.0
516.384705 56.0
518.897888 72.0
519.618958 180.0
519.882141 88.0
520.072754 108.0
520.231628 32.0
523.373169 72.0
531.275208 128.0
532.110474 72.0
532.555847 64.0
533.084167 96.0
533.874878 80.0
536.125977 64.0
536.167419 60.0
539.32428 92.0
541.359924 80.0
544.813354 76.0
545.066223 120.0
545.326477 120.0
547.559631 48.0
553.635437 108.0
554.047607 60.0
554.300598 80.0
556.965332 40.0
557.190796 104.0
558.022644 120.0
559.791809 56.0
560.258118 156.0
560.880127 44.0
561.153503 104.0
562.139343 92.0
563.017395 52.0
564.160767 144.0
565.243835 80.0
567.223511 88.0
567.522156 104.0
567.641602 104.0
569.377502 112.0
572.840088 44.0
576.413513 56.0
579.51886 96.0
579.921387 60.0
581.302551 96.0
587.895142 60.0
591.578064 84.0
595.223938 44.0
595.631897 100.0
596.307251 76.0
604.475708 68.0
607.037598 100.0
609.998108 48.0
612.808105 64.0
613.088989 64.0
614.089783 120.0
615.980225 52.0
616.454468 84.0
620.280212 44.0
620.999146 44.0
621.435669 96.0
621.574585 96.0
625.754639 68.0
628.126709 76.0
630.178528 52.0
631.038147 60.0
641.812988 120.0
642.362671 64.0
642.453491 92.0
644.336487 72.0
646.156555 64.0
651.708191 76.0
652.018127 88.0
659.99585 68.0
662.595825 44.0
664.892944 56.0
669.622803 144.0
670.235779 124.0
670.550171 64.0
671.467834 96.0
672.695801 84.0
672.892029 92.0
683.822083 128.0
684.178284 60.0
689.242554 104.0
689.812195 84.0
690.674988 64.0
695.421997 44.0
696.156921 116.0
696.351257 72.0
696.598145 104.0
697.09198 60.0
701.628967 136.0
705.530273 36.0
707.249451 100.0
711.575073 44.0
713.200562 48.0
714.455505 168.0
717.139221 48.0
719.085938 92.0
719.769226 76.0
721.388062 80.0
721.564453 92.0
722.794617 68.0
726.292908 36.0
729.858765 88.0
731.968018 52.0
734.851624 184.0
735.218567 76.0
735.542419 60.0
737.124817 108.0
737.270691 108.0
737.557129 52.0
738.954712 100.0
743.938171 36.0
749.447388 100.0
750.057739 60.0
757.965759 76.0
763.180115 68.0
763.779541 76.0
764.522278 76.0
768.009705 116.0
768.666199 88.0
775.612366 60.0
777.808899 52.0
779.630615 48.0
781.487793 88.0
783.375061 40.0
784.734863 84.0
785.515625 112.0
787.848999 36.0
788.295959 92.0
792.570984 56.0
794.763306 52.0
794.841858 72.0
800.243286 176.0
803.201904 92.0
803.275208 76.0
810.766663 44.0
811.129395 52.0
811.753052 88.0
815.318054 60.0
815.664734 144.0
816.790588 100.0
822.140442 196.0
822.402954 132.0
822.791138 68.0
825.590881 136.0
825.773865 64.0
826.443176 72.0
830.33844 84.0
831.715454 96.0
839.193909 180.0
839.776367 84.0
845.81427 44.0
846.370056 56.0
847.076599 40.0
848.055847 116.0
849.743286 96.0
851.101379 92.0
851.902893 84.0
858.450623 136.0
864.315247 32.0
864.409058 108.0
865.778687 176.0
868.498047 72.0
869.342896 48.0
869.40741 44.0
870.728333 96.0
871.133606 108.0
872.620422 84.0
872.68512 48.0
876.404907 100.0
880.599121 92.0
883.903748 52.0
896.373413 156.0
898.161926 52.0
904.932678 56.0
909.43457 184.0
911.338196 96.0
915.74762 216.0
916.898315 108.0
921.979736 72.0
922.457214 164.0
924.507568 180.0
929.427917 184.0
930.921143 80.0
934.03894 112.0
936.906067 56.0
937.381348 36.0
940.308533 40.0
940.918884 32.0
943.949463 64.0
950.920959 64.0
951.9953 164.0
953.942932 72.0
958.491089 124.0
959.569702 176.0
961.037598 36.0
961.099304 144.0
962.333679 88.0
966.301575 124.0
968.901794 236.0
973.944946 180.0
980.022827 148.0
987.770203 196.0
994.336487 164.0
995.485352 128.0
995.81189 64.0
996.999268 184.0
997.338684 76.0
1002.543457 48.0
1003.772705 104.0
1007.016418 56.0
1007.787048 100.0
1013.906067 212.0
1014.311707 104.0
1015.116882 76.0
1020.800171 40.0
1021.289856 220.0
1021.372498 48.0
1024.268677 112.0
1026.001953 124.0
1028.36853 88.0
1037.086182 160.0
1040.389648 84.0
1044.939697 56.0
1046.88501 172.0
1047.102539 160.0
1047.224854 216.0
1051.796265 168.0
1053.165161 160.0
1063.239136 160.0
1063.53125 132.0
1063.58313 176.0
1064.024536 48.0
1064.479126 212.0
1064.583008 204.0
1064.829712 72.0
1066.291504 128.0
1068.68457 216.0
1069.40686 232.0
1070.650391 76.0
1073.145996 80.0
1073.445923 152.0
1074.104614 72.0
1075.031128 80.0
1075.709839 184.0
1080.068237 160.0
1084.310913 160.0
1085.267944 160.0
1088.542114 140.0
1089.172607 180.0
1092.130371 84.0
1092.338257 196.0
1092.610596 168.0
1094.901245 92.0
1096.462524 96.0
1097.530518 100.0
1103.234741 44.0
1110.299561 168.0
1113.810547 152.0
1117.433594 32.0
1119.157349 192.0
1120.702637 176.0
1122.909058 112.0
1124.089844 80.0
1124.523682 140.0
1124.890747 164.0
1125.411499 88.0
1126.059204 188.0
1127.114746 60.0
1128.672119 92.0
1129.895996 52.0
1130.257324 60.0
1135.677002 164.0
1139.200928 44.0
1142.434448 172.0
1143.672485 164.0
1153.081177 160.0
1157.566284 120.0
1159.530884 84.0
1160.018921 164.0
1163.173096 92.0
1164.565063 120.0
1164.728027 164.0
1168.636963 228.0
1169.957275 72.0
1171.469116 212.0
1172.995483 124.0
1178.612061 128.0
1179.343384 148.0
1180.779053 184.0
1182.578491 96.0
1182.790649 152.0
1184.036743 112.0
1188.060181 52.0
1190.785278 168.0
1190.874512 188.0
1192.083618 36.0
1194.056641 188.0
1199.337402 60.0
1200.819824 208.0
1202.234009 80.0
1203.50415 200.0
1203.939209 220.0
1210.820312 136.0
1212.4552 104.0
1219.437012 148.0
1220.431152 80.0
1221.411621 128.0
1221.717773 180.0
1224.801392 196.0
1226.724609 248.0
1227.359131 216.0
1229.221436 120.0
1229.430786 196.0
1231.860596 148.0
1232.049194 124.0
1233.334961 120.0
1234.551392 84.0
1234.740234 128.0
1237.378174 124.0
1240.811157 172.0
1241.554321 136.0
1242.992432 124.0
1245.526855 40.0
1247.698242 76.0
1247.810669 160.0
1248.858398 252.0
1251.736816 200.0
1253.441406 100.0
1255.27417 208.0
1258.442261 216.0
1258.640015 40.0
1262.625488 92.0
1262.703247 188.0
1264.705566 68.0
1270.402588 168.0
1270.821167 72.0
1272.162476 188.0
1274.939575 68.0
1275.13147 160.0
1276.38269 52.0
1283.424683 68.0
1284.851074 144.0
1285.293457 52.0
1286.406738 144.0
1286.620972 108.0
1288.049194 168.0
1288.606323 172.0
1290.607544 64.0
1294.006104 120.0
1299.058472 176.0
1300.149048 204.0
1300.565308 72.0
1301.089355 44.0
1301.785767 76.0
1301.886353 212.0
1304.25 144.0
1308.703003 104.0
1308.796631 192.0
1309.365479 196.0
1310.258667 160.0
1313.582031 160.0
1314.411621 248.0
1315.118896 80.0
1315.364258 120.0
1316.252319 208.0
1322.259521 196.0
1325.467529 148.0
1325.540039 60.0
1327.359497 208.0
1327.823608 248.0
1335.064087 180.0
1338.040039 144.0
1340.137573 168.0
1341.609741 208.0
1345.060181 152.0
1345.855835 112.0
1346.695679 152.0
1347.857178 112.0
1352.171753 208.0
1353.482056 152.0
1354.368164 48.0
1355.342529 172.0
1357.922974 128.0
1358.355713 196.0
1359.133301 128.0
1359.536987 136.0
1363.149902 208.0
1364.5979 96.0
1366.929565 152.0
1368.821289 196.0
1368.872803 84.0
1369.498779 52.0
1376.814941 176.0
1377.679199 132.0
1378.063354 148.0
1383.669434 100.0
1384.417236 176.0
1384.957886 144.0
1389.501953 108.0
1389.984253 172.0
1392.575073 104.0
1393.347656 68.0
1394.98999 56.0
1397.109375 80.0
1397.905396 140.0
1398.776245 72.0
1398.969727 220.0
1399.342041 128.0
1400.041992 144.0
1400.816528 144.0
1401.278442 164.0
1401.397583 72.0
1401.554077 220.0
1408.917969 56.0
1411.840454 160.0
1416.375977 196.0
1418.691406 164.0
1421.068848 152.0
1424.589722 184.0
1426.092529 188.0
1428.957642 232.0
1429.303711 224.0
1432.435547 212.0
1433.030762 196.0
1438.090698 64.0
1439.094727 164.0
1440.234985 192.0
1440.907227 104.0
1441.436157 112.0
1442.985596 124.0
1446.041626 220.0
1446.351929 172.0
1448.154053 144.0
1451.99646 220.0
1453.028076 216.0
1453.270874 112.0
1454.568604 128.0
1458.05481 176.0
1458.130859 168.0
1458.381592 40.0
1458.434814 180.0
1459.050537 60.0
1459.75 28.0
1459.864136 144.0
1460.989746 204.0
1463.105469 152.0
1463.935303 88.0
1465.809204 172.0
1470.338989 116.0
1471.804688 128.0
1475.10498 52.0
1477.873535 120.0
1479.794556 160.0
1483.755493 152.0
1488.443359 48.0
1489.65686 156.0
1491.085938 180.0
1491.439453 68.0
1491.754639 128.0
1492.631104 124.0
1494.731079 128.0
1495.63147 228.0
1496.20105 84.0
1496.308838 160.0
1497.263672 184.0
1498.842896 172.0
1500.021973 76.0
1501.726074 164.0
1502.574585 52.0
