>compound Enhydrin
>formula C23H28O10
>ionization [M+H]+
>parentmass 465.1755235480905
#inchi InChI=1S/C23H28O10/c1-10-14-16(31-21(27)23(5)11(2)32-23)15(29-12(3)24)13(20(26)28-6)8-7-9-22(4)18(33-22)17(14)30-19(10)25/h8,11,14-18H,1,7,9H2,2-6H3/t11-,14+,15-,16-,17-,18-,22+,23-/m0/s1
#inchikey VCBNPTWPJQLHQN
#Ion_Source DI-ESI
#Instrument qTof
#Compound_Source Isolated
#PI Norberto Lopes
#Data_Collector Monica Pupo
#Scan -1
#Precursor_MZ 465.135
#ExactMass 464.168
#Charge 1
#CAS_Number 33880-85-2
#Pubmed_ID N/A
#Smiles O=C([C@@]1([C@@H](O1)C)C)O[C@H]2[C@@H]3[C@H](OC(C3=C)=O)[C@H]4[C@](C)(O4)CCC=C(C(OC)=O)[C@@H]2OC(C)=O
#INCHI_AUX N/A
#Library_Class 3
#SpectrumID CCMSLIB00000081682
#IonMode Positive
#UpdateWorkflowName UPDATE-SINGLE-ANNOTATED-BRONZE
#LibraryQualityString Bronze
#TaskID 52bd5f0db6314c93924d5ce5c86348eb
##Scan# 1
#SpectrumFile gnps_Enhydrin_pos_MplusH.mgf
#LibraryName gnps_library.mgf
#MQScore -1
#Organism batch_27_05_V02
#TIC_Query 0
#RT_Query -1
#MZErrorPPM -1
#SharedPeaks 0
#MassDiff 0
#LibMZ -1
#SpecMZ 465.135
#SpecCharge 0
#internalFilename spec-00000.mgf

>collision 10
141.055328 394.0
143.035248 144.0
145.031662 669.0
149.044876 947.0
151.060684 141.0
153.046051 144.0
155.070312 192.0
159.063995 169.0
161.044922 307.0
167.069946 163.0
169.04834 620.0
179.053848 2022.0
183.063293 815.0
185.076523 239.0
187.054443 719.0
191.050598 169.0
193.067596 1060.0
195.06041 255.0
197.042984 589.0
201.072754 1108.0
207.047745 252.0
211.056854 1161.0
213.06958 487.0
215.049469 1658.0
217.061096 133.0
219.044891 1402.0
229.062607 3759.0
230.065155 296.0
231.044586 164.0
233.061035 210.0
237.057434 162.0
239.049713 931.0
243.078735 612.0
247.071976 918.0
257.055206 4574.0
261.086914 370.0
271.071869 1000.0
273.086182 216.0
275.065643 1546.0
276.221161 188.0
289.082306 12814.0
293.077698 140.0
307.089539 767.0
345.100861 194.0
349.097931 1429.0
377.124207 150.0
387.106232 139.0
405.120575 2676.0
465.134827 983.0
