>compound Dasatinib
>formula C22H26ClN7O2S 
>ionization [M+H]+
>parentmass 488.163574
#inchi InChI=1S/C22H26ClN7O2S/c1-14-4-3-5-16(23)20(14)28-21(32)17-13-24-22(33-17)27-18-12-19(26-15(2)25-18)30-8-6-29(7-9-30)10-11-31/h3-5,12-13,31H,6-11H2,1-2H3,(H,28,32)(H,24,25,26,27)
#inchikey ZBNZXTGUTAYRHI
#Ion_Source LC-ESI
#Instrument qTof
#Compound_Source Isolated
#PI Sirenas
#Data_Collector Ed Esquenazi 
#Scan -1
#Precursor_MZ 488.164
#ExactMass 0.0
#Charge 1
#CAS_Number N/A
#Pubmed_ID N/A
#Smiles N/A
#INCHI_AUX N/A
#Library_Class 3
#SpectrumID CCMSLIB00000006077
#IonMode Positive
#UpdateWorkflowName UPDATE-SINGLE-ANNOTATED-BRONZE
#LibraryQualityString Bronze
#TaskID d19310cd93df49b68e9fcbec27720eb5
##Scan# 3
#SpectrumFile Dasatinib.mgf
#LibraryName fda_library.mgf
#MQScore -1
#Organism fda_library
#TIC_Query 0
#RT_Query -1
#MZErrorPPM -1
#SharedPeaks 0
#MassDiff 0
#LibMZ -1
#SpecMZ 488.164
#SpecCharge 0
#internalFilename spec-00000.mgf

>collision 10
100.023766 26.4109
100.075607 366.107513
100.510796 7.111111
101.016907 217.225998
101.181007 5.017857
102.091309 882.010681
102.152657 15.67953
102.20237 15.49167
102.24762 9.407407
102.455269 6.482143
102.53302 19.69231
105.046921 50.920601
106.236229 15.33333
107.061272 364.719513
108.055496 207.964203
108.750175 7.015
109.038284 50.966721
109.06031 94.503601
109.077072 573.05603
109.102371 6.69697
110.072388 362.877289
111.089729 62.437729
111.143097 7.375
112.075233 244.533401
112.180946 37.518559
112.223984 8.055181
112.484818 5.336111
113.070358 194.824005
113.107681 57.50898
113.217545 9.363334
113.421234 10.0336
113.447891 15.13782
113.492081 22.652781
113.50666 6.8
113.532875 36.122662
113.547424 28.900181
113.573181 11.06618
113.580597 11.33333
113.595428 6.339743
113.625259 4.5
113.641785 4.291667
113.665894 9.497093
113.70298 13.33333
113.867821 8.132247
113.884827 13.9679
114.091171 14760.179688
114.136543 117.602699
114.154129 63.626228
114.177345 46.46357
114.189461 11.00417
114.206963 6.160088
114.226822 28.20927
114.24781 14.29688
114.260101 10.83
114.286407 14.26226
114.306824 30.07181
114.327492 35.26828
114.35743 22.83511
114.364601 20.671301
114.377319 30.35136
114.405174 10.36742
114.42379 14.10289
114.438606 42.313381
114.455414 4.416667
114.471664 35.608871
114.505638 17.000971
114.529137 17.298759
114.552032 22.898081
114.558601 14.30769
114.591301 7.690476
114.598862 4.107143
114.627922 10.34722
114.664536 23.591471
114.695602 7.335
114.735497 18.744011
114.766357 23.669121
114.778801 19.0119
115.169106 14.38851
115.449852 22.096889
115.617119 6.440476
115.640121 11.04688
115.973389 7.560484
116.903435 16.40653
117.043541 6.666667
117.510674 6.146739
118.03949 109.819199
118.064629 102.264801
118.917885 5.208333
119.058952 121.691399
120.053001 54.6506
120.067039 17.977381
120.297119 13.5
120.324394 6.15
120.846977 30.882839
121.075684 122.690002
122.069534 64.328979
122.637711 8.399194
122.999046 44.125
124.00956 39.11842
125.016121 1801.572998
125.07296 5.333333
125.11187 10.86613
125.131348 5.160714
125.154678 11.89387
125.35714 4.741667
125.384407 4.668478
125.416382 25.46888
126.009262 36.107201
126.173233 14.4221
126.399284 5.027778
126.93177 5.395833
126.994781 226.318497
127.032776 116.326103
127.086006 89.805687
127.116074 13.01852
127.360718 12.74887
127.450111 12.58854
127.736534 6.33477
129.102875 195.512604
130.062927 8.472222
130.31691 10.01389
130.440125 8.078431
131.117859 468.104614
131.239944 9.280702
131.395416 7.736842
131.41571 19.740801
132.05571 79.9244
133.062027 93.875427
133.075089 103.898804
133.394394 11.3952
134.070724 611.082275
134.20166 5.025
134.414627 7.166667
134.457626 16.45977
134.555695 8.265351
134.998779 146.671295
135.079666 867.011902
135.163544 18.1131
135.191513 17.46944
135.300125 8.680555
135.544632 6.25926
135.736649 6.333333
135.753723 9.364583
135.968689 21.71599
136.087158 876.693481
136.972458 7.335
137.00293 11.14682
137.014801 93.05825
137.094086 48.34819
137.107498 62.168011
137.691803 17.76333
138.034225 49.66481
138.995285 13.01667
139.115768 17.61232
139.357819 14.18702
139.834366 13.7219
140.028351 288.215607
140.047409 22.008329
140.092102 64.5942
140.314011 6.523809
141.216568 15.51515
141.955643 12.33974
142.042862 135.263702
142.131165 14.80093
146.017426 10.34015
146.07074 266.051788
146.325974 13.5375
146.605515 8.888888
146.973404 17.558331
147.078918 93.18557
147.994141 67.738823
148.089081 191.570801
148.278091 8.823718
148.457047 7.025
148.762375 18.50379
149.015533 100.275597
150.013458 419.63501
150.079773 10.74094
150.091187 68.573418
150.102341 155.754196
150.221649 6.76923
150.291794 19.26235
150.336792 6.002451
150.460541 12.95513
150.626968 8.692307
150.686768 11.41346
151.097946 960.254211
151.152649 13.43254
151.259552 11.00126
151.338806 8.333333
151.366531 7.783046
151.516388 4.669445
151.602036 5.666667
151.623459 14.34099
151.673279 11.0
152.028687 530.447205
152.078934 27.06229
152.117096 24.777781
152.421051 12.00833
153.011398 41.935699
153.045929 139.809296
153.23439 22.33333
155.026505 10.5328
155.114014 101.726402
156.109695 73.71627
157.048523 57.050388
158.062393 94.795082
159.078674 95.862549
159.164413 9.049797
159.625595 11.3668
160.069824 9.339286
160.083801 127.7435
160.179886 9.086538
160.210526 28.11377
160.263367 8.444445
160.342072 8.453431
160.439758 10.36742
160.508194 10.35294
160.616074 11.01389
160.851105 9.458333
160.864258 25.816179
160.992142 12.60417
161.044846 48.17094
161.083038 3117.863037
161.139847 6.259615
161.160263 11.0942
161.230591 7.523551
161.260239 15.97857
161.346466 9.0625
161.361298 15.86786
161.370895 17.333839
161.38855 12.37281
161.443939 34.166672
161.472549 12.13286
161.499069 11.37778
161.509384 9.722222
161.568695 11.54167
161.631744 11.32003
161.739838 9.757576
162.035568 102.397301
162.068146 237.584793
162.097916 119.412598
163.02066 68.096092
163.083862 50.432281
163.101181 80.70488
164.025177 178.886795
164.180435 4.673611
164.506516 9.721492
165.036163 79.0
165.293533 9.053572
166.04335 207.994598
166.09845 35.7351
166.709976 14.46759
167.050201 11.875
167.635239 10.20833
168.021622 288.940491
168.060104 33.706921
168.085968 9.05
168.447021 8.962963
170.066681 50.086369
171.069977 40.367519
171.993393 49.784088
172.083557 40.333328
172.183456 9.773936
173.080353 241.544495
173.262558 29.33507
173.423767 7.884804
173.597 15.66801
174.089188 629.556274
174.15834 15.7123
174.216278 19.607639
174.300659 10.64651
174.413879 11.00417
174.993805 26.010521
175.030563 36.46447
175.052979 7.667857
175.069366 79.453949
175.085373 230.694504
175.096069 188.192902
175.237198 22.14583
175.992966 269.502808
176.02684 473.315491
176.048691 14.06667
176.092865 1547.031006
176.131775 23.00107
176.159073 7.061274
176.274857 19.00952
176.330032 48.318218
176.365036 13.73256
176.386597 15.94565
176.399597 11.15
176.418182 8.727273
176.431931 6.482143
176.458908 9.8
176.51268 8.132247
176.621445 7.333333
176.641174 19.631411
177.009781 11.26786
177.046036 199.705399
177.075317 283.681305
177.112778 459.100891
177.419876 5.958333
178.00708 144.895401
178.017609 80.03611
178.043335 1487.098999
178.094742 8.708333
178.131897 14.32527
178.162369 9.680555
178.179443 21.98374
179.125763 15.63575
179.202515 7.190217
179.853546 14.45588
179.916626 8.506945
180.017685 51.095531
180.055038 27.755381
180.113312 1206.661987
180.151886 15.35426
180.166718 6.380208
180.26947 10.04537
180.316177 15.75758
180.480133 12.30682
180.499619 7.935
180.629318 8.391666
180.657974 12.0
181.051773 26.66827
181.565643 10.68432
182.035797 52.399231
183.055115 53.741669
184.076202 30.57445
185.076614 27.778231
186.0616 38.65419
186.085709 68.931633
186.202927 5.466667
186.774658 9.149692
187.07309 57.547459
187.09758 772.454407
187.163803 8.240079
187.196411 6.564103
187.484818 7.633772
187.596832 5.633333
187.636887 18.625
187.839706 15.26059
188.038208 36.37336
188.092957 286.223389
188.885651 16.1024
188.926086 22.33452
189.022842 191.2229
189.072235 43.507919
190.038498 221.058105
190.091324 11.57615
190.111984 119.924202
190.72464 13.05511
191.041107 564.228088
191.102631 10.46558
191.133408 49.695499
191.196686 11.33468
191.305847 6.185606
191.330017 6.160088
191.403595 8.462607
191.442627 7.347222
191.466171 7.442204
191.702118 11.33969
191.909225 12.36232
192.020447 122.162399
192.057251 403.992096
192.10675 75.936317
192.161728 13.16346
192.309799 5.939394
192.328796 24.337549
192.403793 16.90909
192.459106 7.710784
192.482895 18.26535
192.579773 14.66975
192.710144 9.057971
192.903381 13.80659
193.01828 236.755096
193.054077 7902.554199
193.129532 17.069441
193.177063 14.34313
193.196152 8.592593
193.222565 10.2402
193.243134 6.075
193.280579 32.931339
193.304626 6.016304
193.318954 25.949301
193.329025 18.080879
193.363281 38.92421
193.38063 8.791667
193.575638 37.353298
193.643295 7.088768
193.66394 5.402778
193.701767 6.306159
193.715347 7.541667
193.759552 8.109649
193.987228 9.075
194.098801 19.438431
194.187363 9.426724
194.253906 15.42014
194.347076 11.85965
194.527283 4.854167
194.627335 5.686403
194.651611 6.335318
194.908936 20.117929
195.069229 15.00833
195.171295 11.01708
195.785995 10.64651
195.959442 19.14167
195.997253 109.536797
197.06488 11.58333
197.139099 25.5
198.079773 87.826752
198.17662 9.667553
199.010529 36.96154
199.06102 19.41346
199.082291 290.250702
199.100159 28.29554
200.092072 62.88031
200.103439 245.776794
200.509735 10.08232
200.790634 14.04537
200.850464 18.55147
201.078293 56.821899
201.116653 60.48563
201.694962 4.708333
202.010086 69.341667
202.083649 41.913738
202.108154 1088.505005
202.166321 19.98258
202.232651 6.337963
202.272049 16.36742
202.366837 16.377781
202.529602 6.333333
202.683792 9.890151
202.747498 6.415
203.036957 62.916672
203.094955 115.745903
203.387177 10.7815
203.883453 11.83712
203.929108 18.22529
204.027527 10.40221
204.045456 70.755783
204.126053 48.090698
204.809479 8.595239
204.820892 5.541667
205.047516 750.778687
205.117233 5.049603
205.216705 7.003205
205.261749 12.47704
205.275345 17.375
205.760483 14.64844
205.781296 31.823721
205.895279 19.34936
205.94516 9.009147
205.97261 6.583333
206.053986 686.01001
206.169876 11.38081
206.265701 9.555555
206.299835 12.05762
206.444702 8.004386
206.614685 13.37337
206.65744 16.59173
206.744934 8.49359
206.935715 18.308331
206.96106 11.04167
207.070175 1550.03894
207.122284 58.649281
207.195908 10.29643
207.219604 5.833333
207.346481 9.786765
207.366913 43.891319
207.442001 11.57407
207.475693 11.07181
207.597549 16.94208
207.641083 7.74074
207.681274 8.647059
207.740524 12.04762
207.847717 17.037359
207.896835 11.54667
208.17424 38.32338
208.572037 6.5
209.04689 23.40056
209.53566 10.79167
212.065826 12.33333
212.076965 41.80555
212.095184 9.510964
215.033859 72.182114
215.989456 6.240079
216.034683 191.788605
216.092224 34.33559
216.127502 18.028009
216.235291 4.022059
216.441422 14.0947
217.01445 78.058418
217.053009 415.294006
217.107697 56.5014
217.390579 16.46558
217.57254 8.881579
217.752762 10.59572
217.921707 16.14583
218.052612 646.017029
218.141556 10.77412
218.157852 21.000971
218.261261 7.410257
218.397629 30.99003
218.414917 10.69345
218.590195 8.081897
218.726883 7.630952
219.032959 447.976593
219.070419 1352.005981
219.105621 42.415611
219.126282 10.32143
219.171478 11.09399
219.202271 12.53086
219.24559 6.963235
219.266663 17.91667
219.284821 21.733891
219.442139 14.58974
219.470184 7.337719
219.562958 11.76552
219.691849 7.388514
219.981094 48.434021
220.039856 187.123993
220.064133 546.947083
220.251999 12.75
221.08165 102.829399
221.093033 35.46558
221.112167 9.019608
222.066986 22.1201
222.148224 25.67901
223.06723 48.600231
223.868607 8.223765
223.991608 157.226395
224.044601 6.001667
224.211227 11.34543
225.021103 59.358521
225.09964 33.504269
225.954712 22.37121
226.127213 6.927469
227.092148 34.788551
228.119919 21.54427
229.035126 15.21802
229.103287 8.93889
229.120209 42.068329
229.712921 9.777778
230.051422 275.460693
230.138519 285.524597
230.498367 5.5
230.601456 21.773939
230.645355 25.910259
230.666183 59.637871
230.690994 20.037279
230.703995 23.899651
230.729095 22.53443
230.742783 35.260799
230.765961 122.209297
230.800522 131.488998
230.838364 95.514732
230.860641 32.669449
230.881012 6.673611
230.90506 8.25
230.919937 84.860298
230.934753 8.367424
230.947281 56.649479
230.989517 31.62916
231.03447 50.666969
231.067368 297.444489
231.10318 22.680941
231.267059 7.001263
231.293991 24.561991
231.396744 38.035042
231.463867 6.075
231.484634 85.068512
231.510132 14.9867
231.684692 13.26786
231.777222 22.39081
231.817032 26.450001
231.881363 22.768299
231.950043 73.983727
232.029221 219.104904
232.065872 50129.21875
232.257065 115.708801
232.270523 22.547621
232.293076 20.992729
232.30722 24.673059
232.328262 193.549805
232.362488 47.528919
232.380478 129.117294
232.433884 107.891098
232.490387 54.838459
232.550247 24.100361
232.565674 4.59375
232.582184 104.316803
232.618881 101.193604
232.634872 78.236778
232.647781 54.87949
232.678146 96.286636
232.704269 75.230293
232.724792 20.57992
232.736862 16.075069
232.836334 13.37862
232.892548 79.242218
232.921555 31.70417
232.966873 22.193451
233.049316 3176.488037
233.138199 60.796299
233.229675 15.15051
233.261795 45.614262
233.298615 28.277861
233.313782 19.00309
233.505905 45.034168
233.523376 13.06667
233.543991 28.13633
233.563538 7.017544
233.606064 8.776316
233.729797 28.062639
233.788864 80.081169
233.858078 27.906981
234.08078 8461.983398
234.158081 18.928921
234.171722 26.30616
234.206375 98.370178
234.249481 55.679352
234.302887 36.021431
234.317719 41.245029
234.383026 17.0404
234.410294 17.8442
234.44162 13.68103
234.463837 10.45
234.492294 32.86195
234.595322 30.594061
234.634598 30.50877
234.736252 30.765739
234.934265 10.38075
234.996796 54.05122
235.027695 8.444445
235.270645 5.666667
235.5242 10.17754
235.540237 9.88469
235.572235 7.088889
235.721268 12.35307
235.754242 18.4401
236.073395 10.8
236.164825 15.46261
236.206512 5.483334
236.619949 7.009615
237.085754 15.01708
237.389069 7.075
237.568497 8.408334
238.835236 13.72588
239.095306 8.375
239.819214 6.3
240.846832 25.20833
241.016998 11.69823
241.28653 8.740942
242.04837 18.816669
243.053604 27.370449
243.497589 5.720238
244.065079 55.060081
245.045563 101.113098
246.044968 194.126907
246.077988 345.156189
246.190536 20.94854
246.216736 8.166667
246.397552 17.76333
246.41716 12.85468
246.608902 6.906746
247.142883 18.686399
247.170227 4.336111
247.230652 17.357559
247.460632 6.639493
248.057404 75.598244
248.150299 930.18573
248.194092 5.727941
248.324341 19.880051
248.418854 18.38526
248.666672 14.3373
249.115707 6.201666
249.80748 6.380952
250.018814 68.986412
250.076218 25.776899
250.999023 116.832802
251.227798 6.020833
251.404678 6.047619
251.581665 13.33333
253.054733 27.70833
253.108826 57.378769
255.036026 29.64768
255.403534 10.5
256.050568 23.81579
256.370422 12.00126
256.460907 21.758141
256.47525 14.64651
256.511169 72.503838
256.565887 44.01762
256.632782 32.600559
256.650391 7.678764
256.667572 11.58854
256.70697 8.367424
256.84314 7.520833
256.867889 20.00658
256.895569 26.004999
257.055939 41.768398
257.096436 6.49359
257.357147 14.51096
257.531342 5.695513
257.774231 25.86623
257.805756 7.714285
257.921051 16.26239
257.939423 13.5744
258.00766 17.825001
258.054199 335.694214
258.081299 11445.450195
258.149811 134.468704
258.170044 16.7064
258.195526 6.370614
258.232513 25.75
258.245819 5.629902
258.26004 52.699669
258.285156 50.201012
258.319489 13.07849
258.346161 44.097759
258.367065 47.11639
258.40564 31.50083
258.424255 11.84722
258.446411 77.194366
258.493439 43.011299
258.5802 55.48645
258.627228 73.028633
258.706512 55.917709
258.738312 85.470444
258.802124 20.002529
258.827759 61.95274
258.919189 27.511761
258.962921 9.685185
259.038879 10.79891
259.186737 8.375
259.314941 25.447769
259.577087 23.21435
259.75705 13.71429
259.791779 76.101517
259.960693 7.347222
260.023285 40.30616
260.060059 7978.551758
260.095245 2277.450928
260.15155 23.1696
260.173798 28.97529
260.226807 17.05307
260.252167 11.0336
260.266571 33.48214
260.304474 23.673981
260.337097 37.95631
260.363007 34.35754
260.384521 12.41246
260.420044 40.00856
260.44458 38.485611
260.542328 16.864719
260.594055 5.633333
260.632904 17.246349
260.705353 18.629721
260.731659 19.774191
260.748016 19.158751
260.847687 13.28656
260.976624 4.677083
261.527679 5.0
261.555939 15.3477
261.687042 6.380208
262.114655 55.645061
262.577667 24.288099
262.886078 8.45
263.092407 77.158577
263.170502 150.115204
264.003052 29.38068
264.068329 14.29167
264.203491 12.32065
264.252106 7.782407
264.784393 15.34722
264.927368 14.02671
265.888977 4.002193
266.348663 6.335
266.462524 9.429762
267.994965 18.99379
268.031647 839.996826
268.619598 9.041667
268.812744 10.67348
269.931976 18.441669
270.818939 15.4375
271.127777 9.029761
272.055023 96.145287
272.073761 15.00658
272.504303 10.67083
273.090759 90.495323
273.512543 13.26754
274.005402 21.160721
274.067657 43.413792
274.391602 16.716459
274.549438 13.3795
274.598907 16.52301
275.071899 40.689659
275.107208 446.394501
275.163361 17.74898
275.220978 10.02083
275.279388 8.349999
275.550751 7.810714
275.604492 20.65715
275.920471 22.793159
276.032867 52.222229
276.059174 13.75512
276.084808 31.043381
276.167084 25.674999
278.021149 27.898081
278.062805 13.93667
278.115021 21.17289
278.306427 10.42803
278.736847 9.556818
279.427673 6.020833
280.031189 32.86684
280.123352 1162.618042
280.359009 11.01389
280.644409 18.15
281.050964 47.075272
283.059998 125.887703
283.086395 30.67593
283.437439 4.898148
284.67392 6.727941
284.826538 11.62963
286.028656 21.097219
286.075531 940.500488
286.137695 4.341667
286.237915 10.26786
286.331909 6.668651
286.490967 14.12698
287.179474 37.49683
287.41626 19.055559
289.074249 32.699631
289.123077 47.925369
290.077637 33.363091
290.098541 20.933331
290.212799 6.615
290.282074 26.481569
290.331116 5.338889
290.378937 19.24324
290.538879 24.750891
290.770233 19.920731
291.012573 244.741898
291.097687 27.088079
291.119263 46.32328
291.470459 4.844298
291.954407 32.366959
292.030853 3551.268066
292.096497 16.39394
292.243225 7.564103
292.338165 4.394608
292.385773 12.40333
292.423187 11.51923
292.50473 17.58333
292.522583 21.4303
292.541138 18.33333
292.647247 9.769231
292.742767 13.02885
292.838959 25.378771
292.869934 4.761905
292.974915 10.68889
293.129791 22.47463
293.314453 8.0
293.397888 5.705246
293.809143 8.829301
293.86264 7.625
294.38205 17.366791
294.63269 14.88466
295.080719 10.21802
295.098358 80.435898
296.100922 38.067219
296.19928 9.171748
297.194489 6.028846
300.096954 149.288605
300.12793 7.670834
300.626343 7.336111
301.08667 365.077209
301.120117 112.2547
301.13562 19.01136
301.996185 10.875
302.363312 6.408333
303.046021 7.724359
303.104248 167.197998
303.134796 45.605579
303.831787 6.926282
304.032013 202.453995
304.088898 5.680555
304.131287 28.87097
304.254333 6.673077
304.281189 6.791667
304.470764 19.33667
304.56192 6.75
305.030945 165.119095
305.083984 46.747219
305.132874 62.68354
305.159119 24.30242
306.128906 32.79837
307.042847 241.118607
307.063629 61.90675
307.181671 6.966667
307.97699 7.083333
308.094543 87.371941
308.331635 4.394608
308.662445 6.740942
309.062439 66.839333
309.187439 6.033602
309.579071 4.408333
310.110382 556.279114
310.166962 5.345238
310.191437 6.826923
310.292572 6.875
312.628754 13.4
313.112732 61.220959
315.047241 280.918793
315.139771 7.382936
315.396484 15.07849
315.520264 14.39254
315.78009 7.334402
315.928223 9.395202
316.027405 41.4375
316.315979 9.446428
316.846313 9.442307
316.950836 39.12672
317.026978 1395.156006
317.090057 5.747549
317.113922 161.839706
317.135284 4.736111
317.159943 18.736429
317.197815 28.56522
317.215698 14.67465
317.26123 12.7904
317.274628 25.69907
317.302429 10.00167
317.333496 28.02424
317.360046 46.436981
317.39032 21.26667
317.41626 20.630329
317.503387 70.014664
317.537994 6.364899
317.58139 14.70014
317.70929 27.19136
317.74881 11.33452
317.792847 18.694441
318.051239 145.9039
318.164948 13.61404
318.261993 23.0625
318.439819 24.19878
318.536835 8.053572
318.574219 8.647059
318.611359 5.016304
318.768951 37.15807
318.909515 9.778704
318.938934 18.95076
318.971649 14.4662
319.042053 1832.879028
319.087799 177.061996
319.134277 19079.929688
319.214447 191.022003
319.272095 80.193161
319.31073 104.699097
319.338623 16.006941
319.37796 69.144997
319.408997 81.085419
319.430969 74.410896
319.45697 102.3032
319.530457 142.946793
319.573914 37.72332
319.626007 91.002319
319.649933 16.0119
319.668121 92.052193
319.742279 18.69482
319.757111 26.04278
319.832489 32.529091
319.851501 78.014999
319.884064 52.564659
320.00705 32.21957
320.24765 45.109119
320.290192 12.15648
320.613373 97.677948
320.79187 11.63949
320.919617 19.92536
321.206116 15.00397
321.641266 8.777778
321.697113 24.46467
322.341949 24.351629
322.391815 8.335
322.460724 11.08889
322.580872 19.26042
322.904236 10.56522
323.091248 600.917603
323.310699 11.0346
324.118347 60.00412
324.767365 16.44676
324.9646 9.135
325.244995 7.4
326.104156 42.11594
327.131836 28.118521
328.56131 17.0
329.022034 17.49781
331.039917 182.729095
332.039398 226.438797
332.148132 16.51862
333.151886 40.98531
333.181824 10.41523
333.758881 15.59214
334.065643 28.096939
334.082733 28.376051
334.165039 34.099411
334.438232 7.001984
335.102448 17.93511
336.090942 37.85257
336.127655 115.822502
336.242157 7.736842
337.365845 13.00076
338.108734 718.566101
338.209839 8.102273
338.535767 12.79688
338.649872 22.334261
339.074097 8.740741
339.114014 721.927612
339.189423 8.343469
339.429718 7.125
339.528778 7.355392
340.176819 7.102273
340.349579 17.56053
340.549072 6.095238
341.544586 16.68421
342.878967 21.116541
343.042236 1676.478027
343.115448 7.668478
343.153717 18.47917
343.179901 6.672222
343.300415 5.926282
343.411621 4.367424
343.521851 12.76894
343.573151 19.22822
343.701996 14.33477
343.74231 15.54624
343.766632 13.52466
344.367096 30.12812
344.63147 8.67
345.490967 5.355392
345.530029 17.461361
346.056915 48.13047
346.752441 9.121212
347.059875 40.296452
347.12915 1679.572021
347.278137 7.969086
347.316895 11.43219
347.368713 10.14405
347.482941 10.78704
347.517487 9.547619
347.682373 13.5375
347.802765 6.541667
347.829468 29.379169
347.941498 12.65351
347.960571 11.38095
348.084198 106.885803
348.257629 13.33675
348.419952 14.28736
349.011169 6.880952
350.108612 119.188797
350.299164 10.07181
351.103119 136.755005
351.649414 5.703947
353.285767 8.484849
356.627045 7.541667
357.056091 128.939697
357.678223 24.00185
357.794952 31.2934
357.885132 18.57576
357.910522 22.640471
357.932343 10.05797
357.952209 10.73016
358.024323 78.280983
358.053406 344.767212
358.09726 31.622089
358.13446 11.44444
358.196533 17.4697
358.345459 58.738701
358.396118 55.869862
358.492004 9.797101
358.781158 16.846531
359.966522 43.275261
360.016327 33.84639
360.068329 10385.25
360.150818 95.231041
360.201202 86.844223
360.240753 55.125839
360.273865 30.33713
360.302826 114.969498
360.35257 23.04344
360.368866 45.821461
360.402771 91.255898
360.43515 56.525291
360.494568 31.39447
360.533325 27.29427
360.560272 20.779791
360.582397 9.535
360.621704 40.102619
360.715729 37.419991
360.738068 54.06284
360.840607 50.73188
360.869965 75.911301
361.16156 23.62862
361.282227 33.078259
361.587921 11.09167
361.98349 34.711281
362.089935 33.960072
362.57428 11.8642
362.627716 36.203281
362.799652 16.730339
362.88681 26.825491
362.959076 23.12175
363.21048 12.35874
363.243988 5.939394
363.760223 19.4
363.8172 26.160549
363.868988 5.787037
364.12027 134.433502
364.178223 10.535
364.477875 9.015
365.117554 2226.779053
365.195984 5.736111
365.341858 4.694444
365.401703 17.09857
365.490723 34.808849
365.534729 10.66954
365.591919 26.625601
365.695648 5.564815
365.714325 4.355392
365.739655 14.86058
367.17276 7.702587
368.42041 8.789634
368.57193 18.0
368.776337 8.224999
369.054718 36.03582
369.309021 14.55784
370.11969 17.523649
370.446442 10.00439
371.606598 9.556818
371.678955 17.0947
372.014923 11.35161
372.061249 13.44817
372.605652 7.757883
373.072479 37.2803
373.089539 109.453102
373.185699 18.406919
373.776733 13.78333
373.923004 9.823148
374.086548 287.795013
374.987183 31.409599
375.079224 1312.040039
375.13269 52.705002
375.178467 36.019939
375.212128 26.143801
375.343292 6.208333
375.397705 6.380208
375.512268 16.13611
375.566223 17.33333
375.755951 24.601419
376.205566 20.80682
376.815643 11.03716
377.120758 132.733002
377.159027 9.180555
379.124084 73.731941
380.128418 49.412041
380.775452 6.333333
382.060089 17.90151
382.277191 6.378623
383.085236 99.461952
383.680115 4.054824
383.918213 8.130208
383.954498 7.280303
383.981262 6.823718
384.063049 100.017403
384.114227 30.108049
384.722992 11.08013
384.746033 9.94697
384.773193 22.202459
384.859192 5.541667
384.914612 11.28409
385.037567 5.633333
385.152985 10.71415
385.3237 14.07101
385.80191 5.160714
385.911194 7.028153
386.085052 1293.171997
386.143646 6.755435
386.198303 7.692308
386.283142 7.382936
386.487274 24.271
386.622284 8.361486
386.813873 7.351191
387.079712 2934.449951
387.16684 58.38158
387.224487 8.016666
387.263367 6.708333
387.292938 9.445371
387.320435 7.49359
387.354553 13.09513
387.388794 10.88889
387.43866 33.40741
387.488922 32.149551
387.561646 35.282928
387.614777 5.69697
387.708344 5.458333
387.76593 12.00926
387.840851 12.36333
387.868317 10.00417
387.923828 36.192909
388.10556 19.336309
388.142365 6.081667
388.958435 6.201666
389.10025 15.34028
389.569366 6.535
390.153412 16.8848
390.812866 7.022059
391.132629 375.764801
391.348663 6.5
391.748993 10.80952
392.017578 14.70379
393.153503 41.86274
393.375671 9.67
394.376801 8.523648
396.722321 8.685185
396.743134 5.334677
396.78421 28.03347
396.868225 22.043011
397.686066 10.68883
398.380157 18.619049
398.455322 74.204391
398.493591 55.402981
398.52243 195.228302
398.556976 102.386101
398.589569 151.096695
398.630127 174.613403
398.666534 171.884705
398.71701 122.046501
398.769928 212.059204
398.799133 177.633102
398.847412 188.209793
398.890442 66.784561
398.917572 26.15151
398.951599 215.983505
399.000183 368.633514
399.04187 39.450878
399.081451 629.643799
399.229767 25.15151
399.318787 112.538597
399.394958 116.2304
399.485626 53.383751
399.544769 93.981033
399.702881 301.52301
399.929443 47.15263
399.976624 55.894611
400.023804 31.75374
400.160004 46.801189
400.193939 21.69482
400.216492 15.82315
400.299957 8.340278
400.644379 15.93202
400.754913 23.097691
400.830719 49.5271
400.956482 77.701736
401.029175 295.020691
401.095947 158155.796875
401.752136 86.441978
401.795929 132.583801
401.855469 221.184296
401.916473 308.987396
401.953583 108.780296
401.996002 306.519806
402.060516 38.294609
402.200134 217.156693
402.234406 163.552994
402.287598 117.1231
402.331879 196.145203
402.390839 68.142159
402.432251 65.447617
402.481445 204.5896
402.534424 115.310997
402.575256 36.923931
402.629425 120.169197
402.775574 99.708092
402.815979 35.068821
402.87558 97.806976
403.052185 71.182533
403.166199 34.06855
403.250549 57.32658
403.438965 69.28421
403.610107 15.76557
403.709717 14.11916
403.790527 13.32389
403.891418 20.391199
403.912384 7.669117
403.978119 25.76576
404.111755 190.563507
404.290558 15.33333
404.318634 8.564103
404.353088 13.425
404.401733 29.938379
404.458221 7.291667
404.508331 25.418209
404.702942 10.38272
404.934082 23.67593
404.970612 56.30394
405.081177 7.146739
405.178986 8.347826
405.361542 10.00833
405.55722 8.523648
405.585266 7.388514
405.68692 32.719299
406.0065 14.48981
406.068817 13.67568
406.341766 37.091358
406.805237 4.675
406.827271 4.963235
406.940369 21.149879
407.191254 8.001068
407.542877 23.08885
407.613586 8.361112
407.717896 8.408951
408.157715 47.24707
408.462891 8.789634
409.089233 17.92593
410.079498 131.095703
411.619263 7.347222
411.809418 9.667683
412.094757 112.900803
413.100464 257.275085
413.894684 8.745155
414.984528 7.177631
415.110321 369.492615
415.204987 8.081667
415.346863 6.001984
415.36911 15.125
415.46286 9.149692
416.108215 139.560806
416.525116 50.155479
416.803406 22.049271
417.083618 75.324287
419.035309 6.673611
419.354767 4.833333
422.817474 8.125
422.932831 73.840279
424.316528 24.395189
424.365601 33.00383
424.450134 16.1201
424.482819 47.372089
424.519348 30.857571
424.550873 32.86776
424.582458 30.673019
424.624481 12.24074
424.667053 52.652241
424.706451 8.898149
424.755371 72.304703
424.788818 14.4518
424.902679 55.61097
424.925629 22.08333
425.090271 186.189194
425.453278 15.21491
425.769958 6.111111
425.856232 19.86722
426.027954 10.58854
426.160767 20.27586
426.193909 16.006411
426.251038 5.005952
426.383057 14.65988
426.480957 10.16667
426.589691 7.74359
426.775513 10.42014
426.812897 16.6674
427.009521 76.268463
427.066895 64.213348
427.111328 26009.699219
427.190552 58.84816
427.219818 130.276001
427.26767 50.136238
427.303711 60.212219
427.343506 62.06469
427.412109 52.57365
427.45224 30.79953
427.474548 151.968796
427.505951 185.286301
427.545349 48.666721
427.597748 54.800781
427.625854 139.922607
427.671997 71.259071
427.747223 16.9867
427.798615 140.636597
427.851532 73.978333
427.883087 12.50508
427.935425 66.180023
428.050354 72.21386
428.199738 52.265228
428.244446 40.71941
428.374542 32.908951
428.582001 8.45
428.643097 6.111111
428.694153 42.236279
428.915039 34.035271
429.016754 11.88005
429.091064 43.0163
429.179321 20.935141
429.271637 22.06531
429.307159 39.152328
429.33902 6.007576
429.496643 8.866667
429.662323 22.79092
429.74884 6.75
429.842621 21.6686
430.062439 27.502451
430.112122 440.0047
430.200134 4.387821
430.23175 9.160256
430.543396 7.779321
430.896301 9.666667
430.943268 11.50521
430.990234 35.570129
431.026642 7.958333
431.069641 28.467381
431.155701 13.56019
431.20813 13.18561
431.374115 19.760559
431.612701 19.497089
431.843109 7.656609
432.211884 14.21894
432.500977 8.462607
436.489319 6.482143
439.111908 19.40653
439.532715 8.109649
439.904846 27.37191
440.268707 16.44907
440.306183 5.025641
441.127197 33.002319
442.118896 37.930752
443.101105 120.7938
443.220001 9.666667
443.416016 4.75
444.141235 307.109192
444.521515 7.647436
444.616333 10.70833
444.742157 5.939394
444.806976 16.755119
445.122009 390.928802
445.519073 6.520061
446.591797 19.0
446.964722 18.674999
451.683685 4.111111
452.722046 13.18391
453.121338 11.70833
454.00354 5.088768
456.14093 131.876404
459.117859 89.639771
468.124176 61.084949
470.148865 199.232193
473.632233 7.360043
483.964386 5.075
484.467224 8.356482
484.573944 23.267891
484.936829 43.384048
485.110962 25.46944
485.153931 439.137085
485.210266 12.34069
485.286896 7.0
485.363861 19.55871
485.539703 12.725
485.738892 15.36224
485.819916 33.48484
486.284424 22.546801
486.408752 6.533333
486.483215 16.210939
486.527863 10.41667
486.566895 9.323276
486.690521 24.14362
486.843201 10.0496
487.149139 56.198669
487.319885 7.666667
488.017395 73.704323
488.081421 7.779321
488.163574 11727.570312
488.267822 55.593609
488.300934 75.524582
488.331726 12.46959
488.358673 39.00655
488.392761 123.465797
488.440094 106.880898
488.489349 127.670998
488.552094 34.831131
488.599182 47.7211
488.635773 88.113708
488.71991 58.254631
488.795532 18.33547
488.837616 68.031052
488.923309 10.41422
488.949371 6.716667
489.097076 102.267899
489.664398 10.03333
489.927368 16.747129
490.001068 45.361839
490.182587 16.815479
490.235901 16.16379
490.574188 12.55408
490.76651 8.745155
490.858978 13.88441
491.261353 23.736111
491.568329 9.383333
491.678284 12.97663
492.109283 7.272727
492.595154 29.315109
492.741608 6.927469
494.387787 15.6901
507.719116 13.15705
614.065613 14.61337
623.758057 9.680555
695.891052 8.68889
748.393188 46.120029
858.100159 32.644772
867.177246 10.90675
986.350098 23.72208
1081.770874 12.02885
1108.794189 35.126259
1135.812744 29.33654
1157.388794 20.210529
1207.435669 9.099206
1214.566284 7.737069
