>compound MLS000595399-01![3-(2-Chloro-phenothiazin-10-yl)-propyl]-dimethyl-ammonium
>formula C17H19ClN2S
>ionization [M+H]+
>parentmass 319.101807
#inchi InChI=1S/C17H19ClN2S/c1-19(2)10-5-11-20-14-6-3-4-7-16(14)21-17-9-8-13(18)12-15(17)20/h3-4,6-9,12H,5,10-11H2,1-2H3
#inchikey ZPEIMTDSQAKGNT
#origInchi InChI=1S/C17H19ClN2S.ClH/c1-19(2)10-5-11-20-14-6-3-4-7-16(14)21-17-9-8-13(18)12-15(17)20;/h3-4,6-9,12H,5,10-11H2,1-2H3;1H
#Ion_Source LC-ESI
#Instrument qTof
#Compound_Source NIH Pharmacologically Active Library
#PI Dorrestein
#Data_Collector VP/LMS
#Scan -1
#Precursor_MZ 319.104
#ExactMass 319.104
#Charge 1
#CAS_Number N/A
#Pubmed_ID N/A
#Smiles C[NH+](C)CCCN1c2ccccc2Sc3ccc(Cl)cc13.[Cl-]
#INCHI_AUX N/A
#Library_Class 1
#SpectrumID CCMSLIB00000086138
#IonMode Positive
#UpdateWorkflowName UPDATE-SINGLE-ANNOTATED-GOLD
#LibraryQualityString Gold
#TaskID d252d724072548979f1f6f1ced849daf
##Scan# 1816
#SpectrumFile p5-F04_GF4_01_18467.mzXML
#LibraryName Pharm_Active_Library.mgf
#MQScore -1
#Organism Pharm_Active_Library
#TIC_Query 0
#RT_Query -1
#MZErrorPPM -1
#SharedPeaks 0
#MassDiff 0
#LibMZ -1
#SpecMZ 319.104
#SpecCharge 0
#internalFilename spec-00000.mgf

>collision 10
44.958313 144.0
45.010227 128.0
45.224125 136.0
45.240189 156.0
45.350029 160.0
45.360752 144.0
45.462685 96.0
45.497581 64.0
45.614452 160.0
45.666893 228.0
45.685726 144.0
45.723244 172.0
45.862125 144.0
46.079613 192.0
46.11182 116.0
46.126686 144.0
46.182125 160.0
46.339153 108.0
46.371677 156.0
46.579273 168.0
46.632263 44.0
46.649937 148.0
46.753307 76.0
46.884045 156.0
47.049088 152.0
47.24588 92.0
47.258194 176.0
47.371822 136.0
47.403336 244.0
47.447197 200.0
47.584393 120.0
47.694992 180.0
47.74791 92.0
47.787804 176.0
47.887524 168.0
47.91309 216.0
48.008194 76.0
48.057854 192.0
48.097874 200.0
48.146198 96.0
48.200073 140.0
48.242916 160.0
48.386795 156.0
48.550301 80.0
48.618275 144.0
48.825275 140.0
48.950954 180.0
49.112183 128.0
49.276909 208.0
49.461502 156.0
49.499302 124.0
49.525913 196.0
49.744656 132.0
49.797577 128.0
49.927315 164.0
49.938564 228.0
50.0061 260.0
50.026402 200.0
50.093399 204.0
50.247059 112.0
50.29504 104.0
50.357166 144.0
50.410851 84.0
50.475876 144.0
50.631538 148.0
50.647118 112.0
51.612011 136.0
51.73362 180.0
51.775143 180.0
51.790897 116.0
51.853939 148.0
52.003101 148.0
52.051132 288.0
52.142414 148.0
52.277599 116.0
52.302063 168.0
52.340935 188.0
52.398548 112.0
52.415836 64.0
52.545605 192.0
52.770912 164.0
52.788261 148.0
52.914146 152.0
53.183777 240.0
53.260731 64.0
53.285427 132.0
53.319691 188.0
53.457367 176.0
53.570568 124.0
53.87838 140.0
53.989468 144.0
54.184143 164.0
54.217846 128.0
54.371834 128.0
54.405594 96.0
54.503998 64.0
54.786484 176.0
54.824791 132.0
54.87196 32.0
55.012112 164.0
55.046066 144.0
55.056404 164.0
55.072205 212.0
55.153915 204.0
55.207142 128.0
55.266312 220.0
55.332912 136.0
55.56263 44.0
55.685833 204.0
55.743774 168.0
55.835941 152.0
55.856766 132.0
55.868668 152.0
55.895447 180.0
56.054779 160.0
56.081604 168.0
56.098 108.0
56.126328 184.0
56.148697 144.0
56.205383 148.0
56.253139 112.0
56.409992 132.0
56.483261 28.0
56.532635 168.0
56.544964 64.0
56.907372 136.0
56.920883 68.0
56.980965 112.0
57.01252 172.0
57.035065 220.0
57.117764 140.0
57.144844 116.0
57.26527 172.0
57.367733 248.0
57.526497 196.0
57.594078 192.0
57.84206 212.0
57.852654 184.0
58.336578 112.0
58.531319 108.0
58.546547 184.0
58.644054 148.0
58.674107 56.0
58.790462 168.0
58.911083 120.0
58.944698 196.0
59.077713 108.0
59.119026 144.0
59.232323 188.0
59.247643 172.0
59.275219 180.0
59.339821 192.0
59.394802 164.0
59.491734 144.0
59.572868 104.0
59.618961 120.0
59.646626 108.0
59.73735 124.0
59.849701 52.0
60.14349 196.0
60.227531 88.0
60.533554 156.0
60.615852 168.0
60.656147 120.0
60.677849 144.0
61.08939 120.0
61.220131 208.0
61.263744 152.0
61.293346 132.0
61.322956 180.0
61.739803 132.0
61.785164 180.0
61.915081 128.0
61.979305 80.0
62.012215 172.0
62.031025 204.0
62.054543 164.0
62.344933 88.0
62.445549 176.0
62.499035 128.0
62.514771 160.0
62.595055 156.0
62.670662 168.0
62.779427 40.0
62.806236 104.0
62.833054 184.0
62.949856 76.0
63.313576 156.0
63.329414 152.0
63.354759 160.0
63.721237 168.0
63.765728 152.0
63.829319 144.0
63.843632 120.0
63.91362 108.0
64.073822 200.0
64.249802 108.0
64.269936 264.0
64.347153 200.0
64.479736 108.0
64.510101 240.0
64.852654 188.0
64.964897 180.0
65.056366 208.0
65.147903 36.0
65.228249 80.0
65.329559 188.0
65.543686 228.0
65.588814 220.0
65.743645 200.0
65.830818 232.0
65.897049 180.0
66.058708 148.0
66.193047 148.0
66.32589 196.0
66.35183 104.0
66.523788 168.0
66.609856 160.0
66.626099 216.0
66.658592 172.0
66.72361 100.0
66.734993 80.0
66.909073 56.0
66.961182 188.0
67.055679 160.0
67.160027 184.0
67.266594 208.0
67.318336 108.0
67.434326 128.0
67.671524 156.0
67.694443 180.0
67.763245 128.0
67.969833 196.0
68.226051 172.0
68.331306 172.0
68.44323 88.0
68.535469 164.0
68.548653 120.0
68.659103 128.0
68.692085 124.0
68.761391 168.0
68.862099 180.0
69.09021 164.0
69.163025 176.0
69.179573 168.0
69.288872 168.0
69.333611 148.0
69.380028 212.0
69.404892 172.0
69.730263 164.0
69.756859 120.0
69.884918 72.0
70.07972 112.0
70.158051 164.0
70.174721 108.0
70.249771 56.0
70.272697 124.0
70.319847 180.0
70.346558 136.0
70.425034 144.0
70.455101 228.0
70.513588 80.0
70.528633 44.0
70.553703 132.0
70.726006 204.0
70.769531 112.0
70.913597 96.0
71.121574 60.0
71.378616 180.0
71.399803 140.0
71.504784 184.0
71.720375 140.0
71.735542 116.0
71.794556 164.0
71.921089 180.0
71.978493 168.0
72.181267 148.0
72.252304 200.0
72.424965 156.0
72.621582 220.0
72.652115 84.0
72.821854 116.0
72.8759 64.0
72.985001 60.0
73.081947 224.0
73.138107 208.0
73.182373 164.0
73.209618 196.0
73.281158 96.0
73.391945 32.0
73.407288 84.0
73.434578 156.0
73.525002 192.0
73.605232 36.0
73.644508 156.0
73.854744 204.0
73.935158 120.0
73.984795 152.0
74.147255 180.0
74.276115 40.0
74.365334 196.0
74.415115 60.0
74.68148 80.0
74.736526 248.0
74.906967 148.0
74.987946 176.0
75.032768 196.0
75.11554 40.0
75.203545 116.0
75.269142 140.0
75.426361 68.0
75.557785 180.0
75.646042 32.0
76.066376 100.0
76.141937 32.0
76.213158 212.0
76.407883 240.0
76.421806 124.0
76.488892 160.0
76.59938 124.0
76.672554 132.0
76.88707 140.0
77.025002 136.0
77.110611 176.0
77.149071 68.0
77.161308 96.0
77.464058 140.0
77.576736 240.0
77.670906 152.0
77.783203 184.0
77.86924 168.0
77.946533 220.0
77.997505 216.0
78.009811 212.0
78.073105 96.0
78.15226 148.0
78.227936 180.0
78.328308 124.0
78.419968 236.0
78.504555 216.0
78.55571 236.0
78.573349 92.0
78.594521 104.0
78.615692 256.0
78.797562 132.0
78.841743 168.0
79.163704 120.0
79.181419 176.0
79.22924 124.0
79.417137 224.0
79.450844 120.0
79.612366 64.0
79.626572 144.0
79.704735 220.0
79.742058 132.0
79.781158 148.0
79.793602 76.0
79.975052 120.0
79.994629 88.0
80.035583 32.0
80.051605 104.0
80.203041 132.0
80.27079 180.0
80.331429 184.0
80.661781 148.0
81.034012 168.0
81.078812 124.0
81.121826 120.0
81.177406 116.0
81.236595 144.0
81.250946 228.0
81.364014 108.0
81.567009 72.0
81.642517 88.0
81.721664 176.0
81.914299 164.0
82.007996 164.0
82.112167 144.0
82.181114 148.0
82.246735 176.0
82.276772 148.0
82.327324 124.0
82.544174 116.0
82.56588 168.0
82.788971 160.0
82.83194 40.0
83.103874 68.0
83.299942 48.0
83.579926 176.0
83.938759 160.0
84.02449 204.0
84.048203 200.0
84.499504 128.0
84.660576 204.0
84.724686 120.0
84.852974 156.0
84.988701 168.0
85.082298 240.0
85.220016 240.0
85.282524 192.0
85.51432 156.0
85.528999 172.0
85.685524 184.0
85.757393 84.0
85.796104 92.0
86.013779 144.0
86.098961 148.0
86.11718 136.0
86.15966 152.0
86.194771 136.0
86.222488 212.0
86.59436 212.0
86.718491 200.0
86.980026 188.0
87.165741 232.0
87.355385 164.0
87.378548 204.0
87.519157 220.0
87.558266 240.0
87.679359 128.0
87.70359 160.0
87.811729 60.0
87.963837 200.0
88.250565 132.0
88.497543 168.0
88.6399 140.0
88.662384 168.0
88.765488 200.0
88.786118 60.0
88.862236 200.0
88.878777 192.0
88.919113 144.0
89.112732 128.0
89.236778 180.0
89.327148 156.0
89.581177 128.0
89.63958 188.0
89.652771 120.0
89.848869 120.0
89.965874 160.0
90.03196 192.0
90.239815 232.0
90.279526 200.0
90.324921 196.0
90.343834 208.0
90.427094 56.0
90.446022 48.0
90.661934 156.0
90.715988 200.0
90.781357 204.0
90.970993 228.0
90.986282 168.0
91.003365 156.0
91.056541 144.0
91.117325 220.0
91.290291 68.0
91.444389 100.0
91.541481 124.0
91.979988 164.0
92.230209 88.0
92.58416 160.0
92.645454 104.0
92.78727 116.0
93.004036 180.0
93.05587 224.0
93.207611 128.0
93.222984 156.0
93.586533 112.0
93.657784 132.0
93.709801 196.0
93.742554 176.0
93.783028 64.0
93.823509 136.0
93.919922 144.0
94.041481 192.0
94.060783 48.0
94.161186 164.0
94.352486 84.0
94.426964 176.0
94.545906 124.0
94.559456 52.0
94.605911 192.0
94.650444 148.0
94.840294 88.0
94.937233 112.0
94.981842 124.0
95.069153 40.0
95.342972 152.0
95.3974 96.0
95.424614 188.0
95.484894 148.0
95.521851 168.0
95.564651 204.0
95.778793 172.0
95.981476 72.0
96.094604 208.0
96.149193 180.0
96.184372 136.0
96.303474 144.0
96.336685 72.0
96.434387 28.0
96.47348 176.0
96.680809 108.0
96.731697 132.0
96.781807 172.0
97.166748 152.0
97.196182 164.0
97.26683 52.0
97.33358 100.0
97.370895 124.0
97.48484 76.0
97.512352 168.0
97.622444 176.0
97.760147 164.0
97.906464 236.0
97.935364 180.0
98.047668 204.0
98.108772 176.0
98.329689 168.0
98.452095 128.0
98.509369 104.0
98.578522 144.0
98.620026 172.0
98.635841 156.0
98.669441 124.0
98.699104 120.0
98.835686 236.0
98.890991 180.0
98.90683 184.0
99.033554 164.0
99.077133 104.0
99.160355 188.0
99.233696 72.0
99.261459 188.0
99.303101 160.0
99.350708 108.0
99.420158 104.0
99.457863 192.0
99.523376 52.0
99.575005 144.0
99.620689 184.0
99.910934 132.0
99.936798 120.0
99.950729 172.0
100.107048 136.0
100.231079 236.0
100.47673 112.0
100.516464 140.0
100.646378 112.0
100.796188 44.0
101.086136 140.0
101.110146 132.0
101.134163 128.0
101.304367 112.0
101.334419 192.0
101.576996 100.0
101.841949 176.0
101.868057 288.0
102.071053 132.0
102.097191 136.0
102.123337 184.0
102.572357 152.0
102.626785 156.0
102.943588 184.0
103.052162 244.0
103.18605 232.0
103.204247 200.0
103.299301 124.0
103.323578 48.0
103.349876 208.0
103.521935 172.0
103.570541 224.0
103.637398 84.0
103.659683 96.0
103.716431 124.0
104.290443 180.0
104.341667 216.0
104.376236 200.0
104.620384 216.0
104.709976 164.0
104.844437 124.0
104.864815 152.0
104.885201 184.0
104.991219 176.0
105.065536 468.0
105.109535 212.0
105.138107 160.0
105.258545 104.0
105.389275 152.0
105.491455 132.0
105.632553 180.0
105.689842 104.0
105.76178 208.0
105.880219 96.0
106.009277 156.0
106.065918 1128.0
106.089798 168.0
106.163025 92.0
106.294312 136.0
106.429787 248.0
106.450317 160.0
106.468803 164.0
106.487289 120.0
106.954018 40.0
107.077553 56.0
107.291855 140.0
107.390831 96.0
107.506363 68.0
107.700432 124.0
107.750015 176.0
107.907082 168.0
108.001877 148.0
108.178093 36.0
108.327194 176.0
108.437012 68.0
108.464706 188.0
108.679245 192.0
108.708687 48.0
108.77121 160.0
109.010841 340.0
109.065903 196.0
109.103325 44.0
109.119957 160.0
109.157379 168.0
109.292587 180.0
109.454941 128.0
109.594498 148.0
109.609085 132.0
109.630157 176.0
109.694534 104.0
109.939606 176.0
110.076332 196.0
110.15361 148.0
110.34169 88.0
110.467171 160.0
110.548767 128.0
110.942535 104.0
110.984467 108.0
111.290802 116.0
111.700615 176.0
111.858429 148.0
111.917381 176.0
111.967918 68.0
112.260849 88.0
112.503487 128.0
112.554161 124.0
112.613289 212.0
112.656654 180.0
112.773865 116.0
112.934555 124.0
113.044571 124.0
113.076317 108.0
113.196983 136.0
113.333939 140.0
113.368568 128.0
113.425797 164.0
113.567856 112.0
113.875618 148.0
114.011963 272.0
114.145508 104.0
114.309303 72.0
114.339096 124.0
114.413597 116.0
114.437012 168.0
114.826973 124.0
114.910172 152.0
114.93364 148.0
114.965645 152.0
114.993393 144.0
115.054596 352.0
115.204781 288.0
115.219734 180.0
115.30307 148.0
115.41423 128.0
115.474106 68.0
115.508331 160.0
115.551117 124.0
115.570374 144.0
115.72448 148.0
115.76516 52.0
115.786575 140.0
115.848694 136.0
115.893684 140.0
115.924278 172.0
115.945114 124.0
116.007027 176.0
116.065056 252.0
116.148796 168.0
116.22818 124.0
116.24749 180.0
116.610428 116.0
116.664169 72.0
116.760925 148.0
116.917976 48.0
117.011215 152.0
117.070366 900.0
117.495445 68.0
117.685371 76.0
117.754471 136.0
117.873291 124.0
117.905701 152.0
118.074791 160.0
118.176003 164.0
118.299362 120.0
118.704521 96.0
118.732712 184.0
118.949684 160.0
119.003952 148.0
119.023499 112.0
119.066925 180.0
119.238556 180.0
119.286377 184.0
119.308113 76.0
119.382042 172.0
119.440765 204.0
119.471222 156.0
119.667091 192.0
119.754196 196.0
119.841331 80.0
120.024422 32.0
120.100754 160.0
120.419067 176.0
120.484947 276.0
120.513351 104.0
120.629173 192.0
120.688202 116.0
120.828178 108.0
120.843498 128.0
120.900391 132.0
121.009834 88.0
121.178482 180.0
121.266129 140.0
121.583176 172.0
121.852028 152.0
122.254417 128.0
122.485596 216.0
122.560501 80.0
122.58474 144.0
122.681717 156.0
122.725807 108.0
122.853729 224.0
122.89344 184.0
122.937569 132.0
123.012047 156.0
123.237877 184.0
123.494308 72.0
123.678192 148.0
123.733299 220.0
123.877243 76.0
124.047874 160.0
124.112167 192.0
124.444984 152.0
124.931702 152.0
125.016251 184.0
125.130768 232.0
125.152031 132.0
125.383705 284.0
125.642357 216.0
125.700371 216.0
125.758392 52.0
125.865547 176.0
126.021904 164.0
126.05101 144.0
126.211891 172.0
126.404259 140.0
126.494637 200.0
126.603493 136.0
126.775986 152.0
126.805122 148.0
127.011993 180.0
127.051773 152.0
127.130302 176.0
127.190903 152.0
127.206619 156.0
127.281128 64.0
127.359306 200.0
127.487366 132.0
127.504395 124.0
127.651474 48.0
127.71669 168.0
127.748184 92.0
127.950722 100.0
128.198914 168.0
128.52771 164.0
128.65184 100.0
128.859619 164.0
128.936447 152.0
129.020081 164.0
129.202362 140.0
129.282455 48.0
129.316406 48.0
129.49527 164.0
129.687851 104.0
129.785339 172.0
130.065948 456.0
130.457352 116.0
130.721191 196.0
130.746216 144.0
130.775803 156.0
130.800842 64.0
130.885086 172.0
130.928345 176.0
130.966339 228.0
131.069977 116.0
131.091553 144.0
131.213181 160.0
131.532547 224.0
131.612457 180.0
131.782608 136.0
131.827164 140.0
131.900314 184.0
131.934601 112.0
132.023773 348.0
132.069519 168.0
132.12233 172.0
132.36702 156.0
132.644241 168.0
132.724487 156.0
132.946991 112.0
132.992889 88.0
133.01355 92.0
133.038803 152.0
133.073242 176.0
133.139832 140.0
133.167389 156.0
133.296036 100.0
133.360382 228.0
133.535126 184.0
133.583435 104.0
133.861923 128.0
134.006943 176.0
134.036987 168.0
134.122253 72.0
134.366699 216.0
134.419769 224.0
134.519012 132.0
134.671402 140.0
134.701431 128.0
134.786911 180.0
135.043518 220.0
135.21936 96.0
135.298065 148.0
135.362885 248.0
135.487961 216.0
135.545883 184.0
135.615402 100.0
135.831055 64.0
135.986511 120.0
136.022888 324.0
136.223343 160.0
136.339523 180.0
136.460388 136.0
136.776779 168.0
136.825653 160.0
136.853592 180.0
137.014297 136.0
137.14946 152.0
137.256699 52.0
137.347656 140.0
137.431641 92.0
137.49057 140.0
137.529648 144.0
137.670837 260.0
137.714111 48.0
137.756149 160.0
137.777176 172.0
137.922058 80.0
137.973419 164.0
138.034271 168.0
138.2565 148.0
138.319702 232.0
138.39859 144.0
138.628922 136.0
138.673386 204.0
138.987625 48.0
139.053574 180.0
139.097931 144.0
139.128448 140.0
139.337463 112.0
139.586609 328.0
139.638351 172.0
139.821854 140.0
139.92778 392.0
139.993713 152.0
140.023743 508.0
140.054108 204.0
140.342453 124.0
140.458008 168.0
140.488678 172.0
140.620819 116.0
140.653854 148.0
140.701065 164.0
140.790802 68.0
140.826218 56.0
140.889999 132.0
140.930161 132.0
141.018738 208.0
141.053055 164.0
141.204376 72.0
141.471756 212.0
141.497803 140.0
141.594208 156.0
141.687256 192.0
141.765457 72.0
142.07843 124.0
142.237427 60.0
142.510529 192.0
142.665009 184.0
142.74585 196.0
142.933777 196.0
142.974625 204.0
143.017059 220.0
143.250412 84.0
143.293304 36.0
143.427872 196.0
143.615112 188.0
143.650894 104.0
144.027054 260.0
144.068649 148.0
144.087769 160.0
144.276566 256.0
144.318329 216.0
144.573166 236.0
144.635391 140.0
144.652145 296.0
144.908386 172.0
144.960678 160.0
145.011429 108.0
145.07135 148.0
145.216507 156.0
145.28479 64.0
145.416763 360.0
145.565598 160.0
145.918808 128.0
146.027023 180.0
146.149704 216.0
146.229111 164.0
146.390411 148.0
146.515656 132.0
146.571457 176.0
146.727737 216.0
146.872437 144.0
146.894135 172.0
147.019745 152.0
147.108902 164.0
147.478485 124.0
147.657394 224.0
147.688843 176.0
147.718597 172.0
147.97438 144.0
148.023682 196.0
148.122116 172.0
148.320801 116.0
148.371719 160.0
148.388687 220.0
148.466278 208.0
148.488098 180.0
148.519974 196.0
148.620178 224.0
148.691895 136.0
148.905548 172.0
149.009995 92.0
149.04158 152.0
149.102341 48.0
149.160675 144.0
149.250626 164.0
149.363892 224.0
149.403839 116.0
149.421951 136.0
149.542542 136.0
149.571747 160.0
149.907852 144.0
149.99559 188.0
150.047272 160.0
150.649567 160.0
150.79863 136.0
150.823059 112.0
150.870117 240.0
150.984436 204.0
151.052887 448.0
151.233978 216.0
151.252289 212.0
151.287842 116.0
151.492264 132.0
151.620956 120.0
152.013321 128.0
152.062637 356.0
152.393921 128.0
152.423401 76.0
152.483719 180.0
152.600372 160.0
152.747925 212.0
152.771118 112.0
152.792206 76.0
152.920166 156.0
153.03154 164.0
153.05014 156.0
153.144226 72.0
153.22551 152.0
153.511429 156.0
153.578018 140.0
153.683258 152.0
154.007492 144.0
154.064972 556.0
154.091476 148.0
154.128738 200.0
154.405411 172.0
154.469727 184.0
154.642929 184.0
154.741943 176.0
154.865753 88.0
154.91777 408.0
155.002014 136.0
155.029266 252.0
155.058441 240.0
155.163116 140.0
155.210236 124.0
155.314392 144.0
155.339188 148.0
155.411133 196.0
155.671768 220.0
155.750885 164.0
156.064377 188.0
156.156387 216.0
156.213593 164.0
156.420135 148.0
156.437561 160.0
156.547104 68.0
156.641754 192.0
156.728943 144.0
156.813675 124.0
156.915878 172.0
156.97789 352.0
157.102921 196.0
157.330017 188.0
157.347488 76.0
157.382446 120.0
157.427399 116.0
157.579758 212.0
157.667221 128.0
157.909729 120.0
157.979584 152.0
158.003296 200.0
158.032303 152.0
158.319138 120.0
158.718597 124.0
158.75621 148.0
158.976974 84.0
159.022141 116.0
159.0849 216.0
159.620056 152.0
159.69046 116.0
159.980347 176.0
160.022629 144.0
160.21907 84.0
160.302231 260.0
160.42572 184.0
160.52153 68.0
160.539185 156.0
160.834366 136.0
160.920197 152.0
161.02626 48.0
161.050797 140.0
161.337051 124.0
161.410385 168.0
161.534302 172.0
161.696243 132.0
161.903839 152.0
161.934235 208.0
162.294067 224.0
162.56041 264.0
162.781265 248.0
162.842209 136.0
162.906097 184.0
162.981934 296.0
163.042923 100.0
163.312408 100.0
163.335312 132.0
163.411621 176.0
163.500687 48.0
164.027908 148.0
164.06105 180.0
164.127335 168.0
164.379868 208.0
164.461533 136.0
164.50238 120.0
164.709213 32.0
164.888062 60.0
165.005646 176.0
165.026108 176.0
165.146286 140.0
165.235825 124.0
165.327942 136.0
165.402161 136.0
165.440567 136.0
165.514816 80.0
165.804016 152.0
165.991425 68.0
166.038208 148.0
166.06546 620.0
166.150436 44.0
166.205078 188.0
166.319809 196.0
166.432755 72.0
166.458435 132.0
166.484116 120.0
166.635666 52.0
166.730743 136.0
166.869553 104.0
166.938919 204.0
167.018707 108.0
167.042969 184.0
167.073227 1588.0
167.158035 128.0
167.255432 68.0
167.726807 156.0
167.78093 164.0
168.002716 180.0
168.059479 184.0
168.079468 412.0
168.263367 44.0
168.467392 164.0
168.490646 208.0
168.591415 164.0
168.619843 48.0
168.808563 160.0
168.912018 48.0
169.152664 128.0
169.279526 184.0
169.411621 164.0
169.453064 104.0
169.489349 184.0
169.53598 132.0
169.727814 60.0
169.980774 284.0
170.018341 96.0
170.19487 148.0
170.215637 176.0
170.259781 128.0
170.290955 128.0
170.368744 164.0
170.410446 56.0
170.431229 120.0
170.532578 96.0
170.675552 104.0
170.875824 144.0
170.957993 176.0
170.990326 92.0
171.024048 592.0
171.081421 132.0
171.120483 196.0
171.194107 180.0
171.558151 120.0
171.706787 80.0
171.735474 128.0
171.922607 132.0
171.978149 332.0
172.027069 224.0
172.179153 172.0
172.317596 172.0
172.34111 148.0
172.471786 156.0
172.61557 200.0
172.694031 156.0
172.837906 160.0
172.997559 120.0
173.022995 212.0
173.183472 108.0
173.264679 124.0
173.288254 112.0
173.479568 56.0
173.513657 152.0
173.949127 196.0
174.077774 108.0
174.195969 120.0
174.266907 76.0
174.603363 164.0
174.898041 128.0
174.929626 196.0
174.960541 140.0
175.353912 148.0
175.38269 116.0
175.448593 128.0
175.926086 184.0
176.048859 172.0
176.066025 204.0
176.158478 124.0
176.179611 156.0
176.224518 40.0
176.359299 148.0
176.425385 88.0
176.520569 196.0
176.599899 176.0
176.703064 160.0
176.948242 164.0
176.967743 140.0
177.057968 460.0
177.150467 236.0
177.24321 140.0
177.449936 132.0
177.497665 172.0
178.064438 1560.0
178.256851 228.0
178.286072 104.0
178.422562 240.0
178.466843 168.0
178.490768 160.0
178.621719 100.0
178.692917 44.0
178.799347 176.0
178.860565 192.0
179.07225 1184.0
179.140167 164.0
179.161469 52.0
179.224548 148.0
179.475967 132.0
179.553299 72.0
179.905518 176.0
180.078766 504.0
180.242035 200.0
180.339798 172.0
180.471268 168.0
180.568802 84.0
180.662033 228.0
180.806274 136.0
180.984467 324.0
181.084717 156.0
181.124893 188.0
181.272247 264.0
181.315125 196.0
181.470596 140.0
181.513489 112.0
181.561768 188.0
181.669052 100.0
181.914261 236.0
181.988159 164.0
182.04213 208.0
182.060333 108.0
182.340332 108.0
182.493546 44.0
182.759827 160.0
182.986023 156.0
183.024216 408.0
183.185196 140.0
183.214828 148.0
183.303741 164.0
183.369095 160.0
183.530167 136.0
183.667709 124.0
183.953735 272.0
184.033356 1416.0
184.18866 120.0
184.218369 92.0
184.280502 176.0
184.41832 36.0
184.596756 200.0
184.783386 128.0
184.95929 164.0
185.020447 380.0
185.186737 72.0
185.530869 152.0
185.666443 60.0
185.774933 96.0
185.867172 60.0
186.001877 216.0
186.025299 276.0
186.100601 144.0
186.383087 160.0
186.586929 92.0
186.7229 208.0
186.8181 156.0
186.913315 68.0
186.992233 184.0
187.025833 128.0
187.098404 124.0
187.17276 216.0
187.259048 196.0
187.321701 96.0
187.433395 132.0
187.711441 44.0
188.028275 192.0
188.055176 148.0
188.257202 124.0
188.320023 128.0
188.434753 176.0
188.686188 188.0
188.754547 140.0
188.831116 36.0
188.861206 192.0
188.959686 148.0
189.007095 204.0
189.093765 132.0
189.260757 72.0
189.501785 164.0
189.531921 44.0
189.910233 132.0
189.95961 204.0
190.032104 156.0
190.069351 124.0
190.412506 80.0
190.461945 132.0
190.503143 136.0
190.54985 128.0
190.662506 116.0
190.747711 172.0
190.920929 116.0
191.012924 160.0
191.042267 140.0
191.073013 248.0
191.29512 72.0
191.319901 164.0
191.369446 276.0
191.424515 180.0
191.518158 168.0
191.6008 152.0
191.806091 144.0
191.840561 228.0
191.909851 180.0
192.036331 148.0
192.08046 212.0
192.110809 100.0
192.315002 60.0
192.461304 136.0
192.563492 156.0
192.801086 104.0
192.986282 180.0
193.052643 236.0
193.094131 196.0
193.124557 116.0
193.254578 168.0
193.362503 144.0
193.470444 216.0
193.51474 196.0
193.56459 108.0
193.601685 180.0
193.866531 132.0
193.997955 212.0
194.03006 96.0
194.066101 168.0
194.357346 136.0
194.479446 152.0
194.501648 96.0
194.873779 176.0
195.073883 240.0
195.114243 156.0
195.13504 128.0
195.268509 216.0
195.440994 68.0
195.549515 128.0
195.719635 168.0
195.816803 144.0
195.939362 168.0
195.996887 232.0
196.028519 136.0
196.075226 168.0
196.223633 80.0
196.39653 72.0
196.544388 124.0
196.736969 44.0
196.957565 208.0
196.991089 244.0
197.03241 780.0
197.07608 208.0
197.287308 132.0
197.407532 140.0
197.516602 64.0
197.597733 40.0
197.650894 184.0
197.754211 152.0
197.841202 80.0
198.007904 160.0
198.037674 5392.0
198.210907 112.0
198.23613 112.0
198.327835 200.0
198.356644 116.0
198.541702 164.0
198.578766 160.0
198.620224 220.0
198.695969 108.0
198.843567 180.0
198.999084 84.0
199.042465 1168.0
199.091751 108.0
199.279938 80.0
199.41597 76.0
199.617249 156.0
199.755051 136.0
199.77475 28.0
199.84227 60.0
199.873215 196.0
200.030396 772.0
200.123718 132.0
200.306778 192.0
200.346222 216.0
200.368759 108.0
200.461731 88.0
200.57402 76.0
200.805679 160.0
200.941071 212.0
200.97493 76.0
201.033981 2260.0
201.127319 100.0
201.180954 200.0
201.263229 172.0
201.288254 48.0
201.308014 32.0
201.341904 116.0
201.42099 92.0
201.842087 124.0
201.952377 200.0
201.975006 204.0
202.034363 156.0
202.103531 212.0
202.181549 104.0
202.209839 200.0
202.277771 44.0
202.317413 176.0
202.371201 80.0
202.507126 60.0
202.614761 124.0
202.662933 72.0
202.722443 204.0
202.773376 144.0
202.830139 76.0
202.892502 184.0
202.912338 244.0
203.030823 728.0
203.080368 204.0
203.170425 100.0
203.23851 224.0
203.317963 100.0
203.400284 224.0
203.530869 132.0
203.601868 36.0
203.62175 100.0
203.668655 216.0
203.829117 192.0
203.88028 132.0
203.959854 108.0
204.080154 1412.0
204.141815 140.0
204.631226 148.0
204.679626 36.0
204.79924 172.0
204.847656 64.0
204.873291 176.0
204.993362 252.0
205.047104 136.0
205.089844 1028.0
205.129761 64.0
205.243805 148.0
205.346466 108.0
205.452011 136.0
205.637482 68.0
205.708847 112.0
205.751663 172.0
205.982239 168.0
205.986786 108.0
206.001968 160.0
206.027893 144.0
206.048676 160.0
206.097015 4312.0
206.145828 84.0
206.225845 88.0
206.274445 48.0
206.30481 64.0
206.357346 72.0
206.388794 44.0
206.467087 112.0
206.54895 92.0
206.726334 164.0
206.883759 180.0
206.909515 108.0
206.980743 196.0
207.02977 204.0
207.101868 1284.0
207.16153 152.0
207.407959 104.0
207.468155 56.0
207.746338 84.0
207.793793 180.0
207.967285 172.0
207.987366 112.0
208.044785 84.0
208.108994 136.0
208.234299 188.0
208.280258 208.0
208.352066 156.0
208.38826 308.0
208.532104 116.0
208.650955 228.0
208.699829 148.0
208.769394 104.0
208.791855 164.0
209.001846 156.0
209.028656 556.0
209.073776 28.0
209.154373 52.0
209.188919 60.0
209.353683 124.0
209.436554 164.0
209.478729 112.0
209.488876 72.0
209.501038 124.0
209.546021 140.0
209.603638 108.0
209.66127 164.0
209.756393 96.0
209.848633 184.0
209.940918 104.0
209.989944 176.0
210.036575 4120.0
210.081177 116.0
210.119751 76.0
210.171677 48.0
210.275558 60.0
210.367935 36.0
210.445877 76.0
210.688477 120.0
210.741669 180.0
210.850983 152.0
210.892166 156.0
210.93428 160.0
210.961975 176.0
210.981125 212.0
211.045654 22960.0
211.110474 80.0
211.167557 76.0
211.254944 76.0
211.348083 84.0
211.428696 156.0
211.466721 108.0
211.505112 80.0
211.533081 64.0
211.596588 104.0
211.655106 152.0
211.709503 44.0
211.761642 32.0
211.816666 80.0
211.839844 64.0
211.894897 164.0
211.984711 156.0
212.048416 3264.0
212.167313 40.0
212.187607 116.0
212.216599 76.0
212.252701 124.0
212.261551 56.0
212.270004 96.0
212.332596 156.0
212.6082 80.0
212.643021 76.0
212.694122 132.0
212.727203 88.0
212.786209 148.0
212.79567 48.0
212.807693 176.0
212.84668 280.0
212.944977 144.0
213.03479 5912.0
213.082535 124.0
213.116364 176.0
213.186096 128.0
213.264572 160.0
213.409927 76.0
213.432755 160.0
213.45752 76.0
213.514908 156.0
213.548492 76.0
213.573898 136.0
213.623138 116.0
213.648071 140.0
213.658646 124.0
213.67009 80.0
213.759537 204.0
213.808441 188.0
213.883743 124.0
213.93338 104.0
213.985062 260.0
214.042877 62584.0
214.129028 76.0
214.198593 80.0
214.23407 112.0
214.263306 224.0
214.309296 68.0
214.33844 40.0
214.361755 100.0
214.383453 136.0
214.426239 124.0
214.471451 72.0
214.495544 116.0
214.52153 300.0
214.559952 144.0
214.602402 176.0
214.667694 172.0
214.712967 92.0
214.785522 108.0
214.83992 152.0
214.868027 44.0
214.906448 164.0
214.97496 176.0
215.044556 7884.0
215.085037 172.0
215.128815 236.0
215.18428 200.0
215.222244 32.0
215.280991 68.0
215.321579 204.0
215.353653 160.0
215.379868 140.0
215.422348 108.0
215.473419 136.0
215.552307 60.0
215.609024 148.0
215.677979 180.0
215.707214 28.0
215.727676 76.0
215.804062 156.0
215.832932 40.0
215.921448 104.0
215.955078 156.0
216.039566 18556.0
216.132004 104.0
216.210281 128.0
216.233582 104.0
216.321503 48.0
216.358887 104.0
216.385818 288.0
216.415192 160.0
216.444473 52.0
216.467896 36.0
216.542282 140.0
216.570404 120.0
216.650986 180.0
216.697098 236.0
216.74324 152.0
216.772552 72.0
216.851669 92.0
216.910294 68.0
217.041779 1752.0
217.150726 64.0
217.206451 100.0
217.323807 44.0
217.368759 68.0
217.543915 196.0
217.608505 88.0
217.646667 88.0
217.673813 120.0
217.711273 52.0
217.792038 100.0
217.818237 144.0
217.861069 108.0
217.893387 72.0
217.937454 80.0
218.010925 172.0
218.040314 96.0
218.084396 136.0
218.119659 76.0
218.217896 136.0
218.303421 112.0
218.354889 148.0
218.377075 168.0
218.534653 108.0
218.583878 176.0
218.624893 144.0
218.712219 84.0
218.852203 136.0
219.006226 160.0
219.099594 192.0
219.208618 36.0
219.347137 172.0
219.423782 112.0
219.476852 184.0
219.951828 44.0
220.007919 180.0
220.064011 184.0
220.663788 32.0
220.918121 84.0
221.00676 100.0
221.043915 64.0
221.163727 196.0
221.412415 188.0
221.590744 200.0
221.767944 160.0
221.960648 152.0
221.993256 72.0
222.043671 104.0
222.073334 88.0
222.174194 52.0
222.515488 124.0
222.631287 64.0
222.705536 188.0
222.753067 92.0
222.984818 36.0
223.045792 816.0
223.207779 44.0
223.329712 136.0
223.549866 164.0
223.683792 108.0
223.749298 140.0
223.844574 36.0
223.924973 116.0
224.017319 232.0
224.05397 3828.0
224.324249 128.0
224.553833 292.0
224.574722 48.0
224.77951 68.0
224.90889 80.0
225.055847 852.0
225.252289 124.0
225.54213 64.0
225.709549 176.0
225.772339 160.0
225.793274 44.0
225.886002 32.0
225.909927 68.0
225.984726 144.0
226.054581 172.0
226.196075 96.0
226.266052 112.0
226.757309 196.0
227.051117 136.0
227.723389 68.0
227.75943 48.0
227.885605 136.0
227.936691 108.0
227.958725 152.0
227.981766 212.0
228.060532 188.0
228.159103 108.0
228.261337 80.0
228.366592 120.0
228.610275 172.0
228.69455 112.0
229.251709 200.0
229.314987 40.0
229.541092 164.0
229.761276 120.0
230.034958 952.0
230.186844 68.0
230.262344 48.0
230.39827 104.0
230.597702 112.0
230.649094 64.0
230.757919 100.0
230.93779 232.0
230.991577 168.0
231.051285 120.0
231.114594 160.0
231.366028 52.0
231.408539 176.0
231.512344 136.0
231.553757 84.0
231.935516 76.0
231.965836 144.0
232.001694 676.0
232.029449 376.0
232.202332 104.0
232.384338 140.0
232.545166 112.0
232.709091 44.0
232.79715 32.0
232.836639 136.0
232.88826 180.0
232.92775 96.0
233.006577 10332.0
233.08194 48.0
233.115936 128.0
233.152588 52.0
233.216415 96.0
233.245728 68.0
233.308914 64.0
233.350174 144.0
233.42923 44.0
233.62793 108.0
233.834518 96.0
233.959763 136.0
234.004974 1400.0
234.044662 172.0
234.102905 156.0
234.251968 160.0
234.345413 180.0
234.375885 208.0
234.400269 152.0
234.445969 164.0
234.4673 56.0
234.609833 84.0
234.869766 40.0
234.964325 128.0
235.004303 4556.0
235.058258 188.0
235.1465 84.0
235.38858 136.0
235.42218 124.0
235.761276 108.0
235.862122 32.0
235.972183 276.0
236.009491 312.0
236.062622 248.0
236.103668 88.0
236.125076 56.0
236.278015 212.0
236.35144 96.0
236.38205 60.0
236.858154 148.0
236.942368 124.0
237.057449 352.0
237.221237 136.0
237.319336 144.0
237.570831 132.0
237.604568 80.0
237.761063 124.0
237.820908 72.0
238.018921 136.0
238.067795 6696.0
238.246201 68.0
238.270782 52.0
238.323013 148.0
238.347153 212.0
238.409042 136.0
238.445923 32.0
238.51355 136.0
238.602692 88.0
238.713379 28.0
238.873322 136.0
238.916031 172.0
238.94339 236.0
239.012695 144.0
239.076859 24376.0
239.139206 212.0
239.202576 28.0
239.235107 68.0
239.2939 120.0
239.36882 44.0
239.545822 68.0
239.710754 52.0
239.778549 92.0
239.867935 192.0
240.074585 2608.0
240.159393 44.0
240.271912 172.0
240.321274 88.0
240.395142 68.0
240.424652 64.0
240.506439 100.0
240.543472 136.0
240.91095 104.0
240.96347 112.0
241.022171 76.0
241.065613 3368.0
241.224655 124.0
241.269424 44.0
241.380737 68.0
241.464233 172.0
241.538467 60.0
241.581772 36.0
241.606522 92.0
241.715286 52.0
241.742661 96.0
241.826477 48.0
241.866455 60.0
241.894318 104.0
241.927231 160.0
241.99028 112.0
242.055313 728.0
242.107956 152.0
242.207062 48.0
242.228745 56.0
242.358871 60.0
242.391815 152.0
242.482819 44.0
242.575806 44.0
242.799042 72.0
242.83316 104.0
243.060745 608.0
243.118576 192.0
243.149811 100.0
243.213242 176.0
243.360703 60.0
243.432114 44.0
243.640213 144.0
243.910568 52.0
244.000153 108.0
244.059799 96.0
244.246399 40.0
244.358383 52.0
244.569992 60.0
244.654984 184.0
244.921844 216.0
245.006195 260.0
245.35141 80.0
245.383057 68.0
245.463242 96.0
245.507782 68.0
245.747955 76.0
245.7854 144.0
245.844696 172.0
245.880753 108.0
245.904648 180.0
245.937607 140.0
246.01416 35768.0
246.096756 64.0
246.131882 116.0
246.184219 128.0
246.214584 68.0
246.244293 48.0
246.274948 64.0
246.284668 52.0
246.302994 188.0
246.349396 136.0
246.48172 120.0
246.503601 32.0
246.531723 44.0
246.614807 68.0
246.694244 72.0
246.756775 116.0
246.871689 64.0
246.909988 52.0
247.016754 3740.0
247.132095 124.0
247.191544 52.0
247.27916 108.0
247.353622 104.0
247.416901 100.0
247.476379 36.0
247.520218 88.0
247.605743 192.0
247.738861 236.0
247.780182 64.0
247.968201 160.0
248.011353 10060.0
248.062897 68.0
248.091766 92.0
248.143387 36.0
248.181366 128.0
248.320389 104.0
248.344437 44.0
248.382065 116.0
248.418182 156.0
248.466766 48.0
248.534225 88.0
248.60202 116.0
248.683289 28.0
248.705261 136.0
248.727234 88.0
248.780594 72.0
248.86525 112.0
249.018417 796.0
249.104828 64.0
249.364838 76.0
249.424561 36.0
249.496857 40.0
249.569489 40.0
249.606903 52.0
249.729553 56.0
249.78302 88.0
249.899429 44.0
249.939835 76.0
249.990677 188.0
250.044174 168.0
250.08194 60.0
250.138596 172.0
250.406235 108.0
250.453476 48.0
250.513321 56.0
250.812683 68.0
250.878876 148.0
250.919861 52.0
250.982925 80.0
251.857101 40.0
251.939224 112.0
251.964493 32.0
252.049805 80.0
252.441772 56.0
253.084122 64.0
253.730453 80.0
253.88266 184.0
256.330414 64.0
256.802246 84.0
257.003906 244.0
257.475647 108.0
258.009552 232.0
258.837921 40.0
259.019928 92.0
259.421051 184.0
259.645477 32.0
259.921356 124.0
260.012024 152.0
260.287292 56.0
260.48642 96.0
262.028198 176.0
262.565674 112.0
265.155304 168.0
266.128448 120.0
267.786926 56.0
268.102936 168.0
268.523499 184.0
272.031494 744.0
272.793243 96.0
273.039764 136.0
273.582764 96.0
273.849487 144.0
273.918671 100.0
273.951599 172.0
274.04361 2544.0
274.145996 100.0
274.241577 88.0
275.048645 696.0
275.185028 44.0
275.683807 92.0
275.782959 92.0
276.039917 760.0
276.18634 128.0
277.045044 260.0
277.182831 120.0
277.302124 44.0
279.028259 80.0
281.26355 68.0
284.940491 52.0
285.121948 124.0
285.404327 48.0
286.08728 76.0
288.039764 148.0
289.443298 76.0
290.470184 36.0
292.114288 96.0
294.093994 136.0
294.182739 68.0
299.4599 60.0
300.704529 108.0
304.07901 148.0
304.568573 88.0
306.067474 140.0
307.615417 80.0
307.664276 72.0
308.527191 148.0
317.644562 112.0
318.475128 84.0
318.894409 52.0
319.011688 176.0
319.101807 1996.0
319.200134 44.0
320.102112 388.0
320.545685 48.0
320.58725 72.0
321.098389 308.0
321.34436 52.0
322.095703 148.0
323.485046 68.0
325.449677 112.0
325.988495 60.0
331.513367 120.0
336.912933 80.0
343.391724 28.0
345.286377 60.0
349.519073 104.0
359.241608 76.0
362.345367 104.0
366.151489 64.0
370.276154 148.0
371.479706 80.0
378.796204 88.0
378.924042 92.0
379.540314 52.0
383.365326 108.0
383.759003 152.0
385.003784 92.0
386.082397 76.0
388.471619 72.0
391.631958 104.0
397.268707 108.0
401.536682 120.0
402.642181 76.0
403.613251 52.0
407.517212 76.0
408.445862 120.0
421.56192 36.0
421.978851 64.0
440.870056 88.0
442.77356 64.0
445.088348 112.0
450.052673 36.0
455.549896 76.0
455.996063 124.0
456.382904 68.0
458.570984 32.0
466.107208 36.0
466.218933 72.0
467.405792 112.0
471.411743 52.0
473.358337 84.0
473.393005 48.0
475.63446 60.0
477.602814 80.0
483.291534 44.0
483.891144 112.0
490.692261 72.0
497.394348 64.0
513.791138 44.0
517.841309 96.0
521.711853 136.0
524.29718 52.0
528.983398 116.0
533.428406 68.0
540.438416 68.0
542.434448 52.0
561.988281 128.0
562.545166 36.0
571.450134 32.0
577.168945 88.0
577.695068 72.0
577.809875 72.0
581.034119 60.0
585.263611 28.0
599.666016 76.0
608.102905 100.0
611.656555 112.0
621.20343 36.0
621.416748 88.0
623.065063 100.0
630.124634 68.0
684.32605 144.0
695.838867 40.0
713.41571 68.0
724.681946 120.0
741.391907 72.0
745.125061 100.0
751.369568 104.0
753.618958 88.0
753.941406 68.0
788.735596 52.0
802.388123 36.0
832.718933 40.0
843.20459 136.0
846.409424 180.0
881.390015 112.0
884.690247 80.0
901.522766 48.0
927.269043 216.0
928.166199 28.0
931.728943 204.0
947.487305 72.0
972.101562 156.0
979.456421 60.0
1007.06781 148.0
1029.442139 68.0
1041.636719 36.0
1042.465454 40.0
1046.955688 80.0
1047.36792 52.0
1065.448364 96.0
1066.858643 240.0
1072.710938 192.0
1076.52771 76.0
1077.768799 184.0
1089.194214 152.0
1096.622681 56.0
1097.308228 60.0
1109.618652 52.0
1114.463745 60.0
1123.605103 116.0
1125.821045 124.0
1131.745605 152.0
1156.749756 72.0
1163.875122 132.0
1167.503784 120.0
1172.909668 144.0
1178.047974 176.0
1186.259644 160.0
1189.071899 108.0
1196.688354 192.0
1196.963745 136.0
1202.678955 148.0
1205.116699 180.0
1224.595947 152.0
1228.792358 236.0
1235.653076 160.0
1236.408813 84.0
1241.97876 200.0
1242.158936 64.0
1249.29126 144.0
1266.677856 196.0
1267.095825 176.0
1276.315552 196.0
1277.197388 192.0
1286.660767 200.0
1286.989136 136.0
1297.614014 148.0
1297.678589 140.0
1301.890503 144.0
1306.620117 168.0
1315.188232 144.0
1320.231079 96.0
1321.54895 168.0
1326.008301 104.0
1341.920532 92.0
1342.737305 188.0
1343.116577 176.0
1346.773438 188.0
1347.869263 112.0
1349.235962 168.0
1351.85083 176.0
1353.860352 188.0
1358.661255 108.0
1363.933716 192.0
1369.172241 124.0
1373.373291 116.0
1380.404053 120.0
1383.741089 68.0
1400.359985 132.0
1405.257446 92.0
1413.274536 124.0
1417.1604 148.0
1428.714844 104.0
1429.421997 100.0
1431.462036 64.0
1432.584229 168.0
1434.762085 76.0
1435.289917 176.0
1435.53125 44.0
1437.379272 88.0
1438.035889 164.0
1439.213501 32.0
1445.888306 116.0
1446.652832 84.0
1455.310669 108.0
1456.434692 176.0
1460.889038 96.0
1461.642334 116.0
1465.624634 188.0
1465.959839 60.0
1470.558594 200.0
1473.94165 228.0
1475.3479 140.0
1475.753052 128.0
1483.071533 140.0
1484.252197 216.0
1488.480103 216.0
1491.583862 92.0
1492.491089 124.0
1496.161011 144.0
1501.701294 184.0
1501.801636 192.0
