>compound NCGC00160283-01!1-(8-Quinolinyl)-beta-carboline
>formula C20H13N3
>ionization [M+H]+
>parentmass 296.118866
#inchi InChI=1S/C20H13N3/c1-2-9-17-14(7-1)15-10-12-22-19(20(15)23-17)16-8-3-5-13-6-4-11-21-18(13)16/h1-12,23H
#inchikey JDCUZDZHEYRJMU
#Ion_Source LC-ESI
#Instrument qTOF
#Compound_Source Prestwick Phytochem Lib
#PI Dorrestein
#Data_Collector VVP/LMS
#Scan -1
#Precursor_MZ 296.119
#ExactMass 295.111
#Charge 1
#CAS_Number N/A
#Pubmed_ID N/A
#Smiles N1C2=CC=CC=C2C3=C1C(=NC=C3)C4=CC=CC5=CC=CN=C45
#INCHI_AUX N/A
#Library_Class 1
#SpectrumID CCMSLIB00000078705
#IonMode Positive
#UpdateWorkflowName UPDATE-SINGLE-ANNOTATED-GOLD
#LibraryQualityString Gold
#TaskID 67c915c6594c435cadc1fe2b5358144d
##Scan# 1632
#SpectrumFile p1-E02_GE2_01_17922.mzXML
#LibraryName phytochem_lib.mgf
#MQScore -1
#Organism phytochem_lib
#TIC_Query 0
#RT_Query -1
#MZErrorPPM -1
#SharedPeaks 0
#MassDiff 0
#LibMZ -1
#SpecMZ 296.119
#SpecCharge 0
#internalFilename spec-00000.mgf

>collision 10
94.948273 40.0
94.969604 152.0
95.0084 120.0
95.058846 136.0
95.080193 132.0
95.142075 204.0
95.18502 120.0
95.309326 56.0
95.359856 164.0
95.383179 164.0
95.398727 156.0
95.470673 132.0
95.606842 72.0
95.622414 192.0
95.639931 152.0
95.674973 48.0
95.794853 164.0
95.82103 124.0
95.955505 80.0
96.019852 236.0
96.092026 128.0
96.125198 208.0
96.216927 176.0
96.252075 140.0
96.279091 168.0
96.297577 180.0
96.341919 176.0
96.36731 148.0
96.463074 212.0
96.48262 132.0
96.666473 156.0
96.680168 140.0
96.756508 148.0
96.826996 128.0
97.003334 160.0
97.064117 40.0
97.214851 180.0
97.264221 140.0
97.336861 192.0
97.599258 228.0
97.668991 64.0
97.704399 76.0
97.790977 128.0
97.850029 204.0
97.892639 200.0
97.92289 72.0
97.946526 212.0
98.013504 60.0
98.078537 132.0
98.198807 164.0
98.218536 124.0
98.248123 168.0
98.301392 140.0
98.362579 152.0
98.427727 164.0
98.492897 76.0
98.520554 184.0
98.556114 60.0
98.612801 64.0
98.720177 140.0
98.795334 196.0
98.828972 184.0
98.925941 160.0
99.133904 204.0
99.175522 240.0
99.225403 148.0
99.292496 116.0
99.367874 156.0
99.470467 184.0
99.502831 216.0
99.536583 220.0
99.562401 148.0
99.629929 196.0
99.725311 192.0
99.757111 60.0
99.826019 200.0
99.874428 180.0
99.91819 156.0
99.938087 132.0
100.075424 176.0
100.218826 136.0
100.234764 140.0
100.280602 196.0
100.318474 132.0
100.372299 204.0
100.426147 108.0
100.57579 192.0
100.58976 108.0
100.605728 172.0
100.845428 208.0
100.901398 120.0
101.009384 144.0
101.036171 248.0
101.057396 136.0
101.089409 80.0
101.117897 188.0
101.186287 160.0
101.261581 128.0
101.294609 104.0
101.3377 88.0
101.401817 204.0
101.415848 156.0
101.494034 180.0
101.546173 108.0
101.570244 204.0
101.634438 176.0
101.919556 112.0
101.957733 120.0
102.038139 160.0
102.08036 116.0
102.188972 132.0
102.227203 276.0
102.297646 156.0
102.437378 72.0
102.591759 192.0
102.634842 244.0
102.684509 60.0
102.712746 136.0
102.813629 188.0
102.930061 188.0
102.957748 236.0
103.016068 120.0
103.068062 156.0
103.181244 180.0
103.212135 72.0
103.288422 140.0
103.355179 120.0
103.397675 108.0
103.51104 176.0
103.56572 132.0
103.585976 276.0
103.626488 188.0
103.660934 180.0
103.69944 192.0
103.845421 64.0
103.879898 176.0
103.895203 176.0
103.910332 156.0
103.936707 132.0
104.044273 148.0
104.086906 148.0
104.135651 104.0
104.200653 56.0
104.300224 156.0
104.328682 160.0
104.389679 164.0
104.448654 104.0
104.525963 232.0
104.674561 76.0
104.71936 176.0
104.755936 180.0
104.798805 96.0
104.866058 116.0
105.01693 200.0
105.092407 168.0
105.169952 144.0
105.239365 64.0
105.314117 196.0
105.427895 160.0
105.466118 116.0
105.560158 108.0
105.59697 132.0
105.619469 152.0
105.657875 160.0
105.713577 144.0
105.72995 96.0
105.771339 72.0
105.813873 116.0
105.908066 144.0
106.026901 60.0
106.07814 148.0
106.164253 136.0
106.439217 196.0
106.688988 176.0
106.813255 136.0
106.827652 64.0
106.862564 124.0
106.957291 120.0
107.019051 116.0
107.087006 160.0
107.117905 184.0
107.171463 104.0
107.29306 164.0
107.387917 132.0
107.427109 268.0
107.451859 132.0
107.513763 132.0
107.542656 120.0
107.594261 136.0
107.627296 160.0
107.672943 192.0
107.844208 128.0
107.900017 144.0
107.949638 140.0
108.205544 100.0
108.307678 100.0
108.380188 148.0
108.409195 208.0
108.444427 64.0
108.623543 176.0
108.658012 92.0
108.695358 44.0
108.711952 148.0
108.807434 200.0
108.997627 184.0
109.042152 140.0
109.12738 160.0
109.210022 308.0
109.250084 184.0
109.341637 176.0
109.36245 156.0
109.514442 160.0
109.640587 160.0
109.685295 168.0
109.738441 276.0
109.795799 124.0
109.812485 120.0
109.914703 136.0
109.968956 168.0
110.048286 176.0
110.068222 160.0
110.213287 100.0
110.298973 172.0
110.427948 204.0
110.690193 196.0
110.8452 116.0
110.882919 208.0
110.897591 192.0
110.920647 192.0
110.937416 216.0
111.0905 172.0
111.282616 172.0
111.302467 76.0
111.331863 168.0
111.434792 156.0
111.518845 116.0
111.544067 124.0
111.598724 120.0
111.630264 152.0
111.655502 140.0
111.697571 160.0
111.761703 156.0
111.809082 168.0
112.013306 72.0
112.050751 160.0
112.091263 152.0
112.129189 140.0
112.304184 64.0
112.50386 164.0
112.525795 212.0
112.680161 180.0
112.717957 104.0
112.762337 132.0
112.781357 84.0
113.003403 104.0
113.038437 440.0
113.109207 196.0
113.138847 140.0
113.314621 164.0
113.346405 228.0
113.52446 184.0
113.878876 60.0
113.900116 208.0
113.946854 136.0
113.965508 128.0
114.03904 208.0
114.089241 172.0
114.223206 332.0
114.244476 184.0
114.274261 128.0
114.297668 192.0
114.331718 112.0
114.429626 128.0
114.48925 148.0
114.551018 108.0
114.659683 300.0
114.685257 180.0
114.75354 116.0
114.802513 176.0
114.832367 136.0
114.849434 156.0
114.943298 200.0
114.970894 216.0
115.008301 148.0
115.025246 352.0
115.054779 38664.0
115.121765 196.0
115.174988 160.0
115.19342 140.0
115.257179 92.0
115.291786 144.0
115.309494 100.0
115.333153 164.0
115.361275 68.0
115.404488 256.0
115.433945 144.0
115.464531 96.0
115.505173 72.0
115.541252 208.0
115.584328 196.0
115.612862 216.0
115.630081 116.0
115.676353 84.0
115.712746 68.0
115.746254 80.0
115.768417 144.0
115.796257 96.0
115.868454 176.0
115.896942 44.0
115.929085 56.0
115.963371 52.0
116.057571 2664.0
116.118561 52.0
116.141327 80.0
116.199249 80.0
116.222916 124.0
116.255035 152.0
116.291519 176.0
116.323715 112.0
116.362358 68.0
116.383827 40.0
116.437515 80.0
116.456841 40.0
116.484764 192.0
116.547066 120.0
116.706764 160.0
116.729774 36.0
116.753426 252.0
116.846031 152.0
116.895409 204.0
116.916138 120.0
116.931992 120.0
116.998718 52.0
117.062653 184.0
117.104225 212.0
117.123611 92.0
117.177467 172.0
117.293831 128.0
117.354195 140.0
117.492226 48.0
117.832634 112.0
118.012711 184.0
118.038658 156.0
118.069229 148.0
118.148964 132.0
118.179253 164.0
118.259323 132.0
118.326424 124.0
118.389221 148.0
118.536522 220.0
118.642723 136.0
118.720779 176.0
118.744637 160.0
118.794525 148.0
118.965958 208.0
119.207039 160.0
119.313538 148.0
119.352669 176.0
119.430962 148.0
119.44619 200.0
119.502747 116.0
119.635506 88.0
119.790115 80.0
119.818436 128.0
119.853294 196.0
119.966621 160.0
119.98188 96.0
120.047295 100.0
120.219627 184.0
120.235992 152.0
120.289467 72.0
120.538445 224.0
120.632423 208.0
120.663948 116.0
120.842361 92.0
120.870811 72.0
121.037163 156.0
121.05468 208.0
121.116005 140.0
121.133522 108.0
121.175148 204.0
121.19706 196.0
121.218971 188.0
121.405296 48.0
121.425034 144.0
121.453552 168.0
121.510582 172.0
121.580803 148.0
121.600548 72.0
121.620308 140.0
121.646645 208.0
121.773994 168.0
122.017906 128.0
122.046486 144.0
122.129913 128.0
122.240051 112.0
122.264259 168.0
122.355103 176.0
122.431572 196.0
122.510864 108.0
122.592384 204.0
122.693771 184.0
122.828285 140.0
122.89888 212.0
122.929771 192.0
123.219017 196.0
123.245529 40.0
123.422356 180.0
123.473213 60.0
123.637093 212.0
123.816246 160.0
123.884911 216.0
123.93808 124.0
123.960236 136.0
123.975746 196.0
124.45266 136.0
124.510391 112.0
124.559258 120.0
124.67923 248.0
124.703674 172.0
124.739769 184.0
124.912872 140.0
125.21093 164.0
125.311172 108.0
125.40699 140.0
125.520454 196.0
125.53849 172.0
125.705826 196.0
125.832329 148.0
125.891106 128.0
126.118988 216.0
126.228531 144.0
126.300095 244.0
126.407478 196.0
126.423149 136.0
126.499245 132.0
126.597755 52.0
126.636742 236.0
126.774872 184.0
126.835243 152.0
126.859894 144.0
127.014618 140.0
127.057243 204.0
127.075188 168.0
127.108849 136.0
127.164948 252.0
127.333328 104.0
127.452957 236.0
127.467186 192.0
127.540031 132.0
127.567009 160.0
127.663689 100.0
127.729797 160.0
127.79319 216.0
127.931427 80.0
127.947189 160.0
128.050095 1356.0
128.080048 60.0
128.140869 128.0
128.217484 200.0
128.366272 116.0
128.51062 168.0
128.53093 88.0
128.567032 248.0
128.808609 144.0
129.05632 488.0
129.079819 144.0
129.296982 144.0
129.444122 128.0
129.557373 132.0
129.702393 144.0
129.836166 184.0
129.913284 112.0
129.965469 116.0
130.064575 2808.0
130.135696 116.0
130.256531 188.0
130.374191 164.0
130.403732 296.0
130.465118 56.0
130.502747 144.0
130.546967 100.0
130.674332 84.0
130.724396 136.0
130.804047 44.0
130.840469 164.0
130.88829 132.0
130.999878 120.0
131.070343 364.0
131.125198 44.0
131.141159 124.0
131.168503 180.0
131.355484 176.0
131.498871 128.0
131.558578 184.0
131.659042 180.0
131.733276 128.0
131.784683 232.0
131.889801 36.0
131.990387 124.0
132.045273 184.0
132.104736 240.0
132.226013 152.0
132.24202 112.0
132.331299 116.0
132.363358 120.0
132.443512 136.0
132.617645 168.0
132.693298 240.0
132.819412 244.0
132.858414 96.0
132.91806 160.0
132.968552 100.0
133.023636 112.0
133.0466 152.0
133.124664 56.0
133.32222 176.0
133.365891 52.0
133.423355 212.0
133.460144 204.0
133.542923 156.0
133.616531 180.0
133.648743 164.0
133.671753 108.0
133.807556 148.0
133.842087 148.0
133.904266 260.0
134.026947 172.0
134.061127 176.0
134.219971 188.0
134.253006 172.0
134.28685 168.0
134.375717 136.0
134.408813 184.0
134.531433 212.0
134.60762 128.0
134.63533 268.0
134.7901 104.0
134.864059 136.0
134.942123 192.0
135.021271 76.0
135.125366 140.0
135.164688 116.0
135.236435 220.0
135.281677 116.0
135.398132 200.0
135.451767 148.0
135.47261 116.0
135.558334 152.0
135.685822 272.0
135.752335 152.0
136.43103 280.0
136.45195 132.0
136.482849 124.0
136.578568 248.0
136.600784 224.0
136.819534 28.0
136.835831 52.0
137.054184 192.0
137.220245 40.0
137.238892 224.0
137.26976 168.0
137.332169 116.0
137.416153 128.0
137.691589 216.0
137.724289 128.0
137.860672 148.0
137.920563 116.0
137.941589 120.0
137.993973 148.0
138.133331 176.0
138.152054 132.0
138.205856 192.0
138.294785 156.0
138.414185 212.0
138.46492 116.0
138.483871 84.0
138.580475 148.0
138.683594 132.0
138.93132 208.0
138.993149 100.0
139.267807 176.0
139.291626 200.0
139.326538 112.0
139.398956 180.0
139.429916 112.0
139.563919 176.0
139.657974 180.0
139.716782 192.0
139.755142 196.0
139.900345 228.0
139.938004 84.0
139.966263 328.0
139.995163 204.0
140.049393 22956.0
140.10994 28.0
140.136917 124.0
140.230637 72.0
140.277252 148.0
140.299698 76.0
140.321091 120.0
140.337097 216.0
140.383347 100.0
140.414001 72.0
140.513077 188.0
140.533386 196.0
140.553177 132.0
140.635773 144.0
140.671188 72.0
140.973495 84.0
141.053787 4580.0
141.124771 88.0
141.146057 80.0
141.247742 140.0
141.30452 64.0
141.380234 40.0
141.415741 120.0
141.49353 148.0
141.579102 80.0
141.643036 96.0
141.664368 164.0
141.747284 176.0
141.856308 144.0
141.896606 132.0
142.017548 460.0
142.064529 9596.0
142.150391 140.0
142.174133 52.0
142.214478 128.0
142.23175 144.0
142.271118 180.0
142.342667 168.0
142.45192 44.0
142.568344 120.0
142.613495 108.0
142.643417 136.0
142.696701 140.0
142.93454 160.0
142.965469 196.0
143.001175 132.0
143.039261 108.0
143.068451 1724.0
143.124954 236.0
143.165436 92.0
143.232132 52.0
143.296448 44.0
143.358398 104.0
143.491882 72.0
143.513336 44.0
143.549103 180.0
143.589645 112.0
143.775726 60.0
143.856873 164.0
143.90567 292.0
143.997757 96.0
144.046814 192.0
144.069473 156.0
144.111481 112.0
144.179321 88.0
144.243073 148.0
144.432755 88.0
144.557159 140.0
144.746262 92.0
144.800201 252.0
144.861221 56.0
144.906738 204.0
145.057709 64.0
145.319107 36.0
145.355103 140.0
145.417496 148.0
145.46991 172.0
145.566025 156.0
145.623978 204.0
145.789734 176.0
146.062378 140.0
146.161789 128.0
146.198563 100.0
146.237061 244.0
146.475433 172.0
146.492294 96.0
146.612762 80.0
146.629639 336.0
146.6465 108.0
146.663376 164.0
146.873993 160.0
147.143417 216.0
147.672607 92.0
147.77179 140.0
148.045303 112.0
148.113129 180.0
148.202759 52.0
148.364059 176.0
148.391891 208.0
148.452423 128.0
148.813965 292.0
148.879517 120.0
148.945099 92.0
149.173508 132.0
149.294464 64.0
149.319397 188.0
149.348587 68.0
149.570007 268.0
149.798889 68.0
149.820816 148.0
149.893906 116.0
149.913406 140.0
149.988953 172.0
150.010895 112.0
150.045013 56.0
150.120087 208.0
150.327957 156.0
150.362122 80.0
150.401169 140.0
150.755035 188.0
150.806625 44.0
150.901947 172.0
151.148987 80.0
151.175903 176.0
151.229752 100.0
151.386429 140.0
151.756424 140.0
151.780945 136.0
151.854507 168.0
151.932999 156.0
151.964905 160.0
152.007507 104.0
152.029144 144.0
152.048065 152.0
152.102325 116.0
152.180878 228.0
152.232452 132.0
152.399475 176.0
152.490402 160.0
152.655106 108.0
152.716599 256.0
152.79039 148.0
152.851456 112.0
152.987259 160.0
153.041428 96.0
153.332092 144.0
153.450409 260.0
153.495911 212.0
153.56366 156.0
153.670715 172.0
153.77356 112.0
153.795776 208.0
153.815521 132.0
153.8871 132.0
153.924149 164.0
154.0625 200.0
154.111862 124.0
154.213181 160.0
154.230484 136.0
154.335083 192.0
154.46785 188.0
154.519806 180.0
154.715317 88.0
154.804443 168.0
154.836639 168.0
154.866364 64.0
154.913422 84.0
154.981644 128.0
155.000137 164.0
155.019958 196.0
155.059982 2316.0
155.143387 140.0
155.193466 104.0
155.240585 156.0
155.25795 168.0
155.322433 116.0
155.441513 144.0
155.508514 72.0
155.568085 144.0
155.669876 136.0
155.687271 72.0
155.70961 164.0
155.7547 184.0
155.786621 56.0
155.876053 168.0
156.05809 120.0
156.229111 128.0
156.316193 56.0
156.370941 144.0
156.654785 212.0
156.756943 372.0
156.786835 132.0
156.838287 200.0
156.931412 84.0
157.001236 168.0
157.290649 120.0
157.349579 232.0
157.415482 208.0
157.492905 72.0
157.559204 156.0
157.802765 112.0
158.057343 128.0
158.173004 180.0
158.293182 172.0
158.320724 184.0
158.380829 232.0
158.546188 168.0
158.665115 184.0
158.711624 128.0
158.819458 188.0
158.969986 132.0
159.055328 284.0
159.097855 212.0
159.336578 168.0
159.356674 144.0
159.452164 176.0
159.479935 164.0
159.547668 108.0
159.65213 280.0
159.688492 136.0
159.746338 56.0
159.88472 112.0
159.975327 196.0
160.103745 116.0
160.254883 168.0
160.370789 160.0
160.50238 184.0
160.587631 136.0
160.635147 200.0
160.779358 108.0
160.877808 184.0
160.998993 116.0
161.132874 196.0
161.190567 172.0
161.686981 112.0
161.785339 88.0
162.106995 316.0
162.188095 192.0
162.284424 124.0
162.35289 184.0
162.467026 156.0
162.53299 184.0
162.558365 108.0
162.674561 128.0
162.774139 152.0
162.794449 188.0
162.860474 224.0
162.929062 120.0
163.01799 196.0
163.180008 200.0
163.282379 180.0
163.312897 124.0
163.361221 152.0
163.407227 100.0
163.462997 180.0
163.506256 128.0
163.656448 148.0
163.689545 132.0
163.95192 80.0
164.053879 216.0
164.209412 160.0
164.375229 80.0
164.41861 96.0
164.52327 208.0
164.576874 208.0
164.594757 180.0
164.648376 68.0
164.763321 152.0
164.824646 124.0
164.857864 148.0
164.878296 144.0
164.9422 144.0
165.048508 168.0
165.197906 76.0
165.21582 72.0
165.26442 116.0
165.315598 164.0
165.333511 128.0
165.458939 212.0
165.804733 104.0
166.051254 808.0
166.150879 116.0
166.215027 100.0
166.240677 136.0
166.29715 228.0
166.315109 192.0
166.374146 76.0
166.448608 108.0
166.512802 68.0
166.581421 192.0
166.615555 160.0
166.650162 220.0
166.677216 176.0
166.772293 132.0
166.806976 324.0
166.830582 248.0
166.859695 156.0
166.910004 156.0
166.943619 188.0
166.967056 224.0
167.015961 176.0
167.060471 44480.0
167.152161 124.0
167.183792 208.0
167.204376 148.0
167.227829 104.0
167.267059 168.0
167.285492 124.0
167.317627 44.0
167.335648 132.0
167.362686 56.0
167.382004 204.0
167.43866 68.0
167.481644 52.0
167.563629 120.0
167.616394 52.0
167.665359 64.0
167.752991 168.0
167.831131 104.0
167.897385 188.0
167.927139 168.0
167.948959 44.0
167.972183 48.0
168.019501 208.0
168.06369 3768.0
168.116653 52.0
168.13472 192.0
168.18634 64.0
168.204407 44.0
168.292175 148.0
168.45488 68.0
168.472961 172.0
168.503967 96.0
168.52916 160.0
168.625412 36.0
168.677109 32.0
168.727692 116.0
168.801086 176.0
168.837402 48.0
168.896393 116.0
168.95639 140.0
168.992615 140.0
169.013306 64.0
169.074326 580.0
169.116821 100.0
169.181534 96.0
169.201401 184.0
169.248581 116.0
169.281067 108.0
169.373154 80.0
169.393875 40.0
169.422379 108.0
169.448273 52.0
169.640045 196.0
169.691895 84.0
169.869736 124.0
169.90715 104.0
169.925323 72.0
170.008347 60.0
170.070847 200.0
170.138123 108.0
170.166687 104.0
170.296524 132.0
170.33548 72.0
170.392639 64.0
170.442001 80.0
170.465378 112.0
170.54335 112.0
170.720139 128.0
170.826767 168.0
171.003708 108.0
171.152084 92.0
171.206772 112.0
171.287506 112.0
171.323975 216.0
171.540268 164.0
171.641953 188.0
171.686279 156.0
172.13652 156.0
172.161224 144.0
172.195175 160.0
172.320557 176.0
172.351913 96.0
172.432922 200.0
172.486969 124.0
172.583511 192.0
172.626373 132.0
172.665604 132.0
172.840866 128.0
172.859192 204.0
172.935074 236.0
172.961258 168.0
173.023224 244.0
173.123581 196.0
173.140381 180.0
173.31218 192.0
173.368759 164.0
173.49826 68.0
173.516602 172.0
173.684433 124.0
173.747391 116.0
174.028214 132.0
174.070374 144.0
174.317139 176.0
174.524796 148.0
174.611572 64.0
174.724686 184.0
174.774673 172.0
174.811508 116.0
174.956268 168.0
175.001022 128.0
175.109146 132.0
175.21698 224.0
175.325012 164.0
175.488449 196.0
175.57283 144.0
175.766373 128.0
175.892075 44.0
175.946274 216.0
175.992386 136.0
176.064819 228.0
176.084808 164.0
176.208954 108.0
176.245956 60.0
176.330505 120.0
176.425659 168.0
176.483826 160.0
176.546997 180.0
176.576385 140.0
176.653091 260.0
176.676895 180.0
176.777435 100.0
176.888596 124.0
176.978607 64.0
177.163635 204.0
177.22493 124.0
177.296478 124.0
177.338882 132.0
177.415741 228.0
177.434311 112.0
177.694214 100.0
177.728699 168.0
177.775772 76.0
177.951645 124.0
178.148178 212.0
178.517609 84.0
178.538879 128.0
178.717102 100.0
178.754364 168.0
178.972946 148.0
179.059402 328.0
179.145737 44.0
179.183029 84.0
179.268295 140.0
179.364243 60.0
179.505539 88.0
179.769623 40.0
179.820328 176.0
179.913757 120.0
180.036575 144.0
180.068619 56.0
180.154099 228.0
180.544327 212.0
180.707489 180.0
180.728897 148.0
180.843964 116.0
181.261475 168.0
181.425232 164.0
181.47081 244.0
181.647797 120.0
181.674622 112.0
181.706818 176.0
181.736328 132.0
181.90004 108.0
182.079926 100.0
182.157822 164.0
182.399658 128.0
182.496429 128.0
182.628204 148.0
182.647034 68.0
182.697144 152.0
182.972641 176.0
183.126129 196.0
183.209625 100.0
183.241959 120.0
183.559998 120.0
183.638214 72.0
183.738007 172.0
183.808167 188.0
183.897217 168.0
184.259064 184.0
184.302292 160.0
184.323898 260.0
184.437408 176.0
184.482391 112.0
184.532028 172.0
184.575287 188.0
184.594208 164.0
184.702393 120.0
184.734848 140.0
184.821426 112.0
184.975677 160.0
185.038956 108.0
185.070129 2528.0
185.200424 36.0
185.232925 124.0
185.642181 196.0
185.712692 148.0
185.791351 120.0
185.897171 148.0
185.927017 156.0
186.080963 112.0
186.100739 200.0
186.146896 148.0
186.285416 112.0
186.380508 132.0
186.518051 156.0
186.655029 60.0
186.714859 128.0
187.076065 156.0
187.124771 168.0
187.286407 48.0
187.313644 156.0
187.373901 188.0
187.447144 88.0
187.507095 84.0
187.719727 136.0
187.768814 148.0
188.003433 148.0
188.080338 112.0
188.092407 20.0
188.098511 124.0
188.322861 120.0
188.574219 132.0
188.628876 176.0
188.765579 112.0
188.871918 148.0
188.907791 176.0
188.946091 136.0
188.976196 168.0
189.165024 144.0
189.260834 200.0
189.460892 188.0
189.562149 184.0
189.615555 172.0
189.710144 180.0
189.945969 200.0
190.116074 184.0
190.217621 196.0
190.747772 216.0
191.055344 112.0
191.075012 72.0
191.273148 112.0
191.427322 188.0
191.50444 100.0
191.551254 184.0
191.68074 200.0
191.724838 48.0
191.785477 156.0
191.807526 108.0
192.017059 52.0
192.064117 260.0
192.14119 132.0
192.201889 196.0
192.342636 116.0
192.417175 44.0
192.569046 116.0
192.737549 140.0
192.789291 172.0
192.856384 116.0
193.073532 244.0
193.102448 40.0
193.168839 64.0
193.290817 200.0
193.348679 76.0
193.456619 68.0
193.489853 156.0
193.929764 148.0
193.977402 132.0
194.063339 196.0
194.085098 120.0
194.163162 204.0
194.257477 108.0
194.321274 148.0
194.354568 124.0
194.498886 152.0
194.564056 136.0
194.684891 164.0
194.751556 128.0
194.876556 128.0
194.918228 116.0
195.024994 164.0
195.092133 220.0
195.135025 108.0
195.257385 100.0
195.360687 144.0
195.382233 180.0
195.624649 160.0
195.655273 164.0
195.736023 152.0
195.809067 104.0
195.827927 160.0
195.921356 180.0
196.020142 260.0
196.131622 152.0
196.332352 144.0
196.360245 132.0
196.460663 116.0
196.798355 172.0
196.94635 128.0
196.965912 140.0
197.013214 188.0
197.04184 212.0
197.080444 48.0
197.273285 148.0
197.357147 220.0
197.396301 120.0
197.57251 112.0
198.115601 132.0
198.208054 196.0
198.311737 156.0
198.343796 160.0
198.426666 52.0
198.552856 92.0
198.631378 156.0
198.875488 40.0
198.942856 208.0
199.015854 132.0
199.038315 196.0
199.209641 168.0
199.265823 140.0
199.296722 216.0
199.344498 164.0
199.55249 72.0
199.845001 148.0
200.064209 144.0
200.09549 160.0
200.253174 184.0
200.340485 144.0
200.518005 40.0
200.69278 144.0
200.741516 184.0
200.831894 132.0
200.929688 52.0
201.014328 84.0
201.178024 144.0
201.355911 116.0
201.443466 140.0
201.477371 160.0
201.511276 76.0
201.610168 152.0
201.675171 104.0
201.734528 116.0
201.813126 140.0
201.887207 164.0
202.014481 200.0
202.107849 152.0
202.232361 168.0
202.311615 140.0
202.339935 176.0
202.37674 32.0
202.495667 72.0
202.521164 140.0
202.651474 208.0
202.778992 108.0
202.818665 44.0
202.858353 124.0
203.150421 132.0
203.374588 112.0
203.462585 152.0
203.703018 144.0
203.834656 152.0
203.891495 104.0
204.591202 100.0
204.619675 108.0
204.890228 64.0
204.910172 128.0
205.078629 200.0
205.389069 188.0
205.483215 196.0
205.506042 188.0
205.631592 220.0
205.811432 204.0
205.89711 80.0
205.948517 212.0
206.031357 192.0
206.069443 228.0
206.126129 160.0
206.154205 128.0
206.177078 148.0
206.214233 76.0
206.277115 152.0
206.302841 28.0
206.354294 156.0
206.442932 132.0
206.502991 100.0
206.837753 152.0
206.941879 196.0
207.384827 120.0
207.430679 212.0
207.45076 208.0
207.50235 208.0
207.645721 76.0
207.764328 252.0
207.912537 172.0
208.061783 72.0
208.130692 96.0
208.162277 68.0
208.397812 116.0
208.471909 168.0
208.481491 132.0
208.48851 184.0
208.504639 204.0
208.721497 104.0
208.831879 160.0
209.001602 172.0
209.053406 176.0
209.148376 72.0
209.168518 164.0
209.341263 120.0
209.620682 132.0
209.802261 188.0
209.85704 196.0
210.027176 172.0
210.178528 104.0
210.234909 140.0
210.301285 176.0
210.324371 44.0
210.344589 124.0
210.373444 32.0
210.572449 148.0
210.630447 136.0
210.694 96.0
210.725784 140.0
210.806686 168.0
210.936737 168.0
210.982986 176.0
211.056427 208.0
211.115997 180.0
211.214325 160.0
211.384705 148.0
211.494995 192.0
211.610779 148.0
212.010513 140.0
212.181519 216.0
212.228607 192.0
212.254013 132.0
212.303299 80.0
212.329407 92.0
212.560852 204.0
212.629868 164.0
212.802383 196.0
213.0289 196.0
213.072479 148.0
213.127686 172.0
213.165466 152.0
213.24054 148.0
213.318832 156.0
213.505569 100.0
213.592834 108.0
213.918732 152.0
214.008987 132.0
214.056778 116.0
214.096344 172.0
214.271103 64.0
214.33812 180.0
214.568359 88.0
214.612106 128.0
214.679169 140.0
214.719986 124.0
214.75499 168.0
214.839584 124.0
215.052597 64.0
215.110962 132.0
215.137238 184.0
215.256943 176.0
215.291992 48.0
215.325424 128.0
215.572769 168.0
215.607498 92.0
215.750717 160.0
216.034378 176.0
216.081726 108.0
216.107513 168.0
216.239197 216.0
216.444122 308.0
216.480133 320.0
216.523178 368.0
216.546616 64.0
216.57782 152.0
216.725296 156.0
216.950974 132.0
217.085846 172.0
217.382111 172.0
217.429077 48.0
217.652161 180.0
217.837189 124.0
218.064377 352.0
218.366257 192.0
218.40155 108.0
218.428024 92.0
218.448624 136.0
218.589844 196.0
218.975479 196.0
219.007874 200.0
219.081238 168.0
219.122772 128.0
219.146332 176.0
219.284836 164.0
219.37915 100.0
219.43222 140.0
219.47644 88.0
219.517731 200.0
219.738937 196.0
220.007507 144.0
220.054733 128.0
220.140366 168.0
220.187622 156.0
220.246689 72.0
220.28804 128.0
220.338257 156.0
220.528214 240.0
220.655563 176.0
220.920639 96.0
220.982773 148.0
221.030106 216.0
221.089294 140.0
221.127762 280.0
221.231369 36.0
221.429749 144.0
221.456406 60.0
221.692963 160.0
221.700729 136.0
221.712357 224.0
221.889038 116.0
222.102539 176.0
222.158905 152.0
222.383759 252.0
222.613007 132.0
222.687256 132.0
222.749634 192.0
222.838745 116.0
222.95166 184.0
222.978409 184.0
223.017044 200.0
223.058655 64.0
223.162704 92.0
223.254883 64.0
223.2995 100.0
223.439301 324.0
223.475006 152.0
223.502716 204.0
223.56427 96.0
223.772629 196.0
224.004913 52.0
224.073425 128.0
224.124084 100.0
224.162811 208.0
224.279037 64.0
224.395309 148.0
224.696518 164.0
224.735306 112.0
224.762161 108.0
224.929291 60.0
225.054672 68.0
225.198013 248.0
225.221909 168.0
225.242813 164.0
225.275681 88.0
225.299576 88.0
225.427444 160.0
225.670166 132.0
225.822662 136.0
225.963257 112.0
225.984207 128.0
226.044037 116.0
226.124847 216.0
226.229599 156.0
226.355347 180.0
226.460846 176.0
226.62793 120.0
226.660889 136.0
226.840698 124.0
226.912643 164.0
226.993607 44.0
227.086563 136.0
227.2267 252.0
227.290558 300.0
227.434616 88.0
227.469955 144.0
227.506653 192.0
227.590714 232.0
227.779907 208.0
228.044327 144.0
228.083008 208.0
228.22168 168.0
228.303436 88.0
228.332947 200.0
228.480331 116.0
228.558563 236.0
228.826431 116.0
228.898697 144.0
229.000946 84.0
229.077728 252.0
229.151703 300.0
229.205444 396.0
229.245102 200.0
229.332504 152.0
229.516388 68.0
229.582733 88.0
229.634003 168.0
229.664169 124.0
229.953812 124.0
230.22551 116.0
230.322159 104.0
230.400696 56.0
230.439972 164.0
230.63942 108.0
230.666626 196.0
230.699875 156.0
230.820816 192.0
230.950851 152.0
230.975052 252.0
231.011353 124.0
231.074875 164.0
231.223145 152.0
231.312241 128.0
231.383575 176.0
231.43808 92.0
231.537994 116.0
231.566544 208.0
231.627548 204.0
231.840942 144.0
231.901566 148.0
231.97052 144.0
232.098602 176.0
232.128922 116.0
232.40799 200.0
232.44136 52.0
232.517227 156.0
232.690247 144.0
232.820816 196.0
232.8694 148.0
232.93927 116.0
233.036484 292.0
233.094208 188.0
233.230972 156.0
233.2948 172.0
233.322159 148.0
233.355606 176.0
233.39209 184.0
233.474197 92.0
233.608017 212.0
233.628784 160.0
233.735794 60.0
233.769272 196.0
233.827087 116.0
233.848389 128.0
234.046265 140.0
234.180252 64.0
234.338654 148.0
234.372177 52.0
234.423981 148.0
234.446991 172.0
234.603806 164.0
234.63269 92.0
234.798935 188.0
234.875183 232.0
234.936203 164.0
234.974487 148.0
235.076553 44.0
235.155899 100.0
235.335999 144.0
235.513123 100.0
235.620026 176.0
235.663391 168.0
235.699463 132.0
235.781982 120.0
235.843094 84.0
235.980667 140.0
236.028351 236.0
236.066284 84.0
236.118271 160.0
236.148849 256.0
236.228378 244.0
236.292618 84.0
236.378601 160.0
236.445618 96.0
236.552734 132.0
236.647644 140.0
236.71611 220.0
236.840561 196.0
237.119385 140.0
237.263443 44.0
237.484222 152.0
237.524094 192.0
237.643738 168.0
237.708176 96.0
237.732727 40.0
237.830933 104.0
237.932236 120.0
237.975204 184.0
238.128754 212.0
238.227036 104.0
238.279266 112.0
238.503586 176.0
238.570007 204.0
238.621552 204.0
238.811066 156.0
238.866425 76.0
238.955643 168.0
239.076004 168.0
239.189514 176.0
239.574432 124.0
239.645294 60.0
239.737213 168.0
240.084061 188.0
240.514923 116.0
240.715591 256.0
240.860748 60.0
240.919434 204.0
240.957413 164.0
241.018311 136.0
241.088211 756.0
241.247009 104.0
241.274826 132.0
241.321198 72.0
241.373764 180.0
241.407776 164.0
241.45726 116.0
241.492142 144.0
241.661423 80.0
241.744965 168.0
241.847092 168.0
241.884232 92.0
241.930664 160.0
242.008072 256.0
242.056854 224.0
242.093674 392.0
242.218658 156.0
242.308487 208.0
242.463425 144.0
242.562607 128.0
242.584305 104.0
242.643204 176.0
242.844757 216.0
242.895294 164.0
243.096207 324.0
243.201569 148.0
243.233521 176.0
243.328842 88.0
243.451904 208.0
243.527573 84.0
243.626968 248.0
243.692215 152.0
243.909744 52.0
243.99057 200.0
244.095566 368.0
244.142929 176.0
244.205124 144.0
244.242447 116.0
244.485123 92.0
244.553589 128.0
244.746597 96.0
244.849365 76.0
244.875381 192.0
245.269974 212.0
245.316727 156.0
245.515823 164.0
245.541229 132.0
245.656631 132.0
245.68782 200.0
245.765823 168.0
245.81015 136.0
245.940582 160.0
246.169205 160.0
246.305893 180.0
246.379913 184.0
246.415237 144.0
246.465225 56.0
246.489502 216.0
246.602722 152.0
246.712128 152.0
246.749634 132.0
246.81517 196.0
246.924744 188.0
246.999817 136.0
247.162491 120.0
247.290802 84.0
247.31897 240.0
247.415283 140.0
247.513062 156.0
247.609909 160.0
247.729156 212.0
247.757355 176.0
247.804352 132.0
247.841949 84.0
248.058197 196.0
248.227493 128.0
248.333038 256.0
248.534882 156.0
248.632156 96.0
248.748291 124.0
248.811081 36.0
248.874878 112.0
248.961792 208.0
249.156525 144.0
249.354492 252.0
249.381958 140.0
249.760071 144.0
249.791534 152.0
250.109772 144.0
250.210068 156.0
250.367493 144.0
250.391373 176.0
250.421036 56.0
250.808578 248.0
250.846405 108.0
250.933319 168.0
250.963058 188.0
251.070267 116.0
251.253204 72.0
251.451996 212.0
251.537216 180.0
251.59404 204.0
251.698227 156.0
251.732956 96.0
251.941422 164.0
251.9888 160.0
252.039352 48.0
252.07901 172.0
252.118347 88.0
252.598938 256.0
252.681992 204.0
252.71434 100.0
252.77562 132.0
252.883698 164.0
253.086304 392.0
253.497253 184.0
253.608185 172.0
253.7453 120.0
253.81665 40.0
253.868973 152.0
254.014862 96.0
254.090439 196.0
254.120651 220.0
254.211563 180.0
254.252823 156.0
254.389297 136.0
254.513123 128.0
254.535339 160.0
254.580536 156.0
254.608383 148.0
254.764023 168.0
254.808487 144.0
254.830734 112.0
254.894272 116.0
254.95784 188.0
255.008682 200.0
255.087845 1156.0
255.304352 72.0
255.329788 232.0
255.52063 184.0
255.597 148.0
255.7211 76.0
255.773483 172.0
255.819778 100.0
255.86116 172.0
255.93161 128.0
255.958603 212.0
256.097748 1648.0
256.154144 124.0
256.233765 132.0
256.278381 116.0
256.30069 168.0
256.43454 48.0
256.507843 236.0
256.762909 232.0
256.849457 144.0
256.872986 188.0
256.925568 132.0
256.951111 108.0
257.042694 176.0
257.104248 368.0
257.139374 120.0
257.20639 96.0
257.300507 116.0
257.391541 128.0
257.500122 136.0
257.557617 48.0
257.629852 256.0
257.865356 152.0
257.976227 92.0
258.088257 96.0
258.340759 164.0
258.40155 156.0
258.561554 152.0
258.705566 96.0
258.971344 204.0
258.993774 40.0
259.032196 132.0
259.06424 64.0
259.1315 128.0
259.394287 288.0
259.647583 188.0
259.713715 208.0
259.923615 200.0
259.952332 188.0
260.013306 136.0
260.186646 108.0
260.504578 152.0
260.751984 148.0
260.94162 144.0
260.996277 180.0
261.140991 108.0
261.36618 56.0
261.424103 176.0
261.469147 104.0
261.916687 148.0
262.12088 168.0
262.164764 104.0
262.248566 88.0
262.271118 148.0
262.345245 108.0
262.699982 140.0
262.7258 232.0
262.783844 108.0
263.009735 108.0
263.251892 136.0
263.561981 196.0
263.591064 112.0
263.626617 140.0
263.66861 160.0
263.700928 136.0
263.752655 100.0
264.176239 124.0
264.223602 164.0
264.367126 228.0
264.577515 188.0
264.756348 172.0
264.833344 104.0
264.862488 116.0
264.94986 156.0
265.098999 168.0
265.147614 144.0
265.258545 204.0
265.329132 180.0
265.365143 212.0
265.471771 236.0
265.513947 160.0
265.556091 280.0
265.661102 220.0
265.899994 156.0
266.023346 152.0
266.082306 360.0
266.351318 112.0
266.426025 176.0
266.475403 236.0
266.627472 148.0
266.669708 100.0
266.871277 128.0
267.09314 1160.0
267.170471 72.0
267.337769 168.0
267.378723 268.0
267.463348 36.0
267.541473 72.0
267.574005 212.0
267.826263 192.0
267.915955 208.0
268.044281 196.0
268.098999 5700.0
268.156281 80.0
268.212494 76.0
268.235321 100.0
268.310303 76.0
268.342896 128.0
268.368988 224.0
268.394165 176.0
268.580963 32.0
268.641785 204.0
268.675537 100.0
268.75058 44.0
268.773438 152.0
268.822357 184.0
268.845215 144.0
268.907227 172.0
268.949432 240.0
269.018188 120.0
269.106476 6536.0
269.185638 152.0
269.240234 64.0
269.30304 152.0
269.33493 68.0
269.367615 80.0
269.397003 52.0
269.49173 44.0
269.711975 196.0
269.8349 108.0
269.908478 128.0
270.011475 176.0
270.047455 148.0
270.108948 2368.0
270.155396 132.0
270.25354 156.0
270.278748 80.0
270.309174 60.0
270.350891 140.0
270.394501 256.0
270.724915 116.0
270.764191 180.0
270.852631 64.0
270.895233 88.0
270.977112 56.0
271.054016 152.0
271.107727 704.0
271.2229 120.0
271.340912 152.0
271.432709 128.0
271.456787 144.0
271.666809 148.0
271.698364 64.0
271.763885 136.0
271.964996 124.0
272.057495 224.0
272.087738 160.0
272.140106 156.0
272.164429 148.0
272.225067 212.0
272.40744 204.0
272.437012 196.0
272.47644 160.0
272.565155 132.0
272.647888 164.0
272.752472 184.0
272.824799 60.0
272.929993 84.0
272.969452 136.0
273.028656 128.0
273.115692 120.0
273.153625 188.0
273.383942 44.0
273.515564 164.0
273.574829 176.0
273.640656 176.0
274.027527 112.0
274.128143 188.0
274.161102 164.0
274.345245 200.0
274.558807 112.0
274.619354 140.0
274.944458 140.0
275.186951 136.0
275.286011 180.0
275.487457 108.0
275.735291 192.0
275.801392 164.0
275.897247 148.0
275.993134 84.0
276.10556 188.0
276.224609 108.0
276.307312 112.0
276.489319 148.0
276.541199 248.0
276.608459 56.0
276.632141 184.0
276.717712 132.0
276.757446 184.0
276.916382 148.0
277.018005 152.0
277.238495 156.0
277.277496 156.0
277.426666 72.0
277.536072 136.0
277.590271 232.0
277.668701 160.0
277.967285 204.0
277.993835 180.0
278.03363 124.0
278.083344 100.0
278.591461 100.0
278.887177 80.0
278.922546 132.0
278.942413 216.0
279.091095 1608.0
279.173096 372.0
279.449188 136.0
279.692108 160.0
279.808624 128.0
279.861877 124.0
279.978821 204.0
280.094574 1224.0
280.209442 260.0
280.391541 152.0
280.428192 80.0
280.514862 180.0
280.608215 176.0
280.698212 164.0
280.945038 108.0
281.015106 184.0
281.058472 180.0
281.095245 1776.0
281.278717 92.0
281.338806 144.0
281.384033 200.0
281.442322 172.0
281.517609 156.0
281.719513 80.0
281.762939 124.0
281.813232 144.0
281.846466 84.0
281.869843 204.0
281.942413 224.0
282.099518 576.0
282.192841 144.0
282.227509 156.0
282.36795 144.0
282.50174 64.0
282.528503 92.0
282.638916 132.0
282.950165 68.0
283.089661 328.0
283.278351 144.0
283.367432 176.0
283.424225 140.0
283.449219 212.0
283.640259 120.0
283.700592 136.0
283.77771 128.0
283.814575 96.0
283.921875 136.0
284.004883 80.0
284.113068 80.0
284.146606 48.0
284.18689 220.0
284.209991 172.0
284.253998 136.0
284.280823 108.0
284.411713 196.0
284.71051 140.0
284.737061 168.0
284.952362 148.0
285.022919 104.0
285.076691 164.0
285.150635 84.0
285.248108 136.0
285.295166 124.0
285.386719 224.0
285.611237 116.0
285.717529 208.0
285.890503 200.0
285.918121 96.0
286.075592 132.0
286.243958 320.0
286.321411 140.0
286.62793 136.0
286.715546 252.0
286.772858 60.0
286.934662 64.0
287.183044 224.0
287.241516 96.0
287.474335 152.0
287.632935 88.0
287.757843 124.0
287.87265 204.0
287.915985 100.0
288.203674 136.0
288.278015 132.0
288.312622 164.0
288.453766 100.0
288.781738 116.0
288.99823 168.0
289.065918 52.0
289.126831 224.0
289.174194 176.0
289.241882 80.0
289.300507 264.0
289.688873 208.0
289.731049 112.0
289.841339 44.0
290.085327 108.0
290.410858 144.0
290.689026 172.0
290.872314 168.0
290.916443 208.0
290.974152 208.0
291.021667 120.0
291.072601 84.0
291.181274 136.0
291.256012 152.0
291.398682 76.0
291.625153 124.0
291.707916 108.0
291.782715 156.0
291.990143 180.0
292.058167 112.0
292.149994 92.0
292.180511 136.0
292.28949 160.0
292.326935 60.0
292.354156 128.0
292.4953 188.0
292.610199 208.0
292.650269 176.0
292.680939 148.0
292.742218 148.0
292.76947 180.0
292.796692 92.0
292.851196 144.0
292.901642 168.0
292.908112 136.0
293.034943 128.0
293.101105 240.0
293.164612 136.0
293.283905 112.0
293.341858 72.0
293.386169 156.0
293.418457 128.0
293.498688 148.0
293.539581 156.0
293.571838 148.0
293.616394 216.0
293.675995 132.0
293.727173 148.0
293.750458 68.0
293.774933 108.0
293.81546 100.0
293.850403 128.0
293.90799 72.0
293.951935 148.0
294.015472 72.0
294.10141 11556.0
294.147858 408.0
294.204315 116.0
294.229828 172.0
294.273193 204.0
294.334961 248.0
294.385864 180.0
294.45108 80.0
294.492981 176.0
294.580536 128.0
294.647858 136.0
294.700104 48.0
294.747955 180.0
294.775299 72.0
294.827515 264.0
294.869904 200.0
294.901123 268.0
294.939209 128.0
294.944458 88.0
294.980347 112.0
295.031403 180.0
295.042786 300.0
295.057251 100.0
295.108582 7396.0
295.198639 248.0
295.22644 212.0
295.274261 260.0
295.304626 196.0
295.367706 436.0
295.394531 340.0
295.434143 172.0
295.492828 212.0
295.53363 148.0
295.542755 116.0
295.571777 244.0
295.627899 132.0
295.653595 176.0
295.679749 360.0
295.712006 92.0
295.723541 196.0
295.80722 280.0
295.814728 452.0
295.866547 212.0
295.919922 164.0
295.957611 208.0
296.001526 524.0
296.037476 808.0
296.118866 268640.0
296.216278 344.0
296.249634 112.0
296.300201 212.0
296.314667 204.0
296.358337 180.0
296.432068 228.0
296.447784 160.0
296.523254 184.0
296.559631 136.0
296.621826 180.0
296.682159 1664.0
296.709473 300.0
296.735107 100.0
296.761322 228.0
296.7948 152.0
296.82843 324.0
296.872894 180.0
296.907013 328.0
296.960938 284.0
297.00412 436.0
297.069855 152.0
297.121429 59136.0
297.199554 228.0
297.23526 220.0
297.266083 104.0
297.309265 112.0
297.340027 68.0
297.369659 192.0
297.409241 140.0
297.45459 228.0
297.475464 184.0
297.490387 76.0
297.532654 340.0
297.555298 132.0
297.589478 124.0
297.613373 168.0
297.672333 212.0
297.726166 112.0
297.758911 104.0
297.784454 64.0
297.840454 52.0
297.850342 56.0
297.876312 112.0
297.921906 72.0
297.955353 60.0
298.011383 128.0
298.066895 72.0
298.123688 6020.0
298.201904 108.0
298.288025 200.0
298.322723 96.0
298.352386 108.0
298.394104 84.0
298.439484 44.0
298.500092 120.0
298.531311 120.0
298.589233 124.0
298.636169 40.0
298.693024 176.0
298.740051 80.0
298.764679 132.0
298.804932 152.0
298.849121 200.0
298.908264 68.0
298.947571 228.0
298.970978 168.0
299.01004 164.0
299.058075 116.0
299.063477 132.0
299.082184 148.0
299.091705 132.0
299.13031 364.0
299.183746 320.0
299.224854 244.0
299.260529 224.0
299.319336 156.0
299.355774 208.0
299.391663 124.0
299.445343 120.0
299.495087 128.0
299.5224 160.0
299.548859 112.0
299.606171 68.0
299.634216 116.0
299.661438 100.0
299.692322 40.0
299.747437 52.0
299.771545 52.0
299.837036 32.0
299.898651 84.0
299.934174 276.0
300.041931 136.0
300.091217 152.0
300.138672 104.0
300.195557 132.0
300.219696 56.0
300.254181 116.0
300.284393 100.0
300.340393 80.0
300.364563 56.0
300.405945 52.0
300.471497 48.0
300.504761 68.0
300.647461 32.0
300.671631 60.0
300.709595 84.0
300.737183 60.0
300.76825 80.0
300.809845 88.0
300.920166 56.0
301.053101 128.0
301.09613 140.0
301.12735 56.0
301.184479 96.0
301.227509 120.0
301.265503 36.0
301.302399 88.0
301.403687 76.0
301.457245 64.0
301.486542 140.0
301.559204 96.0
301.734344 68.0
301.770081 124.0
301.828857 64.0
301.884186 72.0
301.915314 72.0
302.012146 32.0
302.133209 60.0
302.330414 48.0
302.569244 96.0
302.652344 60.0
302.71048 96.0
302.763153 76.0
303.022949 40.0
303.092255 40.0
303.407623 52.0
303.473511 64.0
303.580994 116.0
303.62146 68.0
303.876129 48.0
304.018097 48.0
304.264526 52.0
304.445068 108.0
304.608307 60.0
304.665802 116.0
305.216492 104.0
305.456482 140.0
305.539948 84.0
305.738281 84.0
305.825287 52.0
305.849335 44.0
305.915802 68.0
306.469543 80.0
306.654236 140.0
306.737885 36.0
306.943573 132.0
306.974945 72.0
307.787994 36.0
308.430786 88.0
308.720978 100.0
308.881866 76.0
309.039276 64.0
309.420776 84.0
309.45578 60.0
309.515289 80.0
309.693909 92.0
310.075775 92.0
310.121338 76.0
310.184448 48.0
310.23703 116.0
310.279083 92.0
310.303619 160.0
310.335175 44.0
310.380768 60.0
310.49649 100.0
310.601715 88.0
310.657837 72.0
311.015747 100.0
311.114044 100.0
311.465179 96.0
311.489777 92.0
311.531921 80.0
311.746246 36.0
311.774353 68.0
311.953613 44.0
312.154022 72.0
312.178619 84.0
312.463531 180.0
312.570465 104.0
312.81897 108.0
312.959778 108.0
313.079498 68.0
313.174591 44.0
313.294342 108.0
313.357758 88.0
313.396515 68.0
313.819458 36.0
314.034576 36.0
314.330902 116.0
314.6521 72.0
314.863953 80.0
315.079437 44.0
315.252563 88.0
316.671204 92.0
316.915619 52.0
317.298401 96.0
317.340942 112.0
317.53241 64.0
317.734619 132.0
317.880066 84.0
318.121429 32.0
321.167328 68.0
321.449158 40.0
321.845367 60.0
323.23938 96.0
323.676086 84.0
325.77417 36.0
325.903503 48.0
326.011322 96.0
326.575745 64.0
326.633301 48.0
326.802368 172.0
326.849152 112.0
327.680847 68.0
332.167145 64.0
334.441742 36.0
334.535858 136.0
337.484192 92.0
338.505035 152.0
339.578796 64.0
342.106781 48.0
342.898712 152.0
344.363403 52.0
344.500092 56.0
346.112579 108.0
348.040649 124.0
349.61676 84.0
350.573822 100.0
360.023682 92.0
363.301453 108.0
364.098541 96.0
367.326111 68.0
367.684753 96.0
369.450012 80.0
371.231018 80.0
373.939423 68.0
376.425934 32.0
378.041748 40.0
380.173096 104.0
384.145538 108.0
385.012024 128.0
385.051056 60.0
386.137543 116.0
386.458313 48.0
389.547546 104.0
395.806519 40.0
399.473663 72.0
403.465454 56.0
404.201385 92.0
405.811523 104.0
407.000305 112.0
409.979858 52.0
411.335022 100.0
415.231384 68.0
415.576172 144.0
417.391785 84.0
418.783539 112.0
418.887421 120.0
418.899506 60.0
418.911102 88.0
423.111969 120.0
425.218842 72.0
427.684875 96.0
428.088348 112.0
429.567932 144.0
430.372711 68.0
431.926575 100.0
435.279327 64.0
436.962677 36.0
437.82428 140.0
441.693268 104.0
446.638611 48.0
448.036133 80.0
449.773499 100.0
453.181976 108.0
453.249786 104.0
454.301208 72.0
454.636414 104.0
458.860138 108.0
459.128784 84.0
462.148804 80.0
465.500702 92.0
465.818542 72.0
467.396332 72.0
468.274506 104.0
470.249146 76.0
470.758545 92.0
473.907501 80.0
475.125763 100.0
478.128235 124.0
478.467743 148.0
486.006958 128.0
488.431976 44.0
498.090149 92.0
507.990906 68.0
516.074829 32.0
517.355103 72.0
517.441162 56.0
519.916016 72.0
519.979553 56.0
520.629883 80.0
521.896545 84.0
522.196655 56.0
524.573425 44.0
528.642883 144.0
529.911194 68.0
530.713257 92.0
533.555176 68.0
536.197266 84.0
544.840759 76.0
549.91626 88.0
550.163696 88.0
551.294006 104.0
557.789856 36.0
562.816589 48.0
565.269836 32.0
568.050842 40.0
572.323303 108.0
579.070923 112.0
582.034485 72.0
586.204895 108.0
587.270325 64.0
587.974731 76.0
588.761658 92.0
589.225342 76.0
597.432861 76.0
600.608887 96.0
601.243103 96.0
602.346558 112.0
603.710144 20.0
610.359436 92.0
613.988647 76.0
617.717712 76.0
618.77179 72.0
624.179932 108.0
624.960815 72.0
626.698486 92.0
628.977539 96.0
633.367676 64.0
634.986572 56.0
636.401611 44.0
643.828918 56.0
648.189392 112.0
649.776367 96.0
652.859558 68.0
663.84906 68.0
664.495361 60.0
670.934204 76.0
673.45752 104.0
683.140198 112.0
683.7229 96.0
688.722839 48.0
693.510315 100.0
699.314026 68.0
699.828308 68.0
701.578979 72.0
702.137878 36.0
703.008362 84.0
706.918762 96.0
708.597229 92.0
710.643738 84.0
711.407959 140.0
720.893738 44.0
724.339233 108.0
725.630737 44.0
730.555359 64.0
738.262817 108.0
741.819946 132.0
743.262573 60.0
746.679443 96.0
747.022156 112.0
748.703979 48.0
752.095093 88.0
757.453613 128.0
759.053894 56.0
779.683533 84.0
782.208618 76.0
782.809875 188.0
784.40332 112.0
790.076904 144.0
795.333069 132.0
797.506714 44.0
798.226318 52.0
798.614319 92.0
800.477112 100.0
802.685974 100.0
803.735107 96.0
804.017273 100.0
806.264954 108.0
828.501526 52.0
841.031372 120.0
848.95166 80.0
878.117432 128.0
887.632568 128.0
893.792236 108.0
895.65564 56.0
898.546814 172.0
899.865723 84.0
910.812622 104.0
911.431396 140.0
919.561035 100.0
920.225037 112.0
920.810791 36.0
939.786804 108.0
962.225647 144.0
966.236572 168.0
969.512085 144.0
973.749329 36.0
981.234985 220.0
984.798096 72.0
985.803894 168.0
988.849487 68.0
991.786926 156.0
992.163025 56.0
993.379639 228.0
1012.832092 204.0
1014.016907 48.0
1014.580994 336.0
1016.667786 224.0
1017.727844 148.0
1019.385681 132.0
1026.489624 92.0
1028.173706 164.0
1031.162598 168.0
1035.532349 136.0
1036.531616 152.0
1038.640869 152.0
1041.3302 116.0
1043.13562 124.0
1049.019165 60.0
1049.908936 112.0
1052.373901 124.0
1054.854614 172.0
1055.236084 208.0
1057.54541 200.0
1058.328735 68.0
1060.790527 160.0
1064.871704 60.0
1066.268555 136.0
1066.886108 64.0
1069.052002 132.0
1069.852539 180.0
1071.904053 236.0
1078.070679 264.0
1081.517334 72.0
1083.147705 80.0
1086.215332 188.0
1086.366211 176.0
1088.059326 128.0
1089.333252 116.0
1091.442871 148.0
1091.962402 112.0
1093.324219 40.0
1093.92981 72.0
1097.058838 96.0
1097.124756 184.0
1098.252319 176.0
1100.429932 148.0
1101.110107 68.0
1103.958374 172.0
1105.374023 60.0
1105.804077 196.0
1116.365601 92.0
1119.007202 104.0
1120.339111 144.0
1126.910522 180.0
1127.191162 48.0
1127.578735 68.0
1128.909058 56.0
1130.909424 76.0
1131.136963 184.0
1136.598999 108.0
1137.847412 264.0
1138.646362 124.0
1139.996704 76.0
1141.354492 40.0
1143.460083 248.0
1145.237549 192.0
1148.432251 128.0
1149.343018 156.0
1149.889648 168.0
1153.645142 200.0
1154.828369 184.0
1157.135864 60.0
1162.80542 196.0
1163.820923 128.0
1168.911987 156.0
1169.960205 132.0
1172.098755 188.0
1172.453125 92.0
1172.684814 48.0
1174.293823 168.0
1174.880371 148.0
1175.34436 176.0
1177.78833 80.0
1180.262207 132.0
1180.323853 60.0
1180.686279 68.0
1182.266479 204.0
1182.417114 148.0
1183.813599 232.0
1186.451538 144.0
1186.780518 132.0
1187.445679 216.0
1188.179688 104.0
1190.891113 208.0
1192.416382 164.0
1193.495605 76.0
1198.802734 176.0
1199.202393 36.0
1201.912598 80.0
1207.162231 208.0
1209.597534 64.0
1209.971436 84.0
1212.998657 164.0
1214.205078 48.0
1215.620239 208.0
1219.015869 52.0
1219.516235 136.0
1221.038818 36.0
1223.428101 284.0
1223.891968 232.0
1224.288818 56.0
1225.166382 220.0
1225.612305 84.0
1226.434692 180.0
1227.327026 140.0
1228.11499 148.0
1228.226562 32.0
1230.620239 92.0
1231.37439 172.0
1235.246582 136.0
1237.723999 48.0
1238.921631 144.0
1243.353027 140.0
1243.54248 168.0
1243.872437 100.0
1247.166626 224.0
1249.051025 180.0
1250.24707 128.0
1252.302856 172.0
1252.528198 84.0
1253.563843 136.0
1258.098999 168.0
1259.666626 208.0
1260.71936 160.0
1261.164673 212.0
1262.04834 200.0
1262.847412 136.0
1263.469849 168.0
1265.224976 156.0
1265.727661 72.0
1266.86792 76.0
1267.080444 112.0
1267.484253 236.0
1267.703979 124.0
1267.909424 188.0
1268.313477 188.0
1268.589844 120.0
1270.632202 100.0
1271.157349 180.0
1274.054077 140.0
1274.927979 192.0
1277.829102 44.0
1279.181274 104.0
1280.754883 120.0
1280.890259 164.0
1281.431641 124.0
1282.251099 180.0
1282.685791 180.0
1282.935303 128.0
1283.099243 196.0
1285.167603 208.0
1286.837769 120.0
1287.908813 64.0
1289.623657 152.0
1291.296631 148.0
1291.968994 164.0
1292.276611 180.0
1294.560059 180.0
1296.752197 100.0
1297.640991 144.0
1299.068115 128.0
1301.443604 116.0
1302.104248 156.0
1304.000977 208.0
1305.108032 80.0
1307.467407 176.0
1307.726562 100.0
1309.814575 228.0
1310.592651 140.0
1313.649414 220.0
1314.305908 148.0
1316.796387 196.0
1316.919189 220.0
1317.049194 144.0
1317.728149 84.0
1320.062866 160.0
1321.386475 156.0
1321.502197 104.0
1323.043701 128.0
1323.186157 152.0
1324.303711 116.0
1325.049805 68.0
1325.332397 204.0
1329.219727 156.0
1329.501831 180.0
1330.155029 168.0
1331.225098 200.0
1331.832397 144.0
1333.430786 132.0
1333.685181 172.0
1334.28125 116.0
1337.467407 124.0
1337.576538 60.0
1342.62561 128.0
1342.873535 60.0
1343.041382 212.0
1344.420288 156.0
1344.500488 220.0
1347.399292 68.0
1348.305298 72.0
1348.641479 204.0
1348.692749 140.0
1348.853516 64.0
1355.344849 44.0
1357.587891 188.0
1358.174683 220.0
1358.592773 76.0
1359.928223 180.0
1360.221802 184.0
1360.743042 224.0
1361.734375 156.0
1361.844482 84.0
1362.22644 168.0
1362.89502 200.0
1362.983154 124.0
1364.11499 180.0
1367.027466 216.0
1368.794067 140.0
1370.436646 196.0
1372.18335 212.0
1372.574097 180.0
1375.480835 88.0
1375.805664 264.0
1376.233887 224.0
1377.341553 136.0
1379.018799 100.0
1379.151855 172.0
1382.487305 192.0
1385.826782 236.0
1385.915771 136.0
1386.123169 160.0
1386.745728 120.0
1388.25061 128.0
1388.925537 184.0
1389.148071 196.0
1389.348389 128.0
1390.03833 200.0
1393.483521 88.0
1393.907104 268.0
1394.509033 168.0
1397.282593 164.0
1397.342163 164.0
1399.232422 140.0
1399.776001 164.0
1400.56543 176.0
1402.76355 160.0
1403.352539 200.0
1404.979736 192.0
1405.627441 188.0
1406.758179 20.0
1408.77063 192.0
1409.988525 180.0
1411.483643 224.0
1411.835083 188.0
1413.989624 224.0
1416.932373 212.0
1417.614258 216.0
1418.438599 100.0
1419.008301 124.0
1419.233276 140.0
1419.443237 148.0
1420.268188 160.0
1420.562378 156.0
1420.800781 168.0
1421.76123 100.0
1422.879517 48.0
1423.067261 28.0
1423.75061 156.0
1425.606079 156.0
1427.906494 124.0
1428.846802 140.0
1429.998047 152.0
1431.496216 120.0
1431.609131 124.0
1432.829346 224.0
1433.786255 120.0
1434.155518 136.0
1434.901855 252.0
1436.61377 140.0
1436.827026 232.0
1437.451172 152.0
1438.371948 132.0
1439.164551 128.0
1439.534546 104.0
1440.335083 148.0
1441.747925 220.0
1441.929321 120.0
1442.367676 160.0
1444.59082 96.0
1446.028442 208.0
1448.201416 188.0
1449.663574 176.0
1450.277344 196.0
1450.967163 52.0
1451.588867 176.0
1451.892212 204.0
1452.491455 100.0
1456.818237 140.0
1456.939697 112.0
1457.160034 144.0
1457.501953 168.0
1458.140259 204.0
1458.535522 228.0
1459.447754 116.0
1459.84314 192.0
1459.972412 144.0
1460.383179 292.0
1463.061646 188.0
1463.777222 168.0
1464.203735 140.0
1464.416992 216.0
1465.27771 228.0
1468.021729 88.0
1469.989746 132.0
1472.799194 220.0
1473.448486 152.0
1474.113281 172.0
1474.877563 104.0
1475.091553 228.0
1475.917236 160.0
1476.896118 112.0
1478.066528 96.0
1478.257812 80.0
1479.183838 64.0
1480.370605 168.0
1482.186035 164.0
1483.120972 108.0
1484.944946 160.0
1485.030151 116.0
1485.237183 116.0
1487.024902 244.0
1487.73877 148.0
1488.491211 188.0
1490.203979 148.0
1490.804199 160.0
1493.971069 180.0
1494.30188 144.0
1495.409912 116.0
1497.380859 164.0
1498.228149 132.0
1499.037109 48.0
1500.262573 216.0
1500.73938 200.0
1500.794556 220.0
1501.851074 244.0
1502.514526 104.0
