>compound CLOFAZIMINE
>formula C27H22Cl2N4
>ionization [M+H]+
>parentmass 473.1294285160905
#inchi InChI=1S/C27H22Cl2N4/c1-17(2)30-24-16-27-25(15-23(24)31-20-11-7-18(28)8-12-20)32-22-5-3-4-6-26(22)33(27)21-13-9-19(29)10-14-21/h3-17,31H,1-2H3
#inchikey WDQPAMHFFCXSNU
#Ion_Source LC-ESI
#Instrument qTof
#Compound_Source Commercial
#PI Dorrestein
#Data_Collector Garg_Neha
#Scan -1
#Precursor_MZ 473.129
#ExactMass 472.122
#Charge 1
#CAS_Number N/A
#Pubmed_ID N/A
#Smiles CC(C)N=c1cc2n(c3ccc(Cl)cc3)c4ccccc4nc2cc1Nc5ccc(Cl)cc5
#INCHI_AUX N/A
#Library_Class 1
#SpectrumID CCMSLIB00000079215
#IonMode Positive
#UpdateWorkflowName UPDATE-SINGLE-ANNOTATED-GOLD
#LibraryQualityString Gold
#TaskID 278b19f5865741e282cec7349aa7e7a1
##Scan# 2087
#SpectrumFile NCP003672_A27B27C27D27_BE4_01_15740.mzXML
#LibraryName NIHcollectionI_05062014.mgf
#MQScore -1
#Organism NIHcollectionI_05062014
#TIC_Query 0
#RT_Query -1
#MZErrorPPM -1
#SharedPeaks 0
#MassDiff 0
#LibMZ -1
#SpecMZ 473.129
#SpecCharge 0
#internalFilename spec-00000.mgf

>collision 10
54.207947 168.0
54.488197 144.0
58.764931 140.0
60.777542 152.0
65.082527 160.0
76.31105 192.0
78.138756 252.0
84.478859 104.0
86.239746 236.0
88.211937 156.0
92.866547 184.0
94.399551 156.0
94.461441 140.0
94.798325 152.0
95.02713 184.0
95.995796 164.0
97.684097 212.0
102.168289 188.0
102.661766 212.0
103.037201 220.0
104.267166 152.0
104.777908 180.0
104.816063 148.0
109.87043 148.0
110.97052 156.0
112.709091 184.0
112.912033 148.0
113.666191 164.0
115.310226 152.0
115.400009 180.0
115.556145 160.0
117.265465 144.0
117.817871 168.0
120.940544 140.0
122.092392 184.0
122.98027 168.0
123.061951 252.0
124.117371 140.0
125.629745 164.0
126.163483 144.0
127.571312 176.0
129.740768 168.0
129.765717 168.0
129.870026 160.0
130.376312 152.0
133.29454 140.0
133.40715 140.0
133.600327 200.0
134.291367 148.0
135.025818 152.0
136.48909 152.0
137.595993 152.0
138.039749 140.0
138.828918 204.0
139.999222 168.0
140.208893 204.0
143.439484 144.0
143.840225 140.0
144.942749 184.0
145.833084 160.0
146.396042 160.0
146.902191 168.0
148.084167 244.0
150.985245 200.0
151.548264 156.0
151.916016 152.0
152.608582 152.0
153.051468 156.0
153.120422 144.0
153.551712 184.0
154.453232 216.0
155.027618 156.0
155.233368 148.0
155.771942 184.0
156.630127 144.0
157.900558 160.0
158.110703 168.0
158.656754 148.0
159.27417 172.0
162.173218 236.0
162.751617 176.0
162.896378 176.0
163.114914 148.0
163.908966 196.0
164.197021 168.0
164.299057 180.0
164.482788 144.0
164.651306 152.0
165.356598 124.0
172.972229 140.0
173.792511 152.0
173.9841 164.0
174.619995 148.0
174.883087 260.0
176.259705 204.0
177.130127 164.0
177.201645 192.0
177.238739 172.0
182.642303 156.0
182.984055 148.0
183.878998 228.0
184.648987 164.0
186.049866 168.0
186.267105 140.0
186.952255 152.0
186.982193 148.0
187.366135 236.0
188.167938 204.0
188.646774 132.0
188.675644 216.0
189.891876 188.0
192.616806 164.0
193.521118 152.0
193.742691 144.0
194.050308 144.0
194.091904 152.0
194.527481 204.0
195.600464 160.0
195.728531 140.0
196.107391 160.0
196.740601 156.0
197.318893 172.0
198.702423 176.0
198.817932 144.0
199.24707 168.0
199.412857 216.0
199.514053 176.0
200.971649 104.0
202.950043 188.0
203.318802 188.0
204.443985 160.0
204.495422 152.0
205.161957 176.0
206.612717 152.0
208.315552 148.0
208.631668 232.0
208.657547 200.0
208.880432 124.0
208.950897 160.0
209.722641 164.0
210.383194 176.0
210.975327 124.0
211.678497 160.0
211.811722 144.0
212.037704 200.0
213.978104 172.0
214.021774 160.0
214.998306 144.0
215.243515 152.0
216.044708 128.0
218.037949 136.0
218.685242 188.0
219.179565 140.0
219.233337 184.0
219.592697 160.0
219.790344 140.0
220.08847 164.0
221.274078 144.0
223.529861 208.0
226.218979 192.0
226.752136 152.0
227.051941 140.0
227.075928 148.0
228.385452 156.0
228.806747 148.0
228.960312 204.0
229.05278 180.0
230.015579 176.0
230.039734 152.0
231.051117 172.0
232.061783 156.0
232.275955 148.0
233.147324 160.0
233.343796 132.0
234.253952 152.0
234.699493 160.0
235.111603 144.0
235.221481 140.0
236.226822 144.0
236.485443 108.0
237.875443 176.0
238.1884 248.0
238.474411 180.0
239.89032 148.0
240.022903 152.0
240.448608 168.0
240.80983 152.0
242.080887 388.0
242.818466 152.0
243.333572 180.0
243.585114 192.0
244.104141 144.0
244.163223 156.0
244.357635 156.0
245.022339 176.0
245.265396 144.0
245.455566 232.0
246.807602 140.0
247.398926 180.0
247.890656 180.0
247.934525 168.0
248.985489 196.0
249.353073 140.0
250.177185 180.0
250.551941 164.0
250.671661 188.0
250.983719 192.0
251.072021 200.0
252.5849 144.0
253.050919 108.0
253.170151 184.0
254.311752 176.0
256.096436 168.0
256.771149 220.0
257.262512 232.0
257.465607 172.0
257.984497 176.0
258.0961 136.0
258.121948 204.0
259.402588 148.0
259.505188 168.0
261.233002 192.0
262.082916 112.0
262.182831 220.0
263.55426 144.0
263.731415 132.0
266.658752 152.0
266.899292 216.0
267.056305 128.0
267.147644 188.0
267.966888 180.0
269.722565 180.0
270.065887 172.0
270.105988 300.0
270.592316 156.0
270.900574 168.0
270.949738 188.0
271.098969 144.0
271.500397 140.0
272.015503 144.0
272.380005 220.0
272.49826 176.0
272.738159 176.0
272.899658 136.0
273.013763 160.0
274.446747 184.0
274.578644 144.0
275.248535 152.0
276.04538 136.0
276.358276 152.0
276.402161 140.0
276.451416 188.0
276.69342 152.0
276.829163 164.0
277.049255 260.0
277.170349 160.0
277.43219 208.0
277.704071 144.0
277.826813 200.0
277.928314 144.0
278.057465 396.0
279.065552 1204.0
280.024231 100.0
280.053223 144.0
281.060211 232.0
281.264313 172.0
281.711761 148.0
282.169586 144.0
282.753143 160.0
283.036163 204.0
283.250519 148.0
284.106781 536.0
284.236176 176.0
284.954681 168.0
285.114288 464.0
285.64386 148.0
285.882721 160.0
286.0979 104.0
287.326508 236.0
288.42572 148.0
288.635315 148.0
289.060974 196.0
289.586273 172.0
290.053864 152.0
290.654144 140.0
291.072235 256.0
292.064941 376.0
292.106293 196.0
292.210266 156.0
293.065918 160.0
293.245483 184.0
293.647797 176.0
293.677551 116.0
293.968475 196.0
294.014343 120.0
294.079041 6512.0
294.296143 224.0
294.644257 104.0
294.835876 160.0
295.082153 952.0
296.017914 128.0
296.075134 1676.0
296.204437 140.0
296.403168 148.0
296.735779 96.0
296.903015 128.0
297.078827 584.0
297.203735 316.0
298.083832 152.0
298.813477 152.0
298.86853 224.0
299.061249 144.0
299.808594 152.0
300.161407 140.0
300.196533 204.0
300.881317 168.0
301.247375 148.0
301.786499 148.0
302.835052 172.0
303.052429 268.0
303.061157 136.0
303.250824 156.0
303.528168 152.0
304.065308 1036.0
304.516571 132.0
305.071777 1656.0
305.14798 168.0
305.493927 164.0
306.075012 916.0
306.378174 160.0
307.073151 788.0
307.362183 116.0
308.083282 316.0
308.356628 160.0
308.56778 208.0
308.818146 164.0
309.076843 160.0
311.140686 184.0
311.731445 236.0
311.829865 172.0
312.381897 152.0
312.43454 124.0
313.02948 168.0
313.485992 108.0
314.930359 164.0
315.813995 144.0
316.52533 224.0
316.759064 148.0
317.053345 136.0
317.389923 148.0
317.946838 144.0
318.005859 124.0
318.061859 112.0
318.627106 128.0
319.074158 2324.0
319.307526 180.0
320.060333 1728.0
320.287292 200.0
321.087921 2844.0
321.248749 140.0
321.612701 200.0
321.651978 140.0
321.744781 184.0
322.059875 788.0
322.085205 488.0
322.637909 148.0
323.084961 636.0
323.449951 228.0
323.596375 120.0
323.915436 140.0
324.419006 104.0
324.636688 180.0
324.818756 200.0
324.956573 116.0
325.056885 140.0
325.554504 152.0
325.75705 112.0
326.567993 148.0
327.918152 144.0
328.043335 220.0
328.624939 180.0
330.074127 768.0
330.892975 256.0
330.929932 152.0
331.080353 296.0
331.44519 200.0
331.51767 152.0
332.087952 376.0
332.282745 160.0
333.096619 356.0
333.463959 152.0
333.641022 144.0
334.088989 508.0
334.623291 156.0
334.664795 132.0
335.293549 168.0
335.756531 212.0
336.120544 304.0
336.351257 204.0
336.511871 140.0
337.061981 340.0
337.748657 176.0
338.056915 144.0
339.24472 160.0
339.521362 208.0
339.61142 204.0
340.540009 240.0
340.747559 192.0
341.021301 152.0
341.617004 144.0
341.760468 152.0
342.917236 168.0
343.071594 144.0
344.089813 140.0
344.117401 216.0
345.049683 192.0
345.091888 160.0
345.661377 104.0
346.1203 188.0
346.641937 152.0
347.106995 1136.0
348.066345 160.0
348.110718 260.0
348.173798 172.0
349.106689 276.0
349.17749 156.0
350.113403 200.0
350.793457 140.0
351.720001 152.0
352.870819 132.0
353.531189 204.0
353.89801 176.0
356.027893 184.0
356.396027 184.0
357.116333 112.0
357.232605 184.0
357.37735 148.0
358.329926 160.0
358.483002 152.0
358.571075 184.0
359.012177 140.0
359.128357 260.0
359.344086 160.0
359.872498 208.0
360.140747 120.0
361.124451 304.0
361.384338 172.0
361.490295 144.0
362.135956 152.0
363.120483 128.0
363.301361 148.0
363.547974 148.0
364.13974 156.0
364.341553 160.0
365.556519 168.0
365.630554 176.0
365.719635 136.0
365.869781 160.0
366.108948 108.0
366.418762 164.0
366.460663 244.0
366.643555 212.0
367.230682 156.0
367.513 148.0
367.897491 144.0
368.095581 108.0
368.421631 180.0
369.101959 204.0
370.090332 260.0
370.364868 172.0
370.946381 132.0
371.054626 140.0
371.114563 156.0
371.36908 188.0
372.566711 160.0
373.020172 140.0
373.619263 128.0
374.231995 96.0
375.510315 260.0
375.982056 144.0
376.279266 148.0
376.684753 144.0
376.850891 164.0
378.073975 268.0
378.293396 260.0
378.641876 176.0
378.734833 164.0
379.031128 176.0
379.090759 288.0
379.41333 128.0
380.093475 508.0
380.802124 188.0
381.099365 656.0
382.098694 420.0
382.357269 164.0
383.097717 204.0
383.619263 140.0
383.849274 176.0
384.418793 152.0
384.629547 140.0
384.809418 168.0
384.883331 128.0
385.111694 108.0
385.654419 136.0
386.393616 152.0
386.661987 192.0
386.779388 148.0
388.848877 140.0
390.006531 204.0
390.727142 184.0
390.774353 168.0
391.215149 140.0
391.25058 156.0
392.085602 188.0
392.18808 216.0
393.024139 152.0
394.095612 800.0
394.332733 180.0
394.497253 196.0
394.955963 176.0
395.046814 136.0
395.105621 7168.0
395.668243 180.0
396.108643 3360.0
396.200348 128.0
396.41684 144.0
396.464417 160.0
396.669739 144.0
396.789429 144.0
397.103455 1908.0
397.171082 140.0
397.386322 96.0
397.844696 160.0
397.979706 144.0
398.108948 532.0
398.245636 120.0
398.764404 120.0
398.856171 172.0
398.889465 140.0
398.970123 108.0
399.117493 324.0
399.341492 140.0
399.382507 164.0
400.39743 212.0
400.620483 244.0
400.775848 200.0
400.923309 148.0
401.198334 204.0
401.365784 160.0
401.704773 200.0
402.475037 204.0
402.855652 160.0
403.07019 180.0
403.88974 156.0
403.987701 244.0
404.070312 5944.0
404.152618 136.0
404.626068 180.0
404.663513 192.0
405.073456 1756.0
405.14267 164.0
405.185547 176.0
405.371063 172.0
405.530853 192.0
405.844055 240.0
405.904205 172.0
406.06842 3608.0
406.152039 320.0
406.445709 168.0
406.610321 100.0
407.073547 748.0
407.328949 140.0
407.43338 176.0
407.533813 144.0
407.594086 176.0
407.646332 164.0
407.742767 160.0
407.87738 124.0
408.070679 436.0
408.110107 328.0
408.257355 172.0
408.458466 160.0
408.506744 180.0
408.6073 140.0
408.854767 96.0
409.00293 140.0
409.20697 148.0
409.460663 152.0
409.769623 148.0
409.92276 180.0
410.133514 196.0
410.258484 168.0
411.073212 192.0
411.725311 112.0
412.042236 224.0
413.04126 124.0
413.130798 196.0
413.493896 160.0
414.055603 1404.0
414.661194 140.0
415.059326 896.0
415.475342 152.0
415.522491 112.0
415.85675 208.0
416.060577 1088.0
416.171661 124.0
416.778595 216.0
417.056671 204.0
417.067505 436.0
417.134674 240.0
417.179749 164.0
417.872314 164.0
418.068481 1040.0
418.971069 172.0
419.079315 388.0
419.264923 100.0
419.496613 132.0
420.051819 152.0
420.627167 148.0
420.748169 212.0
421.02951 132.0
421.117737 108.0
421.26828 156.0
422.108459 140.0
422.261536 168.0
422.412872 144.0
423.03894 176.0
423.134674 516.0
423.274261 160.0
423.792847 144.0
424.080536 128.0
424.150116 472.0
424.440125 180.0
425.137695 120.0
425.478149 148.0
425.560272 144.0
425.962738 212.0
426.183044 192.0
426.279083 220.0
426.660004 112.0
426.90033 256.0
427.138367 152.0
427.396057 184.0
428.016937 184.0
428.299103 192.0
428.415619 140.0
428.79834 224.0
429.004883 164.0
429.067139 25896.0
429.189148 140.0
429.248444 124.0
429.310242 184.0
429.567169 124.0
429.693298 200.0
429.740662 212.0
429.785706 160.0
429.901886 180.0
429.984222 96.0
430.07254 10028.0
430.226135 184.0
430.275299 268.0
430.326477 256.0
430.435913 128.0
430.465698 208.0
430.528412 268.0
430.590149 396.0
430.656128 168.0
430.721252 304.0
430.822601 128.0
430.866791 116.0
430.894531 308.0
430.95459 280.0
430.992188 164.0
431.082214 108240.0
431.182037 292.0
431.227356 228.0
431.313324 108.0
431.415985 276.0
431.457184 236.0
431.501129 336.0
431.542297 184.0
431.697083 124.0
431.759674 268.0
431.844513 164.0
431.930786 120.0
431.955048 196.0
431.998779 104.0
432.084198 34504.0
432.212311 144.0
432.238129 336.0
432.317749 148.0
432.388672 156.0
432.452545 284.0
432.535339 172.0
432.67099 132.0
432.739471 124.0
432.776672 252.0
432.912384 184.0
432.943817 148.0
432.981659 160.0
433.080292 59176.0
433.257996 136.0
433.419037 128.0
433.496948 100.0
433.580444 116.0
433.684021 248.0
433.839294 180.0
433.931549 120.0
434.02063 108.0
434.083344 12328.0
434.334442 124.0
434.472382 136.0
434.501709 180.0
434.556732 96.0
434.629303 124.0
434.688965 180.0
435.002472 124.0
435.077484 5432.0
435.146484 140.0
435.187042 196.0
435.300934 188.0
435.449707 156.0
435.621216 176.0
435.7005 112.0
435.749512 104.0
435.825775 124.0
436.027374 144.0
436.080811 160.0
436.23349 96.0
436.392822 148.0
436.757843 136.0
437.052307 132.0
437.146515 352.0
437.238586 232.0
437.586823 100.0
437.851471 104.0
438.076202 204.0
438.164246 304.0
438.341705 200.0
438.862732 192.0
438.921112 212.0
439.142944 104.0
439.968353 160.0
440.072083 716.0
440.17569 212.0
440.306549 140.0
440.916504 148.0
441.085022 540.0
441.166168 148.0
441.367981 164.0
442.016327 188.0
442.06839 628.0
442.152008 104.0
442.217224 212.0
442.987213 140.0
443.081848 2276.0
444.086517 928.0
444.589294 148.0
444.64386 212.0
445.076935 904.0
445.370209 224.0
445.639069 176.0
446.080017 248.0
446.129028 128.0
446.331146 116.0
446.764557 108.0
447.079956 440.0
447.186584 188.0
447.384399 140.0
447.610504 200.0
447.715027 176.0
447.859436 192.0
448.083008 168.0
448.555481 144.0
448.981323 176.0
449.664795 180.0
449.716797 160.0
449.9375 144.0
450.216309 156.0
450.783905 188.0
451.625214 188.0
452.302216 160.0
453.106812 140.0
453.48819 160.0
454.822754 308.0
455.24881 140.0
455.454224 152.0
455.597107 156.0
455.652313 228.0
456.960388 128.0
457.100128 448.0
457.187317 156.0
457.404388 140.0
457.90036 148.0
458.044434 192.0
458.10318 1024.0
458.1922 144.0
458.507507 200.0
459.101288 716.0
459.205597 184.0
459.293335 192.0
459.950378 204.0
460.099304 880.0
460.502594 248.0
460.739807 124.0
460.952759 164.0
461.051025 144.0
461.111969 340.0
462.102081 152.0
462.445282 152.0
462.662354 124.0
463.661591 220.0
463.996704 204.0
464.177002 124.0
464.231781 148.0
464.315826 140.0
464.43335 176.0
464.737518 128.0
464.892395 152.0
465.351685 176.0
465.532013 156.0
466.056091 156.0
466.147308 136.0
466.225159 152.0
466.472229 144.0
468.023834 172.0
468.26239 104.0
468.400726 260.0
468.44165 152.0
468.531921 96.0
468.593781 120.0
468.869629 140.0
469.137604 160.0
469.480011 164.0
469.712158 132.0
469.898315 132.0
470.006714 124.0
470.166229 140.0
470.228882 160.0
470.466278 148.0
470.506378 132.0
470.595978 96.0
470.646545 128.0
470.708984 168.0
470.768646 308.0
470.91803 108.0
470.966095 192.0
471.012207 124.0
471.120819 132.0
471.377594 208.0
471.458252 176.0
471.671509 316.0
471.723358 96.0
471.809021 172.0
471.925598 376.0
471.958252 184.0
472.018616 124.0
472.089294 264.0
472.128876 208.0
472.192444 144.0
472.253784 292.0
472.313904 120.0
472.344727 212.0
472.415955 300.0
472.493774 144.0
472.524963 232.0
472.621124 360.0
472.694031 192.0
472.811096 340.0
472.863586 204.0
472.924347 476.0
472.989868 352.0
473.037384 576.0
473.046906 552.0
473.131561 290884.0
473.258331 204.0
473.284546 384.0
473.393585 316.0
473.430298 276.0
473.520599 692.0
473.58667 408.0
473.634399 160.0
473.66391 396.0
473.711212 236.0
473.794434 312.0
473.846039 4268.0
473.907471 292.0
474.001556 340.0
474.134186 166724.0
474.278076 164.0
474.337524 212.0
474.431335 244.0
474.520264 324.0
474.578949 444.0
474.644836 700.0
474.762634 108.0
474.797516 204.0
474.843658 328.0
474.897095 512.0
474.913727 468.0
474.944733 624.0
475.025909 360.0
475.067688 660.0
475.129211 248236.0
475.259216 284.0
475.314056 456.0
475.390717 136.0
475.452545 280.0
475.49057 364.0
475.525696 496.0
475.597839 216.0
475.656067 320.0
475.780823 216.0
475.844727 1416.0
475.914581 444.0
475.976593 452.0
476.130646 77496.0
476.258057 128.0
476.364258 184.0
476.472687 200.0
476.512543 184.0
476.584717 464.0
476.634521 176.0
476.711426 192.0
476.734558 420.0
476.796448 336.0
476.837097 272.0
476.850281 252.0
476.877319 324.0
476.904541 364.0
476.959686 200.0
477.007202 408.0
477.125763 24680.0
477.261993 212.0
477.303925 268.0
477.390442 208.0
477.440857 164.0
477.556854 328.0
477.680023 260.0
477.758362 176.0
477.811066 216.0
477.895905 216.0
477.954437 160.0
478.002136 152.0
478.075836 388.0
478.143372 296.0
478.220703 228.0
478.309326 168.0
478.406525 196.0
478.511414 128.0
478.638306 136.0
478.686005 268.0
478.717987 144.0
478.81015 108.0
478.862793 224.0
478.947357 160.0
478.987213 192.0
479.032349 220.0
479.082672 376.0
479.136475 220.0
479.204559 136.0
479.299896 120.0
479.386597 116.0
479.485199 164.0
479.517883 192.0
479.558899 124.0
479.728821 196.0
479.869873 120.0
479.91983 96.0
479.963776 124.0
480.012299 128.0
480.133453 96.0
480.193878 220.0
480.519043 116.0
480.554352 132.0
480.768433 192.0
481.593079 120.0
481.65509 196.0
483.538086 196.0
485.808594 112.0
487.570709 108.0
489.116455 100.0
490.566833 96.0
490.636993 96.0
492.34903 100.0
493.329742 212.0
500.284149 140.0
500.678894 116.0
501.108032 168.0
501.323303 108.0
503.360535 140.0
559.401245 144.0
563.314636 104.0
578.727051 116.0
593.247009 140.0
651.612671 160.0
667.843811 140.0
670.99469 100.0
686.556335 140.0
692.975342 164.0
718.490906 172.0
788.160034 152.0
816.339783 144.0
818.645691 96.0
827.082947 124.0
845.874207 116.0
859.604614 168.0
861.472961 148.0
915.757141 108.0
1014.572571 156.0
1038.33374 100.0
1073.532471 140.0
1250.811401 156.0
1479.250122 152.0
1568.370117 148.0
1682.374268 176.0
1687.635742 160.0
1802.388306 164.0
1992.559692 164.0
