>compound NCGC00160192-01!RESERPININE
>formula C22H26N2O4
>ionization [M+H]+
>parentmass 383.197662
#inchi InChI=1S/C22H26N2O4/c1-12-17-10-24-7-6-15-14-5-4-13(26-2)8-19(14)23-21(15)20(24)9-16(17)18(11-28-12)22(25)27-3/h4-5,8,11-12,16-17,20,23H,6-7,9-10H2,1-3H3/t12-,16-,17-,20-/m0/s1
#inchikey KXEMQEGRZWUKJS
#Ion_Source LC-ESI
#Instrument qTOF
#Compound_Source Prestwick Phytochem Lib
#PI Dorrestein
#Data_Collector VVP/LMS
#Scan -1
#Precursor_MZ 383.197
#ExactMass 383.197
#Charge 1
#CAS_Number N/A
#Pubmed_ID N/A
#Smiles [H][C@@]12C[C@]3([H])C(=CO[C@@H](C)[C@]3([H])CN1CCC4=C2NC5=C4C=CC(OC)=C5)C(=O)OC
#INCHI_AUX N/A
#Library_Class 1
#SpectrumID CCMSLIB00000078744
#IonMode Positive
#UpdateWorkflowName UPDATE-SINGLE-ANNOTATED-GOLD
#LibraryQualityString Gold
#TaskID 67c915c6594c435cadc1fe2b5358144d
##Scan# 1668
#SpectrumFile p1-B03_GB3_01_17887.mzXML
#LibraryName phytochem_lib.mgf
#MQScore -1
#Organism phytochem_lib
#TIC_Query 0
#RT_Query -1
#MZErrorPPM -1
#SharedPeaks 0
#MassDiff 0
#LibMZ -1
#SpecMZ 383.197
#SpecCharge 0
#internalFilename spec-00000.mgf

>collision 10
94.998154 36.0
95.052147 176.0
95.151459 132.0
95.318497 152.0
95.447891 184.0
95.474014 176.0
95.561546 112.0
95.670532 28.0
95.697784 124.0
96.073929 168.0
96.15197 80.0
96.237862 60.0
96.290588 188.0
96.34333 124.0
96.399986 224.0
96.509453 140.0
96.529007 232.0
96.575943 168.0
96.693329 376.0
96.791206 140.0
96.992996 180.0
97.008682 196.0
97.063576 168.0
97.098869 48.0
97.157715 212.0
97.460068 136.0
97.481682 196.0
97.703857 216.0
97.719597 208.0
98.040558 160.0
98.116104 172.0
98.219971 148.0
98.395599 208.0
98.826462 108.0
99.107613 28.0
99.284035 124.0
99.34259 160.0
99.442749 44.0
99.522156 192.0
99.579742 180.0
99.86396 124.0
99.955467 184.0
100.072906 164.0
100.123337 172.0
100.146584 168.0
100.256165 76.0
100.347855 148.0
100.409668 64.0
100.533356 156.0
100.581253 88.0
100.705963 192.0
100.778961 84.0
100.942863 140.0
100.968864 172.0
101.0989 160.0
101.132919 52.0
101.162949 132.0
101.423347 132.0
101.567719 152.0
101.706169 116.0
101.961235 192.0
102.075821 136.0
102.224678 180.0
102.460251 104.0
102.484428 112.0
102.625519 108.0
102.78688 148.0
102.897888 128.0
102.97834 124.0
103.049461 176.0
103.37693 160.0
103.405258 108.0
103.532806 76.0
103.749611 200.0
103.897652 148.0
103.950401 184.0
104.021439 104.0
104.053215 184.0
104.082344 88.0
104.170273 136.0
104.189987 148.0
104.213463 224.0
104.582443 144.0
104.621117 204.0
104.638969 276.0
104.692383 204.0
104.753487 136.0
104.796265 144.0
105.069382 164.0
105.304207 144.0
105.365486 128.0
105.400223 84.0
105.465614 160.0
105.586243 220.0
105.659882 220.0
105.815422 176.0
106.067032 180.0
106.325821 212.0
106.387398 176.0
106.407928 232.0
106.496231 192.0
106.512657 96.0
106.551689 152.0
106.570183 176.0
106.623611 124.0
106.718163 144.0
106.749008 164.0
106.833336 212.0
107.047234 160.0
107.078278 108.0
107.197762 168.0
107.2967 136.0
107.556618 140.0
107.657784 172.0
107.699089 148.0
107.724411 200.0
107.95536 184.0
108.017403 116.0
108.055611 168.0
108.080002 524.0
108.288307 200.0
108.315475 144.0
108.414017 188.0
108.491615 88.0
108.542763 192.0
108.609818 112.0
108.767509 128.0
108.794495 156.0
109.00219 40.0
109.069809 164.0
109.205925 128.0
109.320343 196.0
109.343239 40.0
109.591042 140.0
109.71817 144.0
109.805748 156.0
109.843292 172.0
109.903793 156.0
109.958046 352.0
109.97683 136.0
110.006058 80.0
110.13343 224.0
110.166847 52.0
110.350761 168.0
110.444862 168.0
110.603882 268.0
110.645752 144.0
110.901314 200.0
111.069054 92.0
111.306198 208.0
111.348198 160.0
111.425919 176.0
111.503662 168.0
111.644524 156.0
112.333252 200.0
112.44297 152.0
112.472519 120.0
112.54007 80.0
112.554848 168.0
112.647774 148.0
112.68158 256.0
112.749191 164.0
112.848541 104.0
112.922554 128.0
112.961449 124.0
113.051605 140.0
113.462517 180.0
113.500679 140.0
113.577026 204.0
113.644913 144.0
113.69796 140.0
113.763763 188.0
113.838074 120.0
113.954895 140.0
114.035645 152.0
114.171707 164.0
114.188721 192.0
114.269554 140.0
114.36319 152.0
114.427048 132.0
114.501579 132.0
114.576126 128.0
114.623001 132.0
114.710381 112.0
114.735962 212.0
114.985527 76.0
115.054176 1400.0
115.072334 236.0
115.173416 152.0
115.20546 252.0
115.231094 104.0
115.352905 220.0
115.909355 296.0
115.935066 168.0
115.98436 96.0
116.027237 168.0
116.058929 576.0
116.153755 168.0
116.725029 332.0
116.750839 108.0
116.787399 156.0
116.882057 144.0
116.901421 172.0
116.925095 208.0
117.068054 676.0
117.177025 252.0
117.295555 88.0
117.317108 136.0
117.349449 204.0
117.39473 120.0
117.647171 192.0
117.664436 188.0
117.731377 144.0
117.754807 132.0
117.911255 228.0
118.042549 160.0
118.064026 272.0
118.103104 48.0
118.172333 176.0
118.219933 108.0
118.302185 180.0
118.432106 180.0
118.551262 120.0
118.616974 224.0
118.659637 152.0
118.709503 68.0
118.885216 156.0
118.969872 220.0
119.046761 184.0
119.08712 376.0
119.234863 160.0
119.391388 80.0
119.432709 72.0
119.848511 156.0
119.935684 128.0
119.953125 136.0
120.029427 160.0
120.055595 148.0
120.081512 552.0
120.376381 176.0
120.529282 160.0
120.662605 200.0
120.761009 152.0
120.936043 164.0
121.070099 156.0
121.205406 36.0
121.284302 128.0
121.706383 220.0
121.854858 52.0
121.898804 112.0
121.951546 176.0
122.019691 176.0
122.063667 188.0
122.305664 172.0
122.373909 216.0
122.649277 184.0
122.677933 152.0
122.816849 172.0
122.878616 136.0
123.006615 168.0
123.046951 208.0
123.071327 64.0
123.090508 244.0
123.189896 200.0
123.278275 108.0
123.366684 232.0
123.428589 220.0
123.607758 204.0
123.632614 172.0
123.952492 152.0
123.997513 136.0
124.040535 776.0
124.070938 192.0
124.117218 48.0
124.385658 116.0
124.425613 204.0
124.459663 156.0
124.680664 180.0
124.714394 204.0
124.956779 168.0
125.056915 256.0
125.081406 356.0
125.188271 128.0
125.292953 60.0
125.573814 412.0
125.984528 176.0
126.196838 32.0
126.319839 156.0
126.539154 116.0
126.574982 116.0
126.615288 168.0
126.996292 136.0
127.025452 192.0
127.043396 428.0
127.074806 208.0
127.209457 92.0
127.357658 176.0
127.39135 200.0
127.454254 60.0
127.490211 172.0
127.521675 124.0
127.6026 36.0
127.739777 196.0
127.79377 184.0
127.832024 148.0
127.887497 172.0
128.02562 128.0
128.055145 180.0
128.124725 188.0
128.156265 168.0
128.239639 132.0
128.383499 208.0
128.462875 168.0
128.555374 228.0
128.622437 152.0
128.661469 124.0
128.792435 180.0
128.873764 152.0
129.069244 172.0
129.093018 104.0
129.149841 156.0
129.341888 184.0
129.414322 20.0
129.464142 144.0
129.511703 44.0
129.60231 176.0
129.792709 220.0
130.065338 2588.0
130.117157 148.0
130.148956 188.0
130.164841 196.0
130.21254 60.0
130.421555 128.0
130.687622 64.0
130.733139 164.0
130.867477 224.0
130.908417 140.0
131.015366 180.0
131.050247 184.0
131.072769 8344.0
131.108093 120.0
131.171112 80.0
131.202347 88.0
131.227417 148.0
131.314072 108.0
131.393906 76.0
131.498871 80.0
131.718063 160.0
131.775177 108.0
131.931061 244.0
131.960312 248.0
132.050735 492.0
132.076202 1016.0
132.113541 80.0
132.159286 152.0
132.193619 44.0
132.250824 196.0
132.305771 196.0
132.505005 56.0
132.601257 84.0
132.766312 100.0
132.782364 152.0
132.867249 84.0
132.887894 192.0
132.977386 140.0
133.031647 204.0
133.063385 424.0
133.085037 152.0
133.149567 128.0
133.167953 100.0
133.503479 136.0
133.519577 200.0
133.570175 148.0
133.814117 152.0
133.862473 220.0
133.883194 176.0
134.059143 264.0
134.098206 244.0
134.238083 172.0
134.298035 136.0
134.591125 200.0
134.71022 176.0
134.780518 172.0
134.977005 236.0
135.041733 356.0
135.061188 224.0
135.264343 176.0
135.293976 164.0
135.430588 188.0
135.458389 116.0
135.481552 160.0
135.676208 240.0
136.045074 180.0
136.076523 300.0
136.094604 156.0
136.365616 76.0
136.535339 176.0
136.565567 172.0
136.693527 180.0
136.78894 200.0
136.85878 208.0
137.008163 148.0
137.070755 188.0
137.098709 224.0
137.154648 144.0
137.247894 208.0
137.306198 200.0
137.798721 116.0
137.817413 208.0
138.052368 164.0
138.100281 228.0
138.135361 192.0
138.198532 52.0
138.221924 116.0
138.547363 212.0
138.581421 208.0
138.910721 156.0
139.035583 164.0
139.077316 188.0
139.126617 144.0
139.368515 84.0
139.518936 140.0
139.796478 168.0
139.827698 212.0
140.043671 148.0
140.430206 392.0
140.498611 68.0
140.621323 248.0
140.78894 188.0
140.807831 116.0
140.921982 124.0
140.982651 108.0
141.022827 272.0
141.055923 184.0
141.072464 108.0
141.254547 140.0
141.562225 148.0
141.701965 336.0
141.744629 112.0
141.867859 208.0
141.948471 236.0
142.019623 148.0
142.065063 1184.0
142.209442 92.0
142.237915 40.0
142.321014 196.0
142.349503 156.0
142.437378 200.0
142.480133 244.0
142.582306 36.0
142.641724 168.0
142.996124 72.0
143.043732 184.0
143.073273 10348.0
143.229462 48.0
143.267578 192.0
143.300934 32.0
143.358597 176.0
143.377182 64.0
143.420639 152.0
143.446304 152.0
143.583405 148.0
143.675232 180.0
143.750427 192.0
143.961655 244.0
144.038071 180.0
144.080322 4096.0
144.120728 128.0
144.224457 192.0
144.277039 60.0
144.339203 60.0
144.384644 84.0
144.49707 108.0
144.516205 216.0
144.576019 200.0
144.662186 172.0
144.731171 108.0
144.762741 56.0
144.933548 92.0
144.961578 172.0
144.980743 92.0
145.053391 168.0
145.086212 716.0
145.130875 184.0
145.200699 176.0
145.554062 96.0
145.652527 104.0
145.79187 56.0
145.818314 252.0
145.863983 200.0
145.926483 240.0
145.960144 240.0
145.981781 128.0
146.057648 332.0
146.077881 296.0
146.086273 280.0
146.097153 312.0
146.171814 88.0
146.347534 160.0
146.508896 108.0
146.593216 224.0
146.67276 144.0
146.733017 168.0
146.759445 100.0
146.884949 176.0
146.916306 192.0
147.043488 512.0
147.08046 1972.0
147.140747 208.0
147.186615 92.0
147.234909 40.0
147.300125 116.0
147.367767 144.0
147.416092 92.0
147.609482 48.0
147.856232 196.0
147.996628 168.0
148.028107 68.0
148.077286 432.0
148.14679 120.0
148.24855 124.0
148.38913 152.0
148.575867 144.0
148.699631 212.0
148.765152 152.0
149.083328 216.0
149.341934 252.0
149.741974 180.0
149.832748 184.0
150.008209 252.0
150.054535 148.0
150.071594 52.0
150.092056 216.0
150.110611 168.0
150.147186 208.0
150.169144 84.0
150.720596 192.0
151.080246 132.0
151.219727 160.0
151.486618 120.0
151.525818 256.0
151.631668 140.0
151.729233 188.0
152.075226 276.0
152.197845 180.0
152.39679 204.0
152.502457 248.0
152.54425 156.0
152.617996 28.0
152.856598 148.0
152.994431 60.0
153.055298 1144.0
153.179123 132.0
153.595688 220.0
153.615433 200.0
153.728912 168.0
153.832581 96.0
154.011841 228.0
154.063461 352.0
154.168488 104.0
154.276566 156.0
154.348938 160.0
154.457748 172.0
154.539383 92.0
154.606201 132.0
154.913223 76.0
155.066772 352.0
155.213104 200.0
155.622498 164.0
155.657272 220.0
155.801315 208.0
155.890762 136.0
156.081299 364.0
156.119476 132.0
156.263733 192.0
156.430481 208.0
156.450394 232.0
156.784149 132.0
157.038162 172.0
157.089996 144.0
157.27298 68.0
157.290451 124.0
157.340378 192.0
157.47023 136.0
157.815079 116.0
158.060623 1780.0
158.091232 220.0
158.098358 292.0
158.378143 200.0
158.403183 88.0
158.433258 128.0
158.488373 156.0
158.608658 72.0
158.681229 212.0
158.826813 108.0
158.861923 88.0
158.944717 48.0
158.987381 188.0
159.009964 88.0
159.068298 18692.0
159.111115 284.0
159.154251 272.0
159.190399 32.0
159.232651 56.0
159.313782 60.0
159.333878 100.0
159.353989 60.0
159.371567 48.0
159.414291 44.0
159.48085 132.0
159.506302 100.0
159.565094 56.0
159.598907 196.0
159.715225 40.0
159.745697 276.0
159.788757 60.0
159.871964 60.0
159.972641 96.0
160.010406 68.0
160.07431 3672.0
160.14386 36.0
160.211868 136.0
160.257217 56.0
160.373138 64.0
160.43364 152.0
160.572327 56.0
161.081787 936.0
161.107437 44.0
161.140274 88.0
161.203445 144.0
161.275406 136.0
161.357635 108.0
161.446121 176.0
161.828217 288.0
161.881393 68.0
162.090927 2652.0
162.147385 196.0
162.203995 60.0
162.269058 52.0
162.334991 40.0
162.499863 76.0
162.621658 40.0
162.992432 204.0
163.096497 360.0
163.124588 40.0
163.26442 112.0
163.452118 280.0
163.513748 172.0
163.577377 92.0
163.949234 152.0
164.01329 148.0
164.070129 436.0
164.104721 232.0
164.188873 184.0
164.36998 140.0
164.495041 116.0
164.635468 188.0
164.686539 100.0
164.773392 188.0
164.988068 140.0
165.200333 216.0
165.241257 36.0
165.343613 100.0
165.507446 116.0
165.825089 180.0
165.930191 180.0
166.066101 124.0
166.086624 312.0
166.114838 208.0
166.528091 112.0
166.662048 116.0
166.869858 120.0
166.96756 148.0
166.998428 152.0
167.073151 168.0
167.207947 192.0
167.258301 120.0
167.307205 100.0
167.786392 252.0
167.830215 200.0
167.852844 160.0
167.889526 120.0
168.079391 240.0
168.116257 476.0
168.144928 52.0
168.297226 160.0
168.315308 112.0
168.493515 160.0
168.521942 84.0
168.829544 148.0
168.847641 104.0
169.087326 604.0
169.17366 164.0
169.235794 112.0
169.440399 156.0
169.611435 140.0
169.842194 220.0
169.891479 148.0
169.948563 260.0
170.05925 740.0
170.095093 304.0
170.182159 156.0
170.61084 60.0
171.029633 152.0
171.064499 660.0
171.088837 172.0
171.11293 228.0
171.258759 188.0
171.305649 140.0
171.587097 148.0
171.879211 68.0
172.075684 1112.0
172.124588 160.0
172.15889 176.0
172.231659 68.0
172.281204 128.0
172.333542 188.0
172.547852 108.0
172.576614 188.0
172.644592 80.0
172.90097 172.0
173.041794 168.0
173.083267 2352.0
173.131348 176.0
173.178497 148.0
173.219925 132.0
173.298996 88.0
173.476074 148.0
173.529633 152.0
173.576279 244.0
173.658127 160.0
173.706375 132.0
173.713913 180.0
173.794464 128.0
173.798676 236.0
173.810532 172.0
173.836517 184.0
173.854889 136.0
173.912552 144.0
173.918488 140.0
173.928909 176.0
173.994003 188.0
174.013702 456.0
174.032639 360.0
174.04274 156.0
174.060287 460.0
174.092453 104560.0
174.160294 232.0
174.178055 228.0
174.196259 124.0
174.225403 72.0
174.267151 68.0
174.274826 52.0
174.300644 132.0
174.326584 84.0
174.345535 240.0
174.355255 60.0
174.384033 144.0
174.431854 136.0
174.456543 124.0
174.479294 80.0
174.526184 304.0
174.56543 56.0
174.617203 72.0
174.652222 52.0
174.730652 380.0
174.770493 100.0
174.828278 40.0
174.861435 140.0
174.885132 216.0
174.902466 136.0
174.943039 48.0
175.009735 168.0
175.053619 32.0
175.095184 10836.0
175.218231 104.0
175.253174 100.0
175.332855 188.0
175.381027 72.0
175.417328 80.0
175.491165 72.0
175.51738 84.0
175.55275 68.0
175.65979 60.0
175.744217 76.0
175.791718 52.0
175.824219 188.0
175.878815 56.0
175.922882 92.0
175.994965 72.0
176.019745 176.0
176.068695 144.0
176.09552 1008.0
176.126556 104.0
176.169266 84.0
176.228165 164.0
176.267029 92.0
176.285522 128.0
176.327805 84.0
176.395828 132.0
176.420319 64.0
176.455856 84.0
176.482422 84.0
176.507568 92.0
176.547226 84.0
176.581619 72.0
176.623932 76.0
176.692719 80.0
176.732391 152.0
176.774734 40.0
176.856781 64.0
176.88324 48.0
176.989136 104.0
177.024673 124.0
177.048416 240.0
177.078735 192.0
177.100235 152.0
177.177185 104.0
177.219574 164.0
177.256668 56.0
177.308273 144.0
177.46077 96.0
177.556229 92.0
177.802948 156.0
177.856033 84.0
178.010025 100.0
178.055161 92.0
178.087234 3408.0
178.161407 116.0
178.58139 120.0
178.642578 136.0
178.786255 68.0
178.943298 88.0
178.983231 84.0
179.067581 220.0
179.090836 704.0
179.238937 92.0
179.310898 52.0
179.502838 172.0
179.612183 56.0
179.692215 76.0
180.055237 124.0
180.084351 284.0
180.098465 500.0
180.627213 40.0
181.092941 156.0
181.336746 56.0
181.988602 84.0
182.059448 292.0
182.115555 192.0
182.144363 148.0
182.24646 112.0
182.3405 176.0
182.464157 76.0
182.634995 60.0
182.797668 96.0
182.851501 152.0
183.067459 212.0
183.126114 236.0
183.151016 172.0
183.19075 64.0
183.34433 84.0
183.403625 68.0
183.460236 120.0
183.654388 156.0
183.866257 144.0
183.910706 128.0
184.076172 680.0
184.22934 44.0
184.275269 120.0
184.49147 220.0
184.640182 52.0
184.799774 40.0
185.046066 104.0
185.083603 1084.0
185.237 176.0
185.357559 188.0
185.430725 48.0
185.615067 100.0
185.997589 80.0
186.019318 124.0
186.091049 1812.0
186.190369 68.0
186.212097 80.0
186.540863 56.0
186.853607 36.0
187.030487 64.0
187.096954 536.0
187.221069 64.0
187.343628 132.0
187.370865 72.0
187.599792 60.0
187.918869 184.0
188.071411 160.0
188.106705 1376.0
188.260071 32.0
189.081238 160.0
189.1073 564.0
189.189697 176.0
189.255402 100.0
189.400543 60.0
189.482727 180.0
189.853363 144.0
189.951492 44.0
190.086365 2296.0
190.198456 252.0
190.267075 44.0
190.343964 172.0
190.585678 176.0
190.767059 136.0
191.088013 1112.0
191.141098 32.0
191.218155 76.0
191.380569 108.0
191.468689 88.0
191.815842 136.0
191.992294 60.0
192.033661 60.0
192.092789 120.0
192.204712 28.0
192.301285 36.0
192.455887 48.0
193.047211 72.0
193.085846 152.0
194.08223 244.0
194.119308 152.0
195.104523 136.0
195.31308 88.0
195.343689 136.0
196.039734 164.0
196.072556 180.0
196.101913 256.0
196.296188 172.0
196.435638 200.0
197.08284 1024.0
197.153198 196.0
197.214676 44.0
197.684525 128.0
198.05127 76.0
198.08905 908.0
198.623077 180.0
199.096558 692.0
199.797287 116.0
199.884506 140.0
200.033661 100.0
200.059006 192.0
200.107086 5092.0
200.19696 52.0
200.385681 152.0
200.580139 88.0
200.636505 44.0
200.712631 104.0
201.048325 92.0
201.109085 588.0
201.613129 48.0
201.664001 108.0
201.768585 40.0
202.081879 88.0
202.123047 220.0
202.416504 64.0
202.713943 208.0
202.78479 32.0
203.076813 128.0
203.122116 128.0
204.104797 560.0
204.215744 36.0
205.095551 124.0
205.129745 144.0
205.206726 124.0
205.226685 172.0
206.065796 160.0
206.240112 112.0
206.281586 188.0
206.809296 188.0
207.972977 172.0
208.096481 912.0
208.128891 168.0
208.602036 32.0
208.694031 64.0
209.087662 148.0
209.118195 188.0
210.053329 100.0
210.11203 3528.0
210.176544 96.0
210.526672 148.0
210.682632 80.0
210.789536 36.0
210.893585 64.0
210.988968 208.0
211.014984 176.0
211.102722 356.0
211.463364 220.0
211.65152 160.0
212.013611 164.0
212.105835 1780.0
212.326721 180.0
212.613922 52.0
212.779373 188.0
212.84906 232.0
213.104065 1156.0
213.325531 64.0
213.54361 44.0
213.683228 76.0
213.959717 116.0
214.006287 84.0
214.110794 424.0
214.236374 176.0
214.291718 60.0
214.434509 72.0
215.114777 364.0
215.233826 100.0
215.350632 68.0
215.853287 64.0
215.999512 156.0
216.109711 84.0
216.134094 172.0
216.254074 136.0
217.091949 156.0
217.350082 164.0
218.143051 132.0
218.466522 72.0
219.220261 204.0
219.414795 212.0
219.500305 104.0
220.5513 108.0
221.11087 144.0
221.139877 212.0
221.240524 168.0
221.281967 36.0
221.830032 168.0
221.991547 168.0
222.050812 184.0
222.113281 9480.0
222.185898 44.0
222.213379 120.0
222.307541 52.0
222.44931 68.0
222.51532 60.0
222.546738 96.0
222.567383 112.0
222.628143 80.0
222.705368 116.0
222.726151 100.0
222.807159 272.0
222.840027 72.0
223.055984 172.0
223.113937 1384.0
223.181885 80.0
223.341431 228.0
223.415802 72.0
223.4991 56.0
223.74614 64.0
224.029053 56.0
224.058762 160.0
224.116013 472.0
224.261459 48.0
224.508911 32.0
224.577515 136.0
224.747559 32.0
225.075882 196.0
225.112427 320.0
225.981522 68.0
226.123413 500.0
226.319748 60.0
226.493439 132.0
226.670197 52.0
226.885986 68.0
227.119965 536.0
227.293884 36.0
227.906418 60.0
228.017609 120.0
228.125122 324.0
228.146057 180.0
228.525803 56.0
228.588989 68.0
228.727432 92.0
228.766556 180.0
228.980347 168.0
229.134094 1596.0
229.167114 48.0
229.604187 84.0
230.138306 272.0
230.606537 44.0
230.72139 56.0
230.784882 168.0
231.057083 196.0
231.099442 88.0
231.172058 60.0
231.214432 160.0
231.886765 176.0
232.071686 164.0
233.081558 280.0
233.264786 96.0
233.821381 116.0
234.087463 456.0
234.119736 104.0
234.43045 128.0
235.018967 56.0
235.091858 144.0
235.363876 144.0
235.993286 168.0
236.063232 156.0
236.101868 500.0
236.137009 56.0
236.17984 292.0
237.024796 56.0
237.114365 872.0
237.398758 128.0
237.858978 52.0
237.889664 168.0
238.125412 1036.0
238.270462 84.0
238.543976 96.0
239.05452 40.0
239.11879 692.0
240.098557 156.0
240.121155 516.0
240.444382 60.0
240.604889 44.0
240.64502 48.0
241.119049 184.0
241.142365 132.0
241.222717 156.0
241.343292 184.0
242.014709 92.0
242.1138 164.0
242.367813 148.0
244.102966 132.0
246.056564 108.0
247.986603 92.0
248.066147 208.0
248.104401 204.0
248.318939 164.0
249.114471 856.0
249.304718 52.0
249.631638 80.0
250.067535 172.0
250.123688 504.0
251.08609 292.0
251.119949 212.0
251.244263 44.0
252.09903 280.0
252.138123 2608.0
252.213699 100.0
252.289566 128.0
252.374924 84.0
252.922226 124.0
253.074173 124.0
253.111542 160.0
253.140656 740.0
253.219833 36.0
254.082489 292.0
254.116241 280.0
254.123749 288.0
254.158173 160.0
254.212112 76.0
254.589874 36.0
255.110962 140.0
255.151306 300.0
256.106934 168.0
256.144806 152.0
256.664612 20.0
257.063354 152.0
257.15271 144.0
257.995972 96.0
258.018372 156.0
259.603302 164.0
260.108276 192.0
261.12027 344.0
262.081543 184.0
262.127747 124.0
263.089539 356.0
263.14917 152.0
263.22345 80.0
263.724182 72.0
264.106598 164.0
264.134644 588.0
264.487518 156.0
265.100006 308.0
265.141449 164.0
265.491882 124.0
266.082428 176.0
266.127502 140.0
266.15033 376.0
267.086548 184.0
267.143188 120.0
267.337067 40.0
267.441223 44.0
268.095367 220.0
268.120758 192.0
268.171387 92.0
270.106812 124.0
270.650269 92.0
271.114685 176.0
272.110504 132.0
272.368744 112.0
272.457428 104.0
273.121429 152.0
274.122284 284.0
274.320038 108.0
275.088623 136.0
275.131561 164.0
276.104767 116.0
276.14267 196.0
277.10022 132.0
277.142395 124.0
277.924896 44.0
278.062927 200.0
278.081482 148.0
278.119843 288.0
279.020905 128.0
279.13562 392.0
279.98587 120.0
280.097839 156.0
280.124634 324.0
280.675659 220.0
281.089264 152.0
281.12265 108.0
281.1633 1084.0
281.680206 36.0
281.720306 76.0
282.0578 84.0
282.111206 380.0
282.138031 340.0
282.163116 476.0
282.967712 48.0
283.121735 128.0
283.171661 128.0
283.741638 52.0
284.026672 108.0
284.05014 128.0
284.097107 212.0
286.271698 152.0
287.141174 144.0
288.113312 140.0
288.241699 168.0
289.107361 152.0
289.151367 156.0
289.242737 92.0
290.113312 112.0
290.139069 188.0
290.381195 100.0
290.408325 88.0
290.757782 88.0
291.141388 204.0
292.103119 112.0
292.1409 188.0
292.314178 36.0
292.783966 88.0
293.09375 180.0
293.145081 232.0
293.557526 40.0
294.114075 256.0
294.150146 760.0
294.226288 132.0
295.117889 204.0
295.15094 132.0
295.583191 40.0
296.079559 76.0
296.118713 180.0
296.641449 140.0
297.126038 140.0
297.151886 124.0
298.133667 120.0
298.158539 136.0
299.527893 108.0
300.117188 120.0
304.140533 472.0
305.102753 140.0
305.139557 280.0
305.172302 40.0
305.701019 32.0
306.148193 248.0
306.630829 132.0
306.787689 128.0
307.142883 84.0
307.61792 148.0
308.134766 284.0
309.115082 304.0
310.146912 312.0
311.082977 136.0
312.756653 64.0
313.189758 104.0
314.136078 376.0
315.143341 128.0
315.794556 120.0
317.125793 164.0
318.133179 120.0
318.197083 128.0
320.127808 224.0
321.065033 124.0
321.1604 108.0
322.145325 240.0
323.139862 352.0
323.17749 420.0
323.351471 40.0
323.466034 104.0
324.139313 160.0
324.170135 80.0
325.139832 144.0
325.193665 180.0
325.394684 180.0
326.127502 40.0
327.97757 36.0
328.132568 124.0
328.341705 32.0
328.785431 68.0
328.893707 248.0
331.019501 48.0
331.091919 52.0
331.84201 108.0
332.36792 128.0
332.963257 56.0
333.163696 308.0
334.166443 76.0
335.065704 36.0
335.142822 140.0
335.171356 132.0
336.126709 112.0
336.155273 168.0
338.553955 136.0
339.170197 196.0
340.159027 208.0
340.666595 92.0
341.144318 156.0
342.984833 72.0
345.085358 56.0
349.145538 100.0
350.161682 164.0
350.555725 208.0
350.873413 136.0
351.169159 880.0
351.682861 60.0
352.172882 720.0
352.53064 112.0
353.162445 156.0
353.188324 144.0
354.168762 280.0
354.783844 120.0
355.17572 156.0
356.371368 172.0
356.811096 52.0
357.781708 116.0
362.328705 56.0
365.181183 148.0
365.594116 40.0
365.913849 72.0
366.177582 140.0
366.610901 92.0
367.159851 40.0
367.953522 68.0
371.55481 40.0
379.33316 80.0
380.827026 124.0
381.175537 396.0
382.18045 180.0
382.35495 136.0
382.572937 120.0
382.631317 108.0
382.814331 108.0
382.973999 72.0
383.067474 128.0
383.143127 48.0
383.197662 2840.0
383.441528 100.0
383.772858 52.0
384.198059 500.0
384.627228 84.0
384.74823 52.0
385.214447 440.0
385.502075 44.0
385.920319 92.0
386.108002 104.0
386.143188 44.0
388.042358 36.0
388.925018 60.0
394.957489 192.0
395.44812 84.0
403.303467 136.0
406.868622 116.0
407.909058 60.0
409.9375 68.0
414.394318 56.0
415.050934 92.0
415.996216 80.0
449.923615 72.0
451.575775 108.0
458.517334 52.0
465.885498 96.0
475.605713 128.0
476.031189 100.0
479.768616 72.0
484.04599 56.0
489.398499 108.0
509.726868 72.0
516.340088 56.0
537.380981 52.0
537.791687 184.0
576.71106 36.0
577.37085 84.0
580.243774 52.0
581.913391 88.0
582.335999 104.0
588.186096 108.0
589.934692 76.0
608.069336 140.0
609.179016 44.0
620.971069 96.0
631.289917 48.0
648.031677 124.0
681.876282 64.0
689.652527 152.0
690.66687 128.0
703.092529 92.0
706.257263 60.0
722.727722 28.0
725.378662 60.0
739.750671 200.0
743.463379 128.0
746.565308 100.0
766.463684 168.0
771.867554 104.0
777.950867 104.0
792.523865 196.0
792.697571 36.0
815.53186 60.0
818.381897 84.0
821.733215 60.0
823.0802 144.0
825.611694 156.0
855.617004 148.0
871.349182 68.0
874.495117 152.0
875.360535 56.0
885.707642 40.0
906.895874 88.0
932.936829 208.0
937.282349 172.0
949.146667 40.0
955.355957 80.0
959.210815 128.0
980.850403 216.0
984.762573 140.0
986.093323 104.0
990.022156 144.0
994.994446 40.0
1002.630554 164.0
1005.443237 72.0
1007.767029 168.0
1008.335754 108.0
1016.600159 44.0
1018.225342 152.0
1030.832642 48.0
1037.078735 192.0
1047.797241 208.0
1049.588989 176.0
1050.246826 148.0
1050.401611 144.0
1051.266113 128.0
1052.673462 152.0
1056.376709 60.0
1057.411987 180.0
1064.91333 144.0
1066.069702 148.0
1067.09021 92.0
1074.4104 148.0
1075.00415 188.0
1079.354614 152.0
1091.215698 216.0
1093.182373 160.0
1098.044189 104.0
1102.916748 160.0
1104.355957 132.0
1110.007202 160.0
1110.444824 236.0
1110.723389 192.0
1112.687622 164.0
1119.02356 108.0
1119.549683 208.0
1121.648315 120.0
1123.895752 200.0
1125.778198 144.0
1128.925659 252.0
1129.841919 156.0
1130.624878 128.0
1134.208008 204.0
1136.555176 152.0
1140.893921 116.0
1151.621338 188.0
1155.257935 96.0
1155.372925 116.0
1162.704346 176.0
1163.430664 200.0
1164.68689 152.0
1165.563232 56.0
1165.90979 44.0
1166.25647 64.0
1167.88147 212.0
1169.065186 168.0
1172.136353 132.0
1174.379272 168.0
1175.477539 84.0
1181.27124 112.0
1181.671997 108.0
1182.03064 204.0
1184.584351 96.0
1187.243652 128.0
1187.771729 160.0
1188.896973 236.0
1193.451172 124.0
1199.30957 140.0
1199.384277 108.0
1202.358032 212.0
1203.704102 168.0
1207.940674 160.0
1208.480347 128.0
1209.324585 112.0
1210.390625 264.0
1213.723511 176.0
1218.297241 92.0
1219.4646 220.0
1219.770508 176.0
1219.944214 40.0
1222.203491 140.0
1225.17041 216.0
1225.372437 40.0
1231.930298 220.0
1232.873535 180.0
1234.446411 180.0
1241.105469 44.0
1243.139648 196.0
1243.834473 152.0
1245.07019 264.0
1248.450439 284.0
1249.470337 168.0
1250.490601 68.0
1251.455078 168.0
1251.778931 64.0
1252.321167 176.0
1252.905884 184.0
1252.9552 136.0
1255.725342 132.0
1257.609253 136.0
1264.210083 208.0
1266.164795 164.0
1267.899658 152.0
1268.069702 192.0
1269.650757 56.0
1272.609741 136.0
1275.159912 260.0
1276.204834 196.0
1277.428101 168.0
1278.609253 180.0
1278.908081 44.0
1280.032959 128.0
1284.758301 160.0
1285.135742 184.0
1286.513916 208.0
1286.992188 112.0
1293.354736 204.0
1294.493042 212.0
1294.750854 132.0
1299.704224 152.0
1304.781982 240.0
1307.882446 200.0
1312.730957 204.0
1313.921143 120.0
1314.15918 132.0
1316.19458 224.0
1319.525391 156.0
1319.682617 184.0
1321.434814 200.0
1323.217163 160.0
1323.649536 136.0
1323.932007 112.0
1324.880859 136.0
1327.14209 132.0
1330.377808 220.0
1330.624634 168.0
1332.636475 208.0
1336.031616 108.0
1337.392334 152.0
1337.967407 116.0
1338.353271 148.0
1340.560425 72.0
1341.726562 124.0
1343.746704 140.0
1344.42041 120.0
1346.863892 148.0
1347.767456 64.0
1348.178955 116.0
1348.471313 132.0
1350.174683 36.0
1350.840332 128.0
1354.339111 144.0
1355.88501 168.0
1356.918579 176.0
1361.629395 164.0
1361.827759 104.0
1365.120117 64.0
1365.46582 184.0
1366.436768 184.0
1369.977905 124.0
1370.375732 148.0
1370.677734 88.0
1372.380371 80.0
1372.439453 136.0
1374.143188 176.0
1375.43457 204.0
1375.892212 144.0
1379.231201 144.0
1379.526733 156.0
1380.377075 92.0
1380.887451 128.0
1382.329956 120.0
1384.128662 168.0
1384.654541 168.0
1384.706299 48.0
1385.461914 180.0
1387.818604 196.0
1388.359985 208.0
1390.652466 108.0
1392.820557 156.0
1393.875488 152.0
1399.520996 236.0
1400.310303 168.0
1401.636353 120.0
1403.425293 160.0
1403.962158 148.0
1405.744995 176.0
1405.991333 132.0
1406.364502 152.0
1407.753052 152.0
1408.753906 156.0
1411.564087 180.0
1411.751099 152.0
1413.546387 192.0
1413.763428 148.0
1414.257324 204.0
1415.342773 208.0
1416.96814 160.0
1419.501465 184.0
1423.140625 112.0
1423.238281 88.0
1424.965698 224.0
1426.183105 176.0
1426.769409 200.0
1428.145508 160.0
1429.973877 132.0
1430.598633 156.0
1431.133057 216.0
1432.677002 140.0
1433.000977 128.0
1434.515747 144.0
1434.61377 176.0
1437.328857 144.0
1438.785522 200.0
1440.575317 144.0
1442.668579 156.0
1442.721436 200.0
1445.330688 188.0
1446.980713 188.0
1448.84375 84.0
1449.760498 180.0
1449.866577 152.0
1451.094604 132.0
1451.868042 112.0
1452.967896 156.0
1453.362427 148.0
1455.540771 128.0
1458.108398 208.0
1458.230103 84.0
1459.393066 192.0
1459.940552 128.0
1460.263306 140.0
1461.151001 144.0
1462.040283 188.0
1463.044922 116.0
1463.852051 236.0
1463.928223 232.0
1464.453613 156.0
1464.903076 236.0
1465.451538 112.0
1466.114502 172.0
1468.279663 216.0
1468.569458 168.0
1468.836426 140.0
1469.103394 116.0
1469.187256 200.0
1469.950195 160.0
1470.049438 144.0
1471.812744 180.0
1471.904419 132.0
1472.515381 208.0
1472.874268 196.0
1475.074951 160.0
1475.395996 120.0
1475.671265 116.0
1476.711182 180.0
1477.261963 40.0
1477.491455 140.0
1478.034668 220.0
1479.419922 176.0
1481.234741 104.0
1481.663696 176.0
1481.947266 172.0
1482.468262 192.0
1485.105591 212.0
1485.887939 184.0
1486.762695 60.0
1487.537964 212.0
1489.442261 104.0
1492.869995 140.0
1493.700562 124.0
1496.209351 156.0
1497.071655 136.0
1498.338379 216.0
1500.652954 92.0
1500.801147 132.0
1501.826782 160.0
1502.096802 120.0
1503.107422 220.0
1503.485596 200.0
