>compound MLS001056784-01!Chloro-APB hydrobromide
>formula C19H20ClNO2
>ionization [M+H]+
>parentmass 330.12553301209056
#inchi InChI=1S/C19H20ClNO2/c1-2-9-21-10-8-14-15(11-17(22)19(23)18(14)20)16(12-21)13-6-4-3-5-7-13/h2-7,11,16,22-23H,1,8-10,12H2
#inchikey HJWHHQIVUHOBQN
#origInchi InChI=1S/C19H20ClNO2.BrH/c1-2-9-21-10-8-14-15(11-17(22)19(23)18(14)20)16(12-21)13-6-4-3-5-7-13;/h2-7,11,16,22-23H,1,8-10,12H2;1H
#Ion_Source LC-ESI
#Instrument qTof
#Compound_Source NIH Pharmacologically Active Library
#PI Dorrestein
#Data_Collector VP/LMS
#Scan -1
#Precursor_MZ 330.13
#ExactMass 329.118
#Charge 1
#CAS_Number N/A
#Pubmed_ID N/A
#Smiles Oc1cc2C(CN(CC=C)CCc2c(Cl)c1O)c3ccccc3.Br
#INCHI_AUX N/A
#Library_Class 1
#SpectrumID CCMSLIB00000086014
#IonMode Positive
#UpdateWorkflowName UPDATE-SINGLE-ANNOTATED-GOLD
#LibraryQualityString Gold
#TaskID d252d724072548979f1f6f1ced849daf
##Scan# 1393
#SpectrumFile p5-B02_GB2_01_18441.mzXML
#LibraryName Pharm_Active_Library.mgf
#MQScore -1
#Organism Pharm_Active_Library
#TIC_Query 0
#RT_Query -1
#MZErrorPPM -1
#SharedPeaks 0
#MassDiff 0
#LibMZ -1
#SpecMZ 330.13
#SpecCharge 0
#internalFilename spec-00000.mgf

>collision 10
45.272179 148.0
45.619682 144.0
45.638504 144.0
45.719212 120.0
45.861973 172.0
45.914551 132.0
45.941528 204.0
46.1022 180.0
46.183319 96.0
46.261799 144.0
46.321381 148.0
46.348476 140.0
46.366093 132.0
46.41518 132.0
46.482716 112.0
46.511215 100.0
46.698715 176.0
46.712318 152.0
46.785801 156.0
46.822567 152.0
47.151356 168.0
47.453869 188.0
47.666615 176.0
48.021793 236.0
48.307713 196.0
48.407364 172.0
48.493256 136.0
48.56535 228.0
48.618073 152.0
48.89045 216.0
49.100811 172.0
49.204067 120.0
49.357758 168.0
49.497681 172.0
49.518688 128.0
49.573326 88.0
50.059364 132.0
50.100208 216.0
50.132614 132.0
50.231308 96.0
50.409199 232.0
50.495434 188.0
50.607273 220.0
51.187962 268.0
51.281986 228.0
51.463154 84.0
51.63892 152.0
51.759129 172.0
51.965523 176.0
51.997093 192.0
52.087547 192.0
52.172329 152.0
52.192455 72.0
52.211151 176.0
52.421326 200.0
52.50782 128.0
52.636257 156.0
52.709923 148.0
52.828476 228.0
52.842945 196.0
52.947163 148.0
52.993515 112.0
53.005817 196.0
53.073235 160.0
53.118191 104.0
53.131245 168.0
53.182034 268.0
53.510563 188.0
53.675205 132.0
53.800678 80.0
53.837177 200.0
53.886841 172.0
53.971615 52.0
53.989162 92.0
54.208744 180.0
54.552181 124.0
54.805313 196.0
55.067894 128.0
55.31926 244.0
55.501484 52.0
55.525532 148.0
55.587517 120.0
55.615715 204.0
55.822216 136.0
55.878738 116.0
55.898079 140.0
55.915939 160.0
56.137909 104.0
56.288624 152.0
56.360321 172.0
56.458977 128.0
56.765965 192.0
56.78846 220.0
57.055744 56.0
57.067772 180.0
57.145981 124.0
57.206177 196.0
57.273937 40.0
57.293518 96.0
57.503113 108.0
57.523003 112.0
57.66169 200.0
57.710064 72.0
57.965866 100.0
58.263245 176.0
58.462425 108.0
58.60556 76.0
58.72599 156.0
58.742767 192.0
58.898071 172.0
59.403595 104.0
59.463436 164.0
59.558628 144.0
59.72924 192.0
59.880077 172.0
59.903183 160.0
59.932453 184.0
60.011059 224.0
60.56274 164.0
60.674053 192.0
60.744095 208.0
60.8372 96.0
60.879124 228.0
61.001865 164.0
61.324062 148.0
61.985111 72.0
62.112099 168.0
62.385326 40.0
62.517445 100.0
62.531609 180.0
62.79945 44.0
62.848351 128.0
62.919373 176.0
62.955688 164.0
63.085247 188.0
63.335258 164.0
63.378033 204.0
63.393879 220.0
63.476307 52.0
63.534992 44.0
63.698498 208.0
64.048439 236.0
64.300346 168.0
64.540916 176.0
64.557556 196.0
64.640732 156.0
64.671143 184.0
64.861748 128.0
64.880981 60.0
65.036583 120.0
65.054237 164.0
65.272736 180.0
65.872269 36.0
65.891655 124.0
65.97084 188.0
66.082428 196.0
66.198975 120.0
66.38533 124.0
66.614174 144.0
66.727928 72.0
66.942703 112.0
67.005005 160.0
67.404335 120.0
67.816734 164.0
67.93972 112.0
68.097298 180.0
68.201546 196.0
68.350456 132.0
68.589256 148.0
68.744286 144.0
69.101181 132.0
69.48555 44.0
70.01413 172.0
70.100754 124.0
70.137764 76.0
70.300858 40.0
70.39267 164.0
70.54805 184.0
70.638351 180.0
70.732056 148.0
71.005157 120.0
71.033669 184.0
71.330841 164.0
71.334328 160.0
71.391411 132.0
71.60009 216.0
71.616928 52.0
71.959251 148.0
72.263466 156.0
72.627678 152.0
72.709122 172.0
72.780411 120.0
72.861938 92.0
72.902718 112.0
72.954445 212.0
72.970703 236.0
72.992569 112.0
73.212326 192.0
73.278755 164.0
73.292389 140.0
73.485054 180.0
73.787346 204.0
73.949852 168.0
74.013191 132.0
74.052574 168.0
74.07827 184.0
74.098824 72.0
74.467628 160.0
75.104462 136.0
75.11998 200.0
75.140686 160.0
75.15966 136.0
75.176918 192.0
75.282219 44.0
75.422157 216.0
75.442154 212.0
75.686844 52.0
75.8237 144.0
75.870499 136.0
76.327118 188.0
76.358421 192.0
76.589905 120.0
76.607323 172.0
76.788597 212.0
76.875824 180.0
77.005013 172.0
77.081879 204.0
77.179764 168.0
77.211235 84.0
77.775391 112.0
77.849129 144.0
78.001976 204.0
78.016045 168.0
78.093414 96.0
78.165535 236.0
78.183136 88.0
78.387405 108.0
78.516098 132.0
78.549606 192.0
78.561951 184.0
78.655479 200.0
78.743759 132.0
78.860367 88.0
78.954063 352.0
78.973518 104.0
79.208931 188.0
79.230186 240.0
79.513893 192.0
79.526314 168.0
79.744774 124.0
79.840782 168.0
80.28064 68.0
80.343071 28.0
80.496559 76.0
80.623398 172.0
80.668076 160.0
80.800407 120.0
80.832619 172.0
80.85051 148.0
80.929276 32.0
81.0439 236.0
81.146065 148.0
81.409828 184.0
81.585907 180.0
81.665024 188.0
81.994499 160.0
82.01252 208.0
82.102661 208.0
82.351723 124.0
82.389656 192.0
82.507118 136.0
82.521584 184.0
83.01046 152.0
83.079384 228.0
83.092079 28.0
83.249992 120.0
83.331734 72.0
83.498962 224.0
83.515335 56.0
83.635422 160.0
83.66272 236.0
83.782913 140.0
83.804779 156.0
84.043625 68.0
84.202438 144.0
84.606537 196.0
85.004265 184.0
85.141945 152.0
85.259514 188.0
85.366142 176.0
85.417633 136.0
85.465469 192.0
85.483871 248.0
85.570374 160.0
85.708511 48.0
85.782234 160.0
85.808044 192.0
85.826477 196.0
86.036804 160.0
86.947479 192.0
86.990166 180.0
87.014297 148.0
87.039307 164.0
87.11644 184.0
87.190765 216.0
87.568436 96.0
87.594505 204.0
87.633842 176.0
87.786476 144.0
87.814445 284.0
88.346794 180.0
88.946434 124.0
89.045044 308.0
89.143639 168.0
89.220695 200.0
89.282745 92.0
89.316597 136.0
89.408791 128.0
89.514206 184.0
89.612152 196.0
89.853477 136.0
89.87989 220.0
90.047897 148.0
90.095123 52.0
90.700653 188.0
90.742363 264.0
90.767006 48.0
90.930153 240.0
91.055504 1340.0
91.087746 104.0
91.110542 112.0
91.12574 192.0
91.262581 216.0
91.321533 200.0
91.528046 116.0
91.555618 100.0
91.727097 168.0
91.749969 212.0
91.975067 152.0
91.997971 180.0
92.055252 224.0
92.498802 148.0
92.753563 124.0
92.832169 208.0
92.910805 112.0
92.999069 136.0
93.133476 96.0
93.250679 32.0
93.502617 64.0
93.772247 224.0
93.866707 168.0
93.880203 84.0
94.024887 192.0
94.331993 128.0
94.686073 192.0
95.351509 148.0
95.785393 104.0
95.937447 132.0
96.077797 160.0
96.230026 76.0
96.309059 152.0
96.356972 168.0
96.398003 248.0
96.474228 132.0
96.540703 228.0
96.642418 160.0
96.887146 236.0
96.938087 220.0
97.085106 108.0
97.169449 72.0
97.226357 172.0
97.27739 124.0
97.507195 80.0
97.725464 132.0
97.908524 208.0
97.934128 152.0
98.154846 156.0
98.23571 252.0
98.263329 144.0
98.383713 76.0
98.517998 160.0
98.608887 160.0
98.931305 120.0
99.003525 144.0
99.210625 220.0
99.474457 180.0
99.816177 148.0
100.118645 128.0
100.180389 184.0
100.272041 92.0
100.485405 256.0
100.583191 212.0
101.281021 64.0
101.419273 204.0
102.048042 200.0
102.095863 168.0
102.274918 148.0
102.476295 92.0
103.05394 908.0
103.083633 212.0
103.117989 36.0
103.154373 40.0
103.239288 140.0
103.510445 188.0
103.561073 164.0
103.767769 180.0
104.055946 376.0
104.118805 180.0
104.769691 180.0
104.969429 116.0
105.036728 156.0
105.070114 2004.0
105.115265 228.0
105.132622 200.0
105.4226 176.0
105.588188 40.0
105.618866 116.0
105.948441 172.0
105.999657 220.0
106.022202 136.0
106.068375 356.0
106.091888 64.0
106.344185 196.0
106.487907 200.0
106.582405 160.0
106.816772 112.0
106.954628 152.0
107.050781 644.0
107.113182 160.0
107.344009 100.0
107.393501 64.0
107.451256 192.0
107.73822 184.0
108.054771 168.0
108.085556 132.0
108.151779 172.0
108.493568 148.0
108.862885 176.0
108.877426 252.0
109.27652 176.0
109.443031 208.0
109.657593 168.0
109.680321 188.0
109.780594 256.0
109.934959 244.0
110.058113 56.0
110.425903 180.0
110.455185 132.0
110.631279 212.0
110.752411 168.0
110.798492 196.0
110.926323 56.0
110.949379 152.0
111.043739 192.0
111.434174 212.0
111.623344 180.0
111.888451 180.0
111.966354 184.0
111.983208 156.0
112.048508 72.0
112.278259 120.0
112.689873 144.0
112.742699 112.0
112.810333 172.0
112.981628 264.0
113.117058 48.0
113.133995 192.0
113.231392 188.0
113.294937 180.0
113.356384 116.0
113.405121 140.0
113.48568 100.0
113.725388 160.0
113.812424 148.0
114.018478 188.0
114.199188 236.0
114.354507 184.0
114.546135 140.0
114.669716 204.0
114.716606 108.0
114.989624 220.0
115.006699 124.0
115.055061 444.0
115.348457 208.0
115.545189 208.0
115.761368 168.0
115.896317 180.0
116.062813 460.0
116.260849 140.0
116.533546 180.0
116.570076 132.0
116.671097 88.0
116.759254 88.0
116.791512 212.0
116.959976 176.0
117.03199 456.0
117.068604 468.0
117.176834 44.0
117.284584 156.0
117.36866 172.0
117.543373 132.0
117.780853 152.0
117.884552 188.0
118.04055 192.0
118.066696 580.0
118.107231 148.0
118.193771 52.0
118.353943 32.0
118.609573 64.0
118.713638 104.0
118.735329 44.0
118.795471 192.0
118.902374 280.0
119.045296 168.0
119.074783 1132.0
119.204231 168.0
119.228134 180.0
119.297684 120.0
119.365082 172.0
119.643578 56.0
120.024849 128.0
120.0811 568.0
120.205894 148.0
120.466438 176.0
120.511589 148.0
120.592438 140.0
120.881111 144.0
120.953331 240.0
121.027534 304.0
121.073753 200.0
121.59552 164.0
121.628441 156.0
121.646004 44.0
122.054642 36.0
122.100822 120.0
122.199806 260.0
122.252617 200.0
122.37368 52.0
122.510216 116.0
122.907066 196.0
123.047043 372.0
123.11898 152.0
123.430557 140.0
123.50132 152.0
123.811172 96.0
123.886475 140.0
123.999481 208.0
124.236732 124.0
124.289978 124.0
124.465332 88.0
124.847534 124.0
124.87645 124.0
124.894241 120.0
124.928619 228.0
125.016449 6900.0
125.172424 244.0
125.196922 64.0
125.292702 52.0
125.466522 164.0
125.511116 80.0
125.725258 52.0
125.811539 220.0
125.926186 76.0
126.018394 416.0
126.151863 200.0
126.212227 204.0
126.572472 64.0
126.64888 200.0
126.7808 148.0
126.800964 172.0
126.859245 80.0
126.875717 172.0
127.011642 1556.0
127.09024 40.0
127.141853 108.0
127.200203 156.0
128.017471 208.0
128.06311 924.0
128.119934 52.0
128.431015 184.0
128.480637 164.0
128.950302 96.0
129.006805 160.0
129.039047 216.0
129.067963 1044.0
129.187714 188.0
129.212601 116.0
129.569656 220.0
129.887665 100.0
129.953461 108.0
130.001114 168.0
130.037415 448.0
130.06662 624.0
130.221313 164.0
130.255386 64.0
130.564499 152.0
130.73056 200.0
131.010605 132.0
131.049866 664.0
131.079926 300.0
131.113968 156.0
131.284119 80.0
131.436951 60.0
131.455215 188.0
131.564758 36.0
131.822861 60.0
131.950851 152.0
131.997681 180.0
132.047562 212.0
132.08284 376.0
132.174988 144.0
132.399323 136.0
132.520737 124.0
132.798111 152.0
132.871506 196.0
132.988281 176.0
133.052811 532.0
133.084839 156.0
133.551453 116.0
133.606659 136.0
133.657272 184.0
133.804581 120.0
133.820694 108.0
134.040756 232.0
134.061356 424.0
134.129379 84.0
134.359985 232.0
134.699326 136.0
134.833328 172.0
134.937347 232.0
134.973389 208.0
135.043869 376.0
135.070251 128.0
135.177902 144.0
135.24733 104.0
135.947235 116.0
135.972763 88.0
136.000626 172.0
136.021515 108.0
136.053055 2640.0
136.32222 168.0
136.455917 144.0
136.909653 176.0
136.963226 156.0
137.013336 284.0
137.057968 156.0
137.147293 116.0
137.31517 92.0
137.434128 176.0
137.494873 148.0
137.529816 28.0
137.774994 132.0
137.852097 132.0
138.011047 148.0
138.415833 184.0
138.722748 96.0
138.877502 136.0
139.017853 396.0
139.26712 132.0
139.321152 184.0
139.563232 212.0
139.835449 172.0
139.996185 148.0
140.469925 124.0
140.50531 168.0
140.632721 112.0
141.010391 172.0
141.07193 436.0
141.256516 168.0
141.7229 204.0
141.78688 108.0
141.820053 136.0
141.869843 140.0
142.069748 212.0
142.340897 100.0
142.567642 244.0
142.603287 204.0
142.829163 184.0
142.869705 184.0
142.986206 68.0
143.011292 280.0
143.02684 308.0
143.056702 248.0
143.085938 552.0
143.639038 332.0
143.899155 200.0
144.042023 208.0
144.051041 172.0
144.086319 120.0
144.810226 48.0
145.023453 56.0
145.056778 208.0
145.114548 48.0
145.155304 80.0
145.24884 224.0
145.287216 140.0
145.594452 172.0
145.724167 136.0
146.040421 172.0
146.061783 480.0
146.100616 176.0
146.118454 112.0
146.313385 212.0
146.467499 108.0
146.575912 172.0
146.771149 112.0
146.829025 200.0
147.044632 1252.0
147.076874 268.0
147.20549 176.0
147.244125 132.0
147.459152 144.0
147.500244 180.0
147.594528 40.0
147.751724 236.0
147.879974 184.0
147.95105 144.0
147.998596 164.0
148.048859 440.0
148.514771 136.0
148.639328 164.0
148.883667 192.0
148.910385 60.0
149.015793 1248.0
149.05246 608.0
149.087738 108.0
149.18158 124.0
149.299225 332.0
149.316254 120.0
149.34787 76.0
149.379486 40.0
149.564423 60.0
149.666672 144.0
149.859085 164.0
150.020554 156.0
150.061234 196.0
150.610443 176.0
150.931259 160.0
151.014038 464.0
151.067535 184.0
151.11647 176.0
151.618439 232.0
151.794937 188.0
151.841537 192.0
151.873413 72.0
151.996078 236.0
152.019394 196.0
152.062546 240.0
152.285751 140.0
152.384018 184.0
153.011765 2996.0
153.07254 548.0
153.173691 40.0
153.375732 120.0
153.437363 96.0
153.545853 76.0
153.582855 140.0
153.634659 72.0
153.76297 224.0
153.812332 136.0
154.016891 348.0
154.075424 164.0
154.138321 204.0
154.294037 140.0
154.563614 160.0
154.907745 240.0
155.008133 416.0
155.063843 116.0
155.087173 432.0
155.445648 104.0
155.454178 172.0
155.525162 132.0
155.607086 168.0
155.654251 128.0
155.813217 164.0
156.04805 200.0
156.081009 404.0
156.23584 184.0
156.283112 84.0
156.365234 132.0
156.489685 136.0
156.644089 192.0
156.830978 168.0
156.893295 152.0
157.005447 1352.0
157.065018 328.0
157.084641 180.0
157.467194 128.0
157.557114 96.0
157.642059 144.0
157.662064 232.0
157.73703 228.0
157.904556 112.0
158.009308 288.0
158.073715 232.0
158.098862 156.0
158.568008 172.0
158.603104 88.0
159.00209 532.0
159.044128 732.0
159.079697 156.0
159.293137 88.0
159.406189 140.0
159.53688 40.0
159.78334 128.0
159.894058 112.0
159.970947 124.0
160.008331 180.0
160.053391 752.0
160.113205 4220.0
160.269257 116.0
160.312088 48.0
160.392746 56.0
160.4608 100.0
160.519104 164.0
160.634811 120.0
160.665085 168.0
161.05426 1248.0
161.114456 404.0
161.212982 168.0
161.336823 72.0
162.017578 172.0
162.054993 3064.0
162.200027 112.0
162.593155 152.0
162.648987 144.0
162.694687 172.0
162.786087 152.0
162.986755 208.0
163.063553 1412.0
163.144333 136.0
163.177383 164.0
163.197723 124.0
163.223145 84.0
163.480057 32.0
163.594589 36.0
163.833969 108.0
164.00235 304.0
164.027634 208.0
164.069336 180.0
164.241821 116.0
164.73584 140.0
165.007462 392.0
165.044571 336.0
165.070175 2568.0
165.204834 72.0
165.318466 68.0
165.727097 116.0
165.982986 192.0
165.992783 160.0
166.019318 172.0
166.077072 1048.0
166.173218 60.0
166.275864 68.0
166.447845 88.0
167.0065 384.0
167.046677 148.0
167.081528 492.0
167.110992 112.0
167.435318 84.0
167.520325 184.0
167.623367 64.0
167.999725 144.0
168.015747 172.0
168.056549 316.0
168.091507 124.0
168.260437 196.0
168.443787 88.0
168.61174 116.0
168.795273 208.0
168.9608 176.0
169.001984 180.0
169.041016 292.0
169.064301 172.0
169.419022 128.0
169.499344 60.0
169.517471 176.0
169.958282 180.0
170.013672 692.0
170.033539 140.0
170.065353 156.0
170.098419 248.0
170.229935 224.0
170.836411 180.0
170.86763 80.0
170.9561 164.0
171.021729 10788.0
171.07843 200.0
171.120087 176.0
171.443069 92.0
171.669861 192.0
171.758545 168.0
171.815933 172.0
171.855057 52.0
171.886368 88.0
171.921127 264.0
171.973404 180.0
172.024536 816.0
172.072556 168.0
172.189194 60.0
172.283218 56.0
172.385117 120.0
172.403412 124.0
173.017853 2040.0
173.069504 124.0
173.238052 76.0
173.426712 132.0
173.584015 56.0
173.694153 92.0
174.022186 84.0
174.055466 200.0
174.090454 148.0
174.192886 52.0
174.316376 104.0
174.589767 148.0
175.068161 532.0
175.099091 120.0
175.174057 96.0
175.566772 76.0
176.073929 344.0
176.21875 124.0
176.258377 172.0
176.623215 164.0
176.836578 168.0
176.858704 72.0
177.010483 1484.0
177.046677 144.0
177.071762 216.0
177.08316 124.0
177.534286 196.0
178.013931 356.0
178.076279 1044.0
178.269608 32.0
178.721649 140.0
178.785507 228.0
178.907944 76.0
178.974503 88.0
179.014984 172.0
179.085968 1600.0
179.155609 128.0
179.470093 56.0
179.702866 204.0
179.997223 168.0
180.01889 776.0
180.06279 148.0
180.091721 716.0
180.252167 216.0
180.377777 168.0
180.559586 108.0
181.005829 264.0
181.025742 168.0
181.06665 1104.0
181.102325 204.0
181.108963 232.0
181.266312 112.0
181.381546 160.0
181.660416 44.0
181.76506 112.0
181.802628 192.0
182.013123 484.0
182.075623 576.0
182.098358 164.0
182.253738 172.0
182.573624 64.0
182.802277 72.0
183.020401 1052.0
183.079361 288.0
183.454056 144.0
183.758804 124.0
183.810059 128.0
183.990707 152.0
184.015823 964.0
184.084412 196.0
184.121063 76.0
184.150208 208.0
184.228546 92.0
184.252853 136.0
184.447418 92.0
184.577194 204.0
184.758408 100.0
184.939697 68.0
185.022934 1308.0
185.088593 192.0
185.150879 80.0
185.427216 76.0
185.486832 60.0
186.01004 488.0
186.091446 260.0
186.129807 232.0
186.820129 172.0
187.018173 556.0
187.103165 88.0
187.405472 128.0
187.904404 40.0
188.068161 180.0
188.10907 152.0
188.488693 64.0
188.529678 196.0
188.552933 132.0
189.016418 116.0
189.070282 404.0
189.136841 68.0
189.651779 172.0
189.755936 116.0
190.076492 768.0
190.123489 192.0
190.271713 108.0
190.31015 76.0
190.661758 180.0
190.966919 44.0
191.0522 136.0
191.085114 1244.0
191.335648 156.0
191.423752 76.0
192.030045 160.0
192.049347 348.0
192.092972 1340.0
192.129333 52.0
192.648331 188.0
192.827927 172.0
193.065338 1108.0
193.096008 296.0
193.328491 48.0
193.412354 120.0
193.525024 156.0
193.768738 120.0
193.788132 156.0
193.984894 92.0
194.034805 168.0
194.07312 888.0
194.126297 188.0
194.237228 132.0
194.328781 156.0
194.362076 136.0
194.820175 88.0
194.978271 196.0
195.02037 456.0
195.073608 448.0
195.117523 36.0
195.206497 208.0
195.484665 216.0
195.632187 120.0
195.796463 148.0
195.959518 176.0
196.016876 7236.0
196.070694 140.0
196.107758 152.0
196.120163 148.0
196.131287 180.0
196.180969 68.0
196.236725 180.0
196.376144 76.0
196.415207 88.0
196.457047 92.0
196.817062 148.0
196.942734 92.0
197.023651 2232.0
197.060303 188.0
197.086868 216.0
197.185806 180.0
197.20816 60.0
197.238907 132.0
197.292023 268.0
197.373108 48.0
197.552094 64.0
197.745163 56.0
197.840332 128.0
198.03006 3000.0
198.065536 112.0
198.070633 340.0
198.091019 160.0
198.123169 220.0
198.221237 84.0
198.407944 136.0
198.484726 96.0
198.529587 64.0
198.672623 156.0
198.82695 148.0
198.922379 268.0
199.024261 648.0
199.074966 496.0
199.130157 140.0
199.380188 80.0
199.402679 108.0
199.931396 132.0
200.028732 1132.0
200.249527 120.0
200.511536 116.0
200.787811 180.0
201.018158 108.0
201.046387 424.0
201.230835 132.0
201.41156 60.0
201.49913 68.0
201.526733 184.0
202.026077 132.0
202.049408 112.0
202.083588 500.0
202.367401 152.0
202.97374 160.0
203.04039 192.0
203.094498 456.0
203.649155 128.0
203.679733 120.0
203.759933 156.0
203.898621 224.0
204.029922 148.0
204.084885 156.0
204.143661 172.0
204.652985 128.0
204.672913 168.0
204.809616 92.0
205.064468 448.0
205.08371 280.0
205.103607 180.0
206.074539 168.0
206.093979 460.0
206.482117 200.0
206.593674 140.0
206.891281 40.0
207.017273 144.0
207.082657 1224.0
207.240692 56.0
207.329514 104.0
208.017792 144.0
208.085876 460.0
208.104538 260.0
208.333755 60.0
208.790756 184.0
208.928818 116.0
209.050446 388.0
209.097305 532.0
209.116547 268.0
209.150391 48.0
209.285706 152.0
209.374969 32.0
209.562195 168.0
209.934036 80.0
210.034637 488.0
210.068558 1908.0
210.099716 220.0
210.283112 60.0
210.511169 56.0
210.860733 116.0
210.976349 88.0
211.036438 464.0
211.075668 2476.0
211.546234 100.0
211.714157 128.0
211.861877 76.0
212.03241 568.0
212.079559 572.0
212.163269 64.0
212.868301 224.0
212.99028 40.0
213.043991 540.0
213.087997 196.0
213.647232 152.0
214.04808 304.0
214.121674 76.0
215.028366 284.0
215.089661 188.0
215.460526 68.0
216.036423 132.0
216.074463 36.0
216.106644 120.0
216.326126 60.0
216.756653 124.0
216.838715 104.0
217.026321 84.0
217.070267 364.0
218.030228 168.0
218.074295 524.0
218.147797 100.0
218.394791 176.0
218.898041 188.0
219.0784 804.0
219.110092 64.0
219.177856 112.0
219.283951 44.0
219.41954 64.0
219.569931 152.0
219.652512 60.0
220.000717 176.0
220.086014 836.0
220.795532 124.0
220.922714 36.0
221.048172 188.0
221.09436 556.0
221.126877 60.0
221.156479 72.0
221.260086 52.0
221.348907 116.0
221.704376 96.0
221.971161 128.0
222.066895 184.0
222.10321 160.0
222.775467 196.0
223.076462 1968.0
223.135056 120.0
223.432465 68.0
223.622894 120.0
223.813416 116.0
223.837234 88.0
224.082138 1020.0
224.480881 116.0
224.615082 148.0
224.832886 80.0
225.048721 236.0
225.091309 1388.0
225.185165 124.0
225.382324 104.0
225.498871 60.0
225.675247 132.0
225.779892 92.0
226.022202 100.0
226.058105 276.0
226.093399 320.0
226.123352 276.0
226.246674 172.0
226.567108 52.0
226.79184 60.0
226.998703 168.0
227.033966 208.0
227.065323 204.0
227.102509 300.0
227.143372 168.0
227.24765 148.0
227.352676 60.0
227.938232 40.0
227.968292 88.0
228.032562 292.0
228.064453 228.0
228.449341 60.0
228.702103 148.0
228.777359 56.0
228.86467 40.0
229.040665 512.0
229.741684 176.0
230.037445 188.0
230.061569 256.0
231.041794 164.0
231.210129 108.0
232.053741 172.0
232.510239 172.0
232.935303 196.0
233.011261 196.0
233.03508 452.0
233.10849 92.0
233.400299 124.0
234.043518 180.0
234.090118 428.0
234.444382 124.0
234.666901 164.0
235.031082 220.0
235.075302 436.0
235.289276 80.0
236.034576 120.0
236.041107 112.0
236.083847 2152.0
236.184631 80.0
237.04184 40.0
237.093246 1160.0
237.149094 172.0
237.44342 132.0
237.609055 132.0
237.652008 68.0
238.03569 140.0
238.095627 2112.0
238.15239 140.0
238.180038 64.0
238.235321 136.0
238.456558 248.0
238.634842 68.0
239.031631 128.0
239.074707 328.0
239.108383 176.0
239.816925 84.0
240.061554 272.0
240.106827 196.0
240.260956 108.0
240.41214 44.0
240.588074 36.0
240.822754 200.0
240.865997 68.0
241.038635 388.0
241.490341 48.0
242.058044 144.0
242.127899 112.0
242.561661 80.0
242.623657 68.0
242.952377 120.0
243.058975 432.0
243.237869 88.0
243.439667 52.0
243.700592 116.0
244.029907 572.0
244.092224 140.0
244.291275 76.0
245.034698 1088.0
245.905304 124.0
246.020721 172.0
246.049011 472.0
246.089478 124.0
246.12381 32.0
246.233109 120.0
246.254974 180.0
247.05159 1620.0
247.858261 156.0
247.953796 52.0
248.00708 56.0
248.054962 392.0
248.116791 132.0
248.192047 60.0
248.671997 76.0
249.057861 256.0
249.224686 96.0
250.045425 124.0
250.067459 128.0
250.093674 352.0
250.265778 116.0
250.30986 44.0
251.100845 120.0
252.100555 1680.0
252.253296 88.0
252.291855 64.0
252.480942 48.0
253.039993 264.0
253.109985 848.0
253.348206 52.0
253.433731 144.0
253.58902 56.0
253.715805 140.0
253.842636 160.0
254.0495 160.0
254.118408 1420.0
254.737625 64.0
255.055603 264.0
255.119537 420.0
255.179367 236.0
255.217514 120.0
255.662842 60.0
255.691498 76.0
255.882477 124.0
256.047333 188.0
256.863983 136.0
257.036346 320.0
257.2948 68.0
258.044708 356.0
258.3078 64.0
259.049774 548.0
259.108093 104.0
259.877563 152.0
260.046143 440.0
260.336578 152.0
260.535706 36.0
261.053741 248.0
262.002686 104.0
262.045258 304.0
262.099335 116.0
262.976471 112.0
263.050446 136.0
263.241211 108.0
263.338074 84.0
263.499603 56.0
263.635315 128.0
265.132599 164.0
266.163635 216.0
267.036102 116.0
267.094666 144.0
267.752106 96.0
267.857208 88.0
268.048553 188.0
269.373138 40.0
269.526672 96.0
270.046448 184.0
270.074005 184.0
270.661682 48.0
271.058228 276.0
271.451355 108.0
271.920471 176.0
272.054657 780.0
272.087891 140.0
272.390015 64.0
272.518127 52.0
273.061676 880.0
273.712097 160.0
274.056274 264.0
275.027466 52.0
275.056976 176.0
275.069946 156.0
275.077545 280.0
275.499664 44.0
276.068146 328.0
276.149323 160.0
277.187012 80.0
279.125519 136.0
280.193909 72.0
281.147522 140.0
281.902222 136.0
283.059631 172.0
283.384521 92.0
283.900726 176.0
284.05835 136.0
286.066986 344.0
286.185638 72.0
286.869537 184.0
287.065125 184.0
287.723022 56.0
287.766937 164.0
287.83783 60.0
287.908752 68.0
288.078705 6156.0
288.142761 140.0
288.189117 40.0
288.290466 76.0
288.506775 68.0
288.61499 56.0
288.678284 84.0
288.831421 64.0
288.872009 76.0
289.082275 1504.0
289.386414 180.0
289.938538 44.0
290.077362 1988.0
290.287689 32.0
290.565826 36.0
291.077393 440.0
291.176819 156.0
292.121704 192.0
292.598145 148.0
292.642395 132.0
293.44989 36.0
293.664703 52.0
294.026337 60.0
294.125336 188.0
294.15329 164.0
294.716125 68.0
295.14679 164.0
295.4888 132.0
296.091248 84.0
297.088684 52.0
297.452423 164.0
298.263062 100.0
300.12207 148.0
302.076752 92.0
302.118286 144.0
302.872894 104.0
305.99826 68.0
306.904114 164.0
308.045319 144.0
313.920593 44.0
317.878937 116.0
319.026123 124.0
321.483704 132.0
328.927429 124.0
329.725647 52.0
329.971436 80.0
330.128204 5184.0
330.199249 28.0
330.229309 52.0
330.30777 44.0
330.387329 176.0
330.539307 40.0
330.604431 44.0
330.846924 60.0
330.996918 84.0
331.128845 592.0
331.212677 224.0
331.306854 48.0
331.357574 60.0
331.531494 44.0
331.607605 64.0
331.79245 36.0
332.121674 1700.0
332.271179 44.0
332.641327 100.0
332.920898 68.0
332.94632 44.0
333.125 592.0
334.091248 56.0
339.394257 112.0
350.576324 64.0
353.144836 76.0
357.135559 64.0
358.815002 96.0
365.70166 56.0
366.394684 100.0
371.716919 132.0
373.638 96.0
401.635223 68.0
431.362762 76.0
445.224945 52.0
445.40976 64.0
451.808777 120.0
470.990204 52.0
513.151917 76.0
514.013428 48.0
551.539856 80.0
553.233154 52.0
567.304504 76.0
567.579468 48.0
602.246887 40.0
621.540283 84.0
623.526611 76.0
630.553711 132.0
642.332825 112.0
643.125 80.0
656.909729 224.0
666.028015 36.0
693.62854 108.0
700.549072 104.0
703.533813 84.0
710.545837 40.0
751.83606 80.0
758.974609 44.0
759.742432 172.0
770.924988 88.0
771.140503 120.0
776.472046 112.0
804.234619 68.0
863.361816 80.0
865.374695 152.0
909.40448 40.0
920.258057 84.0
921.308899 68.0
924.047546 180.0
939.704163 52.0
944.426208 224.0
981.867554 224.0
986.938049 228.0
995.579102 192.0
1005.065247 64.0
1005.551147 152.0
1011.429138 120.0
1017.508301 100.0
1018.511658 128.0
1018.664124 200.0
1019.134216 176.0
1026.575195 112.0
1036.380493 112.0
1043.112671 108.0
1052.667114 164.0
1053.875 184.0
1054.379028 172.0
1067.207275 184.0
1070.323853 152.0
1073.712402 144.0
1083.942993 100.0
1096.527466 192.0
1098.301025 172.0
1101.581665 136.0
1104.807495 156.0
1106.091309 148.0
1109.70166 128.0
1110.650024 168.0
1111.008179 148.0
1111.857544 120.0
1113.357788 168.0
1114.998779 68.0
1116.155396 108.0
1118.157715 108.0
1118.77002 160.0
1120.521606 152.0
1136.326416 304.0
1138.857056 72.0
1140.839355 96.0
1141.410767 164.0
1144.048218 188.0
1148.333618 164.0
1150.047363 184.0
1152.464844 204.0
1152.796021 88.0
1170.52771 192.0
1176.834717 196.0
1186.330444 196.0
1186.94751 260.0
1187.290405 180.0
1187.386475 116.0
1204.483032 104.0
1208.119019 48.0
1211.670532 128.0
1213.916138 188.0
1214.519531 240.0
1215.095337 184.0
1219.539429 192.0
1225.44043 140.0
1226.813354 152.0
1227.168945 204.0
1231.10437 180.0
1231.670044 156.0
1232.047241 200.0
1233.200684 112.0
1238.874878 68.0
1244.225708 168.0
1245.679321 144.0
1251.36853 172.0
1258.27771 160.0
1260.869995 216.0
1261.053833 164.0
1265.135132 204.0
1265.928101 116.0
1269.109619 164.0
1272.855957 164.0
1273.83606 60.0
1274.347534 144.0
1277.127075 216.0
1283.657593 156.0
1287.175537 152.0
1290.612305 160.0
1291.813843 140.0
1292.042725 116.0
1302.343506 160.0
1304.700317 48.0
1306.944214 128.0
1307.577515 84.0
1307.678223 220.0
1309.067627 104.0
1309.701416 144.0
1309.838257 236.0
1310.508301 184.0
1314.986328 40.0
1316.386841 116.0
1317.325806 260.0
1317.62915 72.0
1320.788208 188.0
1322.481201 180.0
1322.901123 100.0
1324.269531 152.0
1326.414307 68.0
1327.233521 204.0
1328.190796 120.0
1329.532959 200.0
1329.656372 188.0
1331.507568 148.0
1333.200317 164.0
1335.534058 220.0
1339.391724 176.0
1340.214844 136.0
1342.503662 152.0
1342.591187 144.0
1343.940674 132.0
1344.721436 152.0
1346.042847 160.0
1346.334961 108.0
1347.759277 144.0
1347.905396 160.0
1349.286865 116.0
1353.047119 144.0
1355.280029 160.0
1358.76355 168.0
1359.636719 48.0
1359.849487 68.0
1362.140259 140.0
1365.403687 68.0
1368.759277 120.0
1372.760498 52.0
1373.881592 148.0
1377.882812 128.0
1379.878296 60.0
1380.329224 196.0
1382.060059 196.0
1382.259888 188.0
1382.785278 244.0
1385.450928 92.0
1386.221436 36.0
1386.317749 156.0
1391.153564 164.0
1392.86145 72.0
1394.629761 80.0
1396.377075 156.0
1397.641602 76.0
1398.921753 144.0
1399.293945 72.0
1399.964111 172.0
1402.959229 188.0
1403.71228 160.0
1404.353638 172.0
1405.069702 196.0
1408.869629 212.0
1411.051758 136.0
1412.263184 176.0
1413.392822 120.0
1414.822266 116.0
1416.544678 200.0
1419.790039 48.0
1420.547485 76.0
1420.885132 152.0
1426.043823 156.0
1426.592529 244.0
1426.817993 164.0
1430.782715 200.0
1430.910645 120.0
1434.684937 172.0
1436.404297 144.0
1436.909668 252.0
1438.011353 216.0
1438.426514 208.0
1438.992676 224.0
1440.495483 44.0
1441.046997 108.0
1442.497925 144.0
1444.040405 112.0
1447.476074 160.0
1452.478027 76.0
1453.47937 208.0
1453.729858 224.0
1454.511475 128.0
1457.754395 64.0
1458.704468 188.0
1461.495483 164.0
1462.294556 140.0
1465.142334 144.0
1465.629883 192.0
1466.58252 112.0
1471.371582 108.0
1472.594727 48.0
1478.466064 176.0
1478.703369 148.0
1479.361572 160.0
1482.003784 208.0
1485.284912 116.0
1485.821777 216.0
1487.755737 240.0
1491.243042 184.0
1492.64978 136.0
1497.536499 176.0
1498.360718 108.0
1498.599609 208.0
1499.323853 252.0
1499.701538 172.0
1502.276855 144.0
1502.570068 76.0
