>compound MLS001074892-01!PD 173074
>formula C28H41N7O3
>ionization [M+H]+
>parentmass 524.3343646240905
#inchi InChI=1S/C28H41N7O3/c1-8-35(9-2)13-11-10-12-29-26-30-18-20-16-23(19-14-21(37-6)17-22(15-19)38-7)25(31-24(20)32-26)33-27(36)34-28(3,4)5/h14-18H,8-13H2,1-7H3,(H3,29,30,31,32,33,34,36)
#inchikey DXCUKNQANPLTEJ
#Ion_Source LC-ESI
#Instrument qTof
#Compound_Source NIH Pharmacologically Active Library
#PI Dorrestein
#Data_Collector VP/LMS
#Scan -1
#Precursor_MZ 524.341
#ExactMass 523.327
#Charge 1
#CAS_Number N/A
#Pubmed_ID N/A
#Smiles CCN(CC)CCCCNc1ncc2cc(c(NC(=O)NC(C)(C)C)nc2n1)c3cc(OC)cc(OC)c3
#INCHI_AUX N/A
#Library_Class 1
#SpectrumID CCMSLIB00000085651
#IonMode Positive
#UpdateWorkflowName UPDATE-SINGLE-ANNOTATED-GOLD
#LibraryQualityString Gold
#TaskID d252d724072548979f1f6f1ced849daf
##Scan# 1763
#SpectrumFile p4-D10_GD10_01_18370.mzXML
#LibraryName Pharm_Active_Library.mgf
#MQScore -1
#Organism Pharm_Active_Library
#TIC_Query 0
#RT_Query -1
#MZErrorPPM -1
#SharedPeaks 0
#MassDiff 0
#LibMZ -1
#SpecMZ 524.341
#SpecCharge 0
#internalFilename spec-00000.mgf

>collision 10
45.103588 152.0
45.198544 108.0
45.315033 128.0
45.653866 208.0
46.140064 144.0
46.207428 84.0
46.984818 128.0
47.158241 192.0
47.304604 156.0
47.403217 132.0
47.470387 160.0
47.65707 148.0
47.915733 128.0
47.977749 124.0
48.273228 228.0
48.428234 176.0
48.469795 148.0
48.537716 252.0
48.716759 148.0
49.039585 40.0
49.084198 100.0
49.696857 80.0
49.751595 204.0
49.792313 196.0
50.912273 176.0
50.947781 244.0
51.008888 124.0
51.023106 220.0
51.155407 116.0
51.242283 148.0
51.349194 184.0
51.660583 140.0
51.729275 52.0
51.796577 252.0
52.25597 152.0
52.480659 152.0
52.674049 140.0
52.921352 60.0
53.198261 136.0
53.541412 188.0
53.57637 236.0
53.720695 128.0
53.786362 160.0
54.015778 168.0
54.059669 168.0
54.107975 148.0
54.467258 152.0
54.967831 72.0
55.07856 120.0
55.263355 84.0
55.968399 72.0
56.378624 172.0
56.522182 72.0
56.57756 148.0
56.775349 160.0
56.808346 168.0
57.214108 156.0
57.482395 128.0
57.610733 80.0
57.653042 152.0
57.725605 184.0
57.960232 140.0
58.087585 152.0
58.519192 56.0
58.662399 208.0
58.692894 124.0
59.138985 136.0
59.278351 192.0
59.425552 224.0
59.440895 88.0
59.595982 140.0
59.680519 68.0
59.768196 104.0
59.829762 116.0
60.080963 48.0
60.101021 208.0
60.332695 164.0
60.357433 88.0
60.386814 168.0
60.786514 152.0
60.932468 104.0
63.043182 108.0
63.419857 124.0
63.722961 208.0
63.856491 132.0
64.670212 176.0
64.721436 144.0
64.844788 168.0
64.89769 164.0
65.258957 132.0
65.419838 124.0
65.434326 156.0
65.542244 148.0
65.860062 184.0
65.932762 164.0
66.100952 188.0
66.117134 108.0
66.285553 128.0
66.906006 124.0
66.919029 92.0
67.132492 156.0
67.351189 60.0
67.433701 152.0
67.449226 108.0
67.575157 52.0
67.594788 192.0
67.769997 160.0
68.116158 160.0
68.384171 208.0
68.524147 120.0
68.74015 172.0
68.812775 196.0
69.04081 120.0
69.564392 220.0
69.93174 180.0
70.173294 168.0
70.426949 140.0
70.550606 108.0
71.267929 44.0
71.301537 36.0
71.545441 100.0
71.887604 256.0
72.205208 140.0
72.281334 156.0
72.565895 120.0
72.598106 152.0
72.633728 244.0
72.811943 76.0
72.956375 132.0
73.240555 160.0
73.475807 200.0
73.733643 156.0
73.774666 160.0
74.607841 140.0
74.702423 104.0
75.143456 128.0
75.961754 52.0
76.255196 124.0
76.314301 160.0
76.397781 124.0
76.62236 136.0
76.833313 108.0
76.899818 180.0
77.130188 120.0
77.144173 124.0
77.334831 176.0
77.608124 184.0
77.799355 160.0
77.823936 152.0
78.196617 152.0
78.214218 216.0
78.235344 132.0
78.444977 140.0
78.483765 208.0
78.549019 120.0
78.695496 76.0
78.827972 96.0
78.865089 160.0
79.164085 248.0
79.192421 132.0
79.27037 172.0
79.293411 212.0
79.351906 216.0
79.568359 108.0
79.740662 212.0
79.758438 116.0
79.989685 128.0
80.207001 136.0
80.224823 48.0
80.328255 176.0
80.460312 112.0
80.483528 196.0
81.073845 252.0
81.206512 152.0
81.484756 196.0
81.511703 184.0
81.563828 120.0
81.671715 168.0
81.813873 184.0
81.894905 180.0
81.911118 224.0
81.963364 152.0
82.329559 236.0
82.434334 188.0
82.879478 88.0
82.892159 192.0
83.066216 112.0
83.155121 52.0
83.383965 132.0
83.429413 188.0
83.654991 132.0
83.675011 164.0
83.713249 172.0
83.891808 72.0
83.904572 144.0
84.119835 184.0
84.262283 120.0
84.350006 160.0
84.481667 164.0
84.899284 80.0
84.998344 176.0
85.073593 76.0
85.31057 280.0
85.485306 124.0
85.607208 164.0
85.701591 164.0
85.776306 196.0
85.947823 192.0
85.992111 44.0
86.036415 256.0
86.115814 164.0
86.485611 136.0
87.051071 148.0
87.272194 184.0
87.415428 108.0
87.993248 140.0
88.047401 124.0
88.484962 204.0
88.565483 200.0
89.276802 96.0
89.402847 168.0
89.495087 136.0
89.868286 152.0
90.23848 188.0
90.393578 48.0
90.442787 112.0
90.983047 136.0
91.036209 48.0
91.093193 120.0
91.119789 44.0
91.420219 104.0
91.837456 188.0
92.049294 244.0
92.077942 56.0
92.226967 128.0
92.466049 96.0
92.521561 68.0
92.661369 120.0
92.782112 144.0
93.056465 84.0
93.262016 144.0
93.37738 116.0
93.57943 160.0
93.735451 212.0
94.639442 148.0
95.120239 144.0
95.70153 104.0
95.722954 144.0
95.779434 200.0
95.863205 68.0
95.95092 176.0
96.832207 164.0
96.943878 116.0
97.022278 136.0
97.132095 124.0
97.190956 136.0
97.216461 188.0
97.402985 160.0
97.474854 172.0
97.507118 164.0
97.851364 112.0
97.904526 128.0
98.096756 1024.0
98.284981 76.0
98.598969 132.0
98.770981 132.0
98.947105 48.0
99.10199 176.0
99.311729 76.0
99.389099 144.0
99.430771 136.0
99.57769 68.0
99.752548 156.0
100.078819 80.0
100.114716 164.0
100.50737 132.0
100.665062 216.0
100.796906 44.0
100.814888 56.0
100.906837 128.0
101.273048 172.0
101.359192 184.0
101.457397 56.0
101.537605 88.0
101.575714 144.0
101.730232 208.0
102.105972 132.0
102.156258 176.0
102.176376 176.0
102.270325 152.0
102.301155 72.0
102.673912 140.0
102.718285 136.0
103.215118 136.0
103.364799 152.0
103.524727 152.0
104.183922 192.0
104.248947 40.0
104.320305 180.0
104.360741 108.0
104.892097 192.0
105.047073 184.0
105.094002 228.0
105.15522 104.0
105.30426 256.0
105.494293 156.0
105.725426 160.0
105.786827 172.0
105.827774 152.0
106.126923 148.0
106.284859 120.0
106.888977 156.0
107.010414 224.0
107.082489 220.0
107.488617 132.0
107.740509 40.0
107.796295 164.0
107.839699 124.0
107.986496 104.0
108.172722 44.0
108.421272 204.0
108.48967 220.0
108.553947 196.0
108.732361 244.0
108.769714 156.0
109.253906 116.0
109.539108 88.0
109.601608 36.0
109.703728 184.0
109.922729 204.0
110.077202 108.0
110.424118 112.0
110.493149 188.0
110.649445 188.0
110.86586 108.0
110.920357 224.0
110.941315 60.0
111.249245 184.0
111.37989 72.0
111.794083 196.0
112.57618 160.0
112.631096 212.0
112.878372 176.0
112.988358 156.0
113.244492 176.0
113.3144 40.0
113.405518 140.0
113.488197 336.0
113.553932 44.0
113.7173 176.0
114.199608 156.0
114.357605 140.0
114.374084 128.0
114.429436 108.0
114.452858 228.0
114.51461 84.0
114.555084 88.0
114.862045 96.0
115.060509 184.0
115.819664 176.0
115.858223 180.0
115.88607 120.0
115.911789 40.0
116.078987 188.0
116.284935 208.0
116.424484 124.0
116.781258 204.0
117.116852 144.0
117.36055 176.0
117.520164 152.0
118.287376 28.0
118.580215 200.0
119.052734 68.0
119.296089 200.0
119.687706 244.0
119.787888 180.0
120.060341 168.0
120.145409 132.0
120.210869 232.0
120.328735 116.0
120.477242 160.0
120.520935 176.0
120.584312 148.0
120.601799 156.0
120.7286 180.0
120.964828 120.0
120.995552 164.0
121.054672 108.0
121.442581 128.0
121.622505 164.0
121.703735 248.0
122.240074 144.0
122.380951 60.0
122.618866 100.0
122.651924 172.0
122.720268 92.0
122.92099 44.0
123.037971 128.0
123.181511 136.0
123.232323 124.0
123.261047 48.0
123.506454 120.0
123.583878 132.0
123.982468 144.0
124.099953 196.0
124.264084 148.0
124.326218 128.0
124.369843 164.0
124.490494 144.0
124.903885 40.0
124.92691 172.0
124.972855 184.0
125.061867 156.0
125.360306 120.0
125.572098 184.0
125.736313 132.0
125.774483 204.0
125.958237 64.0
125.99398 120.0
126.13253 204.0
126.233139 168.0
126.257744 160.0
126.397896 120.0
126.893684 220.0
127.052917 160.0
127.618896 180.0
127.720093 220.0
127.801079 144.0
127.825836 156.0
127.985649 112.0
128.00592 188.0
128.030685 120.0
128.091507 128.0
128.114471 204.0
128.143051 18076.0
128.210922 52.0
128.234222 84.0
128.307846 72.0
128.365601 156.0
128.384506 80.0
128.484665 148.0
128.526627 48.0
128.542419 188.0
128.589813 56.0
128.614334 88.0
128.700424 144.0
128.718491 88.0
128.846039 144.0
128.863052 84.0
128.912766 124.0
129.089081 68.0
129.147675 2952.0
129.18634 56.0
129.220276 68.0
129.258743 84.0
129.383224 128.0
129.403595 72.0
129.433044 36.0
129.55307 180.0
129.684509 116.0
129.743439 60.0
129.766113 236.0
129.829605 76.0
129.904449 124.0
129.983856 148.0
130.09053 92.0
130.147629 136.0
130.288116 144.0
130.581345 136.0
130.931229 228.0
131.189301 140.0
131.613663 196.0
131.860626 156.0
132.089035 156.0
132.211044 148.0
132.237762 76.0
132.299561 140.0
132.927582 176.0
133.455887 180.0
133.727341 164.0
133.780289 148.0
133.856262 108.0
134.008286 188.0
134.326431 76.0
134.778931 144.0
134.83902 140.0
135.774353 180.0
136.057434 76.0
136.252518 124.0
136.338486 196.0
136.375671 136.0
136.394272 48.0
136.6082 232.0
136.754807 220.0
136.929626 88.0
136.977478 88.0
137.204376 88.0
137.386292 80.0
137.82756 108.0
137.848587 124.0
137.96312 136.0
137.984161 152.0
138.065567 220.0
138.249069 140.0
138.377213 152.0
138.402969 196.0
138.578644 92.0
138.9702 124.0
139.223709 96.0
139.444168 272.0
139.838867 128.0
140.136398 172.0
140.629257 108.0
140.648148 208.0
141.099289 168.0
141.208115 80.0
141.253052 164.0
141.281448 64.0
141.324036 104.0
141.380829 176.0
141.544159 176.0
141.56311 136.0
141.731293 152.0
142.124908 104.0
142.333786 76.0
142.400284 124.0
142.528564 104.0
142.873306 208.0
143.225616 132.0
143.297089 128.0
143.313766 128.0
143.666626 148.0
143.688095 172.0
143.875671 128.0
144.34494 132.0
144.550659 120.0
144.687088 260.0
144.742157 104.0
145.310211 184.0
145.396606 212.0
145.483017 152.0
145.579056 248.0
145.703949 188.0
146.167999 168.0
146.189667 44.0
146.384644 200.0
146.529175 136.0
146.611099 140.0
147.074173 160.0
147.35672 136.0
147.726608 260.0
147.961349 188.0
148.196274 104.0
148.329575 44.0
148.591888 144.0
148.714981 192.0
148.958054 136.0
149.07225 112.0
149.344543 252.0
149.392853 116.0
149.546494 208.0
149.583008 96.0
149.736404 140.0
150.050751 116.0
150.094635 128.0
150.238525 256.0
150.526535 36.0
151.01532 100.0
151.590637 136.0
151.664169 32.0
151.872589 176.0
151.938812 76.0
152.466736 208.0
152.906967 124.0
153.143326 192.0
153.224625 116.0
153.355225 184.0
153.508072 176.0
153.621536 164.0
154.167206 48.0
154.201797 212.0
154.411957 152.0
154.49852 136.0
154.535645 168.0
154.790588 140.0
154.946625 152.0
154.968933 200.0
155.068054 144.0
155.333359 176.0
155.497116 140.0
155.571594 100.0
155.621246 168.0
155.792603 132.0
156.065994 76.0
156.170441 124.0
156.279907 224.0
156.31723 128.0
156.548737 124.0
156.760483 196.0
156.860184 188.0
156.95491 104.0
157.455292 204.0
157.721359 104.0
157.741348 32.0
157.891373 144.0
157.966415 76.0
158.05397 204.0
158.41951 212.0
158.65007 168.0
158.705231 136.0
158.792999 92.0
158.865738 176.0
159.260391 180.0
159.33519 44.0
159.604126 112.0
159.770126 212.0
160.034393 184.0
160.25856 128.0
160.344238 168.0
160.39212 96.0
160.477844 248.0
160.659424 124.0
160.699799 132.0
160.767929 132.0
160.846161 236.0
161.020386 108.0
161.171951 100.0
161.427261 96.0
161.677704 56.0
161.84845 216.0
161.880234 184.0
162.204529 136.0
162.453049 120.0
162.486023 124.0
162.572296 156.0
162.867432 172.0
163.306534 188.0
163.672989 180.0
163.716278 188.0
163.777405 116.0
163.930267 220.0
164.131653 188.0
164.338257 104.0
164.527115 204.0
164.713531 148.0
164.810623 164.0
164.874496 140.0
164.930725 140.0
165.035553 48.0
165.296448 184.0
165.332275 52.0
165.434662 196.0
166.047058 104.0
166.365234 188.0
166.506454 124.0
166.981934 144.0
167.182602 192.0
167.473526 112.0
168.311676 120.0
168.368027 200.0
168.468216 164.0
168.589478 176.0
168.859543 184.0
169.035446 152.0
169.092392 96.0
169.496368 160.0
169.609314 132.0
169.721878 144.0
169.85675 148.0
170.310989 56.0
170.394119 168.0
170.529251 160.0
170.615021 100.0
170.882904 120.0
171.033844 164.0
171.909546 140.0
172.008728 304.0
172.060944 144.0
172.303818 144.0
172.376984 132.0
172.499817 128.0
172.690704 140.0
173.216827 104.0
173.269211 168.0
173.830322 132.0
174.108597 104.0
174.274094 120.0
174.410736 112.0
174.721039 152.0
174.760513 56.0
175.252609 152.0
175.347748 164.0
175.424179 192.0
175.579758 124.0
175.629868 188.0
175.716919 184.0
175.851501 148.0
176.065353 164.0
176.406204 176.0
176.55426 184.0
177.18689 156.0
177.208084 112.0
177.237228 168.0
177.677368 112.0
177.910904 156.0
178.319977 112.0
178.532654 128.0
178.597046 152.0
178.67836 180.0
178.77475 176.0
179.171478 236.0
179.224762 92.0
179.843475 124.0
179.896866 92.0
180.250519 144.0
180.88327 136.0
180.966263 80.0
180.993027 172.0
181.589523 164.0
182.056412 172.0
182.374649 196.0
183.149567 184.0
183.286972 108.0
183.510681 224.0
183.575394 144.0
183.818176 140.0
184.069229 152.0
184.093521 84.0
184.216049 44.0
184.233978 224.0
184.404221 268.0
184.481155 192.0
184.755737 136.0
184.804443 52.0
184.828796 92.0
185.43811 172.0
185.470642 124.0
185.497742 84.0
185.530273 112.0
185.579086 128.0
185.812332 168.0
185.88559 160.0
186.029434 104.0
186.143478 72.0
186.657059 152.0
186.719604 148.0
186.812073 144.0
187.500961 52.0
187.619858 116.0
187.776321 96.0
188.068268 148.0
189.13974 64.0
189.167114 68.0
189.309494 144.0
189.339615 124.0
189.65744 148.0
190.019424 180.0
190.153885 112.0
190.387238 152.0
190.414703 112.0
190.585022 88.0
190.733429 160.0
191.443268 136.0
191.536911 60.0
191.842789 208.0
192.162704 176.0
192.449753 212.0
192.836502 52.0
192.866898 100.0
193.171066 136.0
193.339844 88.0
193.782898 124.0
193.843857 88.0
194.010162 152.0
194.269531 152.0
194.334656 124.0
194.448425 152.0
194.870514 196.0
194.976105 160.0
195.226303 132.0
195.290283 120.0
195.429367 132.0
196.142319 108.0
196.577393 120.0
196.834213 68.0
197.01297 144.0
197.306412 72.0
197.513336 136.0
197.789185 256.0
197.835144 180.0
198.068268 192.0
198.1884 216.0
198.210449 124.0
198.23848 112.0
198.344986 216.0
198.726379 152.0
199.122192 188.0
199.282303 152.0
199.360992 196.0
199.687103 144.0
199.836197 116.0
199.954391 112.0
200.63887 68.0
200.669891 84.0
200.898331 132.0
200.97168 144.0
200.994263 112.0
201.157944 140.0
201.375366 128.0
201.406433 140.0
201.742706 140.0
201.957611 184.0
202.217926 112.0
202.518036 104.0
202.557693 104.0
202.682358 220.0
202.722031 212.0
203.033875 76.0
203.453812 168.0
204.140167 200.0
204.203979 180.0
204.223892 140.0
204.28363 240.0
204.491348 116.0
204.573898 52.0
204.625137 148.0
204.693466 120.0
204.736191 76.0
204.941284 92.0
205.106583 168.0
205.126526 144.0
205.580658 216.0
205.976883 56.0
206.016876 132.0
206.136887 140.0
206.214035 128.0
206.411301 184.0
206.926331 224.0
206.960693 160.0
207.161163 68.0
207.298691 68.0
207.433395 112.0
207.622635 200.0
207.817703 28.0
208.030075 172.0
208.10759 136.0
208.440781 52.0
208.639114 144.0
208.998627 112.0
209.214478 128.0
209.424683 128.0
209.614838 156.0
209.758942 40.0
209.923279 84.0
209.969421 104.0
210.064606 152.0
210.200211 132.0
210.712387 156.0
210.740158 136.0
211.097321 176.0
211.129105 144.0
211.248993 132.0
211.483368 212.0
211.594376 180.0
211.619431 240.0
211.648392 176.0
211.830841 132.0
211.914856 108.0
211.93515 124.0
212.080048 108.0
212.378693 80.0
212.451218 144.0
212.552765 108.0
212.590485 188.0
212.732712 188.0
212.947571 36.0
213.148026 120.0
213.2323 240.0
213.281723 156.0
213.624847 116.0
213.688843 128.0
214.055603 84.0
214.11676 152.0
214.303192 144.0
214.536346 136.0
214.83963 124.0
214.860062 184.0
215.8853 184.0
216.107605 124.0
216.365158 116.0
216.446121 104.0
216.731262 148.0
216.775223 160.0
217.097687 144.0
217.17688 52.0
217.296646 116.0
217.452667 228.0
217.573029 84.0
217.664047 120.0
217.719833 140.0
218.054764 68.0
218.204681 164.0
218.287003 124.0
218.369354 176.0
218.492905 76.0
218.62236 40.0
219.143555 92.0
219.249649 144.0
219.494965 128.0
219.588684 148.0
219.674225 136.0
219.712585 132.0
219.863068 92.0
219.942749 196.0
220.563049 140.0
220.601486 128.0
220.86171 208.0
220.906067 208.0
221.080643 108.0
221.139832 128.0
221.222717 148.0
221.661057 96.0
221.699585 96.0
221.770706 124.0
221.832962 144.0
221.901138 112.0
221.939987 196.0
222.031616 124.0
222.079071 164.0
222.280807 148.0
222.500443 84.0
222.79744 184.0
222.886566 192.0
222.957886 112.0
222.990585 180.0
223.088669 140.0
223.918839 128.0
224.046921 224.0
224.082672 116.0
224.109497 280.0
224.18399 92.0
224.6521 120.0
224.738617 168.0
224.801285 124.0
224.87291 168.0
225.129669 128.0
225.269669 160.0
225.852936 144.0
225.942688 136.0
226.035431 188.0
226.068344 148.0
226.32579 148.0
226.565384 144.0
226.979004 84.0
227.056976 208.0
227.146957 124.0
227.453033 96.0
227.491577 128.0
227.762314 136.0
227.798355 60.0
227.933548 144.0
228.137924 176.0
228.222107 132.0
228.393539 188.0
228.459717 156.0
228.592316 160.0
228.711746 232.0
228.8871 144.0
228.962387 76.0
229.269669 156.0
229.305832 112.0
229.604309 196.0
229.869781 176.0
230.177689 160.0
230.199722 188.0
230.488815 128.0
231.093536 84.0
231.471909 64.0
231.611221 116.0
232.056702 204.0
232.102173 132.0
232.46315 120.0
232.4935 292.0
232.651337 224.0
232.83049 176.0
233.052231 188.0
233.39267 136.0
233.426117 96.0
233.806381 116.0
233.845947 40.0
233.928131 220.0
234.016418 228.0
234.272247 112.0
234.324036 116.0
234.930725 140.0
235.104645 116.0
235.400757 200.0
235.532089 60.0
235.736786 96.0
235.993546 44.0
236.108139 160.0
236.213745 44.0
236.382019 116.0
236.761612 112.0
236.933151 128.0
237.003616 96.0
237.7948 120.0
237.834702 212.0
237.859268 92.0
237.902237 180.0
237.954437 84.0
238.028122 136.0
238.114975 284.0
238.44899 272.0
239.094849 140.0
239.131775 140.0
239.21489 176.0
239.270294 68.0
239.384232 184.0
240.074509 84.0
240.105347 52.0
240.126938 108.0
240.345978 216.0
240.948044 116.0
241.084 172.0
241.17981 140.0
241.213806 208.0
241.260178 140.0
241.291092 184.0
241.594177 48.0
241.632965 148.0
242.104889 124.0
242.331009 144.0
242.79599 116.0
243.050354 156.0
243.131042 108.0
243.301758 156.0
243.373169 180.0
243.401123 140.0
243.422852 208.0
243.540863 160.0
243.826706 84.0
244.140701 160.0
244.98732 168.0
245.05275 68.0
245.797958 88.0
245.944641 168.0
246.063263 152.0
246.400574 148.0
246.45369 120.0
246.797516 52.0
246.944489 128.0
247.154083 196.0
247.191635 208.0
247.232315 116.0
247.27301 40.0
247.921295 64.0
248.466873 144.0
248.768158 124.0
248.987946 144.0
249.471832 176.0
249.512695 192.0
249.745407 128.0
249.908997 68.0
250.151321 128.0
250.333939 120.0
250.81282 116.0
251.074509 184.0
251.276398 128.0
251.753021 184.0
251.781448 128.0
251.967804 124.0
252.086029 308.0
252.182693 72.0
252.271194 188.0
252.432449 124.0
253.055786 156.0
253.081116 188.0
253.133545 320.0
253.214127 176.0
253.252136 144.0
253.511917 176.0
253.629196 140.0
253.95578 172.0
254.139511 204.0
254.168335 296.0
254.257187 120.0
254.298447 204.0
254.854187 124.0
255.111618 184.0
255.26741 212.0
255.426437 152.0
255.563232 208.0
255.760544 128.0
256.021606 136.0
256.168121 108.0
256.286011 44.0
256.512268 152.0
256.87262 116.0
256.95874 160.0
257.063904 168.0
257.233215 184.0
257.558899 136.0
257.843262 72.0
257.9104 236.0
258.07663 184.0
258.122589 668.0
258.166077 152.0
258.284515 264.0
258.809357 120.0
258.957916 144.0
259.128845 288.0
259.39563 124.0
259.976166 124.0
260.024323 208.0
260.171967 116.0
260.290771 168.0
260.393524 140.0
260.644104 72.0
260.714813 172.0
260.946228 28.0
261.00412 148.0
261.325775 112.0
261.60791 88.0
261.650818 144.0
261.879456 44.0
261.950317 144.0
262.362823 228.0
262.572418 164.0
262.811127 176.0
263.062866 180.0
263.150024 196.0
263.537598 136.0
263.986908 120.0
264.061493 124.0
264.090393 100.0
264.122742 116.0
264.928772 64.0
264.961182 160.0
265.032471 140.0
265.07135 184.0
265.152374 100.0
265.346863 144.0
265.538177 148.0
265.826904 164.0
265.940491 116.0
266.031372 224.0
266.127472 196.0
266.145935 476.0
266.312836 184.0
266.352875 148.0
266.655029 116.0
266.765564 60.0
266.807831 72.0
267.077728 172.0
267.10321 164.0
267.14035 408.0
267.279419 160.0
267.649017 176.0
267.683075 184.0
268.097778 304.0
268.148529 168.0
268.377106 200.0
268.442322 84.0
268.569519 52.0
268.654327 100.0
268.850098 248.0
268.948029 60.0
269.036163 160.0
269.088409 128.0
269.26474 208.0
269.437866 156.0
269.480316 112.0
269.601654 160.0
269.869263 88.0
270.199615 160.0
270.245422 176.0
270.376312 88.0
270.438477 160.0
270.52359 108.0
270.615265 64.0
270.680756 204.0
270.844513 168.0
271.054169 80.0
271.116455 48.0
271.370758 168.0
271.503296 128.0
271.644318 52.0
271.736176 72.0
271.782135 160.0
271.88385 144.0
272.132233 220.0
272.254822 196.0
272.43219 180.0
272.675354 112.0
272.711884 196.0
272.925171 80.0
272.961334 44.0
273.007385 156.0
273.30014 188.0
273.642456 152.0
273.701721 108.0
274.014221 160.0
274.266235 180.0
274.629852 184.0
274.641541 224.0
274.868591 132.0
275.667725 204.0
275.889069 120.0
276.143799 80.0
276.206635 156.0
276.335999 120.0
276.888458 144.0
277.126984 176.0
277.445129 132.0
277.733643 108.0
277.879608 92.0
278.101929 160.0
278.140381 336.0
278.171661 164.0
278.301117 188.0
278.573456 180.0
278.802734 64.0
279.002167 204.0
279.065338 92.0
279.146393 224.0
279.20166 168.0
279.311432 160.0
279.374634 180.0
279.78064 204.0
279.813934 192.0
280.092712 128.0
280.115509 380.0
280.15387 108.0
280.200256 148.0
280.280212 212.0
280.360199 176.0
280.630219 160.0
280.840302 192.0
281.102295 240.0
281.347504 120.0
281.491089 172.0
281.525513 196.0
281.621338 104.0
281.955444 164.0
282.09845 344.0
282.139282 136.0
282.186096 92.0
282.259644 108.0
282.450287 160.0
282.808319 48.0
282.881958 76.0
282.967834 172.0
283.049347 120.0
283.118103 920.0
283.163208 168.0
283.190002 196.0
283.223511 136.0
283.491516 116.0
283.669159 176.0
283.890442 88.0
284.02124 40.0
284.074921 176.0
284.117554 288.0
284.279602 196.0
284.34671 116.0
284.517914 212.0
284.608551 52.0
284.662292 68.0
284.722717 204.0
284.961212 160.0
285.287231 200.0
286.121552 100.0
286.151855 64.0
286.225922 124.0
286.347137 144.0
286.401031 144.0
286.427979 244.0
286.643311 176.0
287.098694 112.0
287.149292 56.0
287.436035 228.0
287.584534 204.0
287.69931 160.0
287.803955 172.0
288.1586 48.0
288.439819 132.0
288.655487 112.0
288.827972 160.0
288.858398 108.0
289.105408 152.0
289.349121 128.0
289.464233 128.0
289.606476 108.0
289.831207 212.0
289.968994 40.0
290.074066 180.0
290.202911 224.0
290.508148 112.0
290.711731 140.0
290.898407 232.0
291.020599 168.0
291.078339 112.0
291.105133 180.0
291.258331 180.0
291.333069 136.0
291.659302 208.0
291.686493 176.0
291.790375 136.0
291.832672 32.0
292.119934 412.0
292.376923 216.0
292.608398 180.0
293.087952 160.0
293.160217 84.0
293.269257 168.0
293.299957 156.0
293.344269 148.0
293.422668 64.0
293.54541 108.0
293.675018 76.0
293.774902 112.0
293.932281 156.0
294.13443 6568.0
294.197083 64.0
294.261719 56.0
294.360992 76.0
294.39856 56.0
294.502289 96.0
294.544098 240.0
294.637634 184.0
294.664978 140.0
294.729889 28.0
294.805084 40.0
294.889374 120.0
294.909637 200.0
294.986206 68.0
295.058014 172.0
295.135468 1480.0
295.263184 64.0
295.379669 144.0
295.51593 72.0
295.625793 52.0
295.690826 72.0
295.731903 144.0
295.882507 44.0
296.109924 392.0
296.141113 424.0
296.200989 80.0
296.256439 192.0
296.334595 164.0
296.451111 168.0
296.554657 76.0
296.612183 84.0
296.69104 40.0
296.745911 104.0
296.797333 72.0
296.98938 188.0
297.109436 136.0
297.188354 36.0
297.232941 144.0
297.281006 52.0
297.363373 88.0
297.486938 40.0
297.699799 112.0
297.909332 196.0
297.988342 188.0
298.032318 160.0
298.081116 224.0
298.128265 1516.0
298.164703 124.0
298.201385 48.0
298.328583 108.0
298.390472 120.0
298.428284 76.0
298.53833 40.0
298.696533 44.0
298.803162 44.0
298.882324 52.0
298.97522 48.0
299.129639 568.0
299.86377 168.0
299.991302 128.0
300.139557 256.0
300.318878 48.0
300.722565 164.0
300.943512 44.0
301.171448 48.0
301.368347 168.0
301.859192 200.0
301.980225 192.0
302.156647 180.0
302.381561 96.0
302.475037 216.0
302.533875 128.0
303.012238 96.0
303.257843 136.0
303.330627 116.0
303.635742 80.0
303.979187 180.0
304.065948 80.0
304.138824 184.0
304.322845 144.0
304.666656 172.0
305.121704 308.0
305.174072 156.0
305.295776 256.0
305.434906 124.0
305.946442 124.0
306.029999 188.0
306.133301 424.0
306.358337 116.0
306.406158 160.0
306.629181 52.0
306.82785 80.0
307.113037 256.0
307.125397 200.0
307.143341 120.0
307.150543 256.0
307.228912 140.0
307.260315 64.0
307.455719 92.0
307.525543 64.0
307.775452 208.0
307.98642 44.0
308.108398 164.0
308.148865 496.0
308.321838 112.0
308.587494 104.0
308.867279 188.0
309.081787 140.0
309.114777 248.0
309.155396 1760.0
309.332672 84.0
309.381683 76.0
309.562653 76.0
309.651306 136.0
309.791412 176.0
309.921051 240.0
309.956085 96.0
309.98819 124.0
310.128418 10416.0
310.208435 204.0
310.280579 48.0
310.34314 132.0
310.576904 328.0
310.618713 208.0
310.686279 196.0
310.741486 156.0
310.766052 56.0
310.857269 44.0
310.913422 44.0
310.973083 76.0
311.00116 28.0
311.064362 156.0
311.131195 2036.0
311.197754 128.0
311.457642 40.0
311.654358 72.0
311.696533 100.0
311.821411 156.0
311.847656 56.0
311.921448 100.0
311.982574 72.0
312.030426 76.0
312.138092 384.0
312.39267 64.0
312.480621 52.0
312.540436 92.0
312.665283 52.0
312.924072 108.0
313.001556 100.0
313.060944 176.0
313.100159 156.0
313.195251 148.0
313.355865 148.0
313.430115 344.0
313.49118 48.0
313.568726 152.0
313.794342 48.0
313.857788 96.0
314.086548 204.0
314.110321 100.0
314.150513 168.0
314.355164 196.0
314.390472 40.0
314.605774 148.0
314.644592 136.0
314.70694 188.0
314.867065 40.0
315.015411 120.0
315.202148 168.0
315.262726 224.0
315.83902 84.0
315.87793 60.0
315.98407 148.0
316.157471 132.0
316.192841 132.0
316.224701 132.0
316.284882 84.0
316.709778 64.0
316.777069 52.0
316.840851 144.0
317.120789 120.0
317.220032 140.0
317.400848 112.0
317.578156 140.0
317.698761 68.0
318.135284 152.0
318.160126 64.0
318.252441 156.0
318.376709 132.0
318.440643 176.0
318.572083 328.0
318.703522 144.0
318.824341 48.0
318.863434 104.0
319.108582 208.0
319.124084 112.0
319.197601 128.0
319.485718 136.0
319.51062 56.0
319.724091 144.0
319.798859 72.0
319.830872 108.0
319.877167 116.0
319.966156 132.0
320.00531 140.0
320.05368 48.0
320.112823 428.0
320.194061 60.0
320.397095 144.0
320.749878 140.0
320.811676 204.0
320.958221 172.0
320.999451 92.0
321.038666 68.0
321.063629 124.0
321.114716 164.0
321.299744 184.0
321.402527 184.0
321.534546 136.0
321.652344 92.0
321.709473 112.0
322.01297 148.0
322.037964 108.0
322.0737 92.0
322.129242 2960.0
322.202301 132.0
322.252319 60.0
322.334503 60.0
322.395233 160.0
322.560364 60.0
322.645447 200.0
322.781311 184.0
322.842102 164.0
322.87381 176.0
322.906494 108.0
322.963715 44.0
323.135925 804.0
323.217712 64.0
323.278564 76.0
323.489716 124.0
323.589966 132.0
323.95166 136.0
324.037659 52.0
324.09726 244.0
324.124237 200.0
324.338684 148.0
324.4534 168.0
324.535858 152.0
324.700806 188.0
325.118652 280.0
325.131622 196.0
325.139954 80.0
325.228241 80.0
325.396942 136.0
325.432861 120.0
325.648315 52.0
325.720154 268.0
325.863861 48.0
325.928528 176.0
325.964478 132.0
326.160492 528.0
326.212708 120.0
326.31311 112.0
326.34549 192.0
326.536072 140.0
326.586426 112.0
327.007385 152.0
327.148651 148.0
327.334991 224.0
327.3638 128.0
327.551086 148.0
327.680786 216.0
328.134888 192.0
328.199799 192.0
328.369293 128.0
328.704803 76.0
328.75531 92.0
329.723175 80.0
329.781006 76.0
329.871368 128.0
330.272736 52.0
330.298065 208.0
330.460846 152.0
331.130554 72.0
331.380493 224.0
331.420349 60.0
331.460205 120.0
331.554443 168.0
332.091034 112.0
332.22522 164.0
332.744202 204.0
332.820465 164.0
333.031097 184.0
333.289032 60.0
333.583405 164.0
333.721558 296.0
333.976105 84.0
334.027039 36.0
334.087921 92.0
334.112793 160.0
334.139832 132.0
334.223511 164.0
334.980774 172.0
335.042694 220.0
335.094757 200.0
335.154755 144.0
335.345154 148.0
335.553436 176.0
335.862915 132.0
336.108673 1236.0
336.142517 1296.0
336.227753 80.0
336.266174 228.0
336.33725 60.0
336.362793 28.0
336.468658 64.0
336.68045 348.0
336.746185 176.0
336.916992 180.0
337.03479 52.0
337.152954 10068.0
337.204254 160.0
337.236237 200.0
337.277039 56.0
337.367371 60.0
337.434174 104.0
337.520935 76.0
337.594086 124.0
337.626984 64.0
337.716705 120.0
337.760681 72.0
337.802551 28.0
337.847687 168.0
337.870422 124.0
337.91217 144.0
337.989136 56.0
338.014771 188.0
338.098938 100.0
338.156494 2740.0
338.240875 184.0
338.358826 40.0
338.391754 224.0
338.430878 104.0
338.541168 80.0
338.820282 136.0
338.863556 64.0
338.959503 52.0
339.062103 60.0
339.152191 732.0
339.249054 204.0
339.381042 116.0
339.487366 220.0
339.546051 64.0
340.172211 356.0
340.298309 104.0
340.335022 92.0
340.548035 80.0
340.614136 52.0
340.654541 172.0
340.779449 76.0
340.882324 188.0
340.926819 80.0
341.173126 160.0
341.209473 48.0
341.294037 128.0
341.533081 92.0
341.661835 148.0
342.184418 184.0
342.312256 156.0
342.36853 32.0
342.475342 112.0
342.666901 192.0
343.133453 224.0
343.831146 88.0
343.976105 152.0
344.260376 112.0
344.555878 132.0
344.626099 60.0
344.781281 176.0
344.969788 160.0
345.032623 168.0
345.117676 124.0
345.420929 32.0
345.609619 148.0
345.642914 124.0
345.668823 124.0
345.898987 124.0
345.93161 172.0
345.994537 148.0
346.068573 108.0
346.194489 116.0
346.264832 48.0
346.375977 116.0
346.479675 88.0
346.579712 196.0
346.620483 240.0
346.931824 112.0
346.99115 224.0
347.261841 92.0
347.291504 208.0
347.410217 52.0
347.454468 168.0
347.483154 236.0
347.588318 44.0
348.148376 160.0
348.345703 72.0
348.375427 44.0
348.787903 76.0
348.932861 72.0
348.996094 48.0
349.208038 40.0
349.319641 60.0
349.426727 236.0
349.635895 100.0
349.684296 220.0
349.728943 120.0
349.758728 80.0
349.922516 160.0
349.96347 120.0
349.989532 136.0
350.026794 176.0
350.074097 108.0
350.156677 1044.0
350.253967 68.0
350.30484 128.0
350.402985 156.0
350.440247 204.0
350.511017 100.0
350.544556 56.0
350.60791 104.0
350.637726 132.0
350.724426 124.0
350.770996 112.0
350.846466 112.0
350.962341 148.0
351.010437 196.0
351.077057 124.0
351.157318 300.0
351.236725 216.0
351.291046 260.0
351.321411 124.0
351.375336 288.0
351.451477 132.0
351.488617 268.0
351.524719 128.0
351.581573 256.0
351.620911 188.0
351.688812 228.0
351.778015 244.0
351.805603 324.0
351.881256 180.0
351.926392 140.0
351.974854 408.0
352.025238 352.0
352.07547 428.0
352.111298 268.0
352.1763 179284.0
352.258911 192.0
352.312866 72.0
352.329926 124.0
352.342499 228.0
352.371552 180.0
352.400024 76.0
352.431671 92.0
352.475189 180.0
352.513031 132.0
352.570465 296.0
352.627686 136.0
352.682068 116.0
352.73172 276.0
352.796356 108.0
352.84024 204.0
352.886871 108.0
352.937103 88.0
352.94754 184.0
352.957855 180.0
352.988678 172.0
353.03653 216.0
353.101349 152.0
353.178772 36320.0
353.289368 148.0
353.321442 120.0
353.389862 80.0
353.435028 152.0
353.497925 72.0
353.543274 52.0
353.579651 168.0
353.605621 104.0
353.642731 80.0
353.675964 88.0
353.727661 168.0
353.794861 112.0
353.846283 80.0
353.946075 128.0
354.01123 60.0
354.070099 168.0
354.184174 6380.0
354.239716 76.0
354.326904 84.0
354.363342 44.0
354.432434 132.0
354.463257 60.0
354.536316 72.0
354.624664 168.0
354.659698 56.0
354.721191 72.0
354.756836 92.0
354.785889 128.0
354.841705 76.0
354.886932 60.0
354.918823 112.0
354.944305 80.0
354.974304 68.0
355.000061 60.0
355.072998 76.0
355.123657 112.0
355.136841 160.0
355.188416 304.0
355.255615 48.0
355.29364 88.0
355.336517 248.0
355.365601 100.0
355.403473 108.0
355.417755 128.0
355.436584 136.0
355.506256 240.0
355.519775 128.0
355.526276 236.0
355.55954 172.0
355.606659 160.0
355.709686 32.0
355.781006 60.0
355.814789 104.0
355.890808 80.0
355.921692 168.0
355.983765 160.0
356.051758 76.0
356.08847 276.0
356.118408 84.0
356.132507 72.0
356.19165 148.0
356.240509 124.0
356.33136 228.0
356.411987 48.0
356.444672 148.0
356.479614 136.0
356.554779 148.0
356.611145 156.0
356.640686 144.0
356.675049 100.0
356.711945 72.0
356.77063 120.0
356.825409 72.0
356.88559 48.0
356.923187 112.0
357.009674 80.0
357.047272 80.0
357.107452 52.0
357.165802 84.0
357.225952 56.0
357.284088 88.0
357.33316 64.0
357.389587 148.0
357.423462 60.0
357.472382 64.0
357.508301 96.0
357.570435 72.0
357.622925 36.0
357.649261 52.0
357.679382 52.0
357.739624 80.0
357.769714 36.0
357.829956 36.0
357.860077 104.0
357.99942 32.0
358.263062 52.0
358.364777 92.0
358.470306 196.0
358.507965 36.0
358.534363 120.0
358.66626 60.0
358.707153 76.0
358.886566 64.0
358.930176 52.0
359.013153 96.0
359.469604 36.0
359.503571 32.0
359.552612 44.0
359.609222 112.0
359.703583 40.0
359.899902 72.0
359.973877 164.0
360.001862 60.0
360.050964 76.0
360.644135 156.0
360.912537 76.0
361.286987 48.0
361.321045 80.0
362.11557 156.0
362.210663 120.0
362.430389 56.0
362.619873 56.0
362.983795 80.0
363.129822 444.0
363.354187 92.0
363.427612 56.0
363.484528 36.0
363.518677 60.0
363.575592 100.0
363.864075 36.0
364.08432 52.0
364.133179 124.0
364.562988 108.0
364.619995 120.0
365.186493 80.0
365.25116 80.0
365.578339 124.0
365.749603 56.0
365.818146 68.0
366.003143 88.0
366.099884 44.0
366.13797 84.0
366.192841 236.0
366.509125 64.0
366.637054 68.0
366.892426 72.0
367.163147 120.0
367.31192 108.0
367.50647 124.0
367.704895 84.0
367.746887 56.0
368.411316 104.0
368.506836 104.0
368.812531 96.0
368.839294 100.0
369.140564 140.0
369.523834 100.0
369.696014 80.0
369.776398 48.0
370.105621 108.0
371.324249 96.0
372.567932 28.0
373.079041 68.0
373.236664 176.0
373.81369 128.0
374.406525 192.0
375.396942 116.0
375.489502 56.0
375.724792 76.0
375.998749 128.0
376.118408 152.0
376.149292 188.0
376.879211 88.0
377.39328 104.0
377.768433 88.0
377.892212 172.0
378.081818 156.0
378.154816 9388.0
378.236633 64.0
378.271484 88.0
378.348907 116.0
378.403107 108.0
378.430206 44.0
378.503784 92.0
378.542511 68.0
378.675842 116.0
378.724518 60.0
378.936218 204.0
379.084839 168.0
379.158844 2740.0
379.282501 88.0
379.336761 92.0
379.391022 132.0
379.674103 96.0
380.161194 552.0
380.210815 184.0
380.430725 64.0
380.997711 56.0
381.059875 124.0
381.1026 72.0
381.151184 160.0
381.18808 112.0
381.289124 84.0
381.331879 44.0
381.362976 92.0
381.46579 80.0
381.596222 28.0
381.71286 112.0
381.775085 112.0
381.961761 180.0
382.132935 56.0
382.611664 72.0
382.658386 96.0
383.036133 40.0
383.667419 60.0
385.607452 116.0
385.744263 120.0
386.193909 132.0
387.936432 80.0
389.019135 56.0
389.608215 180.0
390.677521 32.0
390.891174 184.0
392.465576 204.0
393.04541 156.0
393.578308 100.0
393.678192 48.0
395.190948 140.0
395.222595 104.0
395.867828 112.0
396.501678 40.0
396.882233 136.0
397.021027 104.0
397.230133 156.0
398.283173 172.0
398.330841 60.0
398.461914 100.0
399.412018 68.0
401.746368 156.0
401.961823 156.0
402.021698 48.0
404.824036 116.0
406.094452 164.0
406.170685 112.0
408.239075 144.0
409.478638 128.0
409.752533 172.0
411.014557 52.0
412.634216 40.0
413.609161 28.0
414.423157 196.0
421.907867 112.0
422.230896 140.0
423.053314 100.0
423.08609 32.0
423.192535 192.0
423.663513 64.0
423.831482 168.0
423.892975 36.0
424.069183 172.0
424.142975 72.0
424.188049 192.0
424.237244 76.0
424.345367 204.0
424.393036 48.0
424.663696 200.0
424.811371 152.0
424.987793 196.0
425.085785 136.0
425.191986 136.0
425.199921 144.0
425.265015 18460.0
425.342896 152.0
425.36676 196.0
425.415283 96.0
425.476196 40.0
425.517242 56.0
425.648621 196.0
425.8862 108.0
425.94989 92.0
425.993622 152.0
426.198883 188.0
426.267456 5192.0
426.371643 88.0
426.41687 72.0
426.449738 32.0
426.55661 52.0
426.651154 80.0
426.766266 68.0
426.844391 48.0
426.943085 120.0
427.068787 64.0
427.202209 48.0
427.272766 1020.0
427.540985 48.0
428.074799 28.0
428.272888 184.0
428.383698 64.0
428.457855 84.0
428.64325 60.0
428.680328 176.0
428.770996 112.0
428.857422 112.0
428.889893 128.0
428.956482 72.0
429.000916 156.0
429.051361 144.0
429.104889 76.0
429.146118 140.0
429.502838 104.0
429.550293 124.0
429.921631 56.0
430.016541 100.0
430.057404 116.0
430.10321 72.0
431.032471 68.0
431.119232 132.0
431.561554 44.0
431.607025 80.0
431.859283 112.0
431.913055 88.0
433.817902 68.0
436.312927 176.0
439.040253 48.0
442.089905 68.0
443.132568 124.0
447.660645 76.0
449.874207 104.0
450.211975 116.0
451.027405 140.0
451.242645 2128.0
451.395233 152.0
451.56015 60.0
451.691284 60.0
451.742035 164.0
452.245667 616.0
452.457245 152.0
453.238129 228.0
453.618011 36.0
453.647675 92.0
454.203186 32.0
454.258331 144.0
454.32196 52.0
454.733551 148.0
455.030701 104.0
456.203247 112.0
460.78891 192.0
460.929901 68.0
460.972656 96.0
466.127716 84.0
468.256561 156.0
468.55014 60.0
469.731323 52.0
470.434723 152.0
473.422424 52.0
479.609283 68.0
480.285126 120.0
482.009613 52.0
483.137665 72.0
485.687164 60.0
486.253143 144.0
491.750336 108.0
496.027557 104.0
499.0242 132.0
499.282104 92.0
515.633118 80.0
518.824341 92.0
519.227844 112.0
520.898193 64.0
521.338928 136.0
523.276672 116.0
523.572632 68.0
523.953613 124.0
524.171509 160.0
524.329895 1212.0
524.396118 64.0
524.407715 168.0
524.442871 80.0
524.520325 44.0
524.844055 68.0
524.985413 92.0
525.035522 48.0
525.333496 252.0
526.199158 112.0
526.322388 100.0
526.359619 136.0
526.67865 68.0
527.266479 60.0
528.507263 28.0
528.630859 96.0
529.450256 44.0
530.490356 36.0
532.555298 40.0
536.19458 36.0
542.842468 48.0
544.629272 76.0
548.328247 52.0
548.557983 68.0
551.413208 68.0
552.348389 68.0
554.76001 96.0
558.972961 68.0
559.335388 36.0
559.401306 76.0
562.616333 72.0
563.230225 60.0
564.719116 56.0
567.797668 48.0
568.670654 40.0
568.869995 80.0
569.031433 80.0
569.86261 48.0
574.881409 68.0
575.697754 56.0
578.265076 112.0
579.107727 44.0
580.291382 104.0
583.022644 48.0
583.363953 132.0
583.748596 96.0
586.116882 56.0
586.502441 112.0
586.825439 96.0
587.901123 72.0
592.281494 132.0
593.410645 116.0
594.084717 72.0
603.67511 160.0
604.541016 108.0
611.455872 64.0
612.593262 40.0
619.192322 88.0
622.594482 92.0
624.234436 108.0
626.63855 76.0
626.997314 60.0
630.325928 60.0
630.860718 40.0
631.125671 92.0
633.062195 76.0
635.834534 48.0
640.495422 40.0
646.200012 80.0
646.25061 48.0
649.203796 140.0
649.366089 84.0
650.390991 116.0
654.682068 52.0
657.884155 68.0
657.9505 124.0
658.016846 228.0
658.624573 68.0
659.528992 84.0
660.444214 112.0
663.870544 80.0
664.742676 96.0
668.200684 80.0
669.044739 56.0
674.042542 100.0
675.060913 48.0
675.24707 88.0
676.442322 184.0
677.913269 144.0
678.701172 88.0
681.795105 68.0
682.356445 72.0
684.369995 60.0
685.286682 68.0
686.412598 116.0
686.991516 72.0
690.632385 124.0
693.203003 56.0
694.487427 68.0
698.042908 104.0
708.424805 80.0
716.158936 100.0
733.336914 88.0
735.418884 44.0
735.602417 80.0
736.63385 52.0
737.94165 40.0
742.794067 64.0
751.569519 28.0
752.977905 44.0
765.063232 40.0
766.181213 68.0
772.535461 68.0
776.068909 100.0
778.882568 96.0
782.146606 160.0
782.475037 108.0
783.2547 64.0
784.658997 60.0
785.752136 52.0
787.946289 56.0
792.803162 88.0
801.372437 52.0
805.598145 112.0
807.361633 44.0
810.582703 68.0
811.172119 44.0
812.249512 108.0
815.343933 64.0
816.964478 124.0
818.71759 84.0
827.391052 112.0
831.501038 68.0
834.206421 72.0
841.650085 112.0
855.768921 76.0
856.263916 48.0
863.40155 192.0
864.595032 36.0
870.210693 200.0
873.866455 80.0
876.922729 236.0
880.687134 92.0
887.486816 84.0
904.082764 72.0
916.350464 48.0
919.516296 172.0
922.42157 120.0
927.888184 108.0
929.695801 160.0
930.339172 172.0
931.687378 32.0
934.167725 72.0
940.743103 92.0
943.932373 180.0
950.683105 72.0
953.366821 60.0
953.526611 112.0
954.854553 40.0
957.648804 48.0
964.052795 144.0
970.180481 52.0
987.610229 44.0
990.589783 96.0
991.830505 76.0
1006.400757 104.0
1010.173828 192.0
1019.799316 68.0
1024.884033 176.0
1028.691528 40.0
1030.543701 128.0
1031.981812 100.0
1034.726562 124.0
1036.302124 68.0
1039.520996 232.0
1046.636841 40.0
1051.904175 200.0
1066.108154 84.0
1071.997559 72.0
1074.449219 72.0
1091.643066 100.0
1103.399658 156.0
1106.707764 192.0
1109.868408 132.0
1110.75708 60.0
1112.316528 196.0
1114.740723 156.0
1118.738037 56.0
1119.590332 96.0
1122.442505 124.0
1126.380127 84.0
1127.562866 68.0
1131.770508 52.0
1133.277588 84.0
1134.745483 236.0
1157.080078 100.0
1157.337402 44.0
1163.025269 160.0
1171.525269 48.0
1182.012451 116.0
1200.056885 216.0
1206.712769 76.0
1210.144531 232.0
1211.896851 196.0
1217.592041 180.0
1221.386963 172.0
1233.925659 180.0
1234.366211 204.0
1238.873657 104.0
1240.604614 88.0
1241.025269 236.0
1245.383179 148.0
1247.104614 76.0
1250.128784 116.0
1253.924805 168.0
1256.449219 88.0
1258.524292 68.0
1260.078125 172.0
1267.571167 200.0
1267.741333 152.0
1274.020752 144.0
1275.484619 124.0
1277.753174 152.0
1278.76355 196.0
1286.82605 112.0
1287.340088 164.0
1290.262573 188.0
1303.5802 140.0
1308.233643 60.0
1309.205688 164.0
1319.900269 108.0
1325.198608 80.0
1329.2229 156.0
1336.598389 136.0
1338.760376 36.0
1346.001587 44.0
1346.841431 188.0
1347.871582 124.0
1348.558472 196.0
1351.286133 184.0
1354.426758 208.0
1356.500488 164.0
1361.188721 184.0
1367.628906 36.0
1377.901367 212.0
1381.538696 56.0
1390.207764 72.0
1390.363647 64.0
1394.374146 144.0
1394.5896 156.0
1397.951294 200.0
1404.537476 124.0
1408.082764 176.0
1413.644897 40.0
1421.648438 96.0
1425.282837 200.0
1429.049927 188.0
1429.794922 188.0
1430.848755 164.0
1434.660767 56.0
1450.831543 220.0
1454.670044 52.0
1462.545166 128.0
1464.63147 200.0
1468.62561 216.0
1474.817993 200.0
1474.87146 68.0
1480.755249 84.0
1484.012085 84.0
1491.658569 88.0
1494.288696 80.0
1495.196777 188.0
1501.853638 132.0
1503.93689 144.0
