>compound MLS000737091-01!
>formula C22H28N2O5
>ionization [M+H]+
>parentmass 401.208954
#inchi InChI=1S/C22H28N2O5/c1-28-12-3-4-13-14-5-6-24-10-11-7-18(25)21(29-2)19(22(26)27)15(11)9-17(24)20(14)23-16(13)8-12/h3-4,8,11,15,17-19,21,23,25H,5-7,9-10H2,1-2H3,(H,26,27)
#inchikey JVHNBFFHWQQPLL
#Ion_Source LC-ESI
#Instrument qTof
#Compound_Source NIH Natural Product Library
#PI Dorrestein
#Data_Collector VVP/LMS
#Scan -1
#Precursor_MZ 401.208
#ExactMass 400.2
#Charge 1
#CAS_Number N/A
#Pubmed_ID N/A
#Smiles COC1C(O)CC2CN3CCc4c([nH]c5cc(OC)ccc45)C3CC2C1C(=O)O
#INCHI_AUX N/A
#Library_Class 1
#SpectrumID CCMSLIB00000080023
#IonMode Positive
#UpdateWorkflowName UPDATE-SINGLE-ANNOTATED-GOLD
#LibraryQualityString Gold
#TaskID b1d8e8f6646f4e71acdff9ca3d919d08
##Scan# 1476
#SpectrumFile p2-B03_GB3_01_17991.mzXML
#LibraryName NIH_Natural_Products_Library.mgf
#MQScore -1
#Organism NIH_Natural_Products_Library
#TIC_Query 0
#RT_Query -1
#MZErrorPPM -1
#SharedPeaks 0
#MassDiff 0
#LibMZ -1
#SpecMZ 401.208
#SpecCharge 0
#internalFilename spec-00000.mgf

>collision 10
94.994255 188.0
95.021416 168.0
95.133972 120.0
95.147568 200.0
95.21553 228.0
95.413727 132.0
95.475952 76.0
95.538002 256.0
95.795158 160.0
95.822433 212.0
96.042717 156.0
96.100372 180.0
96.138321 204.0
96.196869 144.0
96.218346 36.0
96.349197 112.0
96.376549 148.0
96.509743 196.0
96.536835 104.0
96.61116 60.0
96.759903 40.0
96.896996 180.0
97.032509 192.0
97.05349 208.0
97.108704 128.0
97.144012 28.0
97.169518 144.0
97.236229 124.0
97.749153 200.0
97.766861 176.0
97.942085 216.0
98.061188 184.0
98.206207 144.0
98.381828 124.0
98.446991 164.0
98.547729 148.0
98.572449 204.0
98.666313 144.0
98.796837 148.0
98.877281 92.0
98.909637 144.0
99.012596 208.0
99.151276 136.0
99.16713 220.0
99.200829 64.0
99.218666 172.0
99.254356 156.0
99.496414 176.0
99.583786 196.0
99.605637 192.0
99.659279 156.0
99.677162 252.0
99.899406 184.0
99.983406 152.0
100.015251 108.0
100.140694 152.0
100.339966 140.0
100.414131 164.0
100.459618 124.0
100.527458 160.0
100.839813 188.0
100.926964 136.0
100.952965 32.0
101.113007 136.0
101.201088 196.0
101.222633 184.0
101.283195 220.0
101.499641 116.0
101.547768 132.0
101.583878 184.0
101.742409 92.0
102.196632 132.0
102.55912 80.0
102.587341 152.0
102.657913 136.0
102.766838 176.0
102.839485 212.0
102.889954 80.0
102.988899 60.0
103.056694 296.0
103.130341 168.0
103.190987 108.0
103.571434 220.0
103.605873 168.0
103.709221 48.0
103.822754 136.0
103.889694 124.0
104.04866 352.0
104.125145 96.0
104.208435 176.0
104.222656 168.0
104.249275 204.0
104.289719 144.0
104.340118 232.0
104.489006 184.0
104.645721 116.0
104.690521 184.0
104.708847 172.0
104.96965 172.0
105.069992 688.0
105.355461 156.0
105.463097 172.0
105.543488 224.0
105.780815 136.0
105.834045 116.0
105.944641 200.0
105.961029 116.0
106.03685 172.0
106.067108 1316.0
106.250107 100.0
106.299347 124.0
106.321922 164.0
106.37323 116.0
106.603264 164.0
106.632042 68.0
106.722488 156.0
106.757446 36.0
106.808861 128.0
106.97554 84.0
107.048386 440.0
107.069588 172.0
107.144409 220.0
107.165016 120.0
107.197983 64.0
107.272179 200.0
107.303108 252.0
107.414467 148.0
107.461914 172.0
107.478424 96.0
107.581619 88.0
107.819153 164.0
107.910103 168.0
107.963867 160.0
108.005234 192.0
108.04422 156.0
108.080254 732.0
108.106613 60.0
108.162491 136.0
108.216316 28.0
108.346794 76.0
108.491867 124.0
108.508453 160.0
108.529182 116.0
108.566505 244.0
108.711723 216.0
108.771912 68.0
108.881958 172.0
108.906883 136.0
108.979591 204.0
109.002449 164.0
109.033615 236.0
109.060684 176.0
109.089737 132.0
109.123001 64.0
109.270668 176.0
109.385132 64.0
109.463333 164.0
109.614227 140.0
110.058426 320.0
110.152504 180.0
110.221626 236.0
110.328049 200.0
110.510002 180.0
110.551849 160.0
110.587425 192.0
110.669075 176.0
110.765404 108.0
110.788452 140.0
110.842926 192.0
110.884834 168.0
111.079834 172.0
111.306503 108.0
111.367409 160.0
111.943657 116.0
111.958397 164.0
112.046867 160.0
112.076225 216.0
112.143799 164.0
112.164879 136.0
112.188065 100.0
112.276627 156.0
112.62487 108.0
112.676979 168.0
112.736847 172.0
112.878479 44.0
112.984238 168.0
113.016357 308.0
113.155663 204.0
113.214951 176.0
113.240364 128.0
113.356888 84.0
113.585861 148.0
113.638893 100.0
113.761986 220.0
114.070015 116.0
114.189087 164.0
114.352905 236.0
114.484901 232.0
114.593536 264.0
114.629761 52.0
114.740601 116.0
114.766182 176.0
114.879219 224.0
115.056053 1412.0
115.083344 172.0
115.099052 48.0
115.118271 148.0
115.146027 72.0
115.293442 152.0
115.464478 140.0
115.554314 196.0
116.049072 128.0
116.190628 128.0
116.246414 164.0
116.323677 212.0
116.368759 196.0
116.45681 88.0
116.766304 164.0
116.962097 228.0
117.070236 652.0
117.130058 140.0
117.201202 152.0
117.25502 144.0
117.390839 60.0
117.543999 116.0
117.658394 128.0
117.710213 52.0
117.785805 152.0
117.833328 148.0
117.860153 424.0
118.045975 116.0
118.065079 728.0
118.302628 184.0
118.328606 68.0
118.354584 200.0
118.731644 164.0
118.779366 160.0
118.913887 244.0
118.963814 80.0
118.979012 168.0
119.052834 168.0
119.070465 204.0
119.237495 188.0
119.309227 148.0
119.531075 120.0
119.555016 200.0
119.744423 208.0
119.831558 192.0
120.00592 204.0
120.060432 136.0
120.083344 608.0
120.191322 160.0
120.302628 220.0
120.584404 124.0
120.853378 104.0
121.065536 740.0
121.085114 196.0
121.090218 168.0
121.099144 228.0
121.173042 132.0
121.20372 172.0
121.280426 60.0
121.300148 96.0
121.440483 172.0
121.510681 160.0
121.668694 152.0
122.061623 308.0
122.099075 176.0
122.171959 172.0
122.462524 224.0
122.49556 176.0
122.610138 96.0
122.784302 168.0
122.880638 208.0
122.907837 220.0
123.08075 244.0
123.214737 144.0
123.360596 100.0
123.376068 256.0
123.437981 172.0
123.681343 144.0
123.935066 180.0
123.975906 200.0
124.080132 184.0
124.299667 132.0
124.325012 228.0
124.344055 164.0
124.455048 164.0
124.586082 116.0
124.88401 152.0
124.946236 132.0
125.024117 148.0
125.07753 140.0
125.117599 152.0
125.235626 144.0
125.260124 148.0
125.333649 180.0
125.358154 212.0
125.419731 204.0
125.572174 128.0
125.674789 112.0
125.717537 128.0
125.777451 148.0
125.813171 140.0
126.029808 52.0
126.058861 164.0
126.197449 44.0
126.235458 152.0
126.28466 160.0
126.575592 92.0
126.774956 160.0
126.936363 72.0
127.08889 112.0
127.185394 140.0
127.287598 152.0
127.317856 172.0
127.459381 168.0
127.578499 140.0
127.706673 132.0
127.902428 124.0
127.96096 148.0
128.062943 392.0
128.518616 228.0
128.858597 44.0
128.890228 188.0
128.985153 88.0
129.068665 396.0
129.707245 172.0
129.734436 172.0
129.872772 232.0
129.922668 100.0
130.064865 2796.0
130.201859 228.0
130.319992 192.0
130.426804 32.0
130.469986 172.0
130.522278 140.0
130.681503 168.0
130.718826 168.0
130.763428 200.0
130.811218 236.0
131.044083 328.0
131.073471 6176.0
131.137939 120.0
131.159744 88.0
131.314789 88.0
131.380936 276.0
131.524704 188.0
131.556656 48.0
132.053848 744.0
132.077576 1248.0
132.171463 156.0
132.46727 116.0
132.556152 168.0
132.589005 144.0
132.75058 88.0
133.033218 132.0
133.063873 420.0
133.088318 236.0
133.120743 236.0
133.391571 240.0
133.488144 160.0
133.619247 180.0
133.757324 132.0
133.780334 128.0
133.980698 104.0
134.031387 92.0
134.071182 332.0
134.095596 328.0
134.308029 204.0
134.871429 200.0
134.92923 136.0
134.980087 144.0
135.010162 76.0
135.046143 304.0
135.078964 368.0
135.102676 192.0
135.158203 64.0
135.188293 64.0
135.290131 184.0
135.32486 136.0
135.547226 96.0
135.734985 84.0
135.767441 176.0
135.825424 164.0
135.874146 272.0
136.077698 304.0
136.115524 184.0
136.224686 248.0
136.522202 108.0
136.678055 220.0
136.694336 156.0
136.8759 200.0
136.997025 52.0
137.04361 168.0
137.076767 124.0
137.097214 140.0
137.183441 152.0
137.304703 40.0
137.479889 196.0
137.811249 176.0
137.850967 124.0
138.019272 224.0
138.062149 220.0
138.089874 300.0
138.330444 60.0
138.449844 200.0
138.538849 192.0
138.705231 172.0
139.050766 164.0
139.075836 128.0
139.165054 52.0
139.188522 76.0
139.303604 168.0
139.439896 164.0
139.54332 172.0
139.602112 172.0
139.851486 148.0
140.037491 160.0
140.068726 280.0
140.134079 164.0
140.303772 184.0
140.419312 172.0
140.534897 172.0
140.645813 176.0
140.853607 84.0
140.990646 164.0
141.063553 208.0
141.170059 108.0
141.335907 88.0
141.420761 140.0
142.066345 1280.0
142.231735 212.0
142.395554 72.0
142.435944 84.0
142.778198 132.0
142.845337 212.0
142.954239 140.0
142.99408 244.0
143.072769 5732.0
143.151825 72.0
143.230423 40.0
143.247086 68.0
143.368607 48.0
143.49733 180.0
143.792831 168.0
143.867371 112.0
143.927383 180.0
144.005615 148.0
144.080078 1884.0
144.107468 220.0
144.196747 176.0
144.543503 48.0
144.612915 64.0
144.893082 116.0
145.063156 548.0
145.086426 336.0
145.238281 144.0
145.38942 236.0
145.735214 136.0
146.05957 1264.0
146.093918 760.0
146.208939 56.0
146.387085 140.0
146.43042 188.0
146.467575 208.0
146.587021 100.0
146.88356 176.0
146.989319 168.0
147.079666 1172.0
147.221466 64.0
147.363983 212.0
147.571838 72.0
147.617783 280.0
147.637131 216.0
147.784683 124.0
147.949509 196.0
147.968201 112.0
148.075363 1320.0
148.116257 196.0
148.375641 168.0
148.533279 124.0
149.063263 504.0
149.08194 228.0
149.097824 568.0
149.393204 160.0
149.422989 148.0
149.502701 56.0
149.865524 140.0
149.90451 184.0
150.016617 196.0
150.053192 272.0
150.091232 656.0
150.158051 20.0
150.250732 176.0
150.538757 224.0
150.724411 76.0
151.042343 168.0
151.073807 216.0
151.096054 156.0
151.118073 180.0
151.167007 200.0
151.230637 120.0
151.279587 48.0
151.419159 244.0
151.442657 176.0
151.492645 152.0
151.585739 48.0
151.664169 116.0
151.867676 148.0
152.039429 184.0
152.071426 360.0
152.103241 160.0
152.14743 208.0
152.201447 200.0
152.243179 148.0
152.287399 96.0
152.464279 196.0
152.535568 200.0
152.827316 196.0
152.870056 108.0
152.948807 192.0
153.022659 88.0
153.062057 152.0
153.086685 184.0
153.11377 204.0
153.219696 200.0
153.500671 116.0
153.591934 200.0
153.6884 172.0
153.843628 60.0
153.938553 144.0
154.009079 160.0
154.041183 124.0
154.06662 324.0
154.08812 52.0
154.12973 220.0
154.585114 132.0
154.713821 120.0
154.788101 68.0
154.8302 28.0
155.065475 120.0
155.068756 168.0
155.162231 228.0
155.286224 180.0
155.348236 48.0
155.375519 232.0
155.440033 128.0
155.571579 100.0
155.638611 200.0
155.745407 160.0
155.800049 160.0
155.824066 108.0
156.055725 156.0
156.081345 464.0
156.210236 204.0
156.257492 112.0
156.319702 88.0
156.369476 40.0
156.411789 32.0
156.481491 168.0
156.942429 148.0
157.090607 220.0
157.242172 232.0
157.334137 84.0
157.71727 128.0
158.061234 760.0
158.09494 280.0
158.131531 148.0
158.184097 52.0
158.316803 68.0
158.336838 72.0
158.406967 48.0
158.562317 112.0
158.617462 124.0
158.890671 164.0
158.981125 148.0
159.027496 192.0
159.068649 11060.0
159.112732 168.0
159.151825 28.0
159.202606 164.0
159.229675 40.0
159.264832 68.0
159.287445 40.0
159.360291 40.0
159.398239 40.0
159.485947 36.0
159.508575 144.0
159.596558 88.0
159.739914 60.0
159.780167 64.0
159.861603 164.0
159.936188 48.0
159.990677 148.0
160.029327 56.0
160.075211 4204.0
160.157761 212.0
160.313965 60.0
160.528244 160.0
160.679581 180.0
160.723145 76.0
160.847488 164.0
160.896622 40.0
160.946533 120.0
161.082489 2608.0
161.242233 112.0
161.270493 88.0
161.293228 76.0
161.477814 132.0
161.566345 68.0
161.62706 104.0
161.695389 48.0
161.715637 80.0
161.773865 160.0
162.092087 1656.0
162.232376 164.0
162.255203 68.0
162.310974 60.0
162.349014 56.0
162.400757 232.0
162.443542 104.0
162.488525 132.0
162.539276 40.0
162.625549 120.0
162.681396 56.0
162.95314 64.0
162.988708 132.0
163.062408 52.0
163.096466 588.0
163.164093 108.0
163.220016 164.0
163.248001 96.0
163.293777 120.0
163.334473 308.0
163.459137 60.0
163.581299 72.0
163.667572 108.0
163.759537 80.0
163.82576 116.0
163.843597 48.0
163.889465 176.0
164.069962 328.0
164.110306 500.0
164.287186 96.0
164.320358 72.0
164.404556 96.0
164.529633 168.0
164.596008 80.0
165.073853 124.0
165.094818 120.0
165.158249 84.0
165.27594 360.0
165.293839 116.0
165.406448 160.0
165.516541 200.0
165.670212 40.0
166.005981 176.0
166.031021 136.0
166.089157 316.0
166.119308 308.0
166.157318 44.0
166.175278 176.0
166.395996 208.0
166.642563 184.0
166.771042 176.0
167.017883 188.0
167.072128 188.0
167.491501 132.0
167.885834 164.0
168.065125 328.0
168.105118 120.0
168.192856 132.0
168.332275 20.0
168.417496 264.0
168.482086 56.0
168.745697 216.0
168.794815 60.0
169.079514 156.0
169.193283 160.0
169.211395 128.0
169.289078 168.0
169.470398 72.0
169.5392 220.0
169.626968 204.0
169.693298 256.0
170.019913 136.0
170.056854 136.0
170.102066 180.0
170.448608 76.0
170.906631 136.0
171.04158 156.0
171.079285 204.0
171.104065 208.0
171.140503 220.0
171.174362 188.0
171.223846 220.0
171.309464 192.0
171.446854 184.0
171.700775 216.0
171.854675 40.0
171.995605 172.0
172.077133 760.0
172.133972 172.0
172.256729 164.0
172.285461 68.0
172.66185 104.0
172.714172 100.0
172.803116 140.0
172.931335 48.0
173.007248 64.0
173.084946 2656.0
173.126816 120.0
173.178848 188.0
173.373947 132.0
173.392288 104.0
173.410645 64.0
173.43161 324.0
173.4552 124.0
173.494522 56.0
173.564651 176.0
173.671799 172.0
173.701691 184.0
173.720047 84.0
173.777985 196.0
173.835495 100.0
173.872238 76.0
173.914276 228.0
173.936569 160.0
173.984756 240.0
174.011948 320.0
174.046677 180.0
174.092484 83724.0
174.161667 320.0
174.196503 48.0
174.223038 60.0
174.241333 152.0
174.287308 148.0
174.308777 176.0
174.317902 64.0
174.32663 192.0
174.3526 56.0
174.376495 44.0
174.400146 44.0
174.430084 72.0
174.445419 144.0
174.524506 248.0
174.561234 88.0
174.59227 108.0
174.64888 52.0
174.667542 144.0
174.710266 96.0
174.807785 60.0
174.865738 180.0
174.951004 116.0
174.968582 260.0
175.032501 76.0
175.094955 11076.0
175.173203 220.0
175.366104 88.0
175.395096 92.0
175.437271 232.0
175.455734 68.0
175.506317 212.0
175.54274 80.0
175.563843 56.0
175.606033 48.0
175.695724 72.0
175.714188 60.0
175.748489 60.0
175.770996 68.0
175.835571 104.0
175.861969 40.0
175.891006 36.0
175.96756 80.0
176.103882 892.0
176.158936 120.0
176.177643 72.0
176.259277 108.0
176.296753 108.0
176.337479 104.0
176.361176 160.0
176.37822 124.0
176.399338 136.0
176.435913 88.0
176.454193 240.0
176.477493 144.0
176.510544 116.0
176.556732 128.0
176.585907 104.0
176.604416 52.0
176.667908 68.0
176.710236 96.0
176.7314 48.0
176.771103 48.0
176.906082 76.0
176.96962 84.0
177.022583 56.0
177.080841 136.0
177.10849 164.0
177.12851 136.0
177.156464 80.0
177.163635 108.0
177.239792 40.0
177.337845 68.0
177.393509 36.0
177.519363 120.0
177.89093 156.0
177.941071 120.0
178.087158 2960.0
178.122452 388.0
178.147156 92.0
178.33847 44.0
178.527237 180.0
178.756012 124.0
178.809235 60.0
178.886429 148.0
179.090897 788.0
179.195358 76.0
179.227325 68.0
179.36058 48.0
179.747284 52.0
180.067642 152.0
180.103958 304.0
180.18251 200.0
180.276016 148.0
180.452438 56.0
180.768066 120.0
180.899216 128.0
181.027725 156.0
181.078888 172.0
181.104446 272.0
181.546646 244.0
181.735382 56.0
182.081573 708.0
182.116043 284.0
182.224045 176.0
182.350342 176.0
182.43367 216.0
182.627792 164.0
182.683762 120.0
183.066986 268.0
183.092072 144.0
183.119812 128.0
183.30661 160.0
183.367691 72.0
183.524048 120.0
183.691254 208.0
183.950302 248.0
184.028595 124.0
184.069611 312.0
184.109604 152.0
184.482468 84.0
184.83429 200.0
184.985641 144.0
185.028946 76.0
185.083878 528.0
185.123718 168.0
185.175171 128.0
185.204971 48.0
185.608765 152.0
185.931595 112.0
186.056442 156.0
186.09111 936.0
186.254684 48.0
186.466614 60.0
186.893555 136.0
187.099091 1320.0
187.241608 84.0
187.245667 128.0
187.331879 132.0
187.47084 64.0
187.519897 40.0
187.601669 48.0
187.937134 176.0
187.994431 128.0
188.013535 112.0
188.070297 180.0
188.107819 5380.0
188.283813 56.0
188.335709 84.0
188.455902 40.0
188.489273 228.0
188.578873 40.0
188.682755 208.0
188.822205 148.0
189.072418 344.0
189.111923 976.0
189.230606 196.0
189.254669 172.0
189.755966 68.0
189.923248 180.0
189.947937 80.0
190.086685 800.0
190.126282 172.0
190.474976 204.0
190.595856 64.0
190.648071 108.0
191.0858 184.0
191.520218 60.0
191.575317 196.0
191.6194 192.0
191.77095 192.0
192.101501 192.0
192.148743 116.0
192.54071 88.0
192.86673 152.0
193.046432 176.0
193.089218 280.0
193.284332 92.0
193.802124 184.0
193.940689 252.0
194.081497 424.0
194.113922 292.0
194.509308 232.0
194.570374 208.0
194.63147 100.0
194.684219 48.0
194.723099 96.0
195.079529 188.0
195.100967 188.0
195.782715 204.0
196.098312 1376.0
196.134964 160.0
196.228546 64.0
196.398651 72.0
196.479553 128.0
196.700012 112.0
196.951324 108.0
197.092239 308.0
197.213959 76.0
197.426453 68.0
197.759369 124.0
197.868546 148.0
198.091919 752.0
198.154221 156.0
198.841232 180.0
199.096954 948.0
199.195023 204.0
199.273682 140.0
199.449036 80.0
199.54068 76.0
199.574417 28.0
199.793793 128.0
200.04425 136.0
200.107086 2064.0
200.20192 56.0
200.413193 56.0
201.067413 76.0
201.11235 200.0
201.646393 64.0
201.779251 116.0
201.830139 140.0
202.047913 156.0
202.083588 148.0
202.114975 508.0
202.877701 120.0
202.959915 148.0
203.084702 208.0
203.121643 212.0
203.232208 144.0
203.570007 176.0
203.848389 168.0
204.030304 152.0
204.09964 472.0
204.528122 100.0
204.878372 168.0
204.912567 112.0
205.090775 332.0
205.214676 164.0
205.240341 148.0
205.323029 156.0
205.394333 168.0
206.105209 128.0
206.645599 112.0
206.720001 204.0
206.828751 164.0
206.951859 200.0
207.109665 112.0
207.284119 76.0
208.099075 1120.0
208.351471 208.0
208.53537 104.0
208.845901 80.0
208.866028 40.0
209.097687 336.0
209.119873 200.0
209.217102 200.0
209.510849 152.0
209.81633 196.0
209.914368 148.0
210.015305 248.0
210.111526 1112.0
210.370224 56.0
210.390442 104.0
210.491486 128.0
210.65033 192.0
210.739899 168.0
210.907516 200.0
211.099731 556.0
211.167725 168.0
211.237152 196.0
211.648117 120.0
211.972534 76.0
212.105377 1592.0
212.384216 72.0
212.532166 168.0
212.596008 124.0
213.03154 156.0
213.107559 120.0
213.391907 44.0
213.65947 52.0
214.106689 900.0
215.081543 204.0
215.113708 228.0
215.361847 76.0
215.659882 164.0
215.867447 108.0
216.099945 272.0
216.126572 260.0
216.253632 180.0
216.35022 176.0
216.643066 232.0
216.810089 184.0
216.89801 96.0
217.078903 172.0
217.088394 120.0
217.095352 144.0
217.787079 108.0
217.963348 132.0
218.075027 140.0
218.101486 140.0
218.224945 64.0
218.48671 152.0
218.669144 120.0
219.105225 424.0
219.449768 48.0
220.068756 188.0
220.113663 176.0
220.190445 120.0
221.075897 360.0
221.114014 156.0
221.337845 108.0
221.742783 64.0
221.829666 96.0
221.906738 128.0
222.007553 116.0
222.113083 1372.0
222.182556 140.0
222.363571 32.0
222.411057 64.0
223.037796 152.0
223.097092 444.0
224.107193 1148.0
224.434036 188.0
224.783035 60.0
224.833771 144.0
225.078552 284.0
225.112381 732.0
225.174408 40.0
225.463898 164.0
225.5177 192.0
226.115341 2292.0
226.834732 80.0
226.957657 80.0
227.118942 752.0
227.251587 56.0
227.297668 124.0
227.362625 32.0
227.397797 144.0
227.443649 148.0
227.572739 64.0
227.644806 56.0
227.867081 124.0
227.918167 44.0
228.041367 144.0
228.062408 140.0
228.124283 6296.0
228.1586 48.0
228.205643 124.0
228.718124 64.0
228.745224 192.0
228.889725 120.0
228.946945 120.0
229.034286 160.0
229.064407 84.0
229.097549 280.0
229.127411 588.0
229.744019 100.0
229.800003 192.0
230.097122 108.0
230.135025 224.0
230.391739 112.0
230.836044 72.0
230.944916 104.0
231.100952 304.0
231.144592 280.0
231.326187 124.0
231.395813 80.0
231.898666 56.0
232.085144 344.0
232.141205 120.0
232.210953 160.0
232.544693 128.0
232.79364 96.0
232.92424 112.0
233.094376 80.0
233.125732 212.0
234.084686 332.0
234.122574 164.0
234.159134 124.0
234.445511 208.0
234.860138 140.0
234.991318 188.0
235.015732 156.0
235.098816 396.0
235.134735 136.0
235.458359 168.0
236.107925 1288.0
237.115143 1108.0
237.269836 44.0
237.318893 72.0
237.429276 104.0
237.49675 108.0
237.717651 160.0
238.121567 1516.0
238.288757 180.0
238.428391 100.0
238.679108 176.0
239.095978 156.0
239.129913 828.0
239.338684 56.0
239.559341 152.0
239.587067 44.0
239.670242 320.0
239.691818 92.0
239.756531 120.0
239.848999 184.0
239.99501 132.0
240.043228 68.0
240.064819 132.0
240.124069 14872.0
240.197647 56.0
240.343262 104.0
240.387756 64.0
240.422668 112.0
240.499817 112.0
240.539398 136.0
240.632568 56.0
240.668915 216.0
240.691223 120.0
240.746613 120.0
240.929047 120.0
241.027924 72.0
241.127899 1716.0
241.347702 52.0
241.522568 92.0
241.82579 44.0
241.987076 40.0
242.017715 80.0
242.082748 140.0
242.131943 280.0
242.136383 300.0
242.163269 136.0
242.324356 52.0
242.358429 76.0
242.764511 120.0
242.798615 32.0
242.935089 100.0
243.071609 96.0
243.149185 132.0
243.347855 48.0
243.543503 152.0
243.701935 64.0
244.116745 276.0
244.252197 56.0
244.519775 128.0
244.59137 80.0
244.725235 104.0
244.94635 156.0
244.968155 96.0
245.095108 144.0
245.118149 316.0
245.772507 88.0
246.081512 76.0
246.11528 172.0
246.409454 48.0
246.668839 96.0
247.104034 332.0
247.130295 108.0
247.136734 280.0
247.91452 148.0
248.105042 860.0
248.146469 140.0
248.460098 132.0
249.117188 432.0
250.081772 116.0
250.123947 1328.0
250.166534 108.0
251.12767 1500.0
251.361053 196.0
251.45134 144.0
251.935684 180.0
252.13707 596.0
253.13176 1252.0
253.783981 84.0
254.07811 76.0
254.110855 516.0
254.149551 144.0
255.131119 168.0
256.095551 396.0
256.151123 124.0
256.208984 172.0
256.266327 220.0
256.562714 188.0
257.960968 76.0
258.096405 44.0
258.109314 160.0
258.119263 108.0
258.130707 216.0
259.119781 120.0
259.625916 124.0
259.674011 108.0
259.755524 48.0
260.107117 700.0
261.061401 172.0
261.114532 704.0
261.199677 80.0
261.640564 96.0
261.75647 120.0
262.086212 188.0
262.123444 456.0
262.210693 160.0
262.349304 108.0
263.088684 208.0
263.128204 412.0
264.063904 188.0
264.096161 176.0
264.138733 848.0
264.889282 60.0
265.131744 540.0
265.177643 244.0
265.286957 72.0
265.391602 156.0
265.871704 120.0
266.044708 132.0
266.110046 448.0
266.135559 140.0
266.158905 536.0
266.826691 156.0
267.103729 272.0
267.151886 356.0
268.113708 200.0
268.140778 300.0
268.166046 272.0
269.132141 160.0
269.708405 92.0
270.002686 168.0
271.109192 148.0
271.50589 76.0
272.129272 148.0
273.042877 84.0
273.108643 104.0
273.38501 228.0
274.077484 284.0
274.121979 928.0
274.369843 168.0
274.399536 188.0
275.135132 612.0
275.330048 116.0
275.75293 136.0
276.105255 128.0
276.140106 936.0
276.205902 52.0
276.282013 32.0
276.407715 48.0
276.550018 160.0
276.705627 44.0
276.864563 88.0
276.987091 84.0
277.028595 84.0
277.073242 32.0
277.103058 180.0
277.142365 292.0
277.199127 48.0
277.242218 84.0
278.044769 76.0
278.153778 908.0
278.34024 56.0
278.984772 192.0
279.081207 80.0
279.126404 236.0
279.161224 172.0
279.556885 76.0
279.699982 112.0
280.1362 264.0
280.166199 228.0
280.932922 132.0
281.102936 156.0
281.114258 128.0
281.173187 116.0
281.710754 96.0
282.12146 160.0
282.142792 168.0
283.122955 184.0
283.172485 136.0
283.711945 196.0
284.115448 192.0
284.141235 176.0
284.198273 40.0
284.312347 44.0
285.110382 180.0
286.08371 388.0
286.116241 164.0
286.255402 128.0
286.959625 88.0
287.108002 144.0
287.610718 76.0
287.691742 68.0
288.096985 340.0
288.139526 384.0
288.424744 56.0
288.647888 172.0
288.816986 128.0
289.111115 196.0
289.153564 136.0
289.615784 196.0
290.116089 300.0
290.152405 304.0
290.259705 196.0
290.99939 92.0
291.127411 272.0
291.163422 524.0
291.19635 40.0
292.093658 156.0
292.134399 468.0
292.161713 212.0
293.144073 268.0
293.203644 200.0
293.466125 96.0
294.142426 372.0
294.27475 52.0
295.12204 188.0
295.169952 104.0
295.515411 32.0
296.162598 292.0
297.105103 88.0
297.139343 236.0
297.16214 172.0
297.8526 80.0
298.114563 84.0
298.140106 232.0
298.355164 136.0
300.128265 152.0
300.935669 132.0
301.10141 44.0
301.135956 112.0
302.121094 252.0
302.294098 136.0
303.136353 164.0
303.988617 232.0
304.051086 40.0
304.092743 152.0
304.135864 336.0
304.325317 120.0
305.110474 180.0
305.141876 276.0
306.147736 284.0
306.495758 168.0
306.548035 176.0
307.127533 596.0
307.168274 376.0
307.176331 320.0
307.618774 104.0
307.775879 112.0
308.134583 576.0
308.165131 352.0
308.443146 144.0
308.474609 72.0
309.107666 340.0
309.165436 184.0
309.19165 124.0
310.147797 80.0
310.184052 140.0
310.234253 60.0
311.137024 100.0
311.161621 148.0
311.186798 140.0
311.695496 152.0
312.061035 32.0
312.127838 156.0
312.158722 168.0
312.483093 140.0
312.595673 132.0
312.891357 140.0
313.624054 132.0
314.138885 160.0
314.177673 136.0
316.136017 168.0
316.315643 212.0
316.800781 124.0
317.087799 136.0
317.13385 168.0
317.683472 140.0
318.137726 108.0
318.642029 132.0
319.123779 164.0
319.523712 176.0
319.943665 60.0
320.004181 84.0
320.133331 324.0
320.428009 60.0
321.131622 408.0
321.177765 100.0
321.35144 72.0
321.701172 72.0
321.897552 160.0
322.142609 1688.0
322.454834 68.0
322.994751 56.0
323.109222 212.0
323.147186 1072.0
323.172546 220.0
323.456329 76.0
323.936188 100.0
324.133972 116.0
324.171387 284.0
324.326752 44.0
325.121033 236.0
325.200867 332.0
325.334747 104.0
326.142365 140.0
326.183472 292.0
326.578033 60.0
327.139374 216.0
327.177429 204.0
328.191376 232.0
329.917145 172.0
330.242584 112.0
330.318542 80.0
330.658661 56.0
332.365479 172.0
333.163452 512.0
333.807556 124.0
334.080322 112.0
334.142792 1088.0
334.91391 40.0
335.154541 300.0
336.135223 156.0
336.162109 300.0
336.188232 176.0
337.130859 204.0
337.141235 132.0
338.020752 64.0
338.139709 148.0
338.181793 160.0
338.373169 72.0
339.12677 176.0
339.163422 160.0
340.154358 1576.0
340.215271 128.0
340.561371 88.0
341.086823 156.0
341.153992 308.0
341.745087 100.0
342.102081 88.0
342.148926 160.0
342.521881 48.0
343.166809 144.0
343.978424 116.0
344.129761 200.0
345.064514 96.0
345.519409 152.0
347.319763 64.0
349.191742 172.0
349.46701 52.0
349.58609 76.0
349.906189 80.0
350.617645 96.0
351.170898 572.0
351.285065 72.0
352.001648 220.0
352.061401 52.0
352.154419 904.0
352.210785 56.0
352.446167 208.0
352.554535 76.0
353.154327 248.0
353.176422 164.0
354.03595 124.0
354.070099 172.0
354.173309 1512.0
354.316895 52.0
355.178192 248.0
355.753204 88.0
356.181305 456.0
356.342834 44.0
357.015656 88.0
357.07959 68.0
357.169861 148.0
357.214996 116.0
358.073181 56.0
358.162964 104.0
358.220093 144.0
358.442383 104.0
359.105865 92.0
359.156891 92.0
359.196411 76.0
359.66806 44.0
359.924774 112.0
360.198975 132.0
360.869385 132.0
361.323242 140.0
361.84552 48.0
363.00116 136.0
364.819824 92.0
365.047943 124.0
365.176788 316.0
365.200195 288.0
365.80127 104.0
365.921967 80.0
366.166229 592.0
366.726868 32.0
366.947968 72.0
367.066193 48.0
367.1698 840.0
368.172974 240.0
369.12439 132.0
369.180878 888.0
369.235291 184.0
369.602509 216.0
369.648438 44.0
369.705841 100.0
369.9776 152.0
370.161072 280.0
370.193542 148.0
370.28009 152.0
370.835632 68.0
371.175232 296.0
372.181274 1404.0
372.789062 84.0
373.131165 232.0
373.183502 352.0
373.434937 72.0
373.527252 176.0
373.619568 128.0
374.175903 172.0
374.239227 132.0
375.194702 136.0
375.688324 100.0
379.703308 140.0
379.947693 92.0
381.023102 124.0
381.194061 132.0
383.195312 948.0
383.891724 64.0
384.075043 140.0
384.185791 1148.0
385.186768 444.0
385.347687 96.0
386.191101 176.0
386.508942 116.0
387.268402 72.0
387.600922 160.0
388.009033 64.0
388.22467 120.0
388.864166 168.0
391.029724 120.0
394.322937 132.0
397.015076 100.0
398.372498 72.0
399.048096 128.0
399.119659 164.0
399.194183 420.0
399.233154 236.0
399.469666 80.0
399.592987 48.0
400.066589 144.0
400.201324 260.0
401.068573 104.0
401.208954 14932.0
401.340332 84.0
401.427429 80.0
401.485046 88.0
401.556824 36.0
401.669891 80.0
401.765778 136.0
401.871979 96.0
401.906952 52.0
402.135071 180.0
402.212372 5188.0
402.390808 32.0
402.454712 80.0
402.977936 96.0
403.136627 84.0
403.211517 908.0
403.541473 48.0
403.805389 72.0
404.281494 44.0
404.449585 84.0
404.481598 112.0
404.549652 44.0
404.642853 72.0
404.673767 108.0
404.769867 48.0
404.811615 144.0
404.829315 132.0
405.17038 112.0
406.172546 40.0
406.4534 64.0
407.272369 156.0
408.687439 160.0
409.814819 72.0
411.298889 64.0
413.036377 40.0
418.37262 96.0
421.394653 48.0
421.676605 52.0
427.298553 80.0
427.817078 60.0
430.170929 72.0
431.740997 120.0
441.56015 48.0
453.026184 48.0
453.386322 68.0
456.885101 80.0
457.710785 140.0
465.02533 120.0
469.240967 80.0
478.334198 56.0
479.728149 60.0
491.804321 28.0
494.757141 128.0
500.026001 128.0
501.304138 100.0
511.596863 108.0
512.916687 56.0
521.021484 64.0
522.071472 64.0
533.318481 48.0
554.685181 64.0
561.106812 112.0
563.73114 40.0
566.806946 148.0
575.49707 80.0
587.16272 132.0
589.977722 44.0
592.838257 116.0
598.477844 88.0
603.699036 88.0
604.594299 92.0
611.046753 96.0
611.268188 52.0
615.043335 116.0
616.272949 92.0
617.899597 96.0
618.651794 44.0
621.938293 100.0
626.383606 72.0
630.499817 68.0
633.151306 68.0
636.024231 44.0
659.818909 132.0
669.048218 76.0
681.528198 44.0
688.278625 80.0
705.934814 76.0
726.387085 52.0
770.96698 32.0
772.824951 84.0
779.439819 80.0
798.424133 96.0
818.092224 232.0
822.595642 32.0
823.566345 44.0
824.377563 116.0
833.494385 56.0
836.519531 76.0
844.459167 164.0
857.510925 164.0
886.526123 144.0
903.932373 260.0
927.856567 60.0
928.923828 68.0
934.768555 60.0
939.148804 144.0
940.875732 224.0
949.92041 124.0
961.598816 56.0
967.501892 76.0
972.491821 228.0
977.2146 196.0
982.56012 152.0
989.703857 208.0
996.069336 116.0
998.21875 180.0
1002.934143 132.0
1003.709595 88.0
1005.299194 204.0
1011.1828 316.0
1014.438477 84.0
1020.406006 144.0
1031.255493 244.0
1058.960571 192.0
1060.295166 112.0
1062.434814 156.0
1065.076904 120.0
1068.418091 68.0
1071.647217 112.0
1092.80835 160.0
1108.324585 108.0
1111.799316 220.0
1116.981689 228.0
1130.686157 144.0
1134.034912 100.0
1134.188965 136.0
1134.410278 72.0
1136.066528 200.0
1136.58313 72.0
1143.63269 252.0
1143.706787 28.0
1155.692017 72.0
1156.652954 184.0
1156.78833 104.0
1161.11792 80.0
1165.408081 128.0
1169.685669 136.0
1171.12915 148.0
1172.798462 156.0
1175.07605 188.0
1175.82666 96.0
1177.46521 128.0
1183.030884 148.0
1185.167725 180.0
1190.504395 80.0
1191.78894 40.0
1193.747925 124.0
1195.254395 132.0
1197.037109 92.0
1202.54541 188.0
1209.727051 124.0
1213.530396 152.0
1218.96521 136.0
1220.974243 168.0
1225.199341 192.0
1226.209717 136.0
1227.610962 152.0
1228.196777 100.0
1230.150513 64.0
1232.119873 160.0
1239.207031 132.0
1239.466187 40.0
1242.600342 136.0
1244.909546 220.0
1245.28186 164.0
1248.41626 220.0
1252.124878 196.0
1252.477051 128.0
1256.191895 152.0
1257.765381 200.0
1260.604492 128.0
1265.520508 152.0
1265.888672 112.0
1271.638062 136.0
1272.276978 112.0
1276.888428 228.0
1278.22583 212.0
1282.748291 204.0
1287.542847 192.0
1289.972168 184.0
1292.589722 48.0
1292.675659 216.0
1298.679199 132.0
1304.013672 180.0
1314.600098 96.0
1317.639893 112.0
1320.574707 100.0
1324.62085 128.0
1325.504639 148.0
1325.968506 200.0
1326.417847 136.0
1327.831665 176.0
1329.151978 204.0
1332.964111 136.0
1335.072144 232.0
1335.944946 136.0
1337.67688 144.0
1337.82251 144.0
1340.041016 160.0
1347.770386 124.0
1348.866577 208.0
1349.436768 44.0
1350.826294 188.0
1353.556152 224.0
1354.054077 184.0
1358.701294 136.0
1361.299561 176.0
1361.483154 180.0
1363.701904 120.0
1364.481079 172.0
1365.113403 164.0
1367.938599 204.0
1370.376221 188.0
1371.562744 124.0
1371.625244 200.0
1372.476807 112.0
1374.055176 180.0
1374.704468 196.0
1374.793091 120.0
1377.886841 228.0
1378.012451 180.0
1379.68335 184.0
1381.886597 88.0
1383.462891 128.0
1384.16626 212.0
1386.188477 160.0
1386.959229 196.0
1390.326416 64.0
1390.741943 156.0
1392.263916 184.0
1393.571289 168.0
1393.950195 152.0
1394.938721 140.0
1398.300659 140.0
1401.204712 232.0
1403.768677 148.0
1403.925293 184.0
1406.879883 112.0
1408.814087 116.0
1409.000854 128.0
1410.106689 128.0
1410.211426 216.0
1410.861694 176.0
1411.310303 168.0
1412.088013 164.0
1412.835938 156.0
1413.210083 144.0
1414.4823 216.0
1414.691895 104.0
1415.043701 168.0
1415.39563 168.0
1416.781128 140.0
1428.830444 136.0
1431.020508 140.0
1431.660522 236.0
1434.086426 164.0
1437.872437 36.0
1443.356812 160.0
1444.370117 204.0
1445.081299 172.0
1448.427368 204.0
1448.753052 188.0
1449.255981 228.0
1450.829468 112.0
1452.429443 136.0
1453.036377 132.0
1455.495483 28.0
1458.420288 140.0
1460.572021 52.0
1460.838257 144.0
1461.903442 148.0
1467.273193 164.0
1467.326538 116.0
1468.050903 128.0
1470.19458 176.0
1470.812744 208.0
1474.754028 128.0
1475.021484 176.0
1476.053589 136.0
1479.841064 152.0
1481.150513 220.0
1485.619507 84.0
1488.228882 264.0
1490.517822 204.0
1491.15564 164.0
1492.139526 252.0
1492.454712 176.0
1494.30835 172.0
1495.562622 224.0
1496.940674 204.0
1497.171753 28.0
1499.613892 120.0
1501.094116 156.0
1502.243286 112.0
1504.064331 204.0
