>compound AM-251
>formula C22H21Cl2IN4O
>ionization [M+H]+
>parentmass 555.0209911040905
#inchi InChI=1S/C22H21Cl2IN4O/c1-14-20(22(30)27-28-11-3-2-4-12-28)26-29(19-10-7-16(23)13-18(19)24)21(14)15-5-8-17(25)9-6-15/h5-10,13H,2-4,11-12H2,1H3,(H,27,30)
#inchikey BUZAJRPLUGXRAB
#Ion_Source LC-ESI
#Instrument qTof
#Compound_Source Commercial
#PI Dorrestein
#Data_Collector Garg_Neha
#Scan -1
#Precursor_MZ 555.021
#ExactMass 554.014
#Charge 1
#CAS_Number N/A
#Pubmed_ID N/A
#Smiles Cc1c(nn(c1c2ccc(I)cc2)c3ccc(Cl)cc3Cl)C(=O)NN4CCCCC4
#INCHI_AUX N/A
#Library_Class 1
#SpectrumID CCMSLIB00000079082
#IonMode Positive
#UpdateWorkflowName UPDATE-SINGLE-ANNOTATED-GOLD
#LibraryQualityString Gold
#TaskID 278b19f5865741e282cec7349aa7e7a1
##Scan# 3087
#SpectrumFile NCP003432_E2_F11_BD2_01_15724.mzXML
#LibraryName NIHcollectionI_05062014.mgf
#MQScore -1
#Organism NIHcollectionI_05062014
#TIC_Query 0
#RT_Query -1
#MZErrorPPM -1
#SharedPeaks 0
#MassDiff 0
#LibMZ -1
#SpecMZ 555.021
#SpecCharge 0
#internalFilename spec-00000.mgf

>collision 10
47.527935 140.0
51.473236 204.0
52.740383 164.0
52.753395 156.0
55.571365 156.0
59.319504 180.0
72.186165 160.0
72.738487 160.0
73.112404 188.0
73.581154 196.0
74.174767 200.0
74.34285 160.0
75.091217 156.0
82.708611 180.0
85.2033 256.0
88.480469 144.0
89.430313 212.0
92.762108 188.0
95.868156 228.0
97.820206 184.0
99.092903 1108.0
99.554871 168.0
100.091301 220.0
104.054909 144.0
105.847137 172.0
116.024048 208.0
118.810402 180.0
119.470818 208.0
125.91423 160.0
127.651016 140.0
128.050323 188.0
128.254364 164.0
129.060364 444.0
129.107788 192.0
130.882324 216.0
132.960648 248.0
140.04776 184.0
141.055801 100.0
147.959244 160.0
149.011795 148.0
153.903107 144.0
155.060806 152.0
155.591629 172.0
156.862839 212.0
159.916183 164.0
159.972229 844.0
160.836166 148.0
160.979431 172.0
161.967667 364.0
162.012375 140.0
162.90242 144.0
162.973557 156.0
163.015671 124.0
163.751984 148.0
163.810562 180.0
164.670135 160.0
165.102051 148.0
165.531967 148.0
167.915085 144.0
168.668152 196.0
169.416 160.0
170.630539 152.0
170.977173 352.0
171.972076 256.0
172.966385 132.0
173.987656 192.0
174.964005 168.0
176.966858 156.0
177.329773 164.0
178.003601 140.0
178.678711 168.0
181.440186 168.0
182.076111 164.0
182.425415 156.0
182.632462 164.0
184.966461 184.0
185.98291 152.0
188.573135 192.0
192.40506 248.0
195.428802 148.0
197.985565 144.0
198.012024 124.0
198.591095 232.0
199.027527 112.0
203.661621 128.0
205.302536 192.0
206.021805 160.0
208.595154 212.0
210.008926 152.0
210.878754 136.0
212.964081 156.0
214.412964 140.0
214.439194 140.0
216.390503 172.0
218.309494 164.0
219.983002 140.0
221.106171 152.0
222.985168 164.0
224.023544 144.0
224.075546 176.0
224.937393 188.0
224.980209 152.0
225.495926 144.0
226.013275 156.0
226.951965 368.0
227.968353 144.0
228.157715 156.0
228.69014 248.0
228.934006 148.0
229.077621 384.0
230.079697 708.0
231.085556 260.0
231.25563 144.0
233.248398 140.0
233.360886 220.0
234.78595 140.0
238.042587 672.0
239.019485 208.0
239.045441 252.0
239.687668 176.0
239.940399 160.0
240.034851 272.0
240.211777 148.0
240.87854 148.0
244.45639 220.0
245.319122 148.0
245.390839 212.0
245.846237 164.0
248.002014 212.0
251.047272 156.0
252.033585 104.0
253.453049 180.0
254.550568 156.0
254.9254 156.0
255.819138 148.0
255.961411 5712.0
256.96579 880.0
258.583679 176.0
261.014984 144.0
264.042694 224.0
265.00119 168.0
265.053528 1808.0
266.054993 336.0
267.049591 756.0
268.05484 320.0
268.942566 152.0
270.694885 180.0
272.443054 192.0
273.010406 288.0
273.518341 236.0
274.015198 148.0
275.007263 208.0
275.292084 144.0
275.86972 168.0
277.023682 196.0
278.989746 144.0
280.23111 164.0
280.487732 148.0
281.976318 172.0
282.026459 140.0
283.864441 188.0
284.898285 116.0
286.998199 132.0
287.11969 156.0
289.83075 160.0
290.800629 148.0
292.029205 180.0
293.044373 276.0
294.05127 120.0
295.049805 252.0
296.047455 152.0
297.113434 144.0
299.014191 760.0
299.051453 180.0
299.581726 220.0
299.988373 200.0
300.023651 1076.0
300.372559 112.0
301.013672 428.0
301.179749 164.0
301.489777 184.0
302.020508 848.0
303.007599 152.0
303.029572 448.0
303.389984 144.0
304.023285 408.0
305.616211 160.0
307.976288 152.0
308.559875 176.0
308.794159 144.0
309.004028 140.0
309.515045 156.0
310.056824 108.0
313.103912 160.0
313.322327 192.0
313.628876 156.0
316.086884 144.0
316.837494 148.0
317.769897 216.0
317.865692 176.0
318.955994 160.0
320.842651 196.0
322.198792 140.0
322.65625 156.0
326.928192 152.0
327.021759 184.0
328.01535 2216.0
329.015503 408.0
330.013 1076.0
330.236481 144.0
331.012238 112.0
331.355255 200.0
332.012451 260.0
332.591614 160.0
332.656952 208.0
333.895935 188.0
334.394379 208.0
334.532684 148.0
334.791199 156.0
335.027802 112.0
335.377747 160.0
336.946869 228.0
337.541107 132.0
338.272095 136.0
338.662506 192.0
339.941986 160.0
340.768127 144.0
344.448364 176.0
346.029175 336.0
346.168152 152.0
347.005035 148.0
347.894379 136.0
348.029572 252.0
348.377228 104.0
348.568146 152.0
348.609039 156.0
348.690796 148.0
349.040222 140.0
349.486572 220.0
349.735901 172.0
349.892242 156.0
350.021301 140.0
350.380127 208.0
351.017456 144.0
351.939117 140.0
352.327515 140.0
352.893433 128.0
355.048706 160.0
355.217499 152.0
355.979858 124.0
356.727051 144.0
356.997192 136.0
357.23526 184.0
357.595917 148.0
360.005524 1464.0
360.533813 196.0
361.009338 720.0
362.006439 508.0
363.007507 252.0
364.00827 228.0
365.949615 148.0
366.95993 128.0
367.261475 208.0
369.603271 156.0
369.928589 140.0
371.672394 148.0
373.904694 744.0
374.351593 180.0
375.896545 272.0
376.930725 280.0
377.968506 152.0
378.016083 1028.0
378.933685 144.0
379.018097 284.0
380.016357 1236.0
381.016205 248.0
381.960602 200.0
382.021454 112.0
383.384064 192.0
383.436249 176.0
383.868958 188.0
384.188782 140.0
384.321442 152.0
384.395569 212.0
384.430695 148.0
385.864166 156.0
386.180908 144.0
387.48053 144.0
388.558136 148.0
390.548462 164.0
390.884674 188.0
390.94812 988.0
391.644501 216.0
391.957672 2416.0
392.21582 152.0
392.801605 172.0
392.952332 392.0
393.493958 184.0
393.955475 584.0
394.953461 96.0
396.210938 184.0
398.349152 168.0
399.374664 156.0
399.91861 192.0
400.904358 160.0
402.050079 192.0
403.481934 252.0
408.893066 160.0
409.380188 148.0
410.649658 196.0
410.755798 164.0
411.787811 188.0
411.887115 168.0
412.717255 140.0
413.607269 148.0
413.676086 140.0
413.902344 160.0
414.910156 152.0
416.283051 156.0
417.921143 156.0
418.048584 152.0
418.678284 168.0
418.952606 128.0
419.130463 172.0
419.615479 180.0
419.753082 132.0
419.954132 1164.0
420.027344 164.0
420.26535 212.0
420.958008 116.0
421.431702 212.0
421.742279 140.0
421.942291 408.0
421.989716 184.0
422.602509 124.0
422.875214 168.0
422.94931 156.0
423.346008 144.0
423.632721 152.0
424.165436 184.0
424.399109 168.0
424.796906 160.0
425.215424 160.0
426.833984 192.0
426.932678 228.0
427.479797 148.0
427.9104 136.0
428.94046 2992.0
429.688293 144.0
429.947174 632.0
430.007477 148.0
430.938721 1420.0
431.166534 184.0
431.945831 364.0
432.418396 128.0
432.928894 372.0
437.371277 200.0
437.629364 160.0
438.37912 148.0
438.487488 144.0
441.288452 148.0
442.434784 140.0
442.58548 148.0
443.163513 152.0
444.10672 172.0
448.766144 192.0
449.89679 184.0
449.97702 156.0
450.128998 140.0
450.585175 156.0
451.502411 204.0
452.92749 124.0
453.394775 160.0
453.795013 120.0
453.851501 156.0
453.88797 104.0
454.088196 144.0
454.295502 136.0
454.32724 240.0
454.396759 132.0
454.526459 124.0
454.596497 440.0
454.665253 152.0
454.732605 180.0
454.805817 340.0
454.922516 107072.0
455.06308 108.0
455.229401 120.0
455.417511 128.0
455.486084 132.0
455.558472 148.0
455.635162 184.0
455.70874 164.0
455.836548 176.0
455.924347 16268.0
456.084961 212.0
456.163239 180.0
456.197632 124.0
456.421448 208.0
456.476593 136.0
456.577911 156.0
456.82074 200.0
456.919525 59236.0
457.051544 284.0
457.296906 176.0
457.422791 108.0
457.534882 168.0
457.628967 156.0
457.687958 116.0
457.920532 8536.0
458.034454 156.0
458.19046 132.0
458.219238 176.0
458.259918 104.0
458.411774 116.0
458.602112 216.0
458.668335 232.0
458.738098 228.0
458.856232 112.0
458.916565 5932.0
459.027405 204.0
459.203674 128.0
459.255554 136.0
459.324921 112.0
459.655762 96.0
459.788574 112.0
459.843811 224.0
459.896271 156.0
459.92981 272.0
460.168762 96.0
460.439941 144.0
460.642059 112.0
460.741638 168.0
460.823273 140.0
461.016327 100.0
461.345764 156.0
461.38562 100.0
461.434113 96.0
461.692108 156.0
462.071106 192.0
462.821777 160.0
463.472839 144.0
464.402496 116.0
464.767731 160.0
465.201202 188.0
469.278717 212.0
469.929352 452.0
470.487122 136.0
470.936707 160.0
471.373749 148.0
471.433533 188.0
471.925354 492.0
472.25705 296.0
472.46991 156.0
472.93219 57148.0
473.095673 200.0
473.164124 200.0
473.334259 240.0
473.382355 324.0
473.425903 224.0
473.591614 132.0
473.643066 228.0
473.720245 100.0
473.792358 244.0
473.832977 156.0
473.934692 11204.0
474.014648 176.0
474.250092 156.0
474.360504 216.0
474.394012 152.0
474.590698 136.0
474.719879 184.0
474.786987 264.0
474.859924 124.0
474.930115 32620.0
475.111664 96.0
475.64212 104.0
475.7388 152.0
475.799683 112.0
475.84787 124.0
475.932831 4796.0
476.107117 104.0
476.321533 184.0
476.417206 164.0
476.691895 136.0
476.774353 96.0
476.815613 148.0
476.852936 108.0
476.926697 3792.0
477.025787 148.0
477.923828 248.0
478.042358 224.0
478.192078 176.0
478.322449 216.0
478.623199 100.0
479.469543 176.0
480.944885 140.0
484.78479 224.0
488.222107 148.0
489.159271 148.0
489.78894 172.0
492.581085 168.0
493.369843 196.0
493.756775 152.0
494.088531 152.0
496.005981 164.0
496.562866 100.0
497.682922 184.0
497.949341 164.0
498.842438 220.0
499.949921 156.0
500.141296 168.0
504.007782 164.0
504.82132 204.0
505.763306 108.0
506.562347 196.0
507.655945 156.0
507.967102 96.0
512.267334 168.0
515.773438 144.0
516.049194 140.0
516.50592 152.0
516.881409 172.0
516.967407 160.0
517.383789 140.0
517.52417 148.0
518.906006 156.0
519.10553 152.0
520.63031 140.0
520.839233 152.0
521.057251 368.0
521.393494 156.0
522.207336 156.0
524.037292 144.0
524.479309 144.0
524.588684 144.0
524.832031 140.0
525.0401 160.0
526.180176 140.0
526.655762 172.0
527.624512 140.0
528.987732 144.0
532.100464 140.0
535.636841 192.0
536.646118 172.0
537.004089 508.0
538.014709 136.0
538.193115 124.0
538.993469 216.0
539.604492 104.0
539.903259 140.0
541.183289 152.0
541.739014 164.0
543.15094 116.0
543.167419 160.0
544.735718 148.0
546.004211 160.0
546.472229 156.0
547.736023 196.0
549.395508 248.0
550.221497 172.0
550.487854 104.0
550.742554 240.0
550.875305 148.0
551.006104 160.0
551.111023 132.0
551.364929 216.0
551.528687 112.0
551.547119 120.0
551.678711 100.0
551.746948 176.0
551.878418 132.0
552.115845 192.0
552.26355 168.0
552.347778 232.0
552.412415 108.0
552.633118 176.0
552.698792 136.0
552.791077 180.0
552.877747 116.0
552.980957 216.0
553.01062 164.0
553.055176 148.0
553.161804 100.0
553.213135 232.0
553.285583 116.0
553.346741 120.0
553.516235 188.0
553.578125 172.0
553.783997 412.0
553.858765 316.0
553.923157 224.0
553.966187 264.0
554.016846 208.0
554.08844 120.0
554.229553 216.0
554.302368 212.0
554.347717 140.0
554.400269 280.0
554.456238 204.0
554.517639 168.0
554.631592 320.0
554.672668 184.0
554.729431 224.0
554.857361 364.0
555.023621 196776.0
555.147644 164.0
555.203125 140.0
555.283752 124.0
555.369446 172.0
555.450378 320.0
555.469727 296.0
555.531189 336.0
555.584351 188.0
555.796082 2104.0
555.865234 440.0
555.905701 228.0
556.02478 78484.0
556.21759 344.0
556.305664 208.0
556.470825 316.0
556.615112 140.0
556.633728 148.0
556.648438 256.0
556.820251 276.0
556.855652 248.0
556.927734 564.0
557.020508 151168.0
557.216125 144.0
557.275635 144.0
557.320679 168.0
557.340393 156.0
557.41748 292.0
557.527588 212.0
557.565796 172.0
557.67804 260.0
557.745483 180.0
557.793274 840.0
558.022034 38508.0
558.123962 212.0
558.242188 228.0
558.313599 276.0
558.377991 212.0
558.420532 136.0
558.502502 180.0
558.612305 172.0
558.639526 240.0
558.721008 208.0
558.821289 132.0
558.904236 116.0
559.017456 14544.0
559.149048 256.0
559.263123 212.0
559.298035 344.0
559.351257 240.0
559.42041 144.0
559.46051 160.0
559.925598 232.0
559.968262 148.0
560.022705 580.0
560.157593 112.0
560.230835 112.0
560.30072 132.0
560.358215 100.0
560.379883 188.0
560.592651 188.0
560.633728 176.0
560.720825 104.0
560.787903 140.0
560.896301 140.0
560.976562 188.0
561.077026 188.0
561.221069 124.0
561.296814 264.0
561.371582 168.0
561.488892 120.0
561.550659 160.0
561.633667 176.0
561.673157 112.0
561.817993 148.0
561.877319 112.0
562.089478 224.0
562.246338 144.0
562.524109 220.0
562.593262 112.0
563.152588 152.0
563.331543 144.0
563.873901 128.0
564.153137 100.0
569.441711 140.0
570.875488 120.0
573.164612 116.0
575.410156 144.0
576.9953 96.0
579.964172 140.0
595.681824 140.0
604.82312 144.0
622.146179 132.0
710.795776 172.0
717.057007 124.0
795.419189 128.0
856.430176 104.0
914.592041 148.0
1079.104736 140.0
1196.828369 152.0
1395.755371 152.0
1513.782227 140.0
1559.405884 152.0
1603.028198 152.0
1690.07312 148.0
1755.321899 148.0
1844.071655 188.0
