>compound Chlorothiazide
>formula C7H6ClN3O4S2 
>ionization [M+H]+
>parentmass 295.956
#inchi InChI=1S/C7H6ClN3O4S2/c8-4-1-5-7(2-6(4)16(9,12)13)17(14,15)11-3-10-5/h1-3H,(H,10,11)(H2,9,12,13)
#inchikey JBMKAUGHUNFTOL
#Ion_Source LC-ESI
#Instrument qTof
#Compound_Source Isolated
#PI Sirenas
#Data_Collector Ed Esquenazi 
#Scan -1
#Precursor_MZ 295.956
#ExactMass 0.0
#Charge 1
#CAS_Number N/A
#Pubmed_ID N/A
#Smiles N/A
#INCHI_AUX N/A
#Library_Class 3
#SpectrumID CCMSLIB00000006265
#IonMode Positive
#UpdateWorkflowName UPDATE-SINGLE-ANNOTATED-BRONZE
#LibraryQualityString Bronze
#TaskID d19310cd93df49b68e9fcbec27720eb5
##Scan# 3
#SpectrumFile Chlorothiazide.mgf
#LibraryName fda_library.mgf
#MQScore -1
#Organism fda_library
#TIC_Query 0
#RT_Query -1
#MZErrorPPM -1
#SharedPeaks 0
#MassDiff 0
#LibMZ -1
#SpecMZ 295.956
#SpecCharge 0
#internalFilename spec-00000.mgf

>collision 10
101.002594 106.540298
104.955284 237.354294
105.045021 104.702797
106.050934 49.368679
106.981995 227.228394
108.973824 60.861938
111.993324 138.913803
113.185181 13.85048
113.973801 39.831039
114.009026 183.708694
117.018051 29.50919
117.044884 107.882202
119.964005 30.75145
121.036934 148.917297
122.999878 148.246704
123.016441 34.290829
123.994041 832.388306
126.979538 13.75202
127.990082 43.801071
128.997314 69.606979
129.019852 141.107697
130.005173 61.545769
131.331085 12.11391
131.966141 123.7686
132.947067 24.39674
134.046188 64.854553
139.003601 17.19121
139.988968 593.119324
140.097443 11.61527
140.151917 12.5558
141.021439 55.735008
141.9496 512.370178
142.006409 76.361282
151.001343 98.577637
151.984619 22.654499
152.012512 219.220093
152.485855 11.96492
154.97998 30.070009
155.000565 234.062195
155.982483 356.167114
157.016754 240.779694
157.999451 315.173492
158.97641 12.26316
159.962173 159.069107
169.944717 118.675301
169.964203 15.98077
170.953735 43.978642
182.99173 30.744511
185.991043 34.752979
187.958939 67.660912
203.949188 11.54348
203.97023 29.67975
204.980072 130.517807
205.844757 16.059179
207.151184 10.52344
214.969559 94.360046
215.185837 14.9401
220.978973 106.153702
493.824799 64.617348
