>compound Biapenem
>formula C15H18N4O4S 
>ionization [M+H]+
>parentmass 351.113
#inchi InChI=1S/C15H18N4O4S/c1-7-11-10(8(2)20)14(21)19(11)12(15(22)23)13(7)24-9-3-17-5-16-6-18(17)4-9/h5-11,20H,3-4H2,1-2H3/t7-,8-,10-,11-/m1/s1
#inchikey MRMBZHPJVKCOMA
#Ion_Source LC-ESI
#Instrument qTof
#Compound_Source Isolated
#PI Sirenas
#Data_Collector Ed Esquenazi 
#Scan -1
#Precursor_MZ 351.113
#ExactMass 0.0
#Charge 1
#CAS_Number N/A
#Pubmed_ID N/A
#Smiles N/A
#INCHI_AUX N/A
#Library_Class 3
#SpectrumID CCMSLIB00000006472
#IonMode Positive
#UpdateWorkflowName UPDATE-SINGLE-ANNOTATED-BRONZE
#LibraryQualityString Bronze
#TaskID d19310cd93df49b68e9fcbec27720eb5
##Scan# 6
#SpectrumFile Biapenem.mgf
#LibraryName fda_library.mgf
#MQScore -1
#Organism fda_library
#TIC_Query 0
#RT_Query -1
#MZErrorPPM -1
#SharedPeaks 0
#MassDiff 0
#LibMZ -1
#SpecMZ 351.113
#SpecCharge 0
#internalFilename spec-00000.mgf

>collision 10
108.051704 199.027206
110.069832 267.125
110.120506 12.05357
118.064651 247.9702
121.053139 66.782608
124.01918 300.003906
124.17968 19.004311
124.833244 28.44907
126.036034 190.081207
127.017982 53.064289
134.056854 107.147499
137.046814 223.969193
138.00174 62.479481
139.351624 15.125
147.032257 38.461071
152.010025 92.214912
156.011566 52.015629
170.984924 38.49342
178.913055 43.911369
179.900787 44.034088
194.885956 68.447357
292.07785 45.125
