>compound Famciclovir (Famvir)
>formula C14H19N5O4
>ionization [M+H]+
>parentmass 322.15098054009053
#inchi InChI=1S/C14H19N5O4/c1-9(20)22-6-11(7-23-10(2)21)3-4-19-8-17-12-5-16-14(15)18-13(12)19/h5,8,11H,3-4,6-7H2,1-2H3,(H2,15,16,18)
#inchikey GGXKWVWZWMLJEH
#Ion_Source LC-ESI
#Instrument qTof
#Compound_Source Commercial
#PI Dorrestein
#Data_Collector Garg_Neha
#Scan -1
#Precursor_MZ 322.151
#ExactMass 321.144
#Charge 1
#CAS_Number 104227-87-4
#Pubmed_ID N/A
#Smiles N1=C(N=C2C(=C1)N=CN2CCC(COC(=O)C)COC(C)=O)N
#INCHI_AUX N/A
#Library_Class 1
#SpectrumID CCMSLIB00000078477
#IonMode Positive
#UpdateWorkflowName UPDATE-SINGLE-ANNOTATED-GOLD
#LibraryQualityString Gold
#TaskID 77f51c88eb8b467eb4a01dd2d0cb90d2
##Scan# 1023
#SpectrumFile Plate7_61_80_GD5_01_15771.mzXML
#LibraryName FDALibrary_2_04302014.mgf
#MQScore -1
#Organism FDALibrary_2_04302014
#TIC_Query 0
#RT_Query -1
#MZErrorPPM -1
#SharedPeaks 0
#MassDiff 0
#LibMZ -1
#SpecMZ 322.151
#SpecCharge 0
#internalFilename spec-00000.mgf

>collision 10
44.981388 156.0
45.000076 236.0
45.097599 220.0
45.134365 200.0
45.317074 172.0
45.331814 148.0
45.402271 252.0
45.467266 144.0
45.575333 108.0
45.938217 248.0
46.093487 192.0
46.186775 160.0
46.322144 252.0
46.348721 240.0
46.573093 168.0
46.826088 216.0
46.935112 176.0
46.97739 176.0
47.137138 244.0
47.175411 172.0
47.24242 212.0
47.414955 184.0
47.456078 160.0
47.502022 168.0
47.858673 288.0
48.041985 140.0
48.177277 152.0
48.256058 184.0
48.294777 196.0
48.467834 140.0
48.47892 228.0
48.669827 176.0
48.973534 164.0
49.263683 176.0
49.528072 172.0
49.553291 200.0
50.223873 156.0
50.718784 172.0
50.771244 136.0
50.854954 156.0
50.874828 184.0
51.455704 168.0
51.581112 232.0
51.678215 144.0
51.985329 180.0
52.080086 156.0
52.111691 156.0
52.183556 192.0
52.31736 140.0
52.46719 160.0
52.786293 156.0
53.128033 188.0
53.213753 176.0
53.279922 152.0
53.412857 176.0
53.673557 184.0
53.870594 164.0
54.160233 228.0
54.381645 184.0
54.646164 176.0
54.777195 160.0
54.89658 140.0
55.033813 160.0
55.098804 144.0
55.165306 176.0
55.203545 144.0
55.360619 164.0
55.422836 184.0
55.545891 148.0
55.585949 152.0
55.60376 228.0
55.627506 184.0
55.770111 140.0
55.857948 168.0
55.951599 216.0
56.149788 188.0
56.515789 232.0
56.750954 176.0
57.117401 164.0
57.212208 140.0
57.403564 148.0
57.769085 148.0
57.95834 164.0
58.262436 104.0
58.275467 216.0
58.297722 160.0
58.328659 152.0
58.374271 188.0
58.52644 160.0
58.918179 172.0
59.195278 176.0
59.330116 216.0
59.980621 188.0
60.082172 188.0
60.107471 172.0
60.235008 172.0
60.262817 148.0
60.377209 176.0
60.425163 172.0
60.676842 176.0
60.840523 236.0
60.991207 144.0
61.006752 148.0
61.728664 164.0
61.775585 160.0
61.816269 160.0
61.907066 188.0
61.955624 152.0
62.168873 188.0
62.349941 124.0
62.866039 184.0
62.896027 160.0
63.365719 184.0
63.479847 152.0
63.559811 232.0
63.60836 148.0
63.926243 188.0
64.015388 164.0
64.029724 140.0
64.216202 172.0
64.327896 144.0
64.61557 192.0
64.67543 176.0
64.99852 148.0
65.1623 152.0
65.271599 240.0
65.337547 144.0
65.527527 160.0
65.587158 188.0
65.745216 172.0
65.767815 236.0
66.018242 156.0
66.125023 140.0
66.93676 160.0
67.16758 192.0
67.295494 144.0
67.337952 168.0
67.583549 172.0
67.661728 260.0
67.780807 188.0
67.917374 152.0
68.336296 156.0
68.410362 176.0
68.491051 176.0
68.731758 144.0
69.293243 124.0
69.317139 144.0
69.390068 156.0
69.801857 144.0
70.154503 196.0
70.885056 132.0
70.907043 168.0
71.269524 172.0
71.652092 204.0
71.858841 172.0
71.956734 160.0
72.139198 196.0
72.152725 144.0
72.310043 204.0
72.570923 160.0
72.601448 196.0
72.752464 204.0
73.032852 184.0
73.320595 184.0
73.395607 148.0
73.849884 204.0
73.885803 140.0
73.902916 152.0
74.104958 156.0
74.144371 176.0
74.221512 204.0
74.298698 168.0
74.309959 140.0
74.487541 228.0
74.556267 236.0
74.698174 120.0
74.746666 128.0
75.03653 172.0
75.348923 168.0
75.589264 208.0
75.828255 144.0
76.116241 160.0
76.218727 172.0
76.335197 260.0
76.594528 164.0
76.624146 188.0
77.035873 160.0
77.2369 148.0
77.641502 168.0
77.795914 240.0
78.365746 168.0
78.582619 204.0
78.741493 156.0
78.775597 136.0
78.808624 152.0
78.872246 180.0
78.900536 140.0
79.022568 144.0
79.19252 184.0
79.240349 152.0
79.327187 148.0
79.502785 160.0
79.516983 180.0
79.66259 168.0
80.390823 148.0
80.70343 300.0
80.812325 100.0
81.097282 220.0
81.226387 168.0
81.262268 204.0
81.31501 132.0
81.353798 228.0
81.391502 188.0
81.551399 204.0
81.785225 176.0
81.974335 152.0
82.264725 152.0
83.013802 188.0
83.300217 160.0
83.404152 156.0
84.320976 188.0
84.562401 160.0
84.719879 176.0
84.958206 168.0
85.094795 208.0
85.116058 144.0
85.145439 188.0
85.182411 184.0
85.341049 216.0
85.373329 232.0
85.492912 188.0
85.756279 156.0
85.846619 160.0
86.068062 176.0
86.175194 168.0
86.256813 216.0
86.574753 208.0
86.819382 160.0
86.909142 124.0
86.94368 140.0
87.614944 148.0
87.639168 180.0
87.660583 228.0
87.941284 188.0
88.507744 140.0
88.635117 184.0
88.813225 188.0
88.901405 148.0
89.190651 184.0
89.263969 140.0
89.574524 140.0
89.806374 192.0
89.938461 184.0
90.070641 144.0
90.201027 192.0
90.272873 152.0
90.290321 212.0
90.333397 188.0
90.44883 148.0
90.604111 144.0
90.704552 164.0
90.724297 192.0
90.750053 140.0
90.994812 172.0
91.891266 192.0
92.131828 144.0
92.307732 144.0
92.763359 172.0
92.838135 240.0
92.905266 164.0
93.022331 192.0
93.227852 156.0
93.322044 160.0
93.375885 164.0
93.404739 184.0
93.470154 140.0
93.652412 212.0
93.70121 172.0
93.776367 144.0
93.994171 196.0
94.041313 380.0
94.450249 148.0
94.510223 140.0
95.161484 140.0
95.24305 148.0
95.375183 148.0
95.867599 176.0
95.898781 208.0
96.019661 140.0
96.134773 220.0
96.24604 160.0
96.40036 192.0
96.468773 228.0
96.558716 168.0
97.183632 244.0
97.45459 160.0
97.598083 180.0
97.647247 236.0
97.682655 180.0
97.751518 212.0
97.806427 244.0
97.924767 144.0
98.035095 160.0
98.08831 164.0
98.223351 160.0
98.268898 232.0
98.449379 140.0
98.621269 168.0
98.643013 176.0
99.536568 200.0
99.594162 140.0
99.834656 152.0
100.105301 164.0
100.33445 140.0
100.36834 212.0
100.432159 168.0
100.587807 168.0
100.931442 268.0
101.116966 196.0
101.31974 228.0
101.375847 164.0
101.520279 176.0
101.610451 176.0
101.756966 244.0
101.909615 168.0
102.160927 148.0
102.253494 144.0
102.325958 180.0
102.434715 216.0
102.947021 184.0
103.073654 316.0
103.106621 152.0
103.14003 184.0
103.163216 140.0
103.193687 112.0
103.404289 180.0
104.052612 392.0
104.493652 176.0
104.832253 180.0
105.2621 200.0
105.317238 188.0
105.664772 160.0
105.773232 176.0
106.041397 148.0
106.06662 180.0
106.158424 176.0
106.191238 176.0
106.517601 140.0
106.64138 188.0
106.914436 148.0
106.978241 228.0
106.994713 236.0
107.0606 172.0
107.286942 156.0
107.400681 332.0
107.450188 384.0
108.159019 172.0
108.41378 188.0
108.469742 156.0
108.665794 120.0
108.942886 176.0
109.049858 2316.0
109.129936 276.0
109.150734 160.0
109.324883 240.0
109.489944 152.0
109.744179 204.0
109.852623 156.0
109.954872 204.0
110.019577 184.0
110.057404 172.0
110.240982 152.0
110.383141 196.0
110.397774 164.0
110.496086 140.0
110.55468 192.0
110.841576 192.0
110.879295 184.0
111.034439 208.0
111.059608 168.0
111.095268 260.0
111.336655 148.0
111.513138 148.0
111.582512 200.0
111.608574 152.0
111.752876 228.0
111.982338 152.0
112.020256 204.0
112.062393 156.0
112.425087 196.0
112.58976 160.0
112.657349 184.0
112.674248 140.0
112.790482 140.0
113.070999 256.0
113.357697 204.0
113.756439 176.0
113.87323 144.0
113.953957 140.0
113.979454 156.0
114.220116 244.0
114.353745 148.0
115.499344 156.0
115.727722 188.0
115.820648 220.0
116.077835 148.0
116.097443 192.0
116.474884 188.0
116.879074 148.0
116.993149 184.0
117.210686 160.0
117.359413 180.0
117.393333 184.0
117.996361 144.0
118.062355 104.0
118.100159 176.0
118.61985 224.0
118.669716 156.0
118.810692 168.0
118.923531 140.0
119.034142 640.0
119.082031 148.0
119.255859 160.0
119.706207 156.0
119.884842 168.0
120.041801 192.0
120.056061 164.0
120.0998 196.0
120.209778 144.0
120.467415 184.0
120.646622 184.0
121.014183 208.0
121.051254 1244.0
121.073303 416.0
121.090828 208.0
121.274872 212.0
121.603882 212.0
121.946518 152.0
122.212616 148.0
122.417336 152.0
123.036926 140.0
123.123047 212.0
123.146545 156.0
123.182678 172.0
123.370522 144.0
123.536385 160.0
123.942726 176.0
124.076759 152.0
124.166954 148.0
124.336288 180.0
124.382896 192.0
124.43174 244.0
124.511681 160.0
124.744987 144.0
125.225624 176.0
125.247894 208.0
125.408333 220.0
125.765213 156.0
125.789764 200.0
126.232147 148.0
126.256844 188.0
126.545418 172.0
126.657394 140.0
126.711159 208.0
127.074409 1008.0
127.669647 144.0
127.775368 156.0
128.117569 168.0
128.700058 220.0
128.945709 208.0
129.045181 196.0
129.101715 176.0
129.648102 240.0
129.803726 224.0
130.030457 140.0
130.048752 172.0
130.159988 180.0
130.579407 144.0
130.803406 144.0
131.033417 176.0
131.057144 304.0
131.615051 148.0
131.72467 148.0
131.827499 152.0
132.063385 300.0
132.239166 140.0
132.424042 192.0
132.715668 148.0
133.074554 492.0
133.245865 216.0
133.443878 156.0
133.496414 164.0
133.547012 148.0
133.784271 148.0
133.979782 144.0
134.069778 592.0
134.187195 236.0
134.420166 204.0
134.475555 160.0
134.494019 160.0
135.01619 148.0
135.055466 388.0
135.09021 212.0
135.1064 152.0
135.182358 104.0
135.333313 100.0
135.466049 200.0
135.589966 308.0
135.611221 180.0
135.696426 144.0
135.723434 128.0
135.763092 268.0
135.7845 124.0
135.879669 152.0
135.925995 148.0
135.988495 200.0
136.031967 124.0
136.061966 180432.0
136.198746 116.0
136.231918 156.0
136.258667 152.0
136.295761 228.0
136.346191 96.0
136.370499 160.0
136.413376 144.0
136.442642 556.0
136.602829 100.0
136.711517 112.0
136.749329 148.0
136.802872 168.0
136.912582 116.0
136.997208 116.0
137.062943 9464.0
137.097946 204.0
137.16008 140.0
137.175095 220.0
137.255905 108.0
137.389175 164.0
137.592239 168.0
137.726303 140.0
137.914047 160.0
137.940308 172.0
137.985703 168.0
138.043106 108.0
138.065445 760.0
138.11882 108.0
138.154694 172.0
138.233246 96.0
138.321304 132.0
138.864456 124.0
139.083237 144.0
139.204147 168.0
139.448486 140.0
139.693024 160.0
140.163467 168.0
140.241684 164.0
140.88826 140.0
141.124786 104.0
141.179001 152.0
141.384827 156.0
141.439743 136.0
141.484238 156.0
141.991959 136.0
142.157394 188.0
142.478775 196.0
142.62355 148.0
143.003479 196.0
143.060608 180.0
144.053986 116.0
144.074173 184.0
144.478195 160.0
144.582764 120.0
145.04924 132.0
145.084305 6880.0
145.369537 212.0
145.484756 140.0
145.5952 176.0
146.051865 148.0
146.087875 208.0
146.125534 220.0
146.445129 168.0
146.971054 180.0
147.067215 356.0
147.692108 152.0
147.942688 192.0
148.028519 144.0
148.061295 21308.0
148.735092 140.0
148.821457 164.0
149.064438 1452.0
149.509399 244.0
149.948593 144.0
150.075272 424.0
150.388229 212.0
150.696945 160.0
150.762924 248.0
150.903564 120.0
151.080795 164.0
152.449005 144.0
152.494827 124.0
152.517822 168.0
153.039673 132.0
153.662964 152.0
154.547501 192.0
154.708542 120.0
154.755417 192.0
155.186554 148.0
155.211349 164.0
156.817337 168.0
156.92952 172.0
157.047714 164.0
157.804947 196.0
157.898438 188.0
158.071655 1284.0
158.66217 164.0
159.072937 120.0
159.442841 164.0
160.085602 2632.0
160.273285 140.0
160.356445 144.0
160.500137 180.0
161.067841 908.0
161.930511 196.0
162.076019 1176.0
162.199097 168.0
162.625244 200.0
162.980774 184.0
163.013809 164.0
163.075821 160.0
163.46138 140.0
163.581009 156.0
164.098175 160.0
164.567642 156.0
164.935532 144.0
165.078705 172.0
165.117249 176.0
165.577759 152.0
165.646912 176.0
166.103195 168.0
166.192993 168.0
166.339279 164.0
166.583237 176.0
168.462296 164.0
168.499985 244.0
168.5439 148.0
169.151688 144.0
169.242294 188.0
169.273376 144.0
169.429459 152.0
169.71907 160.0
169.957703 164.0
170.053726 168.0
170.222473 152.0
170.79686 160.0
171.06749 140.0
171.995499 168.0
172.061188 148.0
173.067627 1440.0
173.197235 168.0
173.350281 156.0
173.439392 148.0
173.478714 160.0
174.077103 2456.0
174.172424 124.0
174.237167 164.0
174.357574 248.0
174.805115 168.0
174.858353 204.0
174.9841 148.0
175.097046 3748.0
175.381897 184.0
175.880432 148.0
176.100906 572.0
176.192047 172.0
176.45369 148.0
176.612366 156.0
177.34581 168.0
177.369675 164.0
177.568527 172.0
178.07019 988.0
178.301926 208.0
178.452286 156.0
178.479416 224.0
178.660278 152.0
178.748077 164.0
178.913101 252.0
179.424622 156.0
179.544617 148.0
179.742035 204.0
180.041016 152.0
181.059967 176.0
181.148361 160.0
181.392227 148.0
181.775757 184.0
181.880432 188.0
181.923386 172.0
181.987808 152.0
183.039185 156.0
183.17923 168.0
183.27623 180.0
183.904587 168.0
183.936981 160.0
184.223221 140.0
184.509705 160.0
184.641312 172.0
184.888397 156.0
185.080551 2268.0
185.243103 216.0
185.313538 160.0
185.427353 148.0
186.076401 7540.0
187.085327 9028.0
187.191803 152.0
187.311646 160.0
187.514709 140.0
188.092514 788.0
189.096436 508.0
189.301437 152.0
189.329224 132.0
189.397293 152.0
189.896149 144.0
190.060745 168.0
190.105835 2520.0
190.414886 184.0
190.848221 168.0
190.967331 140.0
191.110382 308.0
191.173676 164.0
191.801636 272.0
192.115402 144.0
192.262253 164.0
192.886475 140.0
192.947296 156.0
193.01088 160.0
193.108063 1220.0
193.517242 152.0
194.112183 164.0
194.509735 180.0
194.673553 144.0
195.076431 208.0
195.319611 232.0
195.749756 152.0
195.894592 188.0
196.560944 148.0
197.317902 164.0
197.653549 176.0
197.843872 220.0
197.888657 144.0
198.126724 180.0
198.830551 144.0
198.883881 224.0
199.079544 144.0
199.693085 160.0
199.762177 200.0
200.092331 2840.0
200.177155 152.0
200.486664 184.0
200.577225 196.0
200.853577 192.0
200.957962 208.0
201.020035 176.0
201.099548 1768.0
201.262802 156.0
201.471802 160.0
201.545258 208.0
201.583954 104.0
201.723572 176.0
201.895798 168.0
201.963669 184.0
202.049988 212.0
202.108124 68780.0
202.372604 184.0
202.468658 140.0
202.508072 204.0
202.632858 116.0
202.847153 196.0
202.91803 164.0
203.110275 6124.0
203.272583 176.0
203.331833 96.0
203.657776 160.0
204.058533 128.0
204.111359 552.0
204.382858 124.0
204.486618 156.0
204.51622 96.0
204.5401 144.0
204.571594 128.0
204.683899 96.0
204.773026 136.0
205.012985 220.0
205.097427 140.0
205.121292 152.0
206.614868 196.0
206.67984 124.0
207.116943 260.0
207.32608 124.0
207.388046 152.0
207.456848 288.0
208.596527 180.0
209.105637 176.0
210.376831 144.0
210.651184 244.0
210.72052 164.0
210.821655 144.0
211.133881 176.0
211.556335 152.0
212.605606 348.0
212.904633 156.0
213.936859 168.0
214.117401 144.0
214.461212 180.0
215.234314 172.0
215.650177 180.0
216.816177 244.0
217.570801 148.0
217.594284 176.0
217.838043 148.0
217.858612 204.0
218.09079 176.0
218.508347 180.0
218.723175 184.0
219.094223 144.0
219.374191 152.0
219.805115 112.0
219.978943 220.0
220.032074 148.0
220.118423 21008.0
220.390457 96.0
220.722122 136.0
221.121521 1772.0
221.672745 136.0
221.798187 156.0
221.863403 196.0
222.127319 292.0
222.620789 248.0
222.798752 116.0
223.09079 128.0
223.201645 156.0
223.587555 116.0
224.55452 156.0
225.327682 204.0
226.129089 160.0
227.27388 184.0
227.751221 152.0
228.415527 208.0
228.692352 176.0
228.737503 152.0
229.2435 192.0
229.282684 180.0
229.400238 216.0
229.454498 204.0
231.4729 180.0
231.548447 144.0
231.715225 160.0
232.652359 196.0
233.551849 140.0
233.788193 176.0
234.032684 196.0
234.057053 188.0
234.757935 168.0
234.898239 200.0
235.041626 152.0
235.120499 900.0
235.188126 160.0
235.667587 164.0
236.071091 140.0
236.128235 268.0
236.505539 156.0
236.774979 188.0
237.667053 204.0
237.977051 168.0
238.129181 6776.0
238.276199 160.0
238.560791 172.0
238.696075 144.0
238.745285 212.0
239.068314 172.0
239.099075 144.0
239.130112 804.0
240.131668 160.0
240.519989 168.0
242.177353 196.0
242.406616 168.0
242.676285 176.0
242.725891 172.0
243.048492 308.0
243.253342 176.0
243.579391 144.0
244.11087 164.0
244.390823 156.0
245.124207 140.0
245.511658 124.0
246.039597 188.0
246.292542 196.0
246.389389 148.0
246.920792 160.0
246.97084 140.0
249.347473 160.0
249.815994 200.0
251.101151 180.0
252.038757 148.0
252.127228 140.0
252.895798 140.0
253.294769 140.0
253.339111 144.0
253.532394 156.0
253.792343 236.0
254.941467 144.0
255.236984 100.0
255.870285 208.0
255.994461 196.0
256.223816 160.0
256.268402 160.0
256.593506 176.0
258.456085 144.0
258.830139 160.0
258.948639 144.0
259.20813 184.0
259.769226 164.0
259.836578 144.0
260.171539 140.0
260.544434 176.0
261.015381 192.0
261.044312 184.0
261.440002 180.0
261.721252 164.0
261.752289 172.0
261.990234 136.0
262.072357 216.0
262.1297 43764.0
262.226074 144.0
262.323425 276.0
262.428802 120.0
262.751465 148.0
263.132141 4772.0
263.317993 124.0
263.652374 208.0
263.826813 116.0
264.088867 144.0
264.133636 456.0
264.189148 176.0
265.121521 144.0
265.267517 152.0
265.545593 180.0
265.604767 204.0
266.874603 172.0
267.040436 296.0
267.479706 144.0
267.753204 140.0
269.176941 120.0
269.276337 160.0
269.975739 156.0
270.02478 156.0
270.728424 156.0
270.849609 156.0
270.964264 160.0
271.990723 164.0
272.292816 160.0
272.650909 168.0
272.67392 208.0
272.78241 140.0
272.864594 168.0
273.015839 148.0
273.091492 148.0
274.039581 152.0
274.517548 160.0
274.554749 100.0
274.814423 148.0
274.969879 144.0
275.92749 172.0
276.367401 180.0
278.268921 148.0
278.847931 180.0
279.276855 144.0
279.308716 124.0
279.369995 176.0
279.566315 176.0
279.729401 148.0
279.769348 236.0
279.8992 204.0
280.069031 180.0
280.140015 43864.0
280.347687 116.0
280.718933 164.0
281.142822 4932.0
282.146149 612.0
282.860596 236.0
283.105743 152.0
283.159515 160.0
283.265442 116.0
283.293152 128.0
283.728271 184.0
284.113953 180.0
284.149841 120.0
284.197815 148.0
284.637543 176.0
284.711426 156.0
286.615448 144.0
287.121124 184.0
287.323517 172.0
287.934479 208.0
288.072968 168.0
288.289215 160.0
288.540405 224.0
289.307343 152.0
289.673065 140.0
290.605408 208.0
291.314087 124.0
291.658173 148.0
293.223877 160.0
294.175537 200.0
294.417969 160.0
295.066345 144.0
295.23819 144.0
296.406372 176.0
297.362335 152.0
297.849915 172.0
298.451355 176.0
298.804321 204.0
300.324799 148.0
301.073761 196.0
301.129028 184.0
301.488342 244.0
301.540192 180.0
301.930847 144.0
302.671417 148.0
303.152924 160.0
303.7146 176.0
304.12915 380.0
304.304565 204.0
304.516388 140.0
305.061951 204.0
305.280975 224.0
305.670593 176.0
307.367615 140.0
309.597931 156.0
309.776581 144.0
310.719635 152.0
311.164795 180.0
311.78009 144.0
311.920166 168.0
312.191406 184.0
312.300446 140.0
312.929199 168.0
313.324829 184.0
313.814728 160.0
313.867615 156.0
315.45047 120.0
316.294769 220.0
316.33017 224.0
316.769287 192.0
316.858734 160.0
316.914551 156.0
317.362 140.0
317.480377 128.0
317.747742 176.0
318.212708 164.0
318.545319 188.0
318.677673 176.0
318.785004 104.0
319.31955 268.0
319.556213 168.0
319.649048 152.0
319.853424 100.0
319.900665 132.0
320.080902 204.0
320.176941 208.0
320.217438 236.0
320.305359 148.0
320.509705 96.0
320.57428 140.0
320.698822 108.0
320.72641 356.0
320.766418 220.0
320.820526 160.0
320.987579 368.0
321.038483 208.0
321.109406 308.0
321.145813 216.0
321.212128 312.0
321.237244 120.0
321.267426 188.0
321.300049 168.0
321.337372 144.0
321.3703 144.0
321.427856 116.0
321.461945 104.0
321.493469 336.0
321.553314 176.0
321.596527 252.0
321.621613 220.0
321.649292 180.0
321.693085 144.0
321.747345 236.0
321.778229 228.0
321.815704 176.0
321.877441 340.0
321.915314 192.0
321.924835 400.0
321.982941 324.0
322.02063 284.0
322.105072 628.0
322.153351 227868.0
322.38559 104.0
322.439178 156.0
322.484222 792.0
322.55896 264.0
322.569336 220.0
322.649384 340.0
322.697296 600.0
322.741638 11780.0
322.794434 196.0
322.89389 192.0
322.924286 196.0
323.008514 180.0
323.03363 316.0
323.088898 280.0
323.1539 80952.0
323.28537 200.0
323.356781 212.0
323.50293 324.0
323.564087 284.0
323.611389 176.0
323.659393 344.0
323.743134 216.0
323.931793 176.0
323.997986 216.0
324.036102 132.0
324.109955 120.0
324.154266 9564.0
324.222168 300.0
324.373016 144.0
324.438812 128.0
324.473175 100.0
324.650909 256.0
324.721649 172.0
324.791046 200.0
324.814484 164.0
324.851562 156.0
324.878815 188.0
324.933563 184.0
325.005493 372.0
325.038269 152.0
325.070984 248.0
325.102234 220.0
325.158752 1312.0
325.209259 232.0
325.247864 224.0
325.313293 248.0
325.345825 420.0
325.357147 348.0
325.430847 196.0
325.468262 240.0
325.533447 408.0
325.661194 136.0
325.823425 140.0
325.881683 216.0
325.93045 104.0
325.997223 160.0
326.099274 96.0
326.210022 272.0
326.280334 120.0
326.422516 184.0
326.542511 100.0
326.751068 100.0
327.028442 140.0
327.23822 132.0
327.318665 124.0
327.715576 144.0
328.759521 156.0
329.867279 212.0
333.972076 148.0
334.928955 104.0
335.397766 184.0
335.758484 100.0
340.624847 236.0
344.271973 160.0
357.081116 164.0
358.150055 164.0
471.231445 168.0
507.479034 168.0
843.630005 152.0
926.693665 152.0
1014.2146 148.0
1065.258667 176.0
1071.680054 180.0
1077.388916 144.0
1123.552246 168.0
1133.608765 160.0
1140.157349 196.0
1159.182983 144.0
1167.437866 156.0
1182.070801 160.0
1192.550171 148.0
1196.636475 160.0
1206.785889 152.0
1239.613892 152.0
1251.154175 160.0
1263.858643 212.0
1301.768311 140.0
1310.075806 152.0
1311.992798 188.0
1321.815796 196.0
1326.784668 160.0
1352.200073 148.0
1352.807617 192.0
1367.723999 172.0
1372.011353 144.0
1375.737061 232.0
1386.655029 240.0
1389.52478 184.0
1394.01709 180.0
1395.13208 156.0
1398.918701 184.0
1404.731323 192.0
1409.599365 176.0
1413.570068 196.0
1413.772217 176.0
1423.27002 176.0
1424.01355 164.0
1425.17041 176.0
1428.147461 188.0
1432.671631 172.0
1435.105957 140.0
1438.440674 144.0
1447.028809 176.0
1456.022339 148.0
1465.096924 176.0
1466.064697 200.0
1470.007324 232.0
1472.358643 152.0
1482.602783 164.0
1490.430054 160.0
1495.174927 212.0
1495.906128 156.0
1499.11792 148.0
1504.517212 232.0
1509.887573 260.0
1539.248047 160.0
1541.450806 148.0
1555.501831 176.0
1556.271118 160.0
1562.598389 156.0
1575.09375 152.0
1578.571289 172.0
1579.362183 168.0
1586.132446 140.0
1591.678223 180.0
1594.01355 144.0
1595.452271 164.0
1598.013184 200.0
1603.22522 164.0
1603.707153 180.0
1614.22168 160.0
1616.997803 156.0
1625.821777 220.0
1627.130127 148.0
1638.404297 172.0
1645.398071 188.0
1646.334839 196.0
1649.396973 168.0
1652.397339 256.0
1652.842285 196.0
1653.95105 168.0
1655.869995 164.0
1658.584351 204.0
1660.319458 176.0
1667.252808 140.0
1668.398926 156.0
1669.455933 212.0
1670.090332 188.0
1673.198975 156.0
1677.541138 196.0
1678.274902 288.0
1678.617432 184.0
1678.772339 164.0
1682.607422 152.0
1683.946655 144.0
1684.085571 168.0
1690.09436 240.0
1690.675293 220.0
1692.934814 168.0
1693.467163 232.0
1693.762085 200.0
1696.843384 152.0
1697.196045 156.0
1701.495361 160.0
1703.129517 184.0
1712.144043 160.0
1713.124146 156.0
1714.228271 192.0
1723.057251 140.0
1724.470337 252.0
1725.06543 220.0
1729.126831 180.0
1731.11377 208.0
1742.228271 220.0
1746.018677 148.0
1748.606201 196.0
1752.870117 156.0
1753.895264 240.0
1758.64978 232.0
1758.774902 164.0
1769.550903 196.0
1774.561279 204.0
1776.741821 212.0
1777.404663 144.0
1780.930786 168.0
1783.123779 188.0
1783.342285 148.0
1786.806885 176.0
1789.306519 164.0
1789.82019 200.0
1789.895874 152.0
1790.656494 164.0
1791.666382 200.0
1794.741089 172.0
1796.225464 152.0
1796.444702 168.0
1797.280029 180.0
1797.575317 252.0
1799.837646 236.0
1804.349609 160.0
1808.147705 164.0
1809.451294 172.0
1810.331909 196.0
1812.076904 220.0
1820.6698 148.0
1822.725586 184.0
1828.083008 216.0
1832.93689 208.0
1836.824707 208.0
1838.60791 164.0
1839.888306 212.0
1840.673828 140.0
1842.160034 192.0
1842.95459 192.0
1843.646729 244.0
1843.809082 140.0
1845.570068 148.0
1847.562988 184.0
1847.639893 156.0
1852.502563 232.0
1854.593506 160.0
1857.337402 152.0
1858.916016 140.0
1859.67981 168.0
1863.466919 152.0
1865.478027 200.0
1866.105591 220.0
1872.335815 144.0
1872.80957 172.0
1879.741211 144.0
1887.256226 172.0
1892.70752 140.0
1892.828735 200.0
1893.123169 164.0
1895.42749 144.0
1896.311401 156.0
1898.51355 172.0
1900.439331 156.0
1909.126099 144.0
1912.501831 140.0
1917.396729 184.0
1919.602417 176.0
1920.544312 156.0
1920.814697 204.0
1921.521362 148.0
1922.114624 172.0
1928.297729 160.0
1928.420044 140.0
1929.19812 176.0
1935.383789 168.0
1935.61145 152.0
1940.062378 180.0
1941.289917 140.0
1943.289917 208.0
1943.877808 204.0
1947.525635 136.0
1947.740845 144.0
1949.744141 156.0
1951.563843 160.0
1951.713379 156.0
1951.994751 204.0
1953.384399 144.0
1963.584351 168.0
1964.581055 148.0
1965.736938 164.0
1966.178223 184.0
1969.321411 232.0
1970.602295 148.0
1972.431641 140.0
1973.333374 164.0
1974.562622 148.0
1974.992554 216.0
1975.747925 172.0
1978.473755 192.0
1979.297241 164.0
1985.261108 200.0
1987.869263 144.0
1989.35144 168.0
1990.816528 144.0
1991.731323 352.0
1994.34375 220.0
1995.019287 140.0
1995.125977 180.0
1996.557617 160.0
1999.440063 144.0
2000.428101 144.0
2001.318481 208.0
