>compound 2-Methoxyestradiol
>formula C19H26O3
>ionization [M+H]+
>parentmass 303.194733
#inchi InChI=1S/C19H26O3/c1-19-8-7-12-13(15(19)5-6-18(19)21)4-3-11-9-16(20)17(22-2)10-14(11)12/h9-10,12-13,15,18,20-21H,3-8H2,1-2H3/t12-,13-,15+,18-,19+/m1/s1
#inchikey CQOQDQWUFQDJMK
#Ion_Source LC-ESI
#Instrument qTof
#Compound_Source Commercial
#PI Dorrestein
#Data_Collector Garg_Neha
#Scan -1
#Precursor_MZ 303.195
#ExactMass 302.188
#Charge 1
#CAS_Number 362-07-2,39-20-7 (H2SO4)
#Pubmed_ID N/A
#Smiles C1(=C(C=C2C(=C1)[C@]3([C@@](CC2)([C@]4([C@](CC3)([C@@H](CC4)O)C)[H])[H])[H])O)OC
#INCHI_AUX N/A
#Library_Class 1
#SpectrumID CCMSLIB00000078060
#IonMode Positive
#UpdateWorkflowName UPDATE-SINGLE-ANNOTATED-GOLD
#LibraryQualityString Gold
#TaskID 77f51c88eb8b467eb4a01dd2d0cb90d2
##Scan# 1450
#SpectrumFile Plate1_61_88_GG4_01_16491.mzXML
#LibraryName FDALibrary_2_04302014.mgf
#MQScore -1
#Organism FDALibrary_2_04302014
#TIC_Query 0
#RT_Query -1
#MZErrorPPM -1
#SharedPeaks 0
#MassDiff 0
#LibMZ -1
#SpecMZ 303.195
#SpecCharge 0
#internalFilename spec-00000.mgf

>collision 10
47.130138 148.0
47.403812 224.0
47.444935 236.0
48.427467 148.0
54.443027 196.0
58.512398 196.0
59.926094 184.0
65.880424 240.0
65.945061 156.0
67.11882 140.0
71.460716 144.0
81.137917 172.0
86.021255 188.0
89.096016 184.0
89.579498 196.0
99.355186 216.0
100.327698 156.0
106.079697 196.0
107.050926 168.0
109.106232 180.0
121.100861 316.0
122.038734 424.0
122.073105 160.0
123.043198 228.0
123.327591 220.0
129.170853 140.0
130.077286 152.0
135.019379 192.0
135.116287 976.0
136.124329 380.0
137.032425 208.0
137.059677 3712.0
138.060623 160.0
138.080551 148.0
139.066956 176.0
147.070053 176.0
147.11795 184.0
151.078659 188.0
155.083801 196.0
157.069199 240.0
162.134598 156.0
163.069748 280.0
164.980255 152.0
171.076721 192.0
171.292862 172.0
172.08046 148.0
175.071991 176.0
176.024429 188.0
176.082535 152.0
178.08754 164.0
178.10614 140.0
179.139984 344.0
183.082199 200.0
189.093246 932.0
192.402618 140.0
199.110001 152.0
202.099396 340.0
202.149094 180.0
203.107391 172.0
205.350937 200.0
215.100845 336.0
229.121582 140.0
243.168106 172.0
252.473541 168.0
253.164383 164.0
256.104462 148.0
262.740326 148.0
267.208099 148.0
267.654022 140.0
271.167572 140.0
280.9776 196.0
284.901367 156.0
285.182129 968.0
287.194366 144.0
298.46698 156.0
301.153992 260.0
302.078033 152.0
302.183044 148.0
303.113251 156.0
303.140991 184.0
303.194733 1696.0
304.201874 1016.0
304.261322 184.0
305.084839 104.0
305.167206 252.0
305.681335 120.0
306.16684 192.0
351.012482 184.0
1316.369751 144.0
1354.96521 240.0
1366.646606 192.0
1480.132935 148.0
1569.021729 220.0
1616.922241 228.0
1764.317871 176.0
1824.208984 172.0
1837.938232 160.0
1867.572021 272.0
1906.261597 156.0
1948.316162 176.0
1965.697144 172.0
1986.799805 152.0
