>compound 2-[(3Z)-6-fluoro-2-methyl-3-[(4-methylsulfinylphenyl)methylidene]inden-1-yl]acetic acid
>formula C20H17FO3S 
>ionization [M+H]+
>parentmass 357.09552007609057
#inchi InChI=1S/C20H17FO3S/c1-12-17(9-13-3-6-15(7-4-13)25(2)24)16-8-5-14(21)10-19(16)18(12)11-20(22)23/h3-10H,11H2,1-2H3,(H,22,23)/b17-9-
#inchikey MLKXDPUZXIRXEP
#Ion_Source LC-ESI
#Instrument qTof
#Compound_Source Commercial
#PI Dorrestein
#Data_Collector Garg_Neha
#Scan -1
#Precursor_MZ 357.098
#ExactMass 356.088
#Charge 1
#CAS_Number N/A
#Pubmed_ID N/A
#Smiles N/A
#INCHI_AUX N/A
#Library_Class 1
#SpectrumID CCMSLIB00000077059
#IonMode Positive
#UpdateWorkflowName UPDATE-SINGLE-ANNOTATED-GOLD
#LibraryQualityString Gold
#TaskID 48f7f52fc6d249b5abbcc6e7b3df5969
##Scan# 1295
#SpectrumFile NCP003017_E2_F11_BA8_01_15703.mzXML
#LibraryName NIH_Clinical_Collection_2.mgf
#MQScore -1
#Organism NIHcollection2_04212014_2_mgf
#TIC_Query 0
#RT_Query -1
#MZErrorPPM -1
#SharedPeaks 0
#MassDiff 0
#LibMZ -1
#SpecMZ 357.098
#SpecCharge 0
#internalFilename spec-00000.mgf

>collision 10
45.956139 168.0
47.007771 140.0
47.181236 196.0
47.512661 212.0
49.132767 216.0
49.332474 140.0
49.934017 196.0
50.076168 232.0
50.255199 148.0
50.835361 168.0
51.766247 164.0
51.922455 152.0
52.132057 172.0
52.614586 204.0
53.514946 148.0
54.61105 168.0
54.898239 172.0
55.020706 156.0
56.300674 148.0
57.461006 160.0
58.019073 188.0
58.0676 212.0
59.791004 168.0
61.084541 172.0
61.620831 152.0
61.922737 176.0
64.227318 140.0
65.408279 220.0
65.833923 176.0
65.947014 180.0
66.502571 156.0
66.638977 156.0
68.413498 152.0
69.156311 164.0
69.330215 156.0
71.38192 160.0
71.933067 156.0
72.669029 144.0
72.79464 176.0
73.472069 200.0
73.733322 156.0
74.149208 148.0
76.691727 192.0
77.212021 144.0
77.404518 184.0
78.635132 140.0
79.97509 140.0
80.039177 144.0
81.664154 156.0
82.506271 164.0
82.574982 144.0
83.519958 180.0
85.615623 188.0
86.409348 144.0
86.831696 208.0
87.052536 180.0
87.521133 168.0
88.187126 140.0
88.228256 164.0
91.293945 148.0
92.100441 172.0
92.356567 148.0
92.82962 140.0
93.061798 244.0
94.625458 224.0
95.068878 184.0
95.162514 148.0
96.081825 208.0
96.974785 164.0
97.028442 320.0
97.852875 208.0
98.099136 140.0
98.566895 192.0
100.229736 144.0
100.602699 208.0
101.064377 144.0
101.364731 176.0
103.048889 144.0
103.664017 148.0
105.034653 616.0
105.692184 148.0
106.038269 212.0
107.046242 280.0
107.345772 168.0
108.082581 284.0
109.014275 168.0
109.047523 200.0
109.228416 160.0
109.299156 144.0
110.354576 200.0
110.570038 180.0
113.222763 172.0
113.351982 208.0
113.81839 164.0
114.022583 160.0
114.567307 184.0
114.82309 176.0
116.795738 200.0
117.62101 168.0
118.605202 188.0
118.702766 180.0
119.167267 200.0
120.306297 160.0
120.325951 184.0
120.924896 168.0
122.092072 184.0
123.099174 148.0
123.158806 148.0
123.419579 168.0
124.112068 1324.0
124.185814 148.0
125.658455 184.0
125.890594 208.0
126.038025 148.0
127.101624 148.0
128.289154 140.0
129.066605 96.0
129.282959 152.0
130.610229 160.0
130.867386 152.0
131.129364 292.0
133.04657 164.0
133.266724 152.0
134.90303 140.0
134.995514 156.0
135.025177 972.0
135.539505 220.0
135.843216 176.0
136.472595 152.0
137.019547 164.0
137.054489 160.0
137.854858 164.0
137.920303 164.0
138.013824 172.0
138.577896 200.0
139.022202 168.0
141.984177 192.0
142.122849 1996.0
143.090469 176.0
143.126556 148.0
143.937927 200.0
144.129028 156.0
144.408722 148.0
144.590561 204.0
145.050034 168.0
145.393417 180.0
146.051697 148.0
147.028519 224.0
147.061295 412.0
147.367981 188.0
147.442902 164.0
147.464645 164.0
147.525085 152.0
147.933899 176.0
148.062241 176.0
148.520309 180.0
149.034637 140.0
151.020386 336.0
151.131897 156.0
151.575104 356.0
152.45607 152.0
152.736343 164.0
153.035233 132.0
153.066132 228.0
154.072449 188.0
154.336899 156.0
155.635269 156.0
156.072571 304.0
156.622574 156.0
156.946548 140.0
157.485596 172.0
157.535553 164.0
158.37854 164.0
159.058594 240.0
160.071426 176.0
160.39122 208.0
161.077423 1264.0
161.940079 164.0
161.985672 148.0
162.82016 152.0
163.056427 160.0
164.250565 168.0
164.475113 196.0
166.741852 148.0
168.32103 216.0
169.617188 220.0
171.115997 428.0
172.06514 356.0
172.130417 156.0
172.281906 156.0
172.428238 148.0
172.773392 152.0
173.075745 3744.0
173.108414 168.0
173.155548 140.0
173.297012 180.0
173.745331 152.0
174.079361 748.0
174.223129 160.0
175.056671 180.0
175.083252 248.0
177.474731 300.0
178.151505 160.0
179.08783 140.0
180.27504 172.0
180.494247 188.0
181.103683 160.0
181.616714 152.0
183.064972 188.0
183.53923 152.0
183.622818 148.0
184.567993 140.0
185.061157 160.0
185.114594 144.0
185.54541 148.0
185.748795 164.0
185.881729 148.0
186.07988 152.0
186.174911 216.0
186.205719 164.0
187.05925 192.0
187.349945 204.0
187.43985 140.0
188.078018 140.0
188.181763 188.0
188.386154 124.0
188.536865 204.0
188.643463 144.0
189.126144 816.0
189.15773 188.0
190.130219 152.0
190.737747 200.0
192.000259 132.0
192.161499 172.0
192.813187 180.0
193.24733 172.0
193.84819 148.0
194.769287 144.0
195.191711 164.0
195.862427 176.0
196.255371 204.0
196.967468 124.0
198.209198 156.0
199.112793 284.0
199.812424 140.0
199.894012 192.0
200.062897 144.0
201.696198 204.0
202.042343 144.0
202.355331 184.0
203.076645 152.0
203.767746 148.0
204.086075 172.0
205.624359 176.0
205.964127 140.0
206.383987 220.0
206.464294 148.0
207.056717 188.0
207.113724 124.0
207.853653 156.0
209.161301 148.0
209.720093 196.0
210.608795 180.0
211.305466 228.0
211.606476 180.0
212.507843 180.0
213.007172 168.0
213.742722 156.0
215.085724 372.0
216.941422 104.0
217.040527 160.0
217.23703 148.0
217.436554 152.0
218.688599 152.0
218.900574 144.0
219.628525 148.0
219.66687 152.0
220.068588 552.0
220.77446 168.0
221.076508 524.0
221.683289 160.0
222.079605 200.0
222.487091 156.0
222.632568 180.0
223.030701 324.0
223.076172 188.0
223.702957 176.0
223.956055 192.0
224.523621 148.0
225.104645 152.0
225.184891 172.0
225.307358 140.0
225.800568 192.0
225.953125 196.0
226.078796 248.0
227.090683 112.0
228.095718 220.0
229.101959 300.0
229.644974 168.0
230.118744 192.0
230.23349 152.0
230.374359 144.0
230.715591 116.0
231.521805 140.0
232.989883 140.0
233.026505 144.0
233.076935 58932.0
233.235321 148.0
233.855408 152.0
234.082443 19704.0
234.185349 160.0
234.220108 116.0
234.477829 152.0
234.913773 96.0
235.087357 2784.0
235.15033 116.0
235.556168 144.0
235.884918 144.0
236.065308 172.0
236.098679 528.0
236.191589 128.0
236.358078 124.0
236.54631 168.0
236.815109 152.0
237.06749 180.0
237.100708 128.0
237.806503 172.0
238.865509 204.0
238.904297 168.0
239.145508 180.0
239.505753 172.0
240.146866 200.0
240.375153 204.0
240.934006 144.0
241.372314 128.0
242.324905 216.0
242.377213 148.0
244.030685 144.0
244.752014 156.0
245.075958 144.0
245.100601 132.0
245.590332 276.0
246.084946 988.0
246.267639 232.0
246.619293 168.0
246.65509 176.0
247.092133 12088.0
247.179932 196.0
247.243088 256.0
247.614197 172.0
247.918076 120.0
247.946732 172.0
248.005417 268.0
248.059464 268.0
248.100342 44328.0
248.292603 160.0
248.590637 160.0
248.768051 152.0
248.82605 164.0
248.978714 148.0
249.103271 7392.0
249.209671 136.0
249.643204 96.0
249.673386 220.0
250.010254 108.0
250.077988 780.0
250.108749 764.0
250.721176 140.0
250.894562 252.0
251.089981 452.0
251.161407 208.0
251.468063 144.0
251.861771 156.0
252.040359 168.0
252.093018 184.0
252.288376 152.0
252.800766 244.0
253.051102 348.0
253.516449 208.0
253.646408 164.0
254.055603 192.0
254.344238 176.0
254.442642 172.0
254.776108 164.0
257.08136 200.0
258.148315 700.0
259.028473 156.0
259.150024 148.0
259.580872 112.0
259.64386 200.0
259.675934 180.0
260.060944 140.0
261.076202 144.0
261.105804 292.0
261.2724 172.0
262.116486 1108.0
262.351227 152.0
262.51889 164.0
263.039307 448.0
263.082428 244.0
263.12085 296.0
263.37738 152.0
264.043518 204.0
264.095123 128.0
264.327881 156.0
264.51236 220.0
265.048218 2036.0
265.081726 172.0
265.633545 196.0
265.857422 192.0
265.938568 252.0
266.056824 692.0
266.597839 144.0
267.061707 412.0
268.07605 164.0
268.391449 144.0
268.691528 168.0
270.178009 144.0
271.527771 104.0
271.839172 156.0
272.821259 208.0
273.963196 152.0
274.065308 184.0
274.859985 144.0
275.090027 256.0
275.606201 148.0
275.920197 220.0
276.093018 240.0
277.047607 132.0
277.786652 172.0
278.065155 260.0
278.285767 148.0
279.062744 1652.0
279.156342 144.0
279.512268 144.0
279.928375 152.0
280.013519 160.0
280.072205 5572.0
280.123047 168.0
280.821533 176.0
281.042969 1140.0
281.078583 1624.0
281.428864 180.0
281.468933 176.0
281.726105 176.0
282.051239 1484.0
282.434784 144.0
282.651062 132.0
282.768005 140.0
282.980255 176.0
283.060272 1228.0
283.783569 152.0
284.052734 516.0
284.908691 144.0
285.086761 188.0
287.32254 152.0
288.038208 184.0
288.186829 140.0
288.531586 180.0
288.913727 144.0
289.069366 152.0
291.086304 284.0
292.038452 252.0
292.093384 404.0
293.0914 1128.0
293.374939 188.0
293.399963 240.0
293.556824 148.0
294.087891 2328.0
294.905334 212.0
295.009155 280.0
295.048218 320.0
295.095642 14800.0
295.630402 144.0
295.714691 164.0
296.067841 932.0
296.098785 3944.0
296.448853 156.0
296.490997 176.0
296.551666 180.0
296.798492 184.0
297.026276 152.0
297.074951 6988.0
297.160065 208.0
297.22113 144.0
297.294922 184.0
297.415405 228.0
297.505249 176.0
298.0802 2188.0
298.147552 236.0
299.030487 144.0
299.069092 260.0
299.376526 232.0
300.06134 276.0
300.464905 212.0
303.231232 172.0
304.264923 156.0
304.52536 204.0
305.375549 144.0
305.401245 144.0
306.064423 192.0
306.696503 156.0
307.059692 132.0
308.068268 100.0
309.053894 212.0
309.091095 124.0
309.459778 184.0
309.813507 144.0
309.901093 200.0
310.095276 252.0
311.091187 1668.0
311.381439 144.0
312.090881 576.0
312.963898 148.0
313.104797 1628.0
313.643799 204.0
313.717834 172.0
314.070465 164.0
314.11145 236.0
315.101624 160.0
316.077118 192.0
316.300079 192.0
316.441681 160.0
316.811829 108.0
319.262665 140.0
320.505005 164.0
320.704559 152.0
321.093201 164.0
321.706909 188.0
322.078278 224.0
322.685791 188.0
324.055573 596.0
325.068878 104.0
325.193329 144.0
325.670868 152.0
326.074951 324.0
326.202667 192.0
326.386017 152.0
327.062378 312.0
328.987305 188.0
329.768585 160.0
332.313263 196.0
333.769775 196.0
334.027039 152.0
335.240387 172.0
337.002838 152.0
339.086365 1448.0
339.770721 204.0
339.807404 208.0
339.913025 152.0
340.034912 184.0
340.092987 16824.0
340.225891 968.0
340.387329 148.0
340.888916 168.0
340.949371 140.0
341.094666 3184.0
341.23349 252.0
341.310699 152.0
341.824615 172.0
342.004944 168.0
342.072968 4824.0
342.227539 156.0
342.482056 104.0
342.741302 116.0
343.076111 1352.0
343.238617 168.0
343.408203 136.0
343.498291 132.0
344.080353 780.0
344.627838 100.0
345.078522 140.0
345.181396 176.0
345.447693 156.0
346.710297 156.0
346.780701 156.0
347.218201 152.0
347.460358 184.0
348.415161 196.0
350.178986 156.0
351.470154 156.0
352.545624 164.0
352.735718 116.0
352.982971 180.0
354.255493 236.0
354.435333 148.0
354.51123 112.0
354.560547 156.0
354.715698 144.0
355.188904 140.0
355.279358 140.0
355.481537 212.0
355.639801 208.0
355.702972 140.0
355.870331 196.0
355.967163 216.0
356.032501 140.0
356.078827 112.0
356.149475 264.0
356.281708 212.0
356.307159 176.0
356.381226 100.0
356.508362 164.0
356.557495 140.0
356.656586 128.0
356.664185 236.0
356.727539 148.0
356.795471 160.0
356.870697 180.0
356.916992 180.0
356.959656 276.0
356.98584 244.0
357.020172 468.0
357.0979 182408.0
357.211426 148.0
357.369873 160.0
357.420319 300.0
357.44104 372.0
357.477295 168.0
357.665131 140.0
357.715546 2224.0
357.754059 292.0
357.820587 420.0
357.852081 188.0
357.891571 244.0
357.926422 288.0
357.950287 172.0
358.021881 132.0
358.048798 160.0
358.100098 50796.0
358.238892 52860.0
358.484131 172.0
358.595154 108.0
358.715393 128.0
358.770172 152.0
358.807922 172.0
358.871277 256.0
358.937897 308.0
358.983948 124.0
359.095215 12156.0
359.241669 14228.0
359.444946 96.0
359.509949 164.0
359.598083 152.0
359.664429 128.0
359.688812 220.0
359.725037 116.0
359.811462 132.0
359.888275 96.0
359.942383 148.0
359.9729 132.0
360.02951 108.0
360.055908 248.0
360.09729 1876.0
360.19339 104.0
360.24234 1180.0
360.341736 328.0
360.41452 308.0
360.473389 220.0
360.557526 96.0
360.61731 128.0
360.677368 120.0
360.807465 184.0
361.009735 180.0
361.08963 100.0
361.123322 116.0
361.31897 172.0
361.39151 132.0
361.437714 120.0
361.497223 240.0
361.570343 176.0
361.669861 188.0
361.896515 132.0
362.597076 112.0
362.717682 152.0
370.868683 140.0
375.095856 232.0
375.122681 156.0
375.598145 140.0
375.782043 108.0
377.111725 148.0
398.118622 288.0
399.154022 196.0
405.012726 168.0
407.712891 144.0
430.61618 96.0
475.286346 140.0
579.437256 152.0
766.431702 164.0
1012.16156 160.0
1136.562378 204.0
1177.171509 144.0
1452.670044 148.0
1613.140991 196.0
1689.182861 172.0
1690.516479 144.0
1709.637451 204.0
1753.165161 260.0
1764.776367 176.0
1796.286743 148.0
1809.859619 196.0
1873.137207 196.0
1899.857788 152.0
1973.446167 184.0
1977.055176 256.0
