>compound NCGC00160217-01!SOPHOCARPINE
>formula C15H22N2O
>ionization [M+H]+
>parentmass 247.179855
#inchi InChI=1S/C15H22N2O/c18-14-7-1-6-13-12-5-3-9-16-8-2-4-11(15(12)16)10-17(13)14/h1,7,11-13,15H,2-6,8-10H2/t11-,12+,13+,15-/m0/s1
#inchikey AAGFPTSOPGCENQ
#Ion_Source LC-ESI
#Instrument qTOF
#Compound_Source Prestwick Phytochem Lib
#PI Dorrestein
#Data_Collector VVP/LMS
#Scan -1
#Precursor_MZ 247.181
#ExactMass 246.173
#Charge 1
#CAS_Number N/A
#Pubmed_ID N/A
#Smiles [H][C@]12CCCN3CCC[C@]([H])([C@@]4([H])CC=CC(=O)N4C1)[C@]23[H]
#INCHI_AUX N/A
#Library_Class 1
#SpectrumID CCMSLIB00000078694
#IonMode Positive
#UpdateWorkflowName UPDATE-SINGLE-ANNOTATED-GOLD
#LibraryQualityString Gold
#TaskID 67c915c6594c435cadc1fe2b5358144d
##Scan# 428
#SpectrumFile p1-C02_GC2_01_17898.mzXML
#LibraryName phytochem_lib.mgf
#MQScore -1
#Organism phytochem_lib
#TIC_Query 0
#RT_Query -1
#MZErrorPPM -1
#SharedPeaks 0
#MassDiff 0
#LibMZ -1
#SpecMZ 247.181
#SpecCharge 0
#internalFilename spec-00000.mgf

>collision 10
96.046951 216.0
96.079666 704.0
97.580292 88.0
100.109055 148.0
102.064056 192.0
103.828972 184.0
104.560341 160.0
107.070305 236.0
108.080048 372.0
110.057045 384.0
112.114197 148.0
112.584633 180.0
113.904121 116.0
116.392166 144.0
117.056602 120.0
117.507072 140.0
118.064857 164.0
118.564438 224.0
119.043861 148.0
120.08847 188.0
121.291031 180.0
122.099258 220.0
129.075027 208.0
129.222031 192.0
130.058228 156.0
131.20015 56.0
133.837189 84.0
134.060638 152.0
135.479279 80.0
135.836258 172.0
136.06369 280.0
136.111237 1172.0
137.115875 256.0
138.131714 176.0
138.238327 132.0
140.456161 116.0
144.614288 148.0
145.854324 132.0
146.094788 88.0
147.066452 164.0
148.107956 176.0
149.085693 172.0
149.112427 124.0
150.127197 312.0
150.970093 184.0
153.857147 176.0
158.921982 96.0
159.065018 160.0
159.907028 176.0
160.11348 152.0
162.08638 132.0
162.134537 212.0
163.081177 104.0
163.531357 132.0
163.908249 140.0
164.109619 152.0
165.212906 212.0
166.122314 120.0
172.111252 124.0
173.773254 176.0
174.090866 172.0
176.107147 196.0
176.729431 108.0
177.502869 164.0
178.123886 176.0
178.161072 160.0
179.154037 1168.0
179.379852 112.0
180.161362 116.0
180.50383 64.0
186.100342 148.0
190.154083 124.0
191.151642 96.0
191.616974 60.0
193.085449 144.0
196.923584 164.0
197.980728 128.0
200.385147 136.0
200.923615 160.0
202.12439 132.0
209.047195 40.0
216.133392 116.0
219.148819 156.0
227.149078 140.0
230.1586 184.0
231.156082 44.0
233.770294 20.0
245.164703 1352.0
245.225815 56.0
245.428436 40.0
246.172379 144.0
247.136932 64.0
247.179855 3888.0
247.2621 96.0
247.290268 60.0
247.459305 48.0
248.182343 708.0
248.283401 84.0
248.681839 48.0
249.847626 156.0
249.891663 116.0
250.521301 68.0
250.609512 92.0
250.691437 84.0
252.943298 72.0
259.246307 96.0
283.214111 80.0
315.845825 188.0
381.222717 20.0
406.324036 20.0
614.544739 104.0
799.5578 20.0
941.811523 184.0
1103.241943 144.0
1133.552368 200.0
1144.218262 216.0
1179.207031 120.0
1209.366577 40.0
1217.012817 92.0
1235.285889 80.0
1250.061523 172.0
1252.095947 168.0
1288.90625 184.0
1330.6604 132.0
1333.377075 76.0
1377.98877 208.0
1386.424072 160.0
1405.408081 208.0
1434.348511 140.0
