>compound Tioconazole
>formula C16H13Cl3N2OS
>ionization [M+H]+
>parentmass 386.98869352809055
#inchi InChI=1S/C16H13Cl3N2OS/c17-12-1-2-13(14(18)7-12)15(8-21-5-4-20-10-21)22-9-11-3-6-23-16(11)19/h1-7,10,15H,8-9H2
#inchikey QXHHHPZILQDDPS
#Ion_Source LC-ESI
#Instrument qTof
#Compound_Source Commercial
#PI Dorrestein
#Data_Collector Garg_Neha
#Scan -1
#Precursor_MZ 386.989
#ExactMass 385.981
#Charge 1
#CAS_Number 65899-73-2
#Pubmed_ID N/A
#Smiles C1=C(C(=CC=C1Cl)C(OCC2C=CSC=2Cl)CN3C=CN=C3)Cl
#INCHI_AUX N/A
#Library_Class 1
#SpectrumID CCMSLIB00000078341
#IonMode Positive
#UpdateWorkflowName UPDATE-SINGLE-ANNOTATED-GOLD
#LibraryQualityString Gold
#TaskID 77f51c88eb8b467eb4a01dd2d0cb90d2
##Scan# 1331
#SpectrumFile Plate5_61_88_GH9_01_16511.mzXML
#LibraryName FDALibrary_2_04302014.mgf
#MQScore -1
#Organism FDALibrary_2_04302014
#TIC_Query 0
#RT_Query -1
#MZErrorPPM -1
#SharedPeaks 0
#MassDiff 0
#LibMZ -1
#SpecMZ 386.989
#SpecCharge 0
#internalFilename spec-00000.mgf

>collision 10
44.95105 160.0
44.975071 196.0
45.180859 168.0
45.380409 204.0
45.477177 148.0
45.490421 152.0
45.502464 136.0
45.518616 208.0
45.562939 168.0
45.717564 180.0
45.807602 156.0
45.841305 144.0
45.884586 208.0
45.921612 368.0
45.941551 168.0
46.093796 224.0
46.147861 224.0
46.178566 164.0
46.199253 192.0
46.257515 144.0
46.287228 216.0
46.334633 160.0
46.38884 384.0
46.407818 144.0
46.439011 176.0
46.586964 176.0
46.61142 204.0
46.716919 184.0
46.788235 144.0
46.985844 164.0
47.020153 140.0
47.140133 172.0
47.156532 152.0
47.175671 148.0
47.212585 172.0
47.255657 164.0
47.295517 180.0
47.316578 172.0
47.478264 172.0
47.505695 160.0
47.552349 176.0
47.58392 160.0
47.658089 168.0
47.746063 252.0
47.834122 148.0
47.898838 452.0
47.927769 196.0
47.957653 164.0
47.981522 140.0
48.007721 220.0
48.334644 204.0
48.407673 160.0
48.434784 156.0
48.55814 220.0
48.625595 116.0
48.674709 200.0
48.699707 196.0
48.794201 160.0
48.804295 184.0
48.899918 164.0
48.958393 152.0
49.007145 224.0
49.082413 200.0
49.101795 200.0
49.212173 156.0
49.221947 156.0
49.314823 108.0
49.398045 172.0
49.414833 152.0
49.475014 184.0
49.493214 184.0
49.505817 212.0
49.669167 148.0
49.729069 180.0
49.741032 172.0
49.872108 140.0
49.914165 148.0
49.934544 124.0
50.037983 160.0
50.076 140.0
50.389156 164.0
50.401875 188.0
50.428722 148.0
50.499416 152.0
50.518635 212.0
50.534782 236.0
50.653702 160.0
50.947521 160.0
51.088081 152.0
51.140732 156.0
51.188519 148.0
51.258934 164.0
51.290604 140.0
51.37442 168.0
51.460049 188.0
51.491463 176.0
51.519264 168.0
51.57576 232.0
51.605782 236.0
51.725819 128.0
51.75029 164.0
51.864277 148.0
51.973885 184.0
51.992161 136.0
52.015507 168.0
52.026211 140.0
52.039398 224.0
52.058578 164.0
52.072937 148.0
52.096951 212.0
52.246513 136.0
52.284466 216.0
52.36657 152.0
52.397209 168.0
52.445583 164.0
52.513351 168.0
52.689457 144.0
52.764606 176.0
52.973 156.0
53.062847 156.0
53.133915 144.0
53.22451 428.0
53.234097 188.0
53.311054 144.0
53.393921 220.0
53.445358 244.0
53.519066 372.0
53.543819 212.0
53.567127 148.0
53.605183 164.0
53.645817 160.0
53.673515 148.0
53.687675 180.0
53.758915 228.0
53.809208 352.0
53.928581 128.0
54.005825 180.0
54.021111 172.0
54.06073 208.0
54.151382 140.0
54.273014 152.0
54.302341 164.0
54.361027 160.0
54.41827 308.0
54.478191 180.0
54.678455 140.0
54.712307 164.0
54.834568 280.0
54.855202 180.0
54.903858 180.0
55.095741 140.0
55.127926 164.0
55.147461 148.0
55.234699 160.0
55.265766 152.0
55.317562 144.0
55.422714 316.0
55.437534 172.0
55.456799 168.0
55.501274 168.0
55.583923 192.0
55.618473 188.0
55.695465 164.0
55.761055 208.0
55.813087 216.0
55.872578 208.0
55.887154 176.0
55.920197 188.0
55.935791 184.0
55.999104 148.0
56.057205 144.0
56.127773 176.0
56.176483 176.0
56.223885 192.0
56.291405 184.0
56.352646 160.0
56.363941 100.0
56.416012 216.0
56.43784 160.0
56.722759 140.0
56.873783 176.0
56.903038 180.0
56.954865 140.0
56.99398 220.0
57.025482 180.0
57.07058 160.0
57.163841 184.0
57.234589 216.0
57.326908 208.0
57.438271 228.0
57.490845 168.0
57.545185 304.0
57.561794 204.0
57.587467 220.0
57.691895 148.0
57.724339 176.0
57.979317 148.0
58.021759 172.0
58.07938 196.0
58.102135 164.0
58.115162 144.0
58.173462 184.0
58.188641 236.0
58.228123 224.0
58.280567 176.0
58.340565 232.0
58.386097 148.0
58.469852 160.0
58.605377 184.0
58.628235 160.0
58.765469 172.0
58.794861 184.0
58.918144 248.0
58.999138 160.0
59.073917 196.0
59.280018 180.0
59.302219 296.0
59.314484 160.0
59.470936 200.0
59.51392 144.0
59.701389 188.0
59.716766 160.0
59.779598 176.0
59.793694 256.0
59.873749 144.0
59.986897 160.0
60.078751 192.0
60.143108 136.0
60.292603 128.0
60.318104 168.0
60.33511 236.0
60.355209 188.0
60.468136 164.0
60.501793 204.0
60.615391 320.0
60.666592 160.0
60.708263 176.0
60.795135 164.0
60.961296 184.0
60.994392 176.0
61.051128 224.0
61.088791 204.0
61.115803 176.0
61.24445 172.0
61.290405 152.0
61.341057 196.0
61.517326 152.0
61.540131 136.0
61.581345 152.0
61.612587 144.0
61.71413 144.0
61.775684 188.0
61.79578 160.0
61.848713 228.0
61.869064 156.0
61.942566 128.0
61.988701 128.0
62.066475 184.0
62.104111 140.0
62.116657 164.0
62.133915 148.0
62.177849 168.0
62.333317 212.0
62.391472 236.0
62.437073 176.0
62.490555 168.0
62.522026 156.0
62.545631 152.0
62.597588 164.0
62.613335 212.0
62.696831 168.0
62.750423 196.0
62.767769 408.0
62.796154 144.0
62.818237 172.0
62.860836 164.0
62.991089 144.0
63.002937 152.0
63.084419 128.0
63.126137 156.0
63.231617 212.0
63.286034 172.0
63.388248 116.0
63.420689 232.0
63.454437 180.0
63.567429 152.0
63.618969 172.0
63.695847 204.0
63.763512 220.0
63.787354 148.0
63.847195 232.0
63.916176 212.0
63.940044 156.0
63.970287 228.0
64.010086 148.0
64.035568 164.0
64.261932 144.0
64.395592 164.0
64.476547 200.0
64.498276 176.0
64.598686 176.0
64.640427 100.0
64.743065 232.0
64.763885 148.0
64.91774 176.0
65.009178 160.0
65.046097 152.0
65.121048 164.0
65.190643 188.0
65.227608 380.0
65.280663 156.0
65.369141 168.0
65.443184 228.0
65.475388 152.0
65.600182 176.0
65.672302 156.0
65.688141 188.0
65.731705 144.0
65.749451 140.0
65.897934 160.0
65.957489 124.0
66.004692 188.0
66.031876 212.0
66.12764 148.0
66.317352 192.0
66.365768 200.0
66.403061 148.0
66.424149 184.0
66.599449 156.0
66.610825 144.0
66.657936 148.0
66.687546 148.0
66.753845 140.0
66.846565 204.0
66.989845 160.0
67.034531 180.0
67.412415 204.0
67.459816 156.0
67.501282 188.0
67.558479 132.0
67.623383 148.0
67.834679 416.0
67.909134 212.0
68.014145 176.0
68.030602 156.0
68.042725 176.0
68.079147 200.0
68.107071 148.0
68.204979 160.0
68.258263 172.0
68.287865 208.0
68.377975 192.0
68.45079 180.0
68.500198 212.0
68.585915 180.0
68.602364 156.0
68.740906 188.0
68.787117 140.0
68.798676 216.0
68.81353 164.0
68.8862 160.0
69.02272 212.0
69.049835 204.0
69.102768 176.0
69.138451 120.0
69.203728 180.0
69.223595 156.0
69.327957 172.0
69.392601 144.0
69.44899 180.0
69.517006 152.0
69.59951 148.0
69.618271 152.0
69.638138 108.0
69.663116 172.0
69.845963 192.0
69.867592 164.0
69.917503 216.0
70.049042 180.0
70.147354 164.0
70.176254 216.0
70.20295 176.0
70.24382 160.0
70.269096 168.0
70.330841 220.0
70.365295 188.0
70.417938 192.0
70.437325 148.0
70.462761 160.0
70.479149 104.0
70.553009 152.0
70.628258 180.0
70.686813 168.0
71.122551 164.0
71.144371 188.0
71.191391 156.0
71.243454 160.0
71.27906 188.0
71.324112 176.0
71.339241 156.0
71.54953 140.0
71.566368 152.0
71.589943 152.0
71.624825 140.0
71.702812 168.0
71.846138 212.0
72.013245 204.0
72.03183 288.0
72.064568 140.0
72.221138 168.0
72.315887 148.0
72.346359 144.0
72.471687 176.0
72.648003 364.0
72.693817 160.0
72.766479 160.0
72.790573 156.0
72.8806 160.0
73.060844 224.0
73.174431 168.0
73.358826 220.0
73.384399 152.0
73.396339 156.0
73.421913 164.0
73.522568 172.0
73.592773 188.0
73.614464 212.0
73.663788 400.0
73.744591 148.0
73.838623 172.0
73.934433 140.0
73.973228 120.0
74.055984 212.0
74.073112 160.0
74.126022 344.0
74.148506 152.0
74.179352 144.0
74.221695 172.0
74.289101 140.0
74.328445 176.0
74.369751 256.0
74.476204 140.0
74.577576 152.0
74.720306 144.0
74.819473 116.0
74.866333 148.0
75.140678 140.0
75.172539 164.0
75.228691 200.0
75.258041 176.0
75.332306 212.0
75.446358 148.0
75.461922 176.0
75.566826 104.0
75.590111 212.0
75.68512 140.0
75.764786 172.0
75.785683 116.0
75.821083 164.0
75.939209 160.0
75.976288 160.0
76.00058 104.0
76.071732 180.0
76.133987 168.0
76.214142 168.0
76.250641 224.0
76.307365 168.0
76.337563 156.0
76.389145 152.0
76.438454 140.0
76.521996 176.0
76.544632 172.0
76.575981 144.0
76.628242 140.0
76.692009 168.0
76.72847 172.0
76.76992 128.0
76.839622 148.0
76.88282 212.0
76.901764 140.0
77.080147 164.0
77.139839 208.0
77.192017 152.0
77.211258 144.0
77.242737 176.0
77.267227 216.0
77.368736 168.0
77.514107 164.0
77.599991 176.0
77.678955 144.0
77.712242 148.0
77.752602 164.0
77.83728 184.0
78.163025 108.0
78.200768 224.0
78.214844 156.0
78.30809 236.0
78.500259 156.0
78.567284 164.0
78.596169 152.0
78.629036 176.0
78.64492 200.0
78.673164 168.0
78.698044 172.0
79.029419 180.0
79.042557 176.0
79.07972 160.0
79.171783 192.0
79.230232 200.0
79.244408 208.0
79.407486 168.0
79.489098 144.0
79.506844 216.0
79.539612 128.0
79.567673 132.0
79.74305 152.0
79.819443 152.0
79.927505 128.0
79.952904 236.0
80.08419 168.0
80.116714 136.0
80.218292 152.0
80.314583 184.0
80.418068 268.0
80.449631 164.0
80.469833 160.0
80.514481 164.0
80.533379 124.0
80.5895 152.0
80.698524 308.0
80.757614 172.0
80.775429 188.0
80.853073 212.0
80.906059 188.0
80.987411 140.0
81.035004 176.0
81.196335 168.0
81.210686 156.0
81.239151 152.0
81.337433 212.0
81.368599 152.0
81.492523 164.0
81.512283 148.0
81.753181 136.0
81.792923 172.0
81.864861 220.0
81.906693 428.0
82.082497 124.0
82.155045 180.0
82.294014 180.0
82.402382 180.0
82.463821 140.0
82.545166 256.0
82.569534 152.0
82.685867 196.0
82.717476 252.0
82.831123 204.0
82.872787 188.0
82.922447 208.0
82.983353 228.0
83.081284 144.0
83.132088 164.0
83.184723 172.0
83.428947 180.0
83.483772 200.0
83.606392 208.0
83.623314 148.0
83.666458 140.0
83.783409 256.0
83.804871 232.0
83.851151 152.0
83.970757 152.0
83.998116 140.0
84.248993 180.0
84.295563 144.0
84.313988 212.0
84.429161 140.0
84.480934 260.0
84.51104 184.0
84.532745 212.0
84.701866 152.0
84.771492 160.0
84.973183 216.0
84.987862 208.0
85.017784 208.0
85.025787 240.0
85.053925 172.0
85.165932 188.0
85.296387 204.0
85.399361 208.0
85.511589 220.0
85.544724 192.0
85.573318 156.0
85.745491 212.0
85.784195 184.0
85.860146 188.0
85.895126 152.0
85.964699 152.0
86.179314 124.0
86.304825 156.0
86.352905 176.0
86.373245 160.0
86.399147 176.0
86.413811 216.0
86.513885 140.0
86.532631 192.0
86.583153 156.0
86.702492 116.0
86.767021 156.0
86.788078 164.0
86.802917 152.0
86.862267 156.0
86.986229 148.0
87.001442 216.0
87.113617 148.0
87.145111 192.0
87.243896 152.0
87.317322 144.0
87.333305 128.0
87.393585 176.0
87.551483 160.0
87.712044 140.0
87.808998 184.0
87.950287 132.0
87.984146 296.0
88.016907 184.0
88.147995 156.0
88.42366 144.0
88.444252 148.0
88.465233 152.0
88.544556 188.0
88.746986 140.0
88.802116 204.0
88.849182 204.0
88.916306 172.0
88.924278 144.0
89.032959 172.0
89.112503 128.0
89.130646 164.0
89.190582 188.0
89.42337 180.0
89.60701 132.0
89.781967 156.0
89.798943 164.0
89.99897 232.0
90.080177 320.0
90.114594 148.0
90.201118 276.0
90.29187 152.0
90.312675 252.0
90.399521 168.0
90.477303 192.0
90.542389 108.0
90.738487 144.0
90.759605 260.0
90.809708 304.0
90.858231 256.0
90.917053 204.0
90.930832 200.0
90.955009 160.0
91.019554 164.0
91.090111 160.0
91.116425 236.0
91.21904 176.0
91.328911 200.0
91.368401 168.0
91.591507 140.0
91.634705 128.0
91.703171 196.0
91.820717 200.0
91.855049 152.0
92.047806 212.0
92.069496 172.0
92.099373 340.0
92.129936 200.0
92.245934 136.0
92.275177 148.0
92.294296 168.0
92.324196 208.0
92.353584 160.0
92.405235 188.0
92.540817 152.0
92.56501 160.0
92.583244 156.0
92.633041 156.0
92.684105 184.0
92.820869 144.0
92.858307 236.0
92.89183 148.0
92.905258 164.0
92.924438 200.0
92.972618 148.0
92.989685 160.0
93.05687 148.0
93.112556 252.0
93.125999 152.0
93.175941 192.0
93.368629 256.0
93.462418 152.0
93.678047 168.0
93.772079 160.0
93.940216 216.0
94.012993 244.0
94.275452 184.0
94.493095 192.0
94.521751 140.0
94.570137 156.0
94.594566 112.0
94.622398 184.0
94.6437 140.0
94.684364 184.0
94.721161 172.0
94.74247 168.0
94.767654 236.0
94.783157 160.0
94.973122 168.0
94.994064 840.0
95.153618 184.0
95.173035 220.0
95.215752 212.0
95.303604 196.0
95.328606 132.0
95.377014 200.0
95.563705 164.0
95.585106 148.0
95.686317 192.0
95.764214 148.0
95.811417 120.0
95.828499 184.0
95.904495 188.0
95.941536 176.0
95.972725 172.0
96.002869 768.0
96.059532 164.0
96.079994 140.0
96.156929 220.0
96.308388 228.0
96.33783 164.0
96.374802 176.0
96.51358 152.0
96.550735 156.0
96.629906 176.0
96.709206 148.0
96.78421 180.0
96.826683 148.0
96.864197 180.0
96.885445 156.0
97.00415 368.0
97.036346 212.0
97.087074 184.0
97.09935 184.0
97.141312 144.0
97.174583 108.0
97.210915 280.0
97.441643 276.0
97.509422 216.0
97.713921 164.0
97.837257 168.0
97.912735 208.0
97.932426 144.0
98.017136 172.0
98.05899 168.0
98.078232 140.0
98.121605 184.0
98.139343 160.0
98.157089 204.0
98.227943 160.0
98.282249 160.0
98.366219 156.0
98.555809 164.0
98.589401 184.0
98.621887 424.0
98.654633 200.0
98.708015 148.0
98.803329 208.0
99.020683 280.0
99.041603 164.0
99.101906 160.0
99.215836 132.0
99.246597 220.0
99.3041 180.0
99.679314 192.0
99.740921 180.0
99.793068 120.0
99.847092 432.0
100.08107 196.0
100.179939 192.0
100.298256 172.0
100.423866 192.0
100.443817 172.0
100.610123 200.0
100.625412 168.0
100.641388 172.0
100.757874 160.0
100.817169 148.0
100.887123 156.0
100.93911 224.0
100.959106 180.0
101.11515 164.0
101.128593 280.0
101.231262 256.0
101.35746 152.0
101.389526 152.0
101.463097 176.0
101.519829 152.0
101.577164 204.0
101.680885 172.0
101.7024 224.0
102.046356 200.0
102.199944 180.0
102.257126 156.0
102.35376 276.0
102.486694 140.0
102.539215 176.0
102.623756 280.0
102.753433 120.0
102.785118 144.0
102.857773 180.0
102.873398 156.0
102.93763 144.0
103.065781 160.0
103.089035 228.0
103.11425 192.0
103.150665 156.0
103.197159 156.0
103.323257 196.0
103.549263 256.0
103.574738 236.0
103.701218 180.0
103.768112 140.0
103.830971 204.0
103.875595 164.0
103.917877 132.0
103.944572 196.0
103.979073 308.0
104.021111 264.0
104.037933 180.0
104.075996 156.0
104.141495 192.0
104.23996 232.0
104.280167 132.0
104.353935 236.0
104.396889 144.0
104.443062 152.0
104.495201 156.0
104.546608 152.0
104.602089 188.0
104.635681 160.0
104.70079 160.0
104.760468 200.0
104.791451 268.0
104.815353 196.0
104.88839 108.0
104.973862 200.0
105.067688 148.0
105.173798 180.0
105.233002 232.0
105.267715 152.0
105.282005 228.0
105.343285 164.0
105.38414 212.0
105.422005 204.0
105.449226 240.0
105.536568 160.0
105.56765 144.0
105.690842 156.0
105.772293 140.0
105.805954 164.0
105.880379 144.0
105.89489 224.0
105.934235 104.0
106.010277 196.0
106.034866 152.0
106.100464 216.0
106.172226 140.0
106.302177 184.0
106.331993 152.0
106.383568 184.0
106.504715 216.0
106.591949 268.0
106.659966 160.0
106.901505 148.0
107.004425 180.0
107.039879 200.0
107.092361 204.0
107.106018 288.0
107.183617 184.0
107.249557 192.0
107.336151 156.0
107.490067 188.0
107.542686 244.0
107.560776 148.0
107.684906 144.0
107.748947 152.0
107.895676 152.0
108.139763 148.0
108.231918 208.0
108.348907 208.0
108.390343 152.0
108.479462 148.0
108.57209 160.0
108.645363 152.0
108.783646 132.0
108.897392 220.0
108.965073 220.0
109.029488 200.0
109.066902 144.0
109.084778 200.0
109.190575 168.0
109.447609 188.0
109.54966 236.0
109.647591 156.0
109.785179 196.0
109.91243 184.0
110.066727 192.0
110.13163 164.0
110.294609 156.0
110.355232 148.0
110.387932 200.0
110.566505 276.0
110.597504 212.0
110.639763 172.0
110.673912 168.0
110.731895 168.0
110.763313 216.0
110.876884 196.0
110.951912 164.0
110.987556 192.0
111.018623 152.0
111.117668 120.0
111.159096 180.0
111.182793 224.0
111.241409 180.0
111.344299 156.0
111.371597 160.0
111.401009 196.0
111.443024 188.0
111.464035 184.0
111.501404 216.0
111.550201 172.0
111.567024 176.0
111.587173 300.0
111.686882 176.0
111.794182 164.0
111.856857 236.0
111.884827 120.0
111.983658 196.0
112.023193 228.0
112.164856 168.0
112.203362 152.0
112.312111 144.0
112.380966 128.0
112.422165 160.0
112.436943 160.0
112.512924 220.0
112.657341 156.0
112.690331 196.0
112.743156 164.0
112.798111 168.0
112.823112 168.0
112.93132 184.0
112.963051 144.0
113.197975 180.0
113.240105 188.0
113.25631 172.0
113.293289 220.0
113.311348 160.0
113.352608 160.0
113.41407 196.0
113.443748 184.0
113.471306 220.0
113.49987 212.0
113.60067 144.0
113.632492 200.0
113.647346 168.0
113.668671 152.0
113.703773 216.0
113.738594 184.0
113.761681 192.0
113.997704 172.0
114.039146 176.0
114.11248 168.0
114.184784 228.0
114.201797 132.0
114.303909 156.0
114.391174 180.0
114.423103 156.0
114.573112 192.0
114.595619 168.0
114.611847 220.0
114.632935 148.0
114.821571 208.0
114.923965 164.0
114.95771 108.0
115.079773 156.0
115.155098 160.0
115.286575 176.0
115.297882 192.0
115.408806 152.0
115.440269 208.0
115.58786 220.0
115.660179 120.0
115.684792 160.0
115.707672 184.0
115.738914 172.0
115.761871 188.0
115.841354 144.0
115.9011 136.0
115.976425 164.0
116.001228 184.0
116.038277 160.0
116.059937 192.0
116.106895 148.0
116.124054 140.0
116.147644 184.0
116.321449 232.0
116.426659 192.0
116.45887 180.0
116.497536 140.0
116.51902 144.0
116.667305 184.0
116.710304 164.0
116.899902 140.0
116.985687 140.0
117.012375 232.0
117.108421 156.0
117.239845 152.0
117.261398 168.0
117.325851 164.0
117.428864 172.0
117.478645 196.0
117.524864 156.0
117.659424 176.0
117.758652 168.0
117.837547 188.0
117.863472 148.0
117.982063 124.0
118.001801 144.0
118.029961 168.0
118.091431 196.0
118.244148 116.0
118.345818 216.0
118.386238 108.0
118.467094 188.0
118.576637 124.0
118.599274 176.0
118.714943 148.0
118.745483 152.0
118.870369 184.0
118.900391 196.0
118.909111 164.0
118.950668 168.0
119.033173 140.0
119.103149 216.0
119.122475 132.0
119.156975 188.0
119.21347 148.0
119.407768 96.0
119.459152 176.0
119.493965 152.0
119.594063 144.0
119.615829 292.0
119.650658 168.0
119.693436 204.0
119.782883 228.0
119.907692 196.0
119.985245 200.0
120.007027 232.0
120.03125 112.0
120.112648 268.0
120.137787 152.0
120.335236 140.0
120.450981 144.0
120.470123 180.0
120.595192 140.0
120.907936 216.0
121.019577 224.0
121.038353 216.0
121.072128 180.0
121.101357 292.0
121.146599 164.0
121.239723 176.0
121.370926 340.0
121.39563 232.0
121.463875 136.0
121.488586 240.0
121.528076 164.0
121.665314 196.0
121.767349 156.0
121.826653 164.0
121.890526 168.0
121.970482 168.0
122.025948 164.0
122.079414 172.0
122.123695 180.0
122.260254 156.0
122.312622 160.0
122.342865 180.0
122.429314 180.0
122.459084 224.0
122.587921 172.0
122.64447 164.0
122.710434 276.0
122.740021 280.0
122.915001 152.0
122.981339 204.0
123.050514 144.0
123.084015 156.0
123.101105 220.0
123.237686 188.0
123.380791 164.0
123.402832 192.0
123.535103 236.0
123.652374 168.0
123.706825 120.0
123.738708 176.0
123.757393 164.0
123.911453 156.0
123.967926 148.0
124.066589 152.0
124.092918 192.0
124.144188 144.0
124.17688 108.0
124.255096 152.0
124.315002 160.0
124.348289 148.0
124.43486 168.0
124.454849 188.0
124.536629 168.0
124.594765 144.0
124.612984 160.0
124.632454 108.0
124.640053 136.0
124.681427 144.0
124.738625 152.0
124.790977 196.0
124.892258 164.0
124.950226 176.0
124.968643 172.0
124.994972 324.0
125.017265 132.0
125.052834 152.0
125.077324 140.0
125.108482 236.0
125.229332 148.0
125.293869 360.0
125.323395 188.0
125.400284 220.0
125.453781 168.0
125.498367 192.0
125.643333 188.0
125.665649 208.0
125.690193 144.0
125.708046 180.0
125.778778 184.0
125.784744 120.0
125.830803 200.0
125.983673 156.0
126.002769 164.0
126.04969 152.0
126.094391 156.0
126.110031 156.0
126.131638 132.0
126.250885 188.0
126.293373 172.0
126.373909 208.0
126.391167 208.0
126.434326 144.0
126.452232 160.0
126.508186 164.0
126.57312 180.0
126.592949 196.0
126.621864 224.0
126.651497 252.0
126.68013 128.0
126.714226 204.0
126.761276 240.0
126.781448 184.0
126.856491 116.0
126.962608 192.0
126.989944 156.0
127.067581 132.0
127.102112 156.0
127.178413 196.0
127.270454 184.0
127.290665 140.0
127.36171 120.0
127.41745 200.0
127.478111 204.0
127.517563 144.0
127.540039 168.0
127.627716 220.0
127.70192 176.0
127.884171 148.0
127.994476 180.0
128.010239 172.0
128.065399 128.0
128.145264 148.0
128.206223 148.0
128.294128 204.0
128.404617 424.0
128.424911 176.0
128.456497 148.0
128.492584 160.0
128.513489 228.0
128.623672 140.0
128.740875 304.0
128.824829 188.0
128.845062 124.0
128.882599 156.0
128.937424 144.0
129.02887 152.0
129.045929 168.0
129.125 144.0
129.168045 180.0
129.187439 156.0
129.280502 220.0
129.318008 172.0
129.396606 180.0
129.501663 232.0
129.636703 148.0
129.663895 192.0
129.7659 152.0
129.80278 176.0
129.874756 168.0
129.917847 180.0
129.955902 124.0
130.00444 192.0
130.083755 188.0
130.116074 116.0
130.212936 148.0
130.264282 144.0
130.300476 112.0
130.327988 152.0
130.386612 200.0
130.41507 148.0
130.431488 144.0
130.528809 180.0
130.559006 144.0
130.612 152.0
130.637863 336.0
130.659119 208.0
130.674835 272.0
130.692505 460.0
130.750931 124.0
130.784683 368.0
130.832031 528.0
130.857346 388.0
130.875412 232.0
130.894409 176.0
130.947662 796.0
130.972305 221728.0
131.064667 176.0
131.106689 112.0
131.191757 228.0
131.323395 116.0
131.3461 3740.0
131.414642 144.0
131.500214 144.0
131.558884 120.0
131.603043 124.0
131.673859 132.0
131.713486 188.0
131.745834 104.0
131.78244 168.0
131.830612 196.0
131.908127 160.0
131.974258 16112.0
132.023544 348.0
132.041611 160.0
132.103073 96.0
132.121094 96.0
132.149887 180.0
132.173981 184.0
132.365234 252.0
132.408264 208.0
132.511215 136.0
132.549118 160.0
132.604767 124.0
132.667236 296.0
132.700439 164.0
132.728592 220.0
132.774719 192.0
132.800903 136.0
132.815094 260.0
132.866837 432.0
132.894562 188.0
132.924683 304.0
132.968384 84624.0
133.029617 160.0
133.096619 196.0
133.132538 172.0
133.177155 176.0
133.186356 220.0
133.253693 132.0
133.28154 148.0
133.307648 140.0
133.386246 140.0
133.457199 168.0
133.501373 108.0
133.867493 224.0
133.893616 104.0
133.939758 144.0
133.970551 4252.0
134.124542 160.0
134.289963 240.0
134.339981 188.0
134.37616 104.0
134.680084 136.0
134.816513 284.0
134.885605 140.0
134.961304 396.0
135.022842 124.0
135.074554 176.0
135.157028 96.0
135.197174 160.0
135.420395 164.0
135.451859 160.0
135.61174 280.0
135.661407 112.0
135.907776 152.0
136.229935 184.0
136.593231 164.0
136.635162 136.0
136.770752 252.0
137.012405 200.0
137.107635 252.0
137.227097 152.0
137.30896 196.0
137.343948 152.0
137.607651 188.0
137.713959 176.0
137.770233 116.0
137.901978 152.0
137.959198 140.0
138.002502 272.0
138.347107 152.0
138.503296 180.0
138.766739 96.0
138.793289 148.0
138.983887 180.0
139.007355 200.0
139.190445 184.0
139.216278 156.0
139.280518 228.0
139.41069 200.0
139.606583 180.0
139.702805 180.0
139.729279 324.0
139.810577 140.0
139.867126 140.0
140.117142 208.0
140.135986 160.0
140.199554 176.0
140.272675 160.0
140.443573 152.0
140.572205 152.0
140.671341 144.0
140.816956 172.0
141.333069 168.0
141.520599 124.0
141.742859 120.0
141.835663 108.0
141.918701 120.0
142.122086 180.0
142.290604 196.0
142.384735 124.0
142.451401 188.0
142.525742 172.0
142.853821 176.0
142.877609 280.0
142.922821 140.0
143.051254 116.0
143.066483 132.0
143.220398 140.0
143.322845 248.0
143.62561 240.0
143.669434 160.0
143.859985 124.0
143.935852 164.0
144.149414 148.0
144.239258 216.0
144.258392 196.0
144.322937 236.0
144.430557 140.0
144.607605 196.0
144.675232 96.0
144.841537 108.0
144.868607 188.0
144.923706 140.0
144.986008 172.0
145.266541 160.0
145.432098 176.0
145.482513 160.0
146.003906 168.0
146.067398 120.0
146.201172 156.0
146.234131 156.0
146.290237 184.0
146.564117 100.0
146.627823 152.0
146.991638 188.0
147.066391 256.0
147.09053 140.0
147.290955 140.0
147.409332 168.0
147.600296 156.0
147.83252 164.0
147.924484 244.0
148.365372 200.0
148.525421 188.0
148.563538 152.0
148.587601 208.0
148.797211 140.0
148.82634 160.0
149.013367 192.0
149.141418 224.0
149.173752 212.0
149.244263 168.0
149.328415 140.0
149.387756 188.0
149.471558 128.0
149.579987 248.0
149.755295 208.0
149.777222 156.0
150.062347 180.0
150.565018 156.0
150.648056 184.0
150.915619 184.0
150.985703 144.0
151.188416 176.0
151.396881 152.0
151.516525 172.0
151.599823 212.0
151.636581 192.0
151.903854 160.0
151.965179 196.0
151.996826 136.0
152.242081 188.0
152.595734 152.0
152.692291 156.0
152.768539 156.0
153.004791 228.0
153.022247 216.0
153.061417 168.0
153.786194 196.0
153.819748 128.0
153.875061 156.0
154.020767 140.0
154.055344 200.0
154.651779 252.0
154.710678 180.0
154.779999 148.0
154.860977 120.0
155.110748 224.0
155.230988 184.0
155.344391 144.0
155.375671 144.0
155.419495 172.0
155.702438 164.0
155.933548 148.0
156.156662 156.0
156.266754 172.0
156.360092 172.0
156.432816 168.0
156.526855 184.0
156.910889 140.0
157.201141 152.0
157.228592 188.0
157.323441 140.0
157.438293 160.0
157.770615 140.0
158.248459 180.0
158.368088 192.0
158.43129 144.0
158.624237 148.0
158.641785 172.0
158.714493 144.0
158.773346 204.0
158.847412 180.0
158.928284 120.0
158.976257 812.0
159.160797 124.0
159.222305 200.0
159.45253 140.0
159.537994 164.0
159.653656 208.0
159.92215 172.0
160.32193 236.0
160.474533 192.0
160.500809 160.0
160.555222 160.0
160.681335 144.0
160.92424 180.0
160.969955 412.0
161.300049 168.0
161.396484 160.0
161.479843 144.0
161.593399 144.0
161.726013 216.0
161.777344 140.0
161.875732 184.0
162.099792 144.0
162.280457 304.0
162.457291 180.0
162.519867 228.0
162.688217 208.0
162.731384 148.0
162.942184 148.0
163.032379 204.0
163.256958 124.0
163.494354 236.0
163.758728 176.0
163.789291 268.0
163.852966 204.0
163.872498 212.0
163.925903 172.0
163.955627 252.0
164.003326 176.0
164.051758 220.0
164.153732 196.0
164.227692 164.0
164.29657 164.0
164.607956 204.0
164.851929 156.0
165.134399 156.0
165.200897 176.0
165.313477 192.0
165.733414 140.0
165.808121 212.0
166.07663 100.0
166.287323 164.0
166.325821 144.0
166.35585 184.0
166.537582 156.0
166.628845 184.0
166.685379 140.0
166.726486 204.0
166.842163 160.0
166.98616 156.0
167.320068 188.0
167.379715 292.0
167.548019 136.0
168.004211 208.0
168.057785 172.0
168.21431 184.0
168.467789 148.0
168.634674 152.0
168.664658 192.0
168.682755 148.0
168.785034 208.0
168.814621 152.0
168.962051 140.0
169.350769 160.0
169.516129 236.0
169.647125 108.0
170.046539 152.0
170.343781 176.0
170.450287 184.0
170.526962 144.0
170.593246 196.0
170.769379 124.0
170.83873 120.0
170.871506 208.0
170.976288 124.0
171.183167 148.0
171.228882 244.0
171.413071 152.0
171.579391 192.0
171.773148 144.0
171.937241 144.0
171.983124 540.0
172.075577 140.0
172.151306 188.0
172.185257 176.0
172.234711 128.0
172.373337 148.0
172.436539 132.0
172.524933 156.0
172.650711 116.0
172.685532 232.0
172.870377 112.0
172.909439 152.0
172.988922 280.0
173.103165 196.0
173.18837 172.0
173.534439 168.0
173.69809 156.0
173.876511 140.0
173.979553 436.0
174.01825 164.0
174.092545 164.0
174.21785 156.0
174.322952 208.0
174.570053 172.0
174.593719 204.0
174.641052 168.0
174.700058 168.0
174.930496 172.0
174.967346 188.0
174.986588 208.0
175.175095 140.0
176.19368 192.0
176.564804 148.0
176.714508 160.0
176.762131 140.0
176.854767 164.0
176.958008 148.0
177.04274 188.0
177.061279 156.0
177.132782 184.0
177.21756 176.0
177.265259 220.0
177.350067 156.0
177.437057 176.0
177.519745 228.0
177.917725 192.0
178.051605 152.0
178.219559 168.0
178.353378 176.0
178.515549 160.0
178.883606 156.0
179.229858 104.0
179.298218 148.0
179.351517 164.0
179.545914 132.0
179.610168 164.0
179.722214 212.0
179.743561 144.0
179.860977 180.0
179.882339 156.0
180.470078 140.0
180.507507 148.0
180.807129 220.0
180.858276 108.0
181.434647 172.0
181.471436 200.0
181.614548 160.0
181.772049 208.0
181.919464 172.0
181.978531 160.0
182.323074 168.0
182.431305 120.0
182.507828 180.0
182.747208 164.0
182.801025 164.0
182.981369 160.0
183.04599 96.0
183.172562 148.0
183.3423 260.0
183.364929 168.0
183.406998 164.0
183.638016 164.0
183.762283 168.0
183.981186 144.0
184.032501 896.0
184.319168 172.0
184.375916 156.0
185.03714 396.0
185.274246 180.0
185.561523 156.0
185.957565 204.0
186.129044 144.0
186.533386 172.0
186.723724 140.0
186.973068 128.0
187.131897 176.0
187.158386 164.0
187.296906 136.0
187.540512 156.0
187.763367 140.0
187.945786 124.0
187.985809 156.0
188.270233 148.0
188.54155 112.0
188.708878 156.0
188.979645 148.0
189.020691 152.0
189.068954 140.0
189.15303 216.0
189.340988 232.0
189.663422 128.0
190.109497 152.0
190.143753 136.0
190.286118 200.0
190.306213 216.0
190.487473 144.0
190.514938 140.0
190.701797 260.0
190.896988 148.0
190.927231 148.0
191.02771 144.0
191.056046 164.0
191.114288 108.0
191.408813 148.0
191.486343 104.0
191.538239 148.0
191.977325 140.0
192.217712 96.0
192.279922 156.0
192.357208 248.0
192.398621 164.0
192.475922 204.0
192.602966 268.0
192.739639 128.0
193.056335 196.0
193.183441 164.0
193.381195 128.0
193.421646 148.0
193.529388 156.0
193.723251 180.0
193.807297 108.0
193.996231 136.0
194.054138 224.0
194.169205 180.0
194.203903 140.0
194.355362 140.0
194.375519 204.0
194.46637 188.0
194.485794 180.0
194.854202 96.0
194.888626 144.0
195.037018 184.0
195.34729 112.0
195.436768 184.0
195.636597 200.0
195.714554 160.0
195.834305 208.0
195.934158 160.0
195.982361 160.0
196.211609 180.0
196.243118 176.0
196.405624 164.0
196.728256 136.0
196.792358 172.0
196.968109 204.0
197.000519 164.0
197.058914 152.0
197.215408 148.0
197.35881 188.0
197.467041 176.0
197.614609 176.0
197.671265 220.0
198.002975 212.0
198.038086 136.0
198.332199 384.0
198.479279 156.0
198.531265 144.0
198.695984 160.0
198.776901 176.0
198.820206 164.0
198.873535 176.0
198.952652 152.0
199.007919 7028.0
199.244202 164.0
199.501648 144.0
199.624649 156.0
200.013748 1000.0
200.235703 172.0
200.301926 144.0
200.333908 112.0
200.72467 212.0
200.886307 124.0
200.95314 140.0
201.005554 1880.0
201.339844 164.0
201.393509 308.0
201.711868 156.0
201.8974 292.0
202.011887 136.0
202.040833 208.0
202.134201 148.0
202.367859 152.0
202.601364 160.0
202.850739 208.0
203.033173 672.0
203.139984 144.0
203.62352 168.0
203.79863 208.0
204.190918 168.0
204.269409 172.0
204.402145 144.0
204.429886 192.0
204.600662 152.0
204.837021 204.0
205.032288 160.0
205.05072 356.0
205.153336 232.0
205.274292 188.0
205.326202 140.0
205.423447 196.0
205.455612 140.0
205.621109 156.0
205.656387 188.0
205.765717 140.0
206.015152 144.0
206.04393 108.0
206.065033 156.0
206.146576 168.0
206.309494 168.0
206.592606 176.0
206.626678 120.0
206.671997 112.0
206.791626 104.0
206.867325 216.0
206.924576 184.0
206.947479 180.0
207.036255 196.0
207.233902 144.0
207.279083 172.0
207.403229 140.0
207.480377 148.0
207.504272 184.0
207.540588 248.0
207.943405 152.0
208.028305 168.0
208.196625 148.0
208.289612 176.0
208.347626 124.0
208.435684 104.0
208.767929 196.0
208.992889 108.0
209.192535 144.0
209.22995 216.0
209.335144 128.0
209.514832 96.0
210.002106 204.0
210.095459 160.0
210.19838 156.0
210.449509 188.0
210.611221 140.0
210.792038 160.0
210.834137 280.0
210.940628 160.0
211.192581 232.0
211.241364 188.0
211.354187 180.0
211.556793 172.0
211.701553 280.0
211.824142 124.0
211.858917 128.0
212.004303 152.0
212.165146 144.0
212.199936 160.0
212.488724 188.0
212.52478 288.0
212.662994 172.0
212.745346 148.0
212.773209 168.0
213.003784 140.0
213.079315 168.0
213.335068 172.0
213.47171 160.0
213.553146 152.0
213.666595 120.0
214.131989 152.0
214.158539 152.0
214.208054 164.0
214.557755 152.0
214.591583 212.0
214.789627 116.0
214.825989 136.0
215.034485 220.0
215.079758 148.0
215.250992 160.0
215.460144 288.0
215.582245 144.0
215.766388 172.0
216.042023 256.0
216.0746 156.0
216.099808 196.0
216.538895 184.0
216.631439 168.0
216.757355 96.0
216.790848 96.0
216.9198 280.0
216.950378 120.0
216.989136 184.0
217.028275 188.0
217.082565 128.0
217.230637 172.0
217.32901 128.0
217.585724 140.0
217.656189 148.0
217.714447 100.0
217.82785 132.0
217.96637 204.0
217.994766 2156.0
218.090973 264.0
218.148499 148.0
218.323242 140.0
218.357056 96.0
218.596817 160.0
218.708649 140.0
218.773407 184.0
218.931519 128.0
219.00209 1364.0
219.037415 184.0
219.209442 144.0
219.341934 184.0
219.604355 168.0
219.689896 180.0
219.763657 144.0
219.860031 116.0
219.989182 940.0
220.041092 156.0
220.259613 140.0
220.303925 176.0
220.357849 144.0
220.477264 136.0
220.67926 140.0
220.70079 184.0
220.96022 144.0
220.993988 292.0
221.043076 192.0
221.519531 120.0
221.653061 176.0
221.842529 172.0
221.87294 100.0
221.9879 188.0
222.177841 188.0
222.278717 188.0
222.413818 200.0
222.666702 220.0
222.732956 156.0
222.770248 144.0
222.836929 192.0
222.963074 164.0
222.991455 164.0
223.128098 144.0
223.196564 180.0
223.253067 228.0
223.279831 176.0
223.348236 152.0
223.369064 168.0
223.40773 148.0
223.435974 124.0
223.577332 184.0
223.59816 148.0
223.698669 172.0
223.750931 112.0
223.824402 168.0
224.102737 108.0
224.28154 216.0
224.347244 188.0
224.476974 172.0
224.519028 244.0
224.664886 168.0
224.909576 164.0
224.976013 228.0
225.373856 132.0
225.459122 168.0
225.64444 156.0
225.677322 168.0
225.746094 176.0
225.93718 172.0
226.012314 264.0
226.179916 152.0
226.220261 100.0
226.410736 164.0
226.452377 156.0
226.719559 196.0
227.045792 156.0
227.156754 176.0
227.280396 212.0
227.476303 164.0
227.527649 184.0
227.745087 140.0
227.775116 152.0
227.909439 96.0
227.967407 156.0
228.027512 184.0
228.171799 160.0
228.226883 112.0
228.407532 148.0
228.513412 176.0
228.615417 196.0
228.734329 192.0
228.782501 140.0
228.931992 160.0
229.07576 136.0
229.228256 148.0
229.553818 156.0
229.825287 144.0
230.152496 128.0
230.347565 164.0
230.537918 188.0
230.705353 140.0
230.954086 268.0
231.11528 128.0
231.17157 200.0
231.203217 188.0
231.277802 100.0
231.368393 128.0
231.551376 164.0
231.787659 140.0
231.838913 132.0
231.919937 124.0
231.946106 128.0
232.00589 216.0
232.104904 140.0
232.242935 140.0
232.327866 188.0
232.472977 184.0
232.79068 152.0
232.81601 148.0
232.913208 148.0
232.990997 112.0
233.150192 168.0
233.293045 208.0
233.326477 180.0
233.39209 132.0
233.426819 144.0
233.472763 188.0
233.540421 216.0
233.584976 196.0
233.834473 164.0
233.918579 176.0
234.023209 144.0
234.145004 172.0
234.352142 176.0
234.375839 180.0
234.547043 176.0
234.641678 144.0
234.759781 416.0
234.854904 104.0
235.169403 148.0
235.272385 136.0
235.425858 140.0
235.518295 212.0
235.73439 172.0
235.768005 180.0
235.870865 196.0
236.037018 212.0
236.133377 264.0
236.196045 216.0
236.587738 236.0
236.749146 168.0
236.814331 160.0
237.060059 164.0
237.337662 264.0
237.437897 108.0
237.53157 204.0
237.596313 176.0
237.935135 120.0
238.04718 148.0
238.094284 212.0
238.368912 152.0
238.429062 116.0
238.45755 172.0
238.541824 164.0
238.947769 196.0
238.972382 228.0
239.013977 480.0
239.13855 148.0
239.200333 164.0
239.30632 168.0
239.38176 160.0
239.423065 144.0
239.662064 148.0
239.69841 160.0
239.877792 140.0
239.917862 140.0
240.015167 292.0
240.103485 100.0
240.152206 152.0
240.255264 128.0
240.349197 108.0
240.732422 152.0
240.755798 108.0
240.784912 200.0
240.828766 168.0
241.011169 308.0
241.125961 144.0
241.514328 144.0
241.677277 136.0
241.867996 172.0
242.044937 104.0
242.152634 136.0
242.220047 144.0
242.390442 152.0
242.467743 204.0
242.622894 156.0
242.667816 172.0
242.729279 184.0
242.801804 132.0
242.820206 248.0
242.945343 168.0
242.984619 120.0
243.016785 168.0
243.165726 168.0
243.296097 144.0
243.34726 184.0
243.442032 148.0
243.490921 156.0
243.903275 164.0
244.284317 156.0
244.646927 160.0
244.77916 160.0
245.036728 156.0
245.280762 188.0
245.445984 172.0
245.592148 120.0
245.709595 116.0
245.85463 156.0
245.87648 216.0
245.901779 148.0
245.960754 144.0
245.987289 152.0
246.057785 96.0
246.082504 188.0
246.154312 144.0
246.321167 148.0
246.729141 184.0
247.145935 164.0
247.18898 228.0
247.409393 220.0
247.536453 172.0
247.649185 144.0
247.767105 280.0
248.005219 228.0
248.141373 188.0
248.241989 104.0
248.401459 144.0
248.59285 164.0
248.862793 156.0
248.8992 124.0
249.123459 164.0
249.173721 244.0
249.353439 144.0
249.465988 200.0
249.66687 144.0
249.914185 164.0
250.009186 160.0
250.068985 108.0
250.217758 128.0
250.485535 144.0
250.510742 168.0
250.561142 144.0
250.627304 144.0
250.699783 152.0
250.765961 140.0
250.788025 140.0
250.94249 160.0
251.011139 176.0
251.127655 128.0
251.178894 212.0
251.36499 164.0
251.653366 168.0
251.759735 124.0
252.13913 128.0
252.192368 192.0
252.318192 124.0
252.420197 184.0
252.535782 152.0
252.622833 120.0
252.672302 152.0
252.701691 176.0
252.723846 140.0
252.962891 936.0
252.999191 160.0
253.285583 168.0
253.343552 156.0
253.490112 152.0
253.756363 184.0
253.971924 2136.0
254.095016 180.0
254.207245 160.0
254.274033 164.0
254.307297 160.0
254.361115 184.0
254.406723 148.0
254.494873 240.0
254.547699 204.0
254.583435 140.0
254.641693 160.0
254.72879 152.0
254.765579 152.0
254.832291 152.0
254.967102 492.0
255.012085 532.0
255.048386 180.0
255.274643 144.0
255.488434 136.0
255.53334 112.0
255.75621 112.0
255.965027 1100.0
256.107941 200.0
256.322205 204.0
256.344086 228.0
256.420227 132.0
256.467987 140.0
256.518982 164.0
256.544495 148.0
256.649689 160.0
256.70401 128.0
256.962952 128.0
257.004547 288.0
257.062683 184.0
257.099945 104.0
257.178162 164.0
257.349884 140.0
257.438141 132.0
257.750885 164.0
257.843567 176.0
258.112091 288.0
258.247833 188.0
258.291199 140.0
258.760345 152.0
258.914673 120.0
259.020142 184.0
259.059448 176.0
259.090027 148.0
259.1203 172.0
259.226044 184.0
259.254883 180.0
259.357452 212.0
259.399109 164.0
259.559418 168.0
259.735809 304.0
259.778778 152.0
259.893005 272.0
260.130493 148.0
260.174194 140.0
260.313507 140.0
260.414215 144.0
260.479919 216.0
260.772888 188.0
261.076233 188.0
261.10083 164.0
261.196259 156.0
261.367828 160.0
261.471893 180.0
261.92157 140.0
262.067932 136.0
262.182526 188.0
262.308228 184.0
262.612091 164.0
262.772308 164.0
262.851257 248.0
263.027557 232.0
263.054565 132.0
263.101807 348.0
263.283813 140.0
263.460266 164.0
263.499023 172.0
263.533203 188.0
263.852142 140.0
264.058258 304.0
264.265289 160.0
264.35376 160.0
264.595398 176.0
264.705475 140.0
264.745483 148.0
264.890869 108.0
265.300751 248.0
265.36322 160.0
265.417603 120.0
265.5578 176.0
265.590179 208.0
265.927826 156.0
265.960114 148.0
266.012054 152.0
266.306519 164.0
266.369263 204.0
266.421234 144.0
266.488342 184.0
266.781189 292.0
266.822754 104.0
267.317535 156.0
267.510925 128.0
267.570953 148.0
267.729095 120.0
267.986115 156.0
268.025208 144.0
268.390289 204.0
268.752319 164.0
268.99057 168.0
269.013397 200.0
269.341736 168.0
269.471527 156.0
269.64035 140.0
269.817047 148.0
269.947296 160.0
270.03241 148.0
270.138855 128.0
270.170258 144.0
270.265137 284.0
270.321259 156.0
270.423889 124.0
270.523682 156.0
270.569519 164.0
270.67099 224.0
270.697845 116.0
270.765961 316.0
270.795654 188.0
270.934448 176.0
270.96579 188.0
271.221375 148.0
271.454163 160.0
271.562897 148.0
271.868561 212.0
271.931793 180.0
272.021759 160.0
272.087402 168.0
272.339355 156.0
272.389526 156.0
272.428955 164.0
272.898895 172.0
272.925201 224.0
272.977814 172.0
273.009186 160.0
273.431915 132.0
273.507507 208.0
273.550293 164.0
273.967438 124.0
274.287018 188.0
274.591492 204.0
274.648041 108.0
274.698608 416.0
274.726715 172.0
274.810547 176.0
275.065125 160.0
275.131073 328.0
275.568573 152.0
275.942047 184.0
275.98172 140.0
276.018097 268.0
276.091522 120.0
276.267761 140.0
276.342255 156.0
276.484528 228.0
276.815582 188.0
276.963043 244.0
277.003021 140.0
277.290375 184.0
277.43988 288.0
277.514709 152.0
277.551178 160.0
277.604248 108.0
277.66394 200.0
277.713684 160.0
277.944031 204.0
278.056854 128.0
278.21106 152.0
278.430573 140.0
278.683014 152.0
279.241486 172.0
279.500977 172.0
279.594147 140.0
279.723328 168.0
279.828125 176.0
279.943695 144.0
280.458832 140.0
280.62677 144.0
280.898438 148.0
280.955109 172.0
281.290649 160.0
281.399231 128.0
281.607849 244.0
281.684662 220.0
281.712036 168.0
281.788239 148.0
282.126526 160.0
282.446808 152.0
282.627441 160.0
282.854431 116.0
283.17688 124.0
283.233398 148.0
283.367401 232.0
283.431061 140.0
283.625427 148.0
283.669006 264.0
283.702515 156.0
283.924622 168.0
283.967407 232.0
284.064697 168.0
284.253174 132.0
284.420288 188.0
284.717834 148.0
284.776276 140.0
284.805237 116.0
285.121338 228.0
285.159302 164.0
285.276947 140.0
285.428223 144.0
285.653564 140.0
285.790009 116.0
285.81842 144.0
285.973572 136.0
286.065399 124.0
286.306519 152.0
286.410919 176.0
286.455719 188.0
286.645081 104.0
286.714325 160.0
286.768402 132.0
286.926514 148.0
287.028809 176.0
287.113586 208.0
287.467621 244.0
287.567322 120.0
287.618835 156.0
287.668671 168.0
287.96463 176.0
288.014191 136.0
288.146301 160.0
288.550171 108.0
288.800659 192.0
288.859192 128.0
288.936798 1788.0
289.040833 176.0
289.210052 148.0
289.316833 132.0
289.369598 112.0
289.636688 148.0
289.782349 188.0
289.945923 116.0
289.958008 184.0
290.025391 132.0
290.076447 216.0
290.096832 144.0
290.132965 184.0
290.267059 184.0
290.427856 116.0
290.801086 172.0
290.933594 588.0
291.245422 96.0
291.325287 100.0
291.471741 128.0
291.768127 156.0
292.060211 188.0
292.208801 128.0
292.247314 172.0
292.35672 156.0
292.560394 148.0
292.744965 116.0
292.911163 184.0
293.087219 136.0
293.187134 172.0
293.2258 220.0
293.28598 164.0
293.418915 148.0
293.501984 132.0
293.848633 212.0
293.999695 164.0
294.162598 160.0
294.220642 148.0
294.261383 120.0
294.753448 180.0
294.791412 140.0
294.924225 144.0
294.967621 96.0
295.02002 144.0
295.259369 172.0
295.415283 144.0
295.610168 176.0
295.663757 116.0
295.714386 212.0
296.433563 152.0
296.803253 160.0
296.992401 160.0
297.266083 160.0
297.400696 316.0
297.491913 368.0
297.671906 240.0
297.695862 164.0
297.804382 160.0
297.914612 168.0
297.959869 188.0
298.116882 116.0
298.616974 172.0
298.673187 100.0
298.713287 156.0
298.745087 212.0
298.874969 164.0
298.954712 352.0
298.992035 192.0
299.14563 196.0
299.174408 180.0
299.249542 112.0
299.332794 160.0
299.587646 144.0
299.763367 176.0
299.808167 144.0
299.879425 228.0
299.996704 112.0
300.124695 116.0
300.161804 292.0
300.366699 144.0
300.763519 152.0
301.056976 164.0
301.084595 164.0
301.146759 248.0
301.189728 128.0
301.233124 144.0
301.356018 216.0
301.658142 148.0
301.84549 152.0
302.076569 220.0
302.211487 148.0
302.35611 176.0
302.408752 168.0
302.436432 152.0
302.467072 188.0
302.612976 144.0
302.664917 192.0
302.76535 144.0
302.834595 168.0
302.913147 124.0
303.054047 104.0
303.184509 148.0
303.725372 144.0
303.756592 164.0
303.79129 152.0
303.878021 172.0
303.968231 176.0
304.103577 156.0
304.253448 112.0
304.301453 156.0
304.39325 128.0
304.523682 152.0
304.799072 148.0
304.996216 288.0
305.025696 112.0
305.205231 96.0
305.329987 176.0
305.396088 152.0
305.477142 196.0
305.573486 180.0
305.841431 140.0
305.890167 140.0
305.97998 140.0
306.153503 172.0
306.261749 140.0
306.450867 164.0
306.604187 320.0
306.679169 108.0
306.917908 204.0
307.162048 248.0
307.627777 136.0
307.711517 176.0
307.835632 168.0
307.874023 176.0
307.996277 160.0
308.052155 240.0
308.111542 204.0
308.21637 152.0
308.379242 188.0
308.555389 140.0
308.695251 156.0
308.812958 128.0
308.901611 184.0
309.131836 104.0
309.328522 208.0
309.396912 148.0
309.591095 164.0
309.743286 152.0
309.959778 132.0
310.454529 172.0
310.49176 148.0
310.58374 176.0
310.646973 192.0
310.944336 148.0
311.041595 196.0
311.253235 176.0
311.277832 144.0
311.365631 144.0
311.400757 168.0
311.499939 184.0
311.756592 152.0
311.90979 276.0
311.987823 180.0
312.141907 176.0
312.185394 176.0
312.423615 260.0
312.526855 140.0
312.613953 168.0
312.662872 248.0
312.729767 224.0
312.881104 212.0
312.943756 152.0
313.029938 180.0
313.155792 180.0
313.612549 124.0
313.758331 164.0
313.903412 108.0
314.011353 128.0
314.343842 196.0
314.411316 96.0
314.439117 192.0
314.502655 204.0
314.758392 100.0
314.894562 228.0
314.96106 136.0
315.355774 132.0
315.584595 176.0
315.957031 124.0
316.352234 144.0
316.397369 152.0
316.46463 144.0
316.514191 192.0
316.549622 228.0
317.260468 176.0
317.439941 176.0
317.478058 240.0
317.618561 168.0
317.720032 124.0
317.917938 152.0
317.964081 156.0
318.009308 292.0
318.358124 156.0
318.663605 256.0
318.71524 160.0
318.813965 116.0
318.859039 200.0
318.887482 176.0
318.994354 124.0
319.10788 188.0
319.257233 176.0
319.517426 128.0
319.556671 284.0
319.603851 260.0
319.648529 152.0
319.716064 152.0
319.750488 184.0
319.965302 180.0
320.149872 100.0
320.385529 160.0
320.434784 136.0
320.474579 272.0
320.503113 180.0
320.631378 184.0
320.921204 288.0
321.022675 160.0
321.365967 160.0
321.437317 216.0
321.569366 148.0
321.601471 156.0
321.941925 180.0
322.056854 172.0
322.434235 144.0
322.587341 184.0
322.832092 140.0
323.118256 168.0
323.243927 172.0
323.369995 128.0
323.596191 180.0
323.917572 200.0
324.058197 204.0
324.366028 132.0
324.495453 172.0
324.6138 172.0
324.649658 164.0
324.882294 164.0
324.946686 152.0
325.009674 280.0
325.072205 156.0
325.098877 196.0
325.138153 296.0
325.410187 156.0
325.582703 148.0
325.744324 156.0
326.071289 188.0
326.240234 232.0
326.269562 152.0
326.452362 144.0
326.669586 140.0
326.721008 128.0
326.862427 152.0
326.889008 196.0
326.930817 164.0
327.035187 228.0
327.17276 164.0
327.308777 164.0
327.552063 128.0
327.688477 144.0
327.737427 164.0
327.946564 96.0
328.100342 132.0
328.141083 212.0
328.332184 196.0
328.527313 164.0
328.674896 148.0
328.729736 160.0
329.064301 212.0
329.162201 168.0
329.281372 144.0
329.401917 256.0
329.930573 244.0
330.139923 176.0
330.85733 204.0
330.926697 196.0
331.180176 140.0
331.49173 172.0
331.687439 200.0
331.723694 336.0
331.756317 148.0
331.854218 200.0
331.883209 180.0
331.984741 456.0
332.267242 168.0
332.296692 144.0
332.367889 184.0
332.697327 212.0
332.902863 168.0
332.9646 200.0
333.080811 152.0
333.360138 196.0
333.510315 96.0
333.627594 240.0
333.673584 132.0
334.021545 124.0
334.196869 152.0
334.679718 128.0
334.859406 160.0
334.914032 140.0
335.021698 120.0
335.082367 176.0
335.143555 164.0
335.269897 124.0
335.442383 156.0
335.564789 224.0
335.683014 140.0
335.915558 148.0
336.020874 152.0
336.089447 208.0
336.202087 148.0
336.937744 140.0
337.011658 188.0
337.435638 156.0
337.656769 120.0
337.783051 220.0
338.061096 180.0
338.222137 152.0
338.416168 172.0
338.476715 112.0
338.562622 180.0
338.74942 164.0
338.793396 216.0
339.073761 180.0
339.126831 452.0
339.434784 180.0
339.466492 148.0
339.632812 148.0
339.977692 140.0
340.142853 120.0
340.219269 176.0
340.381073 144.0
340.479919 168.0
340.491852 136.0
340.612854 168.0
340.682648 144.0
340.881042 156.0
340.939148 136.0
340.980286 152.0
341.009674 148.0
341.465149 176.0
341.522034 144.0
341.598083 152.0
341.970978 192.0
342.072693 156.0
342.102875 160.0
342.396698 152.0
342.62619 264.0
342.80365 144.0
342.83139 152.0
343.046356 160.0
343.101898 256.0
343.251648 180.0
343.365967 144.0
343.60025 116.0
343.7276 120.0
343.889862 176.0
343.982117 188.0
344.144562 232.0
344.739258 180.0
344.909271 164.0
345.103149 108.0
345.273712 152.0
345.588287 144.0
345.62674 148.0
345.691284 116.0
345.726654 192.0
345.785065 148.0
345.979858 136.0
346.141235 140.0
346.281952 228.0
346.356049 176.0
346.461212 204.0
346.519348 152.0
346.692078 160.0
346.741364 168.0
347.282684 264.0
347.393951 196.0
347.502777 128.0
347.657379 180.0
347.890625 148.0
347.939484 280.0
348.035645 128.0
348.098236 168.0
348.145966 164.0
348.18454 148.0
348.343323 200.0
348.518616 172.0
348.753326 192.0
348.920258 200.0
349.03653 176.0
349.273529 144.0
349.344208 180.0
349.385132 188.0
349.479187 156.0
349.52121 140.0
349.764709 208.0
349.820679 112.0
350.029022 188.0
350.140747 164.0
350.263672 168.0
350.479736 144.0
350.584076 180.0
350.900299 148.0
351.178772 140.0
351.243988 144.0
351.396942 184.0
351.932526 116.0
352.00766 96.0
352.155548 144.0
352.188324 156.0
352.293762 140.0
352.354828 180.0
352.393799 180.0
352.428986 120.0
352.466064 108.0
352.706299 172.0
352.752563 140.0
352.795227 184.0
353.159332 172.0
353.20874 192.0
353.247955 116.0
353.422729 140.0
353.575958 212.0
353.792511 196.0
354.120483 144.0
354.241882 152.0
354.294342 212.0
354.327301 180.0
354.541718 144.0
354.632141 156.0
354.862 160.0
354.963593 240.0
355.051483 204.0
355.107727 156.0
355.220245 168.0
355.502747 156.0
355.54892 172.0
355.607635 164.0
355.687988 228.0
355.777008 200.0
355.869629 112.0
356.103302 156.0
356.293121 136.0
357.196381 156.0
357.259552 124.0
357.595917 348.0
357.648499 148.0
357.933746 244.0
358.014526 144.0
358.169067 140.0
358.200134 140.0
358.25766 256.0
358.347687 148.0
358.376404 116.0
358.514069 120.0
358.556641 172.0
358.626923 168.0
358.739563 212.0
358.874054 108.0
359.03537 160.0
359.221375 208.0
359.275513 168.0
359.637756 144.0
359.746307 116.0
359.857147 208.0
359.924652 144.0
360.168671 300.0
360.181763 204.0
360.246887 160.0
360.279694 164.0
360.363586 132.0
360.4664 200.0
361.117523 184.0
361.240356 184.0
361.383636 204.0
361.521362 140.0
361.928162 148.0
362.078033 172.0
362.207092 100.0
362.546112 156.0
362.585876 204.0
362.613983 176.0
362.729187 160.0
362.796265 160.0
362.822815 176.0
363.08902 204.0
363.142242 132.0
363.241516 172.0
363.339203 96.0
363.478699 180.0
363.696686 208.0
363.786377 184.0
363.986481 192.0
364.17749 164.0
364.354095 120.0
364.38913 128.0
364.467224 204.0
364.675201 168.0
364.71701 144.0
364.996338 196.0
365.147705 160.0
365.264557 200.0
365.391571 144.0
365.490875 172.0
365.567017 284.0
365.595825 116.0
365.747803 108.0
365.877228 196.0
366.305542 168.0
366.420349 124.0
366.522308 216.0
366.578064 160.0
366.793701 172.0
366.843536 176.0
366.989716 160.0
367.145264 256.0
367.17276 172.0
367.275726 152.0
367.513702 348.0
367.643188 128.0
367.678925 136.0
367.865509 100.0
367.977386 148.0
368.168823 144.0
368.438263 212.0
368.533936 180.0
368.691711 96.0
369.050537 144.0
369.261841 192.0
369.442139 148.0
369.698669 128.0
369.923767 140.0
370.130524 192.0
370.164978 156.0
370.325806 152.0
371.053894 152.0
371.099884 176.0
371.17276 100.0
371.408905 208.0
371.833923 180.0
372.040436 172.0
372.292419 148.0
372.46225 140.0
372.543732 132.0
372.598755 172.0
372.828735 124.0
372.900269 144.0
373.045013 212.0
373.111664 172.0
373.365448 148.0
373.4039 160.0
373.457764 260.0
373.614014 172.0
373.653931 160.0
373.754791 152.0
373.805115 124.0
374.31723 156.0
374.45517 160.0
374.593262 164.0
374.716522 148.0
374.75119 176.0
375.042389 208.0
375.108582 104.0
375.137024 140.0
375.203491 180.0
375.427551 116.0
375.73941 140.0
375.888672 196.0
375.924866 156.0
376.164642 100.0
376.359589 140.0
376.414459 204.0
376.587433 156.0
376.617371 148.0
376.936218 124.0
377.050323 208.0
377.310669 168.0
377.340942 200.0
377.496124 152.0
377.658051 176.0
377.897888 172.0
377.952057 252.0
378.000122 220.0
378.029449 164.0
378.106842 140.0
378.191986 320.0
378.41275 152.0
378.455231 148.0
378.695465 220.0
378.836639 116.0
378.956879 208.0
379.013336 112.0
379.133118 140.0
379.232361 144.0
379.437164 116.0
379.46405 160.0
379.584717 96.0
379.679718 148.0
379.734985 120.0
379.893066 152.0
379.931488 132.0
380.130188 136.0
380.301575 144.0
380.365509 160.0
380.444122 172.0
380.4953 192.0
380.795166 164.0
381.007202 164.0
381.034393 148.0
381.061615 140.0
381.232574 152.0
381.390228 128.0
381.58844 140.0
381.722717 132.0
381.905151 144.0
381.978882 180.0
382.04129 152.0
382.075073 104.0
382.230011 148.0
382.496735 192.0
382.589996 176.0
382.635437 96.0
382.683441 140.0
382.783691 124.0
382.81543 208.0
382.870361 188.0
382.975525 176.0
383.11673 140.0
383.149963 184.0
383.195557 188.0
383.263031 144.0
383.396545 108.0
383.522858 108.0
383.63208 140.0
383.712006 208.0
383.868103 224.0
383.906372 132.0
383.960632 220.0
384.074615 144.0
384.203705 160.0
384.327026 96.0
384.394684 140.0
384.447906 104.0
384.583862 152.0
384.626465 128.0
384.683624 176.0
384.727753 132.0
384.815002 96.0
384.852264 112.0
384.91449 228.0
384.970856 108.0
385.00589 120.0
385.062622 128.0
385.101196 156.0
385.131714 128.0
385.186066 320.0
385.27356 248.0
385.318695 200.0
385.356903 192.0
385.455109 152.0
385.510773 300.0
385.607819 316.0
385.639496 148.0
385.700897 388.0
385.769287 216.0
385.809784 392.0
385.882721 208.0
385.960876 328.0
385.998077 196.0
386.07373 308.0
386.136292 176.0
386.163055 208.0
386.191528 360.0
386.230713 292.0
386.23761 196.0
386.313629 572.0
386.351929 364.0
386.404755 556.0
386.460144 456.0
386.515991 208.0
386.567566 296.0
386.605194 296.0
386.651245 672.0
386.760468 532.0
386.79657 356.0
386.808228 732.0
386.836853 480.0
386.887634 1216.0
386.991089 201976.0
387.134674 160.0
387.259735 356.0
387.353333 1072.0
387.41748 528.0
387.46402 372.0
387.513336 284.0
387.527527 176.0
387.58548 524.0
387.638458 10444.0
387.685425 732.0
387.732269 224.0
387.776001 232.0
387.825348 224.0
387.866119 160.0
387.99292 88568.0
388.105499 264.0
388.203033 196.0
388.245911 236.0
388.265594 444.0
388.307343 348.0
388.350128 408.0
388.380066 316.0
388.397308 188.0
388.481812 396.0
388.570007 680.0
388.637451 564.0
388.699249 428.0
388.74527 304.0
388.787201 208.0
388.827881 576.0
388.867249 928.0
388.898102 500.0
388.927887 924.0
388.987762 201300.0
389.102264 100.0
389.140686 212.0
389.258179 136.0
389.306946 176.0
389.350983 512.0
389.410065 224.0
389.458405 268.0
389.506653 212.0
389.531647 240.0
389.583557 612.0
389.636902 8244.0
389.682739 648.0
389.777924 232.0
389.807831 220.0
389.847809 188.0
389.908539 320.0
389.989807 69460.0
390.127838 152.0
390.169769 256.0
390.249969 196.0
390.337921 500.0
390.422943 320.0
390.479736 340.0
390.530762 344.0
390.58902 340.0
390.640747 568.0
390.736511 432.0
390.797485 136.0
390.853638 332.0
390.982941 21056.0
391.117432 180.0
391.257294 104.0
391.279907 204.0
391.381897 124.0
391.501251 232.0
391.55423 288.0
391.626953 100.0
391.728058 256.0
391.774048 144.0
391.839966 256.0
391.920471 180.0
391.973907 492.0
392.033173 224.0
392.091217 152.0
392.171997 124.0
392.251312 268.0
392.324005 256.0
392.359009 188.0
392.36676 352.0
392.398712 208.0
392.509644 280.0
392.625275 376.0
392.70813 120.0
392.898926 200.0
393.044067 100.0
393.139252 216.0
393.319977 120.0
393.482422 112.0
393.525787 160.0
393.605408 184.0
393.720154 124.0
393.868347 176.0
394.651764 104.0
395.198395 112.0
396.347076 96.0
400.675354 140.0
401.104675 104.0
401.557495 120.0
401.677307 128.0
401.966949 188.0
402.733002 204.0
403.085266 144.0
404.046692 96.0
404.363678 136.0
405.145599 96.0
405.28244 104.0
405.888733 100.0
405.990417 184.0
406.185486 108.0
406.303223 172.0
409.300476 100.0
412.406342 152.0
414.83606 100.0
444.827423 140.0
449.013916 152.0
450.488617 124.0
492.151672 144.0
499.068146 140.0
501.182343 156.0
505.122559 136.0
524.646912 188.0
527.852051 148.0
537.752136 152.0
595.837219 108.0
597.442261 116.0
601.841858 144.0
611.667786 116.0
631.590454 108.0
645.932983 156.0
676.649841 144.0
680.664734 100.0
712.255188 128.0
724.085022 96.0
844.553345 140.0
900.191895 164.0
933.139893 184.0
933.830261 160.0
958.535278 184.0
963.298218 188.0
968.525024 156.0
970.917419 244.0
993.967529 168.0
1006.588257 176.0
1014.237 168.0
1016.723206 144.0
1034.198975 184.0
1041.084473 156.0
1043.88623 144.0
1065.604248 156.0
1068.692627 164.0
1069.017944 176.0
1070.365356 180.0
1081.541992 284.0
1083.074219 204.0
1085.676147 156.0
1085.925293 176.0
1088.537231 208.0
1090.902466 164.0
1092.710938 164.0
1096.899292 160.0
1105.240356 144.0
1115.234253 204.0
1115.845825 160.0
1116.311157 176.0
1123.491089 188.0
1124.064941 152.0
1129.951294 224.0
1135.283081 152.0
1139.874634 168.0
1144.865967 260.0
1145.400146 208.0
1145.58667 144.0
1146.698486 180.0
1149.368896 164.0
1151.931519 192.0
1156.119507 196.0
1160.081787 220.0
1164.60083 192.0
1165.402466 164.0
1170.537842 148.0
1172.411255 184.0
1172.506592 160.0
1174.401978 140.0
1175.855225 144.0
1188.460083 168.0
1189.812134 148.0
1191.405396 164.0
1191.645874 160.0
1192.229858 172.0
1195.602539 140.0
1199.408325 220.0
1202.118774 144.0
1203.478516 164.0
1203.554443 188.0
1207.154541 168.0
1211.057739 144.0
1211.313965 140.0
1212.554321 184.0
1212.877197 176.0
1213.094849 148.0
1213.240479 256.0
1213.975464 168.0
1214.537231 168.0
1216.841064 224.0
1220.82251 144.0
1221.775391 172.0
1222.568604 160.0
1223.508301 156.0
1231.038452 180.0
1233.924194 208.0
1236.463257 164.0
1238.171509 140.0
1239.404419 140.0
1240.778076 152.0
1243.17688 192.0
1244.636963 176.0
1248.347168 188.0
1252.583984 156.0
1254.289185 160.0
1255.135254 176.0
1258.119629 168.0
1259.129272 224.0
1262.139648 196.0
1263.532959 160.0
1263.631958 192.0
1263.766479 188.0
1264.006958 140.0
1265.259766 188.0
1267.214478 156.0
1269.447266 184.0
1269.695435 192.0
1271.956787 128.0
1272.391724 160.0
1275.211792 216.0
1279.444092 148.0
1280.305664 236.0
1280.405396 144.0
1280.683105 204.0
1280.775757 164.0
1284.161255 156.0
1284.956543 104.0
1286.002075 204.0
1287.858398 172.0
1288.079834 196.0
1289.623169 188.0
1291.87561 140.0
1295.139648 140.0
1295.762939 200.0
1295.841675 188.0
1295.970703 176.0
1296.744629 208.0
1297.870117 152.0
1298.472412 252.0
1300.876099 156.0
1301.163208 148.0
1305.675781 140.0
1308.258789 176.0
1310.464478 140.0
1311.406616 144.0
1315.250977 164.0
1316.290527 152.0
1319.635864 156.0
1320.988281 168.0
1321.595947 192.0
1325.969727 144.0
1333.328735 172.0
1335.197144 284.0
1337.052246 208.0
1337.678223 248.0
1337.855957 236.0
1340.380249 192.0
1341.437012 184.0
1344.507568 140.0
1349.335815 152.0
1349.803711 224.0
1354.421631 244.0
1356.194824 152.0
1357.228516 188.0
1359.531738 172.0
1361.572632 240.0
1362.336548 188.0
1362.505493 180.0
1362.946289 172.0
1364.438354 160.0
1365.548706 160.0
1366.512329 156.0
1367.307007 156.0
1369.987183 240.0
1372.375 140.0
1373.016479 180.0
1373.731934 152.0
1374.425415 152.0
1376.440552 152.0
1376.735962 148.0
1377.974365 144.0
1380.290283 168.0
1381.473633 144.0
1383.13855 152.0
1384.219482 144.0
1385.322998 200.0
1388.740112 168.0
1390.335205 200.0
1391.21106 148.0
1391.894043 148.0
1392.673828 184.0
1394.508301 120.0
1394.776611 204.0
1396.137207 172.0
1396.761841 160.0
1397.349609 184.0
1397.959717 172.0
1399.440918 208.0
1399.530273 200.0
1400.550537 152.0
1405.39624 164.0
1405.642456 184.0
1408.344971 180.0
1408.583984 152.0
1408.800537 184.0
1411.097778 156.0
1412.022095 164.0
1412.186646 156.0
1413.016968 144.0
1413.218994 172.0
1413.391113 172.0
1417.32959 200.0
1420.193237 232.0
1421.303589 144.0
1421.971436 160.0
1423.833374 240.0
1424.47168 160.0
1424.539307 144.0
1425.395874 176.0
1426.382324 188.0
1427.613403 252.0
1427.687012 176.0
1429.050049 196.0
1430.314331 196.0
1430.592896 196.0
1431.677002 144.0
1432.919922 140.0
1435.120605 172.0
1435.490112 168.0
1438.809937 208.0
1439.383789 156.0
1440.380615 160.0
1441.036621 168.0
1441.967285 176.0
1443.77417 148.0
1444.031372 180.0
1447.61084 176.0
1447.928955 172.0
1448.171265 164.0
1448.436401 164.0
1449.019653 200.0
1452.531616 208.0
1453.090942 176.0
1454.38855 144.0
1454.608765 144.0
1456.243408 180.0
1456.833618 192.0
1457.920166 144.0
1458.018921 196.0
1458.646729 236.0
1462.599609 160.0
1462.87915 140.0
1464.67627 208.0
1465.079956 172.0
1465.163818 160.0
1465.354248 148.0
1465.750488 156.0
1466.047607 212.0
1466.710693 152.0
1468.433838 160.0
1469.181396 148.0
1469.936646 212.0
1470.051147 164.0
1470.913574 200.0
1473.425903 208.0
1475.130127 244.0
1475.657593 192.0
1475.97876 160.0
1478.778564 180.0
1478.924072 140.0
1479.008179 152.0
1479.322021 148.0
1479.551758 152.0
1479.727783 152.0
1481.741943 320.0
1483.381958 184.0
1483.894897 140.0
1485.590454 184.0
1486.342285 156.0
1489.390137 148.0
1489.674316 204.0
1489.897095 160.0
1490.31958 152.0
1490.396484 140.0
1490.749878 188.0
1492.917725 164.0
1493.394531 168.0
1493.856079 140.0
1495.418091 172.0
1495.725952 156.0
1496.164673 148.0
1496.942383 188.0
1497.350464 172.0
1497.643188 184.0
1497.712524 160.0
1497.78186 180.0
1500.933838 152.0
1501.427368 172.0
1507.186035 228.0
1509.099854 180.0
1509.589966 176.0
1510.445068 168.0
1511.222046 192.0
1516.224243 168.0
1516.286255 176.0
1517.014893 172.0
1517.433472 204.0
1518.937988 140.0
1520.567383 148.0
1520.885498 168.0
1521.126221 212.0
1521.700684 148.0
1521.942383 124.0
1525.28186 168.0
1525.942627 188.0
1526.207031 160.0
1526.424683 140.0
1526.904907 144.0
1527.365723 228.0
1527.746948 216.0
1529.536621 180.0
1530.969238 204.0
1531.413086 152.0
1532.417969 236.0
1532.70874 140.0
1532.971191 228.0
1533.703857 164.0
1538.118652 164.0
1539.266235 284.0
1539.886841 104.0
1542.34436 176.0
1542.461548 196.0
1542.922852 168.0
1543.235596 192.0
1543.931519 164.0
1545.159546 156.0
1545.503784 160.0
1546.499756 148.0
1546.58374 160.0
1546.748047 180.0
1547.022095 200.0
1547.108154 220.0
1547.609253 144.0
1547.817993 152.0
1548.478394 168.0
1548.771851 204.0
1549.003174 176.0
1549.12854 176.0
1549.817993 168.0
1551.361938 156.0
1552.114502 148.0
1552.718384 152.0
1552.937988 208.0
1553.981323 228.0
1554.577637 200.0
1554.757446 176.0
1555.888428 188.0
1556.288818 164.0
1557.129028 184.0
1557.364624 168.0
1558.773682 112.0
1560.029541 136.0
1560.217041 152.0
1561.490845 224.0
1561.726807 148.0
1564.850952 196.0
1568.289185 152.0
1569.077881 124.0
1570.224976 196.0
1571.013794 176.0
1571.092651 212.0
1572.121094 196.0
1572.733887 184.0
1573.049683 164.0
1573.539673 244.0
1573.681274 140.0
1573.965454 176.0
1574.423462 156.0
1575.0 212.0
1576.106079 184.0
1576.430054 164.0
1577.346802 160.0
1577.611694 280.0
1579.157471 196.0
1579.86145 208.0
1580.001465 212.0
1580.106689 156.0
1580.423218 172.0
1582.005981 140.0
1582.259277 176.0
1582.338501 232.0
1582.52063 184.0
1583.154053 184.0
1583.787598 260.0
1584.508545 164.0
1586.969482 136.0
1589.178223 168.0
1589.785889 200.0
1590.00354 144.0
1590.702026 140.0
1590.868652 212.0
1590.974365 216.0
1591.829346 140.0
1592.321777 204.0
1592.575928 204.0
1593.65625 184.0
1593.926392 160.0
1594.291992 144.0
1594.347534 168.0
1595.054932 172.0
1596.494019 212.0
1598.737305 168.0
1599.693237 120.0
1599.835693 164.0
1600.154175 188.0
1602.041626 152.0
1602.766602 148.0
1603.301392 148.0
1603.491699 168.0
1603.993896 184.0
1604.982422 160.0
1605.342163 220.0
1605.987305 228.0
1608.117554 156.0
1608.620361 152.0
1609.650269 204.0
1609.841919 184.0
1611.095947 244.0
1611.655151 172.0
1612.478271 156.0
1612.905518 224.0
1613.357544 148.0
1613.677246 152.0
1614.188965 176.0
1614.916748 200.0
1615.044678 176.0
1616.13269 164.0
1616.343018 192.0
1616.996948 168.0
1617.253052 156.0
1618.614014 164.0
1619.871338 144.0
1620.167969 140.0
1620.263916 176.0
1620.702637 188.0
1621.161255 200.0
1621.626099 240.0
1622.523926 164.0
1622.620117 168.0
1622.760254 220.0
1623.157227 208.0
1623.229492 140.0
1623.429932 184.0
1624.007324 144.0
1624.119629 184.0
1624.848999 104.0
1625.515625 156.0
1626.438477 240.0
1626.759521 196.0
1627.602539 196.0
1627.827393 172.0
1629.763184 204.0
1629.835449 184.0
1630.132812 196.0
1630.872192 144.0
1631.057007 144.0
1631.129395 260.0
1631.828735 332.0
1633.783081 172.0
1634.796875 200.0
1635.054321 140.0
1636.124878 156.0
1636.72876 148.0
1637.083008 160.0
1638.250854 152.0
1639.024292 212.0
1639.733521 224.0
1640.072021 140.0
1640.458862 160.0
1640.821655 180.0
1641.216797 180.0
1641.313477 156.0
1641.869873 208.0
1644.03186 176.0
1646.704102 164.0
1647.019165 212.0
1647.687622 212.0
1647.778442 156.0
1648.004639 172.0
1648.085449 212.0
1648.554199 176.0
1649.637207 144.0
1649.734131 172.0
1651.189575 224.0
1651.456543 148.0
1651.602051 212.0
1652.030762 152.0
1652.508057 228.0
1652.806274 112.0
1653.604492 236.0
1653.835205 152.0
1653.924316 192.0
1654.102417 192.0
1655.421997 192.0
1658.427612 156.0
1658.743774 156.0
1658.833008 164.0
1659.311279 156.0
1659.578857 172.0
1660.268066 156.0
1660.365356 180.0
1660.430298 176.0
1661.768677 200.0
1662.604492 208.0
1663.140137 160.0
1663.497192 140.0
1664.301025 160.0
1664.755737 200.0
1665.202393 184.0
1665.811157 168.0
1665.843872 160.0
1668.460693 192.0
1669.021729 204.0
1669.281982 156.0
1669.704834 144.0
1669.932495 200.0
1670.103271 192.0
1670.656494 152.0
1671.616577 212.0
1673.065308 232.0
1673.651489 140.0
1674.050415 168.0
1674.107422 168.0
1674.50647 180.0
1674.962646 140.0
1675.296631 176.0
1676.223022 188.0
1676.388428 148.0
1677.651733 208.0
1679.225342 232.0
1679.812622 172.0
1680.293945 144.0
1680.612183 200.0
1681.79895 120.0
1683.060791 164.0
1684.890259 216.0
1685.560303 240.0
1685.903442 152.0
1686.091431 152.0
1686.491943 216.0
1687.031372 176.0
1688.15979 196.0
1689.697388 252.0
1691.072144 184.0
1691.44043 172.0
1692.209961 196.0
1692.562012 144.0
1692.758545 160.0
1692.815918 456.0
1693.716797 152.0
1693.946045 140.0
1697.642456 172.0
1697.995117 220.0
1698.774292 200.0
1698.921997 164.0
1700.005005 212.0
1701.652222 136.0
1702.106445 192.0
1702.935791 180.0
1704.973267 148.0
1705.512329 144.0
1705.877441 196.0
1706.459473 164.0
1707.661621 152.0
1708.081177 164.0
1710.1875 172.0
1711.233032 192.0
1712.435303 160.0
1713.31665 168.0
1713.60498 148.0
1714.091064 196.0
1714.272339 152.0
1714.585571 160.0
1714.837646 156.0
1715.417969 152.0
1716.551147 192.0
1717.162109 168.0
1717.52356 180.0
1719.642334 364.0
1719.963745 148.0
1720.408813 152.0
1720.747192 204.0
1720.838013 204.0
1721.300415 164.0
1721.779419 160.0
1722.374023 172.0
1723.018433 228.0
1723.48938 144.0
1723.621582 156.0
1724.398315 144.0
1725.01001 140.0
1726.481689 204.0
1726.630493 180.0
1726.961426 188.0
1728.864258 156.0
1729.758057 148.0
1729.824341 144.0
1729.964966 216.0
1730.701782 176.0
1730.933716 144.0
1732.209106 180.0
1733.136963 160.0
1733.694946 240.0
1733.866211 148.0
1735.888916 140.0
1736.407959 196.0
1737.332031 148.0
1738.095337 156.0
1738.306152 348.0
1738.510254 212.0
1738.659668 152.0
1739.331909 188.0
1739.614136 212.0
1740.394531 168.0
1741.349487 192.0
1742.346313 228.0
1742.77832 144.0
1743.733887 204.0
1744.581787 152.0
1745.188599 140.0
1745.321655 204.0
1745.580811 192.0
1745.792236 220.0
1746.394409 172.0
1746.595459 196.0
1746.727173 188.0
1746.793701 164.0
1747.234619 144.0
1747.397461 132.0
1747.609009 144.0
1747.841919 156.0
1747.900269 148.0
1748.042236 164.0
1748.471802 156.0
1749.223511 160.0
1749.564819 160.0
1749.631348 160.0
1751.513306 216.0
1751.713257 176.0
1752.046509 164.0
1752.204712 152.0
1753.012939 244.0
1753.529663 140.0
1753.954712 192.0
1754.356812 204.0
1754.813354 184.0
1755.463745 152.0
1755.880737 204.0
1756.289429 180.0
1757.165283 140.0
1757.866211 200.0
1758.734131 140.0
1759.016479 140.0
1759.329712 172.0
1759.585571 152.0
1760.186768 172.0
1760.295288 208.0
1761.169434 212.0
1762.057617 184.0
1763.64563 140.0
1764.109863 192.0
1764.698608 176.0
1764.773926 176.0
1765.109131 136.0
1765.409424 188.0
1765.498047 168.0
1766.095215 164.0
1766.588745 164.0
1766.66394 188.0
1767.634521 176.0
1769.023804 208.0
1769.471558 160.0
1769.567993 148.0
1769.961548 176.0
1770.380249 204.0
1771.058594 180.0
1771.277466 148.0
1771.97998 172.0
1772.357056 184.0
1772.574951 236.0
1772.901733 252.0
1773.01062 148.0
1774.44397 180.0
1774.653564 188.0
1775.106445 152.0
1775.232178 204.0
1776.330933 172.0
1776.523804 164.0
1776.817383 152.0
1777.107178 204.0
1779.385498 168.0
1779.875854 132.0
1780.070557 176.0
1780.267212 200.0
1781.047485 172.0
1781.594238 184.0
1782.102783 180.0
1782.358765 176.0
1783.027832 176.0
1784.392822 208.0
1784.729126 160.0
1784.956055 252.0
1785.199951 156.0
1785.637207 140.0
1785.847534 180.0
1786.482544 168.0
1786.831665 148.0
1787.774048 196.0
1788.876709 244.0
1789.272339 156.0
1789.851685 192.0
1790.333252 172.0
1790.628052 172.0
1793.121826 188.0
1793.417969 172.0
1794.44519 188.0
1794.723389 168.0
1795.077637 160.0
1796.005249 252.0
1796.637939 204.0
1796.924805 156.0
1797.203247 164.0
1798.274902 376.0
1798.874146 144.0
1799.52417 148.0
1799.819702 148.0
1801.584839 200.0
1801.728516 180.0
1802.286133 184.0
1802.480469 192.0
1803.726685 184.0
1803.790405 196.0
1803.925659 272.0
1804.771118 140.0
1804.931763 200.0
1805.574463 152.0
1805.802734 200.0
1806.267944 168.0
1806.369507 192.0
1806.428711 176.0
1806.614746 192.0
1807.841553 152.0
1807.900879 140.0
1809.043457 152.0
1809.771484 168.0
1810.186401 200.0
1810.389648 164.0
1811.245117 152.0
1811.603516 224.0
1812.532837 188.0
1812.863281 192.0
1814.940063 252.0
1815.542114 168.0
1815.723755 124.0
1815.855835 164.0
1816.330811 184.0
1816.687134 168.0
1817.138672 268.0
1817.301147 104.0
1817.433716 140.0
1818.534546 208.0
1820.14978 184.0
1820.352905 144.0
1820.667847 256.0
1820.897095 160.0
1821.372803 208.0
1821.483154 176.0
1821.644531 160.0
1823.063477 168.0
1823.190918 172.0
1823.819824 204.0
1824.78894 176.0
1825.647705 224.0
1825.928345 204.0
1826.234497 140.0
1826.413208 164.0
1827.621216 256.0
1827.816895 208.0
1828.148804 172.0
1828.455078 204.0
1828.718994 232.0
1829.008301 148.0
1829.391357 180.0
1830.20874 172.0
1830.379028 160.0
1830.78772 156.0
1830.898438 144.0
1830.966553 140.0
1831.324219 192.0
1831.70752 204.0
1832.482788 236.0
1832.823608 160.0
1834.009521 164.0
1835.18457 160.0
1836.847534 168.0
1838.007812 192.0
1838.152832 184.0
1838.84668 216.0
1839.94519 180.0
1840.107422 196.0
1840.198853 164.0
1840.44043 140.0
1840.696533 152.0
1842.968628 144.0
1843.780396 144.0
1843.917114 180.0
1845.039062 184.0
1845.404541 144.0
1845.464355 180.0
1845.669556 196.0
1846.370728 228.0
1846.635864 192.0
1846.755615 200.0
1849.236816 156.0
1849.436523 204.0
1849.964355 168.0
1850.11853 196.0
1851.411377 180.0
1852.039673 236.0
1852.63623 196.0
1852.81604 188.0
1853.013184 148.0
1854.881348 160.0
1855.18042 188.0
1855.810547 196.0
1856.351562 184.0
1856.756104 164.0
1858.732056 196.0
1859.924927 164.0
1861.217529 160.0
1861.564697 180.0
1862.853027 180.0
1863.256714 156.0
1863.651978 224.0
1864.545654 168.0
1865.36792 288.0
1865.680298 152.0
1865.895142 152.0
1867.279541 264.0
1867.417114 204.0
1869.559326 164.0
1869.662598 148.0
1870.084351 180.0
1870.820312 156.0
1870.976196 184.0
1871.186157 164.0
1872.262451 152.0
1872.426147 152.0
1873.115112 380.0
1873.959351 148.0
1874.915894 192.0
1875.950195 212.0
1876.010498 164.0
1877.119141 232.0
1877.760864 192.0
1880.728882 172.0
1881.022339 140.0
1882.092773 220.0
1882.515869 156.0
1882.783691 172.0
1883.618286 164.0
1884.286621 244.0
1884.557495 192.0
1885.746948 168.0
1886.948486 172.0
1887.441284 168.0
1887.510498 164.0
1888.089844 164.0
1888.487671 176.0
1890.114014 200.0
1890.330444 148.0
1890.442871 144.0
1890.55542 160.0
1892.442383 148.0
1892.537598 172.0
1893.091797 148.0
1894.330322 144.0
1894.954102 168.0
1896.045898 208.0
1896.123901 160.0
1896.27124 144.0
1897.05127 172.0
1897.111938 168.0
1897.181274 160.0
1897.250732 164.0
1897.970337 156.0
1898.299805 160.0
1900.980225 272.0
1901.405396 144.0
1901.703979 212.0
1903.237061 204.0
1904.600464 220.0
1905.852661 168.0
1906.05127 160.0
1906.112183 148.0
1906.424927 152.0
1907.207153 144.0
1907.52002 152.0
1907.633057 168.0
1909.204834 300.0
1909.455078 180.0
1910.087158 176.0
1910.189575 172.0
1911.068237 156.0
1911.190063 140.0
1911.355347 172.0
1911.520752 180.0
1911.651245 192.0
1911.938477 168.0
1912.147339 140.0
1912.94812 184.0
1914.463013 148.0
1914.715576 164.0
1915.551758 192.0
1916.126709 160.0
1916.546875 140.0
1917.076416 176.0
1917.459839 156.0
1917.660278 152.0
1918.348877 156.0
1918.755981 160.0
1919.534668 156.0
1920.223511 184.0
1920.298218 156.0
1920.690186 184.0
1920.921265 176.0
1921.238892 128.0
1923.224854 224.0
1923.364502 156.0
1924.342285 152.0
1924.619995 144.0
1924.90979 148.0
1925.844238 176.0
1925.914062 220.0
1926.560547 192.0
1926.682861 220.0
1927.494751 184.0
1928.314331 168.0
1928.578979 176.0
1929.094727 156.0
1929.575562 196.0
1930.073853 140.0
1930.445801 164.0
1930.852173 140.0
1931.502808 228.0
1931.595581 144.0
1933.144165 180.0
1933.280029 156.0
1934.326782 196.0
1934.973511 192.0
1935.131104 156.0
1935.402588 144.0
1936.908813 160.0
1937.267944 188.0
1937.425659 184.0
1937.846191 232.0
1938.021362 148.0
1938.643555 204.0
1939.414795 220.0
1939.717285 188.0
1939.949463 148.0
1940.817383 144.0
1942.754761 152.0
1943.948853 212.0
1944.896729 144.0
1945.177612 168.0
1945.34436 200.0
1945.484863 184.0
1946.836914 144.0
1947.583496 188.0
1947.899658 168.0
1948.417603 192.0
1948.584839 240.0
1949.156006 164.0
1949.243896 168.0
1949.507446 192.0
1950.685181 240.0
1951.086792 188.0
1951.256592 156.0
1951.38855 220.0
1951.595459 156.0
1951.705078 180.0
1952.259033 176.0
1952.355713 144.0
1952.434937 156.0
1953.462524 176.0
1954.026978 204.0
1955.157471 176.0
1956.262207 196.0
1957.072266 148.0
1957.204346 192.0
1957.582886 140.0
1957.907837 184.0
1960.040527 176.0
1960.234375 152.0
1961.027466 140.0
1961.600464 216.0
1962.340942 172.0
1962.77124 228.0
1963.1698 192.0
1963.56665 172.0
1964.889771 228.0
1965.260376 144.0
1965.833862 148.0
1966.18689 216.0
1966.398926 172.0
1966.522217 200.0
1966.892944 168.0
1967.228394 196.0
1967.457886 144.0
1968.225952 364.0
1968.36731 180.0
1968.685181 156.0
1969.038452 204.0
1969.162109 144.0
1969.391724 212.0
1969.603638 196.0
1970.734497 144.0
1971.558594 180.0
1972.422363 148.0
1972.894897 168.0
1975.004272 160.0
1975.986206 160.0
1976.552368 156.0
1976.66748 164.0
1977.003662 172.0
1977.410767 156.0
1977.83606 156.0
1977.941895 156.0
1978.271118 136.0
1979.632812 140.0
1980.38562 160.0
1980.553955 176.0
1980.651367 144.0
1981.244873 160.0
1982.175171 236.0
1983.008179 168.0
1983.256348 152.0
1983.522217 168.0
1983.885742 180.0
1983.992065 172.0
1985.171265 156.0
1985.605469 176.0
1985.765503 196.0
1985.951782 152.0
1986.767822 168.0
1988.299683 196.0
1988.693359 204.0
1989.261353 144.0
1989.388062 120.0
1990.175781 140.0
1991.063843 192.0
1992.005249 148.0
1992.627197 224.0
1993.604492 176.0
1993.675659 240.0
1994.06665 156.0
1994.822144 216.0
1995.168823 160.0
1996.209106 192.0
1996.555908 164.0
1996.849487 208.0
1997.00061 160.0
1998.112549 180.0
1998.72644 144.0
1999.153564 188.0
1999.293091 228.0
1999.5896 152.0
1999.918945 160.0
2000.488647 176.0
2002.034668 148.0
2003.151123 192.0
