>compound NCGC00160334-01!3-(4-Methoxy-benzylidene)-2,3,11,11a-tetrahydro-6H-pyrazino[1,2-b]isoquinoline-1,4-dione
>formula C20H18N2O3
>ionization [M+H]+
>parentmass 335.14
#inchi InChI=1S/C20H18N2O3/c1-25-16-8-6-13(7-9-16)10-17-20(24)22-12-15-5-3-2-4-14(15)11-18(22)19(23)21-17/h2-10,18H,11-12H2,1H3,(H,21,23)/b17-10-/t18-/m0/s1
#inchikey GYNFYIJDZOWNDK
#Ion_Source LC-ESI
#Instrument qTOF
#Compound_Source Prestwick Phytochem Lib
#PI Dorrestein
#Data_Collector VVP/LMS
#Scan -1
#Precursor_MZ 335.14
#ExactMass 334.132
#Charge 1
#CAS_Number N/A
#Pubmed_ID N/A
#Smiles [H][C@@]12CC3=C(CN1C(=O)\C(NC2=O)=C\C4=CC=C(OC)C=C4)C=CC=C3
#INCHI_AUX N/A
#Library_Class 1
#SpectrumID CCMSLIB00000078750
#IonMode Positive
#UpdateWorkflowName UPDATE-SINGLE-ANNOTATED-GOLD
#LibraryQualityString Gold
#TaskID 67c915c6594c435cadc1fe2b5358144d
##Scan# 2174
#SpectrumFile p1-B03_GB3_01_17887.mzXML
#LibraryName phytochem_lib.mgf
#MQScore -1
#Organism phytochem_lib
#TIC_Query 0
#RT_Query -1
#MZErrorPPM -1
#SharedPeaks 0
#MassDiff 0
#LibMZ -1
#SpecMZ 335.14
#SpecCharge 0
#internalFilename spec-00000.mgf

>collision 10
95.035004 128.0
97.145935 212.0
98.030693 132.0
98.44693 164.0
99.248337 176.0
99.397102 144.0
99.959442 132.0
99.973373 176.0
100.296013 172.0
100.481468 72.0
100.689064 192.0
101.01886 124.0
101.702141 268.0
102.901917 132.0
103.054688 824.0
103.944305 124.0
104.046654 480.0
104.060669 304.0
104.93689 168.0
104.957275 196.0
105.060677 332.0
105.069992 496.0
106.044838 188.0
106.066536 188.0
106.180153 144.0
106.693481 140.0
106.913567 200.0
106.969139 120.0
107.306992 140.0
108.06498 192.0
108.240913 56.0
109.976822 76.0
110.497147 196.0
111.600349 136.0
112.128716 152.0
112.994469 176.0
114.392975 180.0
114.633644 176.0
114.976982 224.0
115.056778 836.0
115.24604 176.0
116.054428 464.0
116.890648 52.0
117.057968 1076.0
117.215797 64.0
117.45079 60.0
117.560303 184.0
118.005783 200.0
118.040382 204.0
118.056595 96.0
118.939468 92.0
119.071907 288.0
119.089287 48.0
119.624184 168.0
119.669899 212.0
119.778786 92.0
120.669159 164.0
120.828812 204.0
121.065842 5052.0
121.207588 92.0
121.242653 48.0
121.323746 64.0
121.341286 80.0
122.069115 968.0
122.233032 76.0
122.486214 84.0
122.913406 88.0
123.004395 84.0
123.130249 100.0
123.242905 108.0
124.021881 88.0
124.405624 180.0
124.927849 132.0
125.228348 180.0
125.290718 152.0
126.038139 212.0
126.485413 52.0
126.884163 80.0
126.920036 116.0
127.016472 48.0
127.068062 128.0
128.050385 340.0
128.104431 232.0
128.634354 192.0
128.677246 76.0
128.787903 128.0
129.067551 572.0
129.237762 40.0
129.412048 104.0
129.892487 160.0
129.944672 176.0
130.005936 144.0
130.035431 136.0
130.065216 7648.0
130.317017 48.0
130.596619 92.0
130.72403 56.0
130.762711 240.0
131.0457 204.0
131.069641 508.0
131.414429 116.0
131.455505 140.0
131.791168 100.0
131.990021 108.0
132.046188 168.0
132.081131 4976.0
132.287445 80.0
132.67688 140.0
132.782364 40.0
132.942947 256.0
133.053009 1840.0
133.084335 500.0
133.138077 68.0
133.15416 144.0
133.234543 44.0
133.281052 84.0
133.298401 96.0
133.321854 92.0
133.742737 100.0
133.984528 76.0
134.064697 204.0
134.321091 52.0
134.792068 76.0
135.857086 136.0
136.07988 180.0
136.749359 52.0
138.013733 228.0
139.060883 156.0
139.406097 108.0
141.029907 84.0
141.235611 116.0
141.661682 116.0
142.062302 84.0
142.461121 124.0
143.038956 148.0
143.071411 312.0
144.805847 36.0
145.057434 120.0
145.270844 76.0
145.782257 168.0
146.059738 484.0
146.090897 152.0
147.064682 356.0
147.184952 64.0
148.075562 3796.0
148.316391 92.0
148.376999 72.0
149.010422 112.0
149.059021 176.0
149.081573 156.0
149.959457 88.0
150.772156 88.0
150.789261 168.0
150.999512 160.0
151.989197 104.0
152.389404 156.0
153.519226 204.0
155.113922 204.0
156.078476 192.0
156.704407 96.0
157.078339 176.0
158.06015 524.0
158.115234 28.0
159.070496 164.0
159.096512 412.0
159.273575 32.0
159.58519 104.0
160.050674 204.0
160.075638 776.0
160.257217 156.0
161.048447 248.0
161.074585 200.0
162.091827 152.0
165.034073 204.0
166.725891 148.0
167.990097 112.0
169.073761 328.0
170.078308 208.0
171.092896 608.0
171.409851 136.0
172.06929 164.0
172.090851 184.0
172.762283 80.0
173.078964 156.0
176.069168 768.0
177.079163 144.0
180.351776 200.0
181.017929 112.0
183.088394 156.0
183.446747 124.0
184.515793 184.0
185.577087 156.0
186.076309 168.0
186.255539 148.0
186.924332 160.0
187.088303 256.0
187.42807 116.0
188.088043 152.0
188.462189 52.0
192.157776 208.0
193.063782 208.0
195.110077 136.0
196.714676 36.0
197.072144 156.0
198.443573 68.0
198.589401 128.0
199.085541 4264.0
199.145126 52.0
199.476685 136.0
200.091171 156.0
201.065231 164.0
201.09346 68.0
201.533981 112.0
202.076843 116.0
202.980377 176.0
203.085526 164.0
205.075577 160.0
205.560394 156.0
206.488831 120.0
207.273209 92.0
209.096741 48.0
215.080536 288.0
216.083511 144.0
216.172104 180.0
217.089554 148.0
218.096008 76.0
219.072922 140.0
219.102386 64.0
220.125854 128.0
221.080673 128.0
223.115479 176.0
224.121384 180.0
225.616638 92.0
230.092987 104.0
231.076813 228.0
231.105469 124.0
231.277969 116.0
232.110748 324.0
233.079376 84.0
233.118866 112.0
234.089264 136.0
234.128845 140.0
235.108292 184.0
236.106415 192.0
237.1259 192.0
239.916901 200.0
242.752151 108.0
247.105972 212.0
248.09552 212.0
249.117249 164.0
250.120499 168.0
250.238892 140.0
250.323914 56.0
251.102295 132.0
251.127533 160.0
252.03038 164.0
253.023499 132.0
254.037598 180.0
257.136719 32.0
258.115448 172.0
260.110077 128.0
260.707581 44.0
262.12851 304.0
263.12442 516.0
263.449493 32.0
264.133881 984.0
264.199493 188.0
265.09314 104.0
265.147217 300.0
273.072083 184.0
274.112366 160.0
275.119202 252.0
279.141846 236.0
280.145721 184.0
281.152649 140.0
285.100555 152.0
287.370544 76.0
293.138214 156.0
293.465454 44.0
304.71698 44.0
304.828156 112.0
307.1427 896.0
307.645844 40.0
307.670258 120.0
308.022949 104.0
308.150116 252.0
308.470245 92.0
309.761444 56.0
311.294128 108.0
314.34256 120.0
316.941498 40.0
317.136414 128.0
335.132477 176.0
335.207764 172.0
336.13031 124.0
345.052032 60.0
362.184723 76.0
390.771942 64.0
436.274506 116.0
473.979401 116.0
522.973206 40.0
595.968445 20.0
725.263611 44.0
728.276123 92.0
748.976257 136.0
884.59436 200.0
905.427917 132.0
939.635742 88.0
947.038452 188.0
1036.008545 192.0
1047.636108 168.0
1059.496948 172.0
1091.024902 148.0
1095.519531 188.0
1115.683716 200.0
1116.182373 128.0
1129.373657 124.0
1131.006226 212.0
1136.7229 264.0
1137.749756 104.0
1145.355225 136.0
1156.225342 92.0
1161.639038 72.0
1163.579834 256.0
1180.074341 104.0
1183.85144 56.0
1186.845825 172.0
1187.05835 76.0
1190.420776 168.0
1197.66272 196.0
1197.738525 240.0
1206.536865 140.0
1211.204834 156.0
1235.516357 232.0
1240.439331 100.0
1247.655762 148.0
1250.082397 160.0
1256.177612 152.0
1265.710693 128.0
1270.352783 92.0
1279.043213 192.0
1288.577637 196.0
1295.696167 148.0
1298.547974 144.0
1303.790039 156.0
1315.689087 188.0
1336.343384 144.0
1344.739014 168.0
1349.867432 124.0
1356.075439 188.0
1363.003052 128.0
1369.793579 188.0
1371.849487 144.0
1374.519287 160.0
1381.050781 192.0
1395.584839 156.0
1397.347534 240.0
1399.587891 176.0
1400.898682 160.0
1402.247314 180.0
1403.410156 148.0
1410.45752 200.0
1411.010742 224.0
1430.447876 184.0
1434.040771 176.0
1448.192139 48.0
1452.467041 172.0
1462.134521 228.0
1464.445923 156.0
1474.684937 184.0
1482.359619 124.0
1485.044067 128.0
1501.309937 168.0
1503.207642 132.0
