>compound Amlodipine (Norvasc)
>formula C20H25ClN2O5
>ionization [M+H]+
>parentmass 409.151825
#inchi InChI=1S/C20H25ClN2O5/c1-4-28-20(25)18-15(11-27-10-9-22)23-12(2)16(19(24)26-3)17(18)13-7-5-6-8-14(13)21/h5-8,17,23H,4,9-11,22H2,1-3H3
#inchikey HTIQEAQVCYTUBX
#Ion_Source LC-ESI
#Instrument qTof
#Compound_Source Commercial
#PI Dorrestein
#Data_Collector Garg_Neha
#Scan -1
#Precursor_MZ 409.152
#ExactMass 408.145
#Charge 1
#CAS_Number 88150-42-9
#Pubmed_ID N/A
#Smiles N1C(=C(C(C(=C1C)C(=O)OC)C2=C(C=CC=C2)Cl)C(OCC)=O)COCCN
#INCHI_AUX N/A
#Library_Class 1
#SpectrumID CCMSLIB00000078338
#IonMode Positive
#UpdateWorkflowName UPDATE-SINGLE-ANNOTATED-GOLD
#LibraryQualityString Gold
#TaskID 77f51c88eb8b467eb4a01dd2d0cb90d2
##Scan# 1157
#SpectrumFile Plate5_41_60_GH8_01_16510.mzXML
#LibraryName FDALibrary_2_04302014.mgf
#MQScore -1
#Organism FDALibrary_2_04302014
#TIC_Query 0
#RT_Query -1
#MZErrorPPM -1
#SharedPeaks 0
#MassDiff 0
#LibMZ -1
#SpecMZ 409.152
#SpecCharge 0
#internalFilename spec-00000.mgf

>collision 10
44.92202 200.0
44.946388 124.0
45.02092 164.0
45.112686 176.0
45.136066 152.0
45.198284 160.0
45.213337 176.0
45.30941 144.0
45.397873 180.0
45.460922 384.0
45.482399 152.0
45.501415 144.0
45.610001 148.0
45.619411 208.0
45.632854 232.0
45.656506 184.0
45.75663 172.0
45.827953 176.0
45.831894 120.0
45.852268 244.0
45.864986 220.0
45.899452 144.0
45.921028 192.0
45.934597 136.0
45.954239 176.0
45.979538 228.0
46.06995 220.0
46.080315 220.0
46.207657 192.0
46.25206 184.0
46.266098 312.0
46.314346 180.0
46.379383 184.0
46.444466 200.0
46.462101 328.0
46.510952 152.0
46.539463 228.0
46.569592 172.0
46.627758 140.0
46.671261 216.0
46.719437 132.0
46.823158 160.0
46.879524 172.0
46.910873 148.0
46.921616 168.0
46.947075 152.0
46.969505 156.0
46.983147 148.0
47.040462 220.0
47.050468 164.0
47.08279 200.0
47.127026 200.0
47.188007 148.0
47.297443 188.0
47.39468 212.0
47.501614 224.0
47.519447 172.0
47.588074 180.0
47.652702 144.0
47.71172 168.0
47.799747 200.0
47.813507 212.0
47.875458 140.0
47.886753 160.0
47.940205 204.0
47.958378 172.0
48.07811 212.0
48.09763 140.0
48.154041 144.0
48.167854 220.0
48.23418 196.0
48.249386 200.0
48.279251 132.0
48.318008 168.0
48.344826 176.0
48.354511 204.0
48.456982 156.0
48.466682 208.0
48.516575 140.0
48.602566 156.0
48.652054 152.0
48.68552 356.0
48.759483 160.0
48.782887 220.0
48.869339 360.0
48.879314 188.0
48.931969 188.0
49.066429 164.0
49.146606 160.0
49.176991 140.0
49.199642 176.0
49.230362 160.0
49.26947 156.0
49.280647 152.0
49.297413 164.0
49.342144 184.0
49.418495 196.0
49.491539 236.0
49.510052 208.0
49.657108 228.0
49.746746 172.0
49.804581 156.0
49.844326 192.0
49.974251 144.0
50.002827 172.0
50.124516 184.0
50.16333 180.0
50.216976 192.0
50.229622 116.0
50.288933 184.0
50.317165 148.0
50.394238 180.0
50.416039 192.0
50.466404 216.0
50.534817 180.0
50.637573 176.0
50.754356 172.0
50.795486 144.0
51.040157 200.0
51.061092 204.0
51.075314 176.0
51.095924 176.0
51.203411 140.0
51.216228 160.0
51.24472 180.0
51.418186 204.0
51.468018 180.0
51.500069 168.0
51.544357 160.0
51.580086 164.0
51.645821 152.0
51.742928 192.0
51.808205 376.0
51.879265 176.0
51.965313 216.0
52.064358 232.0
52.081501 192.0
52.113197 148.0
52.212383 144.0
52.253452 116.0
52.278557 152.0
52.29007 176.0
52.300144 152.0
52.313099 196.0
52.326057 172.0
52.38195 224.0
52.41824 164.0
52.474483 192.0
52.49464 168.0
52.517178 172.0
52.566765 144.0
52.805134 164.0
52.840992 152.0
52.859406 132.0
52.87289 216.0
52.899181 164.0
52.919453 204.0
52.957104 188.0
53.062012 232.0
53.089027 132.0
53.128036 160.0
53.260242 192.0
53.308186 168.0
53.33923 156.0
53.3736 164.0
53.510368 164.0
53.594845 188.0
53.746487 160.0
53.76046 208.0
53.882267 140.0
53.96265 180.0
54.040169 172.0
54.095779 176.0
54.11042 176.0
54.201134 124.0
54.21719 184.0
54.262787 156.0
54.286247 152.0
54.475582 200.0
54.516724 208.0
54.549057 184.0
54.597801 132.0
54.613132 180.0
54.643944 184.0
54.787453 156.0
54.837551 172.0
54.899471 220.0
54.927021 236.0
54.958477 168.0
55.03159 172.0
55.046078 184.0
55.283562 176.0
55.298359 176.0
55.317204 164.0
55.349285 96.0
55.419788 152.0
55.553219 160.0
55.66008 192.0
55.692749 196.0
55.802719 164.0
55.880054 160.0
55.915649 100.0
56.051285 148.0
56.067677 152.0
56.113319 124.0
56.134758 144.0
56.151165 248.0
56.192539 168.0
56.293785 408.0
56.403217 152.0
56.529125 196.0
56.558353 128.0
56.583942 96.0
56.597012 128.0
56.629429 168.0
56.677364 216.0
56.732819 160.0
56.765804 160.0
56.825802 196.0
56.888832 156.0
56.936882 168.0
57.031532 148.0
57.059364 156.0
57.108215 196.0
57.139515 220.0
57.158901 208.0
57.172543 164.0
57.229385 208.0
57.284946 136.0
57.317471 144.0
57.363705 148.0
57.406406 148.0
57.447132 148.0
57.467499 168.0
57.484287 172.0
57.50296 144.0
57.534657 164.0
57.565804 156.0
57.752254 192.0
57.775955 192.0
57.787468 144.0
57.805206 244.0
57.849098 244.0
57.870293 180.0
57.893005 304.0
57.912693 148.0
57.936932 148.0
57.950565 180.0
58.035442 168.0
58.067287 180.0
58.082455 140.0
58.134041 144.0
58.154926 168.0
58.250347 148.0
58.314762 172.0
58.422722 196.0
58.46125 220.0
58.507946 156.0
58.567333 188.0
58.577995 168.0
58.619835 200.0
58.712124 168.0
58.794502 168.0
58.818924 176.0
58.953327 196.0
59.009163 204.0
59.166931 184.0
59.196556 160.0
59.208805 148.0
59.302261 188.0
59.363586 192.0
59.39119 140.0
59.418804 172.0
59.636856 152.0
59.749542 172.0
59.781208 248.0
59.794014 220.0
60.018642 172.0
60.029438 232.0
60.117367 160.0
60.129307 152.0
60.193005 200.0
60.260967 192.0
60.330513 176.0
60.37669 268.0
60.401646 220.0
60.481262 176.0
60.497723 180.0
60.683495 192.0
60.807594 152.0
60.837086 216.0
60.94891 156.0
60.969982 228.0
60.990868 212.0
61.042171 212.0
61.075169 184.0
61.168194 164.0
61.182201 176.0
61.217163 176.0
61.235146 144.0
61.291225 140.0
61.343124 120.0
61.384754 184.0
61.493958 144.0
61.522053 164.0
61.580685 132.0
61.620441 208.0
61.668884 140.0
61.704838 160.0
61.729855 184.0
61.795547 148.0
61.806503 140.0
61.817455 140.0
61.919159 120.0
61.978741 204.0
61.995541 156.0
62.010082 140.0
62.057159 124.0
62.179462 144.0
62.193588 176.0
62.303509 196.0
62.460709 156.0
62.504757 148.0
62.556446 176.0
62.580311 156.0
62.637005 172.0
62.654331 292.0
62.70385 172.0
62.749649 192.0
62.766235 156.0
62.819859 164.0
62.841267 164.0
62.860878 180.0
62.903534 156.0
62.930332 180.0
62.963932 172.0
63.006596 208.0
63.017345 384.0
63.143318 168.0
63.16613 192.0
63.20219 188.0
63.293377 156.0
63.30508 176.0
63.31855 168.0
63.333279 144.0
63.368835 160.0
63.391808 128.0
63.455608 196.0
63.474632 172.0
63.574753 140.0
63.722111 148.0
63.790577 152.0
63.812832 264.0
63.831913 180.0
63.865311 180.0
63.895535 172.0
63.939125 172.0
63.968739 164.0
63.995415 196.0
64.123238 160.0
64.149529 172.0
64.164688 156.0
64.285751 204.0
64.321548 192.0
64.384888 156.0
64.440788 140.0
64.603645 176.0
64.62146 144.0
64.661636 112.0
64.743111 148.0
64.776749 156.0
64.832825 148.0
64.844902 148.0
64.859657 156.0
64.903358 232.0
65.031693 388.0
65.087883 192.0
65.131958 144.0
65.273216 140.0
65.312874 220.0
65.332176 140.0
65.386887 124.0
65.415855 156.0
65.457718 160.0
65.518044 228.0
65.59594 232.0
65.615616 212.0
65.63726 256.0
65.686447 152.0
65.811287 144.0
65.939117 216.0
65.964317 152.0
66.13092 176.0
66.173004 148.0
66.239403 140.0
66.307457 360.0
66.372803 168.0
66.452934 196.0
66.526207 204.0
66.545906 140.0
66.557274 160.0
66.593002 204.0
66.668533 212.0
66.751686 180.0
66.841728 140.0
66.918228 148.0
67.000031 124.0
67.135727 132.0
67.178581 128.0
67.201096 124.0
67.24099 188.0
67.281296 156.0
67.430443 160.0
67.618523 156.0
67.675812 144.0
67.78228 212.0
67.795395 216.0
67.862595 164.0
67.987762 224.0
68.080833 148.0
68.123543 172.0
68.327393 180.0
68.344788 168.0
68.409676 252.0
68.445892 164.0
68.517891 168.0
68.551903 236.0
68.566147 164.0
68.605354 168.0
68.687698 200.0
68.773964 152.0
68.832382 104.0
68.888977 212.0
69.032639 196.0
69.096199 160.0
69.147491 216.0
69.168236 184.0
69.203773 160.0
69.369446 184.0
69.427475 140.0
69.439079 240.0
69.511551 164.0
69.633263 144.0
69.693069 188.0
69.717285 168.0
69.74791 268.0
69.774506 144.0
69.913818 160.0
70.025368 480.0
70.210762 212.0
70.267479 232.0
70.317337 168.0
70.390991 168.0
70.426064 184.0
70.46273 164.0
70.489548 164.0
70.51963 176.0
70.58107 164.0
70.62162 140.0
70.669189 160.0
70.772232 200.0
70.93544 204.0
70.964912 152.0
71.07058 140.0
71.084 144.0
71.122604 144.0
71.146889 196.0
71.191437 156.0
71.286041 216.0
71.339294 184.0
71.361115 192.0
71.449593 156.0
71.479935 196.0
71.515915 196.0
71.534424 160.0
71.573151 160.0
71.722198 124.0
71.910309 244.0
71.959259 184.0
71.997948 228.0
72.025124 140.0
72.044563 164.0
72.163696 224.0
72.214424 168.0
72.340599 148.0
72.37011 244.0
72.403976 216.0
72.441238 164.0
72.459068 184.0
72.506622 136.0
72.529358 148.0
72.541946 140.0
72.611221 112.0
72.659927 168.0
72.721779 232.0
72.738174 148.0
72.754837 156.0
72.824585 148.0
72.867058 176.0
72.882202 140.0
72.901039 164.0
72.936729 152.0
72.963928 180.0
73.047256 220.0
73.060867 144.0
73.079582 232.0
73.146042 144.0
73.184212 228.0
73.244713 180.0
73.282135 128.0
73.287964 124.0
73.37252 212.0
73.506836 240.0
73.537979 152.0
73.617981 172.0
73.664337 188.0
73.711456 152.0
73.844078 152.0
73.862625 208.0
73.878014 168.0
73.89534 128.0
73.957016 120.0
73.992676 200.0
74.052612 200.0
74.070549 188.0
74.102287 148.0
74.16967 112.0
74.18969 148.0
74.392586 204.0
74.557007 172.0
74.663597 148.0
74.742485 172.0
74.765099 144.0
74.807266 184.0
74.888519 192.0
74.924431 164.0
75.004501 268.0
75.083809 200.0
75.120033 224.0
75.137505 184.0
75.161438 160.0
75.22184 144.0
75.297043 180.0
75.318535 192.0
75.335815 156.0
75.398018 160.0
75.433449 264.0
75.605545 168.0
75.617653 328.0
75.670677 256.0
75.718071 236.0
75.759644 172.0
76.021454 224.0
76.051682 356.0
76.228096 180.0
76.270584 140.0
76.304276 208.0
76.401253 156.0
76.426323 200.0
76.492455 176.0
76.541206 240.0
76.560356 144.0
76.586487 232.0
76.605751 132.0
76.647461 144.0
76.685799 140.0
76.699738 204.0
76.713684 164.0
76.764252 172.0
76.84623 168.0
77.036522 344.0
77.064499 176.0
77.115707 188.0
77.19207 244.0
77.244537 180.0
77.431152 440.0
77.649147 252.0
77.684227 164.0
77.824623 160.0
77.836914 156.0
77.850967 140.0
77.90963 228.0
77.95945 164.0
78.070633 212.0
78.125916 152.0
78.190865 160.0
78.334641 196.0
78.394547 180.0
78.410217 224.0
78.493256 152.0
78.565575 188.0
78.591431 152.0
78.750725 188.0
78.816521 176.0
79.012825 208.0
79.04438 236.0
79.113403 140.0
79.141212 164.0
79.234268 196.0
79.254463 204.0
79.462532 180.0
79.498024 152.0
79.638275 152.0
79.728882 156.0
79.747917 192.0
79.779633 152.0
79.823097 144.0
79.93103 196.0
80.262215 232.0
80.311073 160.0
80.327126 152.0
80.473602 208.0
80.64138 172.0
80.661041 168.0
80.687859 180.0
80.738701 176.0
80.756454 200.0
80.823929 152.0
80.845261 172.0
80.902 148.0
80.951584 204.0
81.025307 252.0
81.09903 184.0
81.169495 184.0
81.3004 168.0
81.363266 208.0
81.386604 144.0
81.406357 152.0
81.431503 184.0
81.501564 172.0
81.515938 144.0
81.685127 188.0
81.798302 140.0
81.86132 152.0
81.887268 176.0
81.908005 104.0
81.944756 160.0
81.960388 156.0
81.99823 180.0
82.023468 188.0
82.060333 212.0
82.141815 208.0
82.173141 160.0
82.210564 192.0
82.324768 144.0
82.354324 164.0
82.403366 156.0
82.523529 180.0
82.582817 168.0
82.793144 148.0
82.820312 156.0
82.842773 120.0
83.037811 236.0
83.092224 216.0
83.113945 132.0
83.206566 168.0
83.230675 100.0
83.246506 148.0
83.276505 232.0
83.350571 296.0
83.423584 208.0
83.448196 160.0
83.475471 152.0
83.528214 144.0
83.555504 196.0
83.677437 144.0
83.693825 200.0
83.783073 168.0
83.928871 164.0
84.123215 156.0
84.175209 144.0
84.299423 196.0
84.33963 196.0
84.387032 112.0
84.531662 180.0
84.553619 188.0
84.75872 212.0
84.960396 144.0
84.992065 108.0
85.208237 152.0
85.23246 200.0
85.369225 172.0
85.397873 176.0
85.445404 164.0
85.461258 136.0
85.531891 144.0
85.580795 164.0
85.65966 256.0
85.679214 196.0
85.705009 236.0
85.821129 144.0
85.843254 140.0
85.859848 160.0
85.878296 168.0
85.90007 224.0
85.964027 180.0
86.049225 172.0
86.080536 184.0
86.109535 312.0
86.181046 140.0
86.262169 192.0
86.291107 200.0
86.317825 160.0
86.356659 200.0
86.37516 244.0
86.396027 240.0
86.442886 112.0
86.46582 192.0
86.612083 160.0
86.732529 164.0
86.764038 160.0
86.780724 176.0
86.806686 176.0
86.925278 144.0
86.998032 264.0
87.114777 152.0
87.138931 152.0
87.224419 168.0
87.40316 164.0
87.421562 152.0
87.482979 152.0
87.553734 144.0
87.57795 192.0
87.782951 248.0
87.816521 212.0
87.872482 220.0
87.911667 144.0
87.97699 152.0
87.99379 144.0
88.051682 244.0
88.102951 240.0
88.126396 152.0
88.16938 184.0
88.214233 256.0
88.24102 220.0
88.269524 196.0
88.297791 208.0
88.347008 156.0
88.370415 180.0
88.413116 156.0
88.485931 120.0
88.511711 304.0
88.531731 172.0
88.592247 144.0
88.631592 196.0
88.699059 204.0
88.788696 188.0
88.819061 140.0
88.87159 196.0
88.892227 156.0
88.963776 132.0
89.174538 148.0
89.194603 200.0
89.2416 144.0
89.367615 468.0
89.401489 144.0
89.429718 172.0
89.445045 140.0
89.468895 148.0
89.570938 120.0
89.687759 248.0
89.816368 116.0
89.835457 232.0
89.894501 184.0
89.909248 248.0
89.93927 140.0
90.02169 172.0
90.036804 220.0
90.112358 360.0
90.211891 144.0
90.274918 160.0
90.324089 164.0
90.372726 192.0
90.443298 204.0
90.477371 176.0
90.539856 180.0
90.653519 168.0
90.8507 336.0
90.863983 268.0
90.953171 144.0
90.975952 140.0
91.031013 168.0
91.057701 148.0
91.106987 156.0
91.137383 164.0
91.219109 156.0
91.24572 168.0
91.270439 164.0
91.443024 188.0
91.461952 228.0
91.647308 160.0
91.691139 140.0
91.740692 244.0
91.937386 164.0
92.00396 172.0
92.059044 188.0
92.152924 188.0
92.227455 172.0
92.261864 180.0
92.439735 168.0
92.585228 148.0
92.604378 156.0
92.6446 168.0
92.669785 192.0
92.800797 104.0
92.834351 172.0
92.916832 212.0
92.945 188.0
93.028923 196.0
93.053093 168.0
93.10878 176.0
93.193298 148.0
93.208496 128.0
93.466331 228.0
93.545242 144.0
93.583748 212.0
93.64344 180.0
93.666557 156.0
93.683891 160.0
93.698479 300.0
93.881508 204.0
93.927361 172.0
94.034828 284.0
94.052879 328.0
94.096596 160.0
94.180687 168.0
94.269066 164.0
94.428696 176.0
94.485023 136.0
94.548805 216.0
94.602905 156.0
94.686363 140.0
94.752228 144.0
94.767723 168.0
94.787102 188.0
94.823921 152.0
94.852997 184.0
94.909218 244.0
94.94606 288.0
94.980888 288.0
95.058571 200.0
95.173767 220.0
95.192513 140.0
95.244339 164.0
95.372505 220.0
95.507355 176.0
95.520973 180.0
95.620201 160.0
95.687958 144.0
95.705856 184.0
95.71949 300.0
95.766228 140.0
95.83033 212.0
95.909126 164.0
95.990341 156.0
96.045128 352.0
96.062508 176.0
96.105423 196.0
96.158112 148.0
96.177628 156.0
96.193245 144.0
96.258667 140.0
96.283783 152.0
96.352036 232.0
96.402802 192.0
96.520462 124.0
96.549751 164.0
96.732147 152.0
96.762131 188.0
96.79541 248.0
96.814995 168.0
96.862045 168.0
96.880997 252.0
96.926651 156.0
96.942329 196.0
96.96389 148.0
96.977608 152.0
97.063866 144.0
97.108971 260.0
97.153023 176.0
97.214546 108.0
97.23954 128.0
97.254158 336.0
97.303238 216.0
97.385712 168.0
97.414551 164.0
97.495735 188.0
97.5429 156.0
97.603851 220.0
97.63398 112.0
97.66468 120.0
97.819031 172.0
97.873352 124.0
97.950142 188.0
98.057938 396.0
98.159134 188.0
98.182793 156.0
98.220268 160.0
98.300316 132.0
98.42749 184.0
98.475677 240.0
98.506783 164.0
98.621094 140.0
98.634933 148.0
98.660629 140.0
98.729836 140.0
98.751587 140.0
98.823219 152.0
98.84655 160.0
98.903938 180.0
98.917793 180.0
98.947487 200.0
99.054428 164.0
99.191154 160.0
99.282356 148.0
99.325989 228.0
99.362228 176.0
99.40609 128.0
99.572105 160.0
99.607857 136.0
99.631416 172.0
99.697266 148.0
99.750931 184.0
99.784195 240.0
99.798637 196.0
99.818527 140.0
99.896835 204.0
99.997498 112.0
100.033783 268.0
100.06604 212.0
100.133057 156.0
100.206657 136.0
100.253853 140.0
100.34816 184.0
100.378067 156.0
100.503021 168.0
100.549629 180.0
100.573975 184.0
100.637466 152.0
100.657433 172.0
100.678291 152.0
100.835228 168.0
100.884499 160.0
100.913185 140.0
101.028976 196.0
101.061195 156.0
101.079201 160.0
101.095207 204.0
101.157257 180.0
101.241348 156.0
101.289413 180.0
101.334251 136.0
101.388611 180.0
101.44371 376.0
101.471779 180.0
101.501854 148.0
101.576057 160.0
101.630577 204.0
101.786049 120.0
101.869133 184.0
101.977638 208.0
102.044975 208.0
102.116364 204.0
102.132454 164.0
102.220978 184.0
102.250061 124.0
102.2733 220.0
102.343758 160.0
102.426331 156.0
102.442245 160.0
102.541176 184.0
102.576378 216.0
102.611725 148.0
102.678017 188.0
102.740799 160.0
102.805511 164.0
102.881607 176.0
102.972931 188.0
102.987068 148.0
103.073936 152.0
103.147514 108.0
103.219475 152.0
103.274078 176.0
103.401543 140.0
103.435951 160.0
103.468338 172.0
103.494659 156.0
103.557434 200.0
103.581741 160.0
103.629059 124.0
103.725609 184.0
103.871605 192.0
103.971024 184.0
104.070496 176.0
104.102013 180.0
104.135475 160.0
104.202301 156.0
104.257088 144.0
104.29599 216.0
104.336639 224.0
104.371208 180.0
104.442383 172.0
104.492676 172.0
104.600151 232.0
104.641815 140.0
104.772156 180.0
105.029495 248.0
105.071838 172.0
105.092247 164.0
105.18 152.0
105.200409 260.0
105.214699 144.0
105.404648 200.0
105.511902 168.0
105.533417 196.0
105.564087 160.0
105.59272 144.0
105.650826 108.0
105.694618 192.0
105.744118 144.0
105.768112 216.0
105.80143 176.0
105.839218 168.0
105.905869 180.0
105.920204 164.0
105.940239 164.0
105.998055 148.0
106.088692 140.0
106.203453 252.0
106.250061 176.0
106.278969 144.0
106.408272 168.0
106.491615 228.0
106.634232 144.0
106.681503 140.0
106.725365 144.0
106.887177 172.0
106.950974 220.0
107.02346 172.0
107.058861 124.0
107.138931 216.0
107.162125 172.0
107.21666 184.0
107.254662 200.0
107.453598 172.0
107.493042 168.0
107.523949 196.0
107.683929 212.0
107.69944 152.0
107.716919 156.0
107.868881 148.0
107.94455 180.0
107.970192 128.0
108.034203 236.0
108.079826 156.0
108.115005 144.0
108.174248 176.0
108.20401 220.0
108.490891 184.0
108.531158 156.0
108.549156 152.0
108.684532 456.0
108.801086 160.0
109.002548 152.0
109.028084 196.0
109.042793 132.0
109.062355 180.0
109.118088 136.0
109.264366 208.0
109.31073 136.0
109.335274 204.0
109.352333 164.0
109.442947 188.0
109.468506 212.0
109.587234 156.0
109.655106 212.0
109.701859 176.0
109.758148 176.0
110.027298 152.0
110.056526 172.0
110.074684 184.0
110.152596 168.0
110.259155 196.0
110.31768 156.0
110.449417 168.0
110.478699 140.0
110.549835 140.0
110.619904 168.0
110.681717 184.0
110.741051 156.0
110.790627 156.0
110.961349 184.0
110.993927 184.0
111.007515 180.0
111.052765 136.0
111.083771 124.0
111.102989 280.0
111.136948 172.0
111.218399 160.0
111.330734 168.0
111.35067 204.0
111.413689 156.0
111.5448 164.0
111.644897 160.0
111.685432 204.0
111.762535 204.0
111.836205 116.0
111.886871 140.0
111.945824 276.0
112.034439 164.0
112.227722 200.0
112.251007 136.0
112.309685 348.0
112.35051 176.0
112.478836 244.0
112.573021 120.0
112.608025 168.0
112.640343 240.0
112.708397 296.0
112.745354 160.0
112.7686 184.0
112.828926 184.0
112.864769 260.0
112.954163 184.0
112.98851 188.0
113.062569 148.0
113.109802 224.0
113.157585 244.0
113.208641 156.0
113.229263 168.0
113.284653 144.0
113.314072 160.0
113.352631 144.0
113.380737 136.0
113.40567 164.0
113.462906 184.0
113.595505 136.0
113.61348 204.0
113.725945 152.0
113.798119 212.0
113.863945 160.0
113.914925 164.0
113.983818 152.0
114.052551 192.0
114.082802 144.0
114.111679 232.0
114.131699 204.0
114.187958 176.0
114.248413 132.0
114.278458 144.0
114.418922 172.0
114.456772 196.0
114.533264 208.0
114.55735 172.0
114.601189 152.0
114.697075 156.0
114.776871 156.0
114.881599 176.0
114.907318 148.0
114.941696 176.0
115.022896 112.0
115.054657 1000.0
115.085114 300.0
115.193039 196.0
115.210129 148.0
115.265678 184.0
115.30201 244.0
115.325516 160.0
115.4067 172.0
115.495575 164.0
115.573586 160.0
115.605682 224.0
115.733246 236.0
115.809067 184.0
115.840538 144.0
115.877861 140.0
115.946182 188.0
115.967644 204.0
116.056961 284.0
116.098396 140.0
116.118439 116.0
116.194916 156.0
116.242119 148.0
116.441772 200.0
116.519104 168.0
116.726738 152.0
116.838608 208.0
116.884613 296.0
117.068626 340.0
117.121956 180.0
117.160202 140.0
117.18821 224.0
117.326141 164.0
117.362793 172.0
117.412125 128.0
117.474937 224.0
117.518089 324.0
117.561241 160.0
117.645424 140.0
117.675644 192.0
117.755547 160.0
117.824669 164.0
117.847824 156.0
117.967293 172.0
117.999481 144.0
118.037949 100.0
118.064751 164.0
118.103523 212.0
118.132759 124.0
118.194382 172.0
118.21386 156.0
118.30909 236.0
118.454178 144.0
118.505066 168.0
118.563599 124.0
118.690407 140.0
118.741478 136.0
118.774986 156.0
118.876831 208.0
118.911682 188.0
118.955093 220.0
118.994522 148.0
119.026741 184.0
119.044106 164.0
119.070168 144.0
119.226585 152.0
119.247826 140.0
119.274696 120.0
119.398338 152.0
119.430962 192.0
119.467941 196.0
119.644211 180.0
119.668159 208.0
119.702995 184.0
119.833687 396.0
119.870544 188.0
119.979706 148.0
120.046593 320.0
120.082191 180.0
120.136726 196.0
120.169449 236.0
120.272011 152.0
120.350967 168.0
120.390709 120.0
120.45739 156.0
120.495987 220.0
120.684898 180.0
120.719887 160.0
120.961899 172.0
120.986824 200.0
121.006523 200.0
121.045525 192.0
121.077721 136.0
121.171082 176.0
121.251862 172.0
121.306656 140.0
121.507599 216.0
121.600571 216.0
121.690575 172.0
121.901436 192.0
121.919022 288.0
122.023575 212.0
122.058495 324.0
122.097092 252.0
122.139641 196.0
122.165276 160.0
122.213028 176.0
122.257576 164.0
122.386536 160.0
122.409576 184.0
122.493271 160.0
122.559364 140.0
122.611015 200.0
122.651924 204.0
122.72908 192.0
122.748672 140.0
122.79303 140.0
122.909225 156.0
122.962914 164.0
123.009262 164.0
123.057831 316.0
123.121872 184.0
123.25621 172.0
123.357956 136.0
123.442299 208.0
123.501572 176.0
123.659103 200.0
123.744202 180.0
123.767578 184.0
123.865021 164.0
123.897408 180.0
123.920403 140.0
123.949272 140.0
124.036896 1140.0
124.106583 148.0
124.126915 164.0
124.179504 172.0
124.22506 228.0
124.282639 128.0
124.331696 340.0
124.355034 160.0
124.383888 172.0
124.459373 160.0
124.532654 176.0
124.554871 180.0
124.622726 132.0
124.644989 220.0
124.674843 192.0
124.701515 200.0
124.761528 144.0
124.80822 140.0
124.823784 144.0
124.859367 196.0
124.921646 152.0
124.952789 168.0
125.013954 360.0
125.042709 300.0
125.068504 148.0
125.202087 152.0
125.291183 156.0
125.355797 172.0
125.410225 180.0
125.436035 180.0
125.526154 208.0
125.549522 160.0
125.583199 244.0
125.742744 184.0
125.788475 152.0
125.913513 148.0
125.957024 108.0
126.019066 316.0
126.055443 740.0
126.083 176.0
126.115807 184.0
126.230843 144.0
126.271225 276.0
126.349388 208.0
126.412033 148.0
126.428665 248.0
126.472466 156.0
126.506035 140.0
126.667267 144.0
126.689079 168.0
126.729851 184.0
126.803947 176.0
126.877914 140.0
126.903175 224.0
126.937683 152.0
127.053902 324.0
127.138107 176.0
127.162788 152.0
127.20993 164.0
127.358597 172.0
127.470459 156.0
127.526642 252.0
127.565483 184.0
127.639687 196.0
127.689514 244.0
127.77729 260.0
127.803246 184.0
127.828575 108.0
127.882004 156.0
127.930649 164.0
127.947281 156.0
128.00061 128.0
128.049103 536.0
128.102676 212.0
128.12294 340.0
128.192795 160.0
128.272461 184.0
128.331161 148.0
128.504898 164.0
128.558517 176.0
128.633896 132.0
128.707352 180.0
128.830719 168.0
129.003357 148.0
129.062119 584.0
129.333313 244.0
129.380569 164.0
129.447266 204.0
129.517822 128.0
129.557495 140.0
129.618668 184.0
129.681839 100.0
129.772079 132.0
129.863495 160.0
129.920212 188.0
129.974655 172.0
130.038956 252.0
130.064514 180.0
130.128998 176.0
130.190308 140.0
130.30304 140.0
130.330734 176.0
130.357254 184.0
130.387955 164.0
130.483032 184.0
130.556183 140.0
130.713318 168.0
130.795074 244.0
130.813293 288.0
130.912231 216.0
131.004578 144.0
131.094009 204.0
131.115448 116.0
131.16864 180.0
131.243881 184.0
131.337372 264.0
131.383957 172.0
131.439682 156.0
131.48111 144.0
131.591629 172.0
131.600067 184.0
131.656906 232.0
131.802139 172.0
131.853363 204.0
131.908218 168.0
132.004135 168.0
132.08461 392.0
132.132111 208.0
132.157501 232.0
132.191055 168.0
132.260483 204.0
132.299393 140.0
132.370377 196.0
132.390991 164.0
132.45076 124.0
132.592911 140.0
132.638428 196.0
132.792053 188.0
132.847733 216.0
132.943466 168.0
133.04216 168.0
133.085785 180.0
133.105499 176.0
133.225876 152.0
133.277054 144.0
133.39592 152.0
133.4534 140.0
133.497086 152.0
133.595078 152.0
133.717941 268.0
133.743256 140.0
133.812622 180.0
133.860504 168.0
133.945892 160.0
133.973526 168.0
134.030579 384.0
134.111786 168.0
134.144058 172.0
134.180359 144.0
134.275482 152.0
134.388519 152.0
134.448517 200.0
134.481262 192.0
134.531601 172.0
134.571976 188.0
134.598557 192.0
134.670288 128.0
134.690933 148.0
134.781036 200.0
134.808762 140.0
134.834183 236.0
134.8573 148.0
134.896591 200.0
134.933578 144.0
134.984451 300.0
135.053726 188.0
135.313004 248.0
135.360184 180.0
135.384781 176.0
135.617325 176.0
135.779053 156.0
135.806595 172.0
135.941864 156.0
135.989883 168.0
136.038086 208.0
136.092026 140.0
136.190613 132.0
136.215118 216.0
136.241135 156.0
136.263901 144.0
136.317337 188.0
136.367157 160.0
136.391708 152.0
136.419662 164.0
136.446198 200.0
136.5186 104.0
136.553772 244.0
136.682953 172.0
136.802292 204.0
136.829041 192.0
136.920715 260.0
136.969177 112.0
137.014175 5484.0
137.069977 180.0
137.220322 144.0
137.271744 184.0
137.311386 144.0
137.371063 144.0
137.406326 124.0
137.453445 204.0
137.531845 144.0
137.554047 160.0
137.667557 240.0
137.780563 156.0
137.844818 176.0
137.96051 204.0
138.01474 280.0
138.053925 172.0
138.072739 188.0
138.112503 188.0
138.13121 196.0
138.163971 176.0
138.187363 200.0
138.225525 184.0
138.2827 188.0
138.325439 156.0
138.365662 152.0
138.725998 216.0
138.858673 96.0
138.888321 196.0
138.927261 136.0
138.948792 232.0
139.008392 1648.0
139.052338 400.0
139.084534 680.0
139.138107 144.0
139.269669 144.0
139.409012 216.0
139.43251 200.0
139.51712 140.0
139.547684 208.0
139.594711 184.0
139.62999 144.0
139.681732 156.0
139.713425 196.0
139.732681 152.0
139.757019 152.0
139.797012 184.0
139.927475 180.0
139.966507 164.0
140.004471 192.0
140.02507 644.0
140.047867 1132.0
140.075333 388.0
140.197357 164.0
140.312851 172.0
140.334076 164.0
140.383301 132.0
140.539276 152.0
140.628937 196.0
140.666718 180.0
140.701645 172.0
140.749344 168.0
140.791 284.0
140.865067 148.0
140.891052 144.0
140.929886 184.0
140.967484 172.0
140.98996 748.0
141.009857 352.0
141.068344 412.0
141.107452 260.0
141.262192 176.0
141.311874 160.0
141.342636 168.0
141.369934 172.0
141.555679 172.0
141.669357 196.0
141.722076 144.0
141.769684 164.0
141.821014 172.0
141.859177 160.0
141.953781 464.0
141.972015 156.0
141.991852 216.0
142.025467 336.0
142.064102 6300.0
142.160156 116.0
142.205246 144.0
142.298492 212.0
142.547226 200.0
142.596008 168.0
142.667358 184.0
142.718369 184.0
142.750504 124.0
142.830139 180.0
142.870575 140.0
142.89534 128.0
142.999969 272.0
143.025253 180.0
143.046326 356.0
143.071487 5696.0
143.189529 164.0
143.222885 204.0
143.461594 268.0
143.520767 260.0
143.546997 184.0
143.585785 152.0
143.638092 132.0
143.697327 172.0
143.762268 348.0
143.803833 300.0
143.833298 216.0
143.880539 192.0
143.919235 152.0
143.961502 160.0
144.000427 160.0
144.041718 452.0
144.074707 576.0
144.196121 180.0
144.24176 188.0
144.26088 248.0
144.320648 180.0
144.374283 140.0
144.440216 140.0
144.598129 164.0
144.681915 180.0
144.744156 140.0
144.772903 204.0
144.811188 176.0
144.895737 184.0
144.919022 192.0
144.993301 172.0
145.075287 156.0
145.127533 180.0
145.216263 148.0
145.279037 96.0
145.341003 148.0
145.427399 108.0
145.532959 144.0
145.548553 112.0
145.68338 132.0
145.816483 172.0
145.883209 184.0
145.996796 220.0
146.02565 168.0
146.057495 228.0
146.096741 184.0
146.165115 144.0
146.208496 180.0
146.304779 144.0
146.442032 172.0
146.469681 200.0
146.552841 140.0
146.5914 176.0
146.617905 392.0
146.711914 208.0
146.835678 192.0
146.931366 192.0
146.981659 180.0
147.048462 160.0
147.305542 212.0
147.368362 148.0
147.414261 160.0
147.589172 168.0
147.626999 156.0
147.660858 168.0
147.820526 180.0
147.888275 156.0
147.953644 208.0
147.99321 192.0
148.011749 156.0
148.038345 1312.0
148.093155 136.0
148.111038 160.0
148.177475 208.0
148.22171 176.0
148.297607 144.0
148.369263 164.0
148.423096 152.0
148.52182 160.0
148.596375 192.0
148.697784 180.0
148.731766 140.0
148.769211 148.0
148.858368 168.0
148.90416 172.0
148.94339 172.0
148.967987 188.0
149.013977 8152.0
149.060822 348.0
149.10553 144.0
149.142258 180.0
149.211349 124.0
149.312454 148.0
149.579742 136.0
149.875534 204.0
149.944855 148.0
149.973495 156.0
150.016953 680.0
150.054291 404.0
150.110016 280.0
150.135086 348.0
150.167496 160.0
150.286835 144.0
150.424179 216.0
150.485733 212.0
150.553909 192.0
150.617889 256.0
150.697495 256.0
150.731842 228.0
150.772781 148.0
150.936554 140.0
150.953674 208.0
151.011978 2260.0
151.028336 2140.0
151.080856 144.0
151.136612 208.0
151.194489 188.0
151.33783 164.0
151.408844 148.0
151.673462 160.0
151.693069 196.0
151.87207 244.0
151.922073 212.0
152.00705 168.0
152.026993 332.0
152.065308 280.0
152.195999 160.0
152.252487 156.0
152.291779 552.0
152.310104 148.0
152.343079 176.0
152.382004 176.0
152.439072 204.0
152.480957 148.0
152.606323 180.0
152.63092 148.0
152.71312 140.0
152.75679 172.0
152.798157 144.0
152.879364 184.0
152.906433 148.0
152.99971 168.0
153.026398 348.0
153.094666 176.0
153.128006 228.0
153.207382 160.0
153.315247 156.0
153.34285 300.0
153.389191 184.0
153.697464 172.0
153.733917 176.0
153.7715 208.0
153.825806 140.0
153.949524 220.0
153.973938 188.0
154.047791 176.0
154.081482 296.0
154.253143 152.0
154.291306 124.0
154.418884 136.0
154.453033 196.0
154.517746 140.0
154.62532 144.0
154.655853 212.0
154.80983 152.0
154.830338 128.0
154.997345 148.0
155.025055 1372.0
155.076782 344.0
155.101547 204.0
155.121628 184.0
155.1362 292.0
155.221176 156.0
155.315414 228.0
155.352631 140.0
155.394806 172.0
155.573456 188.0
155.757248 232.0
155.943588 140.0
155.994553 288.0
156.042862 684.0
156.079514 736.0
156.141617 252.0
156.167358 164.0
156.197205 164.0
156.436096 172.0
156.503311 208.0
156.554108 212.0
156.592163 260.0
156.665192 208.0
156.759872 176.0
156.808884 180.0
156.904434 196.0
156.924377 188.0
157.022202 464.0
157.086227 776.0
157.140396 152.0
157.1633 244.0
157.193771 144.0
157.400955 180.0
157.434464 220.0
157.482513 284.0
157.628937 164.0
157.648254 152.0
157.770721 168.0
157.798218 144.0
157.840729 224.0
157.858231 148.0
157.902359 256.0
157.963272 168.0
158.030823 252.0
158.074432 300.0
158.172318 332.0
158.269485 136.0
158.296494 200.0
158.478516 168.0
158.506561 164.0
158.614365 152.0
158.689835 168.0
158.855637 136.0
158.881241 148.0
158.943863 300.0
159.003082 156.0
159.043137 276.0
159.073105 184.0
159.231857 164.0
159.281784 220.0
159.409912 144.0
159.452637 148.0
159.500793 256.0
159.537643 212.0
160.077194 348.0
160.197861 140.0
160.294846 152.0
160.320877 164.0
160.341049 284.0
160.373138 136.0
160.528763 292.0
160.625946 156.0
160.731918 160.0
160.848007 244.0
161.059677 372.0
161.151047 160.0
161.173798 164.0
161.2117 228.0
161.263275 108.0
161.31279 192.0
161.386108 144.0
161.415298 156.0
161.439209 208.0
161.46347 212.0
161.499908 384.0
161.52626 204.0
161.669479 144.0
161.69133 148.0
161.716232 156.0
161.904846 140.0
161.960037 172.0
162.019058 168.0
162.053436 276.0
162.183548 148.0
162.331696 164.0
162.384338 204.0
162.599487 164.0
162.619141 124.0
162.660416 140.0
162.685791 192.0
163.029953 2172.0
163.089676 140.0
163.18602 460.0
163.221222 248.0
163.279343 156.0
163.355133 152.0
163.387115 132.0
163.528992 132.0
163.621338 168.0
163.646698 208.0
163.685974 156.0
163.751694 204.0
163.780823 164.0
164.027939 768.0
164.068253 644.0
164.093811 160.0
164.21312 136.0
164.238358 116.0
164.323837 180.0
164.536575 160.0
164.705109 180.0
164.830292 152.0
164.872589 160.0
164.909515 200.0
164.937973 152.0
164.973419 140.0
165.009491 20500.0
165.084915 232.0
165.125229 108.0
165.294556 116.0
165.441574 232.0
165.566254 172.0
165.598145 152.0
165.619568 172.0
165.674606 148.0
165.783249 156.0
165.886627 212.0
165.911575 168.0
165.964218 156.0
166.012787 2028.0
166.051666 296.0
166.085358 884.0
166.15657 160.0
166.17453 224.0
166.251511 144.0
166.292572 140.0
166.438904 184.0
166.46904 196.0
166.503098 212.0
166.555115 320.0
166.65979 160.0
166.735687 216.0
166.767273 160.0
166.793427 200.0
166.818329 164.0
166.937241 120.0
167.005661 6748.0
167.078308 1416.0
167.193466 336.0
167.27388 164.0
167.334473 164.0
167.441803 204.0
167.462418 144.0
167.57576 184.0
167.673676 168.0
167.721283 204.0
167.837051 128.0
167.925308 176.0
167.985352 164.0
168.011292 524.0
168.059799 668.0
168.082108 660.0
168.135315 192.0
168.194672 188.0
168.232101 176.0
168.279282 176.0
168.330688 252.0
168.463226 188.0
168.523041 152.0
169.038528 276.0
169.061798 188.0
169.087906 476.0
169.122604 160.0
169.153656 140.0
169.271164 188.0
169.324554 144.0
169.342682 168.0
169.367157 108.0
169.404343 124.0
169.464264 128.0
169.525116 188.0
169.548874 204.0
169.623093 144.0
169.775742 120.0
169.818787 224.0
169.881348 128.0
169.932632 184.0
169.968811 156.0
169.99585 184.0
170.029221 212.0
170.059464 29816.0
170.124847 188.0
170.178741 176.0
170.265976 188.0
170.37117 116.0
170.387863 220.0
170.668747 168.0
170.715347 144.0
170.796738 148.0
171.061829 4736.0
171.10585 308.0
171.212616 172.0
171.264282 96.0
171.441315 208.0
171.56958 144.0
171.733856 156.0
171.79274 132.0
171.944 228.0
171.979523 180.0
172.042816 228.0
172.063034 500.0
172.094788 1976.0
172.194351 128.0
172.265335 160.0
172.323822 212.0
172.535202 436.0
172.573044 168.0
172.651886 168.0
172.695023 168.0
173.034241 276.0
173.058456 132.0
173.094467 556.0
173.194656 180.0
173.311951 152.0
173.358246 96.0
173.412415 152.0
173.479828 200.0
173.538239 152.0
173.587097 160.0
173.653625 164.0
173.674606 200.0
173.857193 188.0
174.050644 152.0
174.103989 204.0
174.16806 156.0
174.396652 140.0
174.415054 180.0
174.435135 144.0
174.643997 224.0
174.71077 140.0
174.912277 116.0
175.02977 1116.0
175.186295 132.0
175.220306 200.0
175.240738 164.0
175.310287 292.0
175.699875 176.0
175.7845 188.0
175.878479 176.0
175.968414 124.0
175.990433 208.0
176.033325 11276.0
176.170654 136.0
176.239777 160.0
176.308624 176.0
176.448746 180.0
176.473953 140.0
176.500397 360.0
176.656433 164.0
176.705017 132.0
176.779633 148.0
176.926407 224.0
176.945206 136.0
177.009415 2620.0
177.033188 1356.0
177.076965 196.0
177.172653 188.0
177.215042 176.0
177.299835 160.0
177.410553 140.0
177.477432 164.0
177.646194 252.0
177.676346 192.0
177.708191 180.0
177.793335 136.0
177.822296 160.0
177.846176 164.0
177.892822 236.0
177.917618 184.0
177.967331 132.0
178.012589 904.0
178.040817 7960.0
178.233902 120.0
178.30162 108.0
178.386765 140.0
178.469086 164.0
178.513351 96.0
178.653976 144.0
178.736755 212.0
178.813049 148.0
178.833694 132.0
178.930756 112.0
179.007919 928.0
179.041641 1320.0
179.178436 164.0
179.294037 124.0
179.463608 164.0
179.556625 172.0
179.609833 140.0
179.631454 180.0
179.679642 200.0
179.710831 224.0
179.742493 140.0
179.786377 160.0
179.86644 196.0
179.905197 264.0
180.006027 172.0
180.037048 2656.0
180.067139 1316.0
180.179947 172.0
180.213531 120.0
180.329224 180.0
180.416733 148.0
180.456833 228.0
180.520325 140.0
180.617279 356.0
180.81189 224.0
180.843689 104.0
181.00267 156.0
181.03891 544.0
181.086136 2388.0
181.135056 148.0
181.307938 96.0
181.364517 168.0
181.537292 140.0
181.623779 184.0
181.715622 140.0
181.736282 128.0
181.768707 200.0
181.783997 300.0
181.826447 120.0
181.865906 224.0
182.036087 328.0
182.04187 208.0
182.067139 144.0
182.071365 404.0
182.09169 376.0
182.155899 152.0
182.192642 152.0
182.303665 176.0
182.325165 196.0
182.509125 120.0
182.679123 212.0
182.795776 164.0
182.860367 228.0
182.903427 164.0
182.924957 180.0
182.958984 156.0
182.977966 180.0
183.020248 1952.0
183.06517 424.0
183.097275 204.0
183.176315 152.0
183.2435 164.0
183.363998 200.0
183.398926 100.0
183.450241 220.0
183.493378 144.0
183.722443 128.0
183.794144 156.0
183.9142 272.0
183.943893 156.0
184.028168 164.0
184.074387 5052.0
184.112274 276.0
184.161255 144.0
184.294037 172.0
184.327408 208.0
184.386856 184.0
184.554459 140.0
184.57608 180.0
184.653519 228.0
184.676453 140.0
184.81279 204.0
184.919647 144.0
185.015991 480.0
185.0504 132.0
185.080994 2032.0
185.114563 180.0
185.311111 136.0
185.328445 280.0
185.377335 204.0
185.396881 220.0
185.454315 176.0
185.483032 152.0
185.522247 140.0
185.561646 156.0
185.652405 108.0
185.705368 204.0
185.769669 116.0
185.808441 304.0
185.903412 200.0
185.927841 140.0
185.979401 140.0
186.014694 176.0
186.052917 360.0
186.084351 420.0
186.171143 160.0
186.191055 180.0
186.364243 152.0
186.391602 160.0
186.5009 168.0
186.533524 168.0
186.587524 120.0
186.685776 160.0
186.836029 200.0
186.909943 176.0
186.97142 232.0
187.032501 172.0
187.065079 196.0
187.262726 184.0
187.306625 240.0
187.390762 240.0
187.447983 184.0
187.479492 128.0
187.507935 176.0
187.540634 148.0
187.637482 144.0
187.69603 152.0
187.748962 272.0
187.980225 152.0
188.024185 224.0
188.071701 436.0
188.212311 132.0
188.359207 164.0
188.381058 156.0
188.605469 196.0
188.676208 184.0
188.695343 288.0
188.722687 176.0
188.889511 144.0
188.922333 208.0
189.007996 940.0
189.044449 764.0
189.070084 240.0
189.107956 172.0
189.158737 184.0
189.285751 144.0
189.358627 112.0
189.409592 148.0
189.489029 144.0
189.667786 104.0
189.711014 168.0
189.74939 160.0
189.848099 164.0
189.89473 208.0
189.94136 208.0
189.968781 192.0
190.011276 176.0
190.039719 616.0
190.096436 160.0
190.250595 160.0
190.311844 140.0
190.358521 200.0
190.39978 176.0
190.42717 184.0
190.491928 208.0
190.570023 152.0
190.726669 232.0
190.761765 208.0
190.820984 192.0
190.87999 156.0
190.943863 200.0
191.025833 796.0
191.083939 156.0
191.194214 204.0
191.298813 168.0
191.46402 188.0
191.512177 172.0
191.549393 172.0
191.582947 132.0
191.651337 140.0
191.670624 160.0
191.833221 200.0
192.029221 432.0
192.057404 1544.0
192.144852 172.0
192.31041 180.0
192.384949 200.0
192.456726 220.0
192.498138 164.0
192.542053 160.0
192.799255 168.0
192.846893 204.0
192.926407 204.0
192.962585 180.0
193.023163 292.0
193.059921 464.0
193.099136 140.0
193.179611 152.0
193.252747 140.0
193.27713 208.0
193.304764 156.0
193.357208 176.0
193.396652 148.0
193.48349 140.0
193.683243 332.0
193.780182 120.0
193.836975 164.0
193.856384 256.0
193.898697 148.0
194.025238 360.0
194.03334 148.0
194.057114 644.0
194.084335 416.0
194.321381 160.0
194.363449 148.0
194.538666 168.0
194.729477 168.0
194.941406 180.0
194.985596 124.0
195.013596 160.0
195.04892 232.0
195.06694 164.0
195.10376 716.0
195.152649 160.0
195.191437 160.0
195.470993 160.0
195.498703 216.0
195.767242 188.0
195.817184 124.0
195.931931 180.0
196.021088 176.0
196.074478 2652.0
196.110458 148.0
196.323395 180.0
196.34726 216.0
196.382217 112.0
196.432632 144.0
196.464401 188.0
196.495087 164.0
196.525787 232.0
196.617859 168.0
196.662521 168.0
196.799316 156.0
196.911011 148.0
196.944519 176.0
196.966873 212.0
197.021225 140.0
197.082413 1916.0
197.162445 148.0
197.351135 208.0
197.461777 172.0
197.549744 108.0
197.649017 140.0
197.679794 184.0
197.716171 156.0
197.792664 124.0
197.836533 144.0
197.870132 152.0
197.959732 160.0
198.048325 276.0
198.088547 964.0
198.206223 164.0
198.391205 180.0
198.452881 152.0
198.474152 192.0
198.718582 164.0
198.747391 148.0
198.827057 156.0
198.921387 232.0
198.949463 168.0
199.037842 292.0
199.091003 392.0
199.289291 184.0
199.339874 284.0
199.484818 144.0
199.569916 128.0
199.650223 152.0
199.772842 152.0
199.799301 140.0
199.903687 120.0
199.957565 272.0
199.978256 152.0
200.070053 536.0
200.286591 268.0
200.381012 156.0
200.428513 204.0
200.460922 124.0
200.561295 176.0
200.688156 236.0
200.905319 316.0
200.939774 144.0
201.019409 164.0
201.066956 168.0
201.241165 188.0
201.373413 196.0
201.609131 412.0
201.647278 224.0
201.684677 148.0
201.823914 112.0
201.873062 252.0
201.975906 164.0
202.013626 144.0
202.042404 376.0
202.085205 5444.0
202.149643 196.0
202.179626 140.0
202.239059 252.0
202.270187 232.0
202.471222 176.0
202.519363 228.0
202.563889 128.0
202.585571 248.0
202.644012 144.0
202.746017 168.0
202.786255 240.0
202.974396 144.0
203.025101 384.0
203.068787 212.0
203.092178 1052.0
203.124176 212.0
203.147324 208.0
203.17984 212.0
203.313202 160.0
203.467285 132.0
203.534424 136.0
203.597885 356.0
203.714493 204.0
203.767258 172.0
203.930313 208.0
203.98349 344.0
204.019333 812.0
204.055283 4568.0
204.137024 140.0
204.171844 132.0
204.299011 132.0
204.42746 208.0
204.512558 272.0
204.534515 140.0
204.626419 172.0
204.688644 136.0
204.734634 192.0
204.83432 192.0
204.898407 192.0
204.956818 352.0
205.002411 704.0
205.021851 296.0
205.059448 1256.0
205.089676 180.0
205.181976 192.0
205.207642 176.0
205.299347 172.0
205.401566 176.0
205.441742 184.0
205.480209 220.0
205.511292 112.0
205.561157 208.0
205.684921 184.0
205.73671 296.0
205.776321 136.0
205.825363 216.0
205.877121 180.0
205.987381 160.0
206.036575 48200.0
206.211151 168.0
206.255325 148.0
206.282745 128.0
206.354477 180.0
206.464035 236.0
206.564148 152.0
206.584167 176.0
206.605408 120.0
206.676727 104.0
206.714798 152.0
206.787323 188.0
206.972473 192.0
206.997284 220.0
207.039413 5012.0
207.143631 136.0
207.211868 108.0
207.29274 140.0
207.497726 164.0
207.540726 308.0
207.578323 180.0
207.657028 144.0
207.722168 288.0
207.749557 224.0
207.834015 112.0
207.853119 136.0
207.920273 168.0
207.959122 236.0
207.99382 108.0
208.033264 12836.0
208.05986 53604.0
208.254562 152.0
208.31311 188.0
208.360001 128.0
208.452667 444.0
208.562393 236.0
208.607788 152.0
208.660233 152.0
208.692093 184.0
208.723846 184.0
208.789047 128.0
208.826736 380.0
208.847382 232.0
208.976944 212.0
209.037735 1452.0
209.064651 4800.0
209.116409 444.0
209.190643 352.0
209.241867 228.0
209.363098 196.0
209.391205 164.0
209.461014 216.0
209.554428 176.0
209.696747 220.0
209.75853 156.0
209.778412 224.0
209.840881 152.0
209.890228 148.0
209.963211 112.0
210.060333 772.0
210.09053 584.0
210.12352 172.0
210.181213 140.0
210.210571 124.0
210.279816 192.0
210.305313 140.0
210.349411 156.0
210.466415 184.0
210.505722 124.0
210.537567 180.0
210.621567 204.0
210.661957 156.0
210.688049 116.0
210.776047 164.0
210.797836 184.0
210.834793 156.0
210.877182 164.0
210.915039 100.0
210.966797 160.0
211.051865 1808.0
211.116287 124.0
211.172577 120.0
211.207672 172.0
211.257385 192.0
211.324448 96.0
211.379593 200.0
211.498184 124.0
211.637833 136.0
211.737 148.0
211.829132 140.0
211.961823 196.0
212.066986 2020.0
212.105026 272.0
212.160873 228.0
212.184311 136.0
212.350876 208.0
212.429184 176.0
212.632294 244.0
212.675827 212.0
213.075851 4212.0
213.117569 304.0
213.358459 196.0
213.463135 144.0
213.594009 188.0
213.615753 152.0
213.701645 188.0
213.822342 176.0
213.882675 136.0
213.960678 172.0
213.981049 144.0
214.040848 1384.0
214.079376 1048.0
214.115952 172.0
214.127335 136.0
214.381805 96.0
214.416779 188.0
214.552063 220.0
214.610916 152.0
214.680359 176.0
214.772003 148.0
214.832718 136.0
214.977905 148.0
215.0215 336.0
215.047806 676.0
215.088547 224.0
215.174484 116.0
215.204758 324.0
215.226028 140.0
215.370193 208.0
215.450989 152.0
215.579483 228.0
215.716843 188.0
215.814392 152.0
215.8909 288.0
215.926254 252.0
216.054779 2504.0
216.20668 184.0
216.294388 172.0
216.465836 280.0
216.532715 176.0
216.567566 168.0
216.688431 164.0
216.743744 128.0
217.004532 160.0
217.062363 668.0
217.117767 160.0
217.210251 176.0
217.298264 164.0
217.418732 136.0
217.476593 176.0
217.62706 132.0
217.705215 180.0
217.844299 104.0
217.877945 212.0
217.948212 368.0
218.039276 1376.0
218.302261 192.0
218.333588 120.0
218.352066 384.0
218.404434 188.0
218.451233 120.0
218.485168 152.0
218.519058 216.0
218.617569 172.0
218.658035 112.0
218.761795 184.0
218.911942 204.0
219.021179 544.0
219.067825 528.0
219.155182 180.0
219.182953 192.0
219.217865 132.0
219.27037 144.0
219.312485 172.0
219.409897 156.0
219.430527 204.0
219.451172 148.0
219.600143 208.0
219.692261 132.0
219.722931 224.0
219.888351 156.0
219.928329 160.0
219.953384 184.0
219.976227 176.0
219.983566 328.0
220.051346 37368.0
220.104614 480.0
220.203659 144.0
220.289551 148.0
220.326447 208.0
220.372025 184.0
220.445908 256.0
220.544769 176.0
220.56778 168.0
220.645782 128.0
220.750137 204.0
220.793152 164.0
220.939667 152.0
220.985855 216.0
221.012161 128.0
221.054245 4448.0
221.109375 192.0
221.329315 172.0
221.41478 148.0
221.549515 188.0
221.576172 272.0
221.956497 164.0
221.978516 232.0
222.04895 10776.0
222.183319 96.0
222.233307 156.0
222.290939 180.0
222.327026 268.0
222.430237 204.0
222.546692 176.0
222.593155 224.0
222.68985 228.0
222.857971 264.0
222.97731 196.0
223.012283 284.0
223.051376 1772.0
223.086075 928.0
223.125366 176.0
223.350525 132.0
223.404907 176.0
223.58046 164.0
223.617401 136.0
223.660187 244.0
223.695831 184.0
223.894989 148.0
224.002075 196.0
224.03006 212.0
224.070099 3472.0
224.167114 152.0
224.353134 204.0
224.470779 184.0
224.539307 168.0
224.584503 216.0
224.645981 140.0
224.911713 192.0
225.005249 152.0
225.076385 3612.0
225.233917 216.0
225.291946 188.0
225.320801 152.0
225.360657 152.0
225.636597 136.0
225.769409 140.0
225.90477 160.0
225.957245 148.0
226.083893 2060.0
226.156128 160.0
226.241135 140.0
226.266876 204.0
226.446548 220.0
226.541092 128.0
226.71019 236.0
226.773117 156.0
226.839066 180.0
226.884033 240.0
227.03978 368.0
227.090729 756.0
227.154007 128.0
227.210922 152.0
227.410568 188.0
227.484009 264.0
227.556061 212.0
227.638062 128.0
227.820343 236.0
227.985596 180.0
228.032333 288.0
228.054764 276.0
228.101685 256.0
228.139847 224.0
228.490738 184.0
228.593994 288.0
228.683319 164.0
228.867599 152.0
228.963318 184.0
229.00116 416.0
229.047592 320.0
229.22348 144.0
229.255051 124.0
229.511765 188.0
229.691772 232.0
229.861649 164.0
229.976334 160.0
230.037918 708.0
230.075531 1168.0
230.284302 156.0
230.335526 200.0
230.390152 180.0
230.435852 188.0
230.544113 148.0
230.574341 380.0
230.729782 300.0
230.817612 160.0
230.888931 196.0
230.923859 180.0
231.000351 256.0
231.066391 1700.0
231.141479 132.0
231.22345 152.0
231.282074 148.0
231.392776 176.0
231.512161 156.0
231.576569 180.0
231.648468 164.0
231.708527 164.0
231.986099 124.0
232.051788 10744.0
232.187973 156.0
232.330917 96.0
232.418518 144.0
232.458939 112.0
232.555084 244.0
232.582397 156.0
232.672882 168.0
232.980743 144.0
233.058792 4844.0
233.249817 192.0
233.286285 172.0
233.400772 136.0
233.560913 112.0
233.661179 156.0
233.706818 244.0
233.807892 264.0
233.845337 132.0
234.049866 3384.0
234.266464 136.0
234.380951 180.0
234.712479 96.0
234.769913 184.0
234.840057 164.0
234.861404 180.0
235.057846 1196.0
235.170425 156.0
235.324417 188.0
235.432129 140.0
235.631989 176.0
235.677872 116.0
235.750778 144.0
235.887833 108.0
235.953995 136.0
235.985199 160.0
236.065659 1324.0
236.183975 160.0
236.247025 196.0
236.284927 144.0
236.423553 156.0
236.526962 176.0
236.557281 256.0
236.604202 172.0
236.725266 124.0
236.74646 240.0
236.79097 212.0
236.888 284.0
237.035843 348.0
237.0672 396.0
237.22554 124.0
237.277603 312.0
237.311646 304.0
237.424332 180.0
237.469254 152.0
237.51152 140.0
237.627502 168.0
237.674561 200.0
237.737411 308.0
237.787125 192.0
237.816452 172.0
237.849686 336.0
237.926315 604.0
237.982376 436.0
238.004807 592.0
238.0634 209816.0
238.146561 276.0
238.193878 304.0
238.274872 368.0
238.301193 220.0
238.343246 208.0
238.377258 204.0
238.420135 108.0
238.447906 216.0
238.479034 124.0
238.535904 192.0
238.568375 2760.0
238.725555 204.0
238.789734 356.0
238.912888 112.0
238.960129 124.0
238.98938 336.0
239.065552 34340.0
239.178925 404.0
239.223892 128.0
239.315109 220.0
239.442352 96.0
239.485443 104.0
239.519791 232.0
239.574524 196.0
239.617752 220.0
239.656067 156.0
239.706497 236.0
239.877563 144.0
239.92717 224.0
239.994095 252.0
240.059662 98008.0
240.09906 3588.0
240.273911 148.0
240.311523 184.0
240.355148 152.0
240.396027 124.0
240.461624 156.0
240.492798 96.0
240.536987 224.0
240.675369 268.0
240.705734 196.0
240.737732 240.0
240.807037 112.0
240.833145 252.0
240.865494 376.0
240.94754 236.0
241.062668 5484.0
241.101761 376.0
241.140167 256.0
241.212067 200.0
241.333099 104.0
241.357513 280.0
241.50592 252.0
241.53215 124.0
241.747726 136.0
241.916672 140.0
241.964523 128.0
242.033096 1616.0
242.067719 224.0
242.113434 184.0
242.397263 136.0
242.562576 148.0
242.665359 144.0
242.716156 116.0
242.81517 136.0
242.896805 204.0
242.921616 204.0
242.976395 232.0
243.043625 1856.0
243.116852 164.0
243.592636 128.0
243.666748 208.0
243.785309 168.0
244.05098 4416.0
244.373779 204.0
245.050659 868.0
245.416641 184.0
245.589615 144.0
245.680069 172.0
245.819061 124.0
245.851898 172.0
246.045517 1508.0
246.096558 340.0
246.170578 204.0
246.521576 168.0
246.767944 204.0
246.808823 140.0
247.016632 256.0
247.022125 288.0
247.101547 160.0
247.145355 180.0
247.181702 260.0
247.26358 128.0
247.352264 136.0
247.412552 96.0
247.486511 148.0
247.778656 116.0
247.815857 108.0
248.046463 14168.0
248.102448 356.0
248.155762 220.0
248.180847 144.0
248.383667 128.0
248.406311 212.0
248.453293 120.0
248.503403 200.0
248.547348 188.0
248.820694 104.0
248.948715 156.0
249.006744 524.0
249.050919 1640.0
249.096313 304.0
249.272476 100.0
249.510178 160.0
249.532822 204.0
249.555496 196.0
249.673996 156.0
249.872711 204.0
249.909592 204.0
250.043732 4476.0
250.191269 208.0
250.316193 204.0
250.371765 160.0
250.526657 180.0
250.578796 212.0
250.85144 240.0
250.955276 164.0
250.986801 176.0
251.047302 844.0
251.098557 2904.0
251.157104 216.0
251.320648 204.0
252.065033 1052.0
252.100052 1944.0
252.906021 196.0
253.06897 656.0
253.103378 660.0
253.246353 184.0
253.512466 156.0
253.605606 152.0
253.877029 176.0
253.997375 208.0
254.010117 196.0
254.099655 656.0
254.31987 124.0
254.346375 120.0
254.436676 176.0
254.996826 172.0
255.076019 164.0
255.105164 452.0
255.19249 176.0
255.302902 176.0
255.386703 160.0
255.673355 148.0
255.719666 196.0
255.786514 156.0
256.005157 240.0
256.049896 308.0
256.093628 308.0
256.806122 140.0
257.054688 208.0
257.47525 140.0
257.779144 200.0
257.972412 120.0
258.063629 1212.0
258.111511 604.0
258.150635 172.0
258.195435 228.0
258.357635 152.0
258.51532 112.0
258.569733 152.0
258.681763 192.0
258.78952 188.0
258.857849 160.0
259.031036 448.0
259.068726 784.0
259.123688 200.0
259.287109 144.0
259.56601 152.0
259.780884 148.0
259.892517 240.0
259.932831 136.0
259.992645 204.0
260.046844 18200.0
260.122681 164.0
260.181122 128.0
260.62204 172.0
260.740021 108.0
261.05307 3336.0
261.142822 240.0
261.184631 144.0
261.266663 112.0
261.667999 116.0
261.965576 152.0
261.995819 188.0
262.045197 5724.0
262.108093 136.0
262.302216 100.0
262.405121 164.0
262.586395 128.0
262.618164 172.0
262.841675 160.0
262.940582 156.0
263.006134 168.0
263.051697 1064.0
263.136169 144.0
263.722198 180.0
264.043793 520.0
264.06427 320.0
264.113403 160.0
264.138794 232.0
264.737549 184.0
264.760712 168.0
264.8255 188.0
264.958313 148.0
265.04834 308.0
265.097076 280.0
265.914886 180.0
265.963562 152.0
266.059174 744.0
266.13562 248.0
266.544891 144.0
266.583862 160.0
266.648682 148.0
266.674866 152.0
266.907379 116.0
266.954468 176.0
266.983734 172.0
267.076355 472.0
267.112732 1072.0
267.28952 248.0
267.46524 164.0
268.049225 332.0
268.113007 540.0
268.599182 196.0
268.834961 164.0
268.94162 156.0
268.997284 164.0
269.105072 592.0
269.127289 636.0
269.300934 176.0
269.882629 196.0
269.944763 192.0
269.980713 168.0
270.031219 4752.0
270.107666 476.0
270.132721 200.0
271.036102 800.0
271.351379 128.0
271.512665 200.0
271.634735 140.0
271.756104 212.0
271.808624 172.0
272.02771 2244.0
272.287903 168.0
272.324005 164.0
272.525452 124.0
272.984589 184.0
273.03125 628.0
273.080811 152.0
273.20166 164.0
273.23288 148.0
273.31131 248.0
273.553772 140.0
273.678894 144.0
273.848541 116.0
274.062927 1364.0
274.588379 172.0
274.763214 144.0
274.832001 160.0
275.089417 1628.0
275.52832 192.0
275.747223 224.0
275.846375 184.0
275.895966 176.0
276.078033 2352.0
276.144714 156.0
276.293701 132.0
276.531067 168.0
276.791656 184.0
276.934998 140.0
277.049957 424.0
277.084534 936.0
277.539185 136.0
278.015778 184.0
278.062103 1332.0
278.088226 1560.0
278.19104 100.0
278.407501 144.0
278.68985 176.0
278.716431 144.0
278.98233 180.0
279.049652 336.0
279.088043 528.0
279.208984 192.0
279.441284 180.0
279.633698 136.0
280.054779 340.0
280.086975 292.0
280.135193 292.0
280.460266 160.0
280.496948 204.0
280.530273 200.0
280.656952 188.0
280.749084 224.0
280.963806 176.0
281.020508 144.0
281.044342 600.0
281.093231 344.0
281.324219 160.0
281.350922 264.0
281.569458 116.0
281.694885 176.0
281.721619 164.0
282.111816 188.0
282.148499 216.0
282.212891 180.0
282.297424 172.0
282.744751 172.0
282.954712 128.0
283.076172 152.0
283.10968 152.0
283.214203 152.0
283.377625 144.0
283.78653 204.0
283.984375 156.0
284.081543 128.0
284.129333 944.0
284.444061 192.0
285.08075 792.0
285.130402 468.0
285.660034 176.0
285.706116 136.0
285.852264 152.0
286.0159 192.0
286.061157 2096.0
287.069672 900.0
287.174347 156.0
287.250458 164.0
287.31485 172.0
287.382019 140.0
287.574371 148.0
287.7229 180.0
287.808167 200.0
287.928284 160.0
288.041748 6240.0
288.254272 168.0
288.313995 152.0
288.382965 156.0
288.425537 164.0
288.464813 116.0
288.786469 112.0
288.956451 164.0
289.042664 2168.0
289.138153 184.0
289.258392 124.0
289.352081 188.0
289.400482 148.0
289.496399 116.0
289.70462 160.0
289.748688 196.0
289.880981 172.0
290.039062 2852.0
290.075592 780.0
290.290985 144.0
290.419861 144.0
290.71405 168.0
290.847382 156.0
290.990662 136.0
291.044983 664.0
291.087189 172.0
291.136658 196.0
291.163971 176.0
291.387848 152.0
291.524963 284.0
291.663605 120.0
291.742218 116.0
291.850464 152.0
291.903961 160.0
292.002594 152.0
292.0354 364.0
292.072296 428.0
292.222717 112.0
292.451691 184.0
292.492035 124.0
292.553802 152.0
292.60672 96.0
292.649139 144.0
292.781921 144.0
292.863678 152.0
292.893402 148.0
293.030518 152.0
293.074982 308.0
293.113159 132.0
293.154633 128.0
293.30661 136.0
293.350403 100.0
293.391296 200.0
293.467987 184.0
293.503662 120.0
293.551147 164.0
293.713135 144.0
293.76355 168.0
293.792206 228.0
293.855591 212.0
293.894318 204.0
293.9375 440.0
293.997375 292.0
294.037872 252.0
294.089539 161056.0
294.188965 256.0
294.300049 188.0
294.362274 152.0
294.406403 148.0
294.440277 192.0
294.499146 120.0
294.618744 192.0
294.649902 1004.0
294.721619 128.0
294.732452 96.0
294.744873 128.0
294.823944 104.0
294.883514 212.0
294.957703 156.0
295.009552 104.0
295.046722 332.0
295.092041 26412.0
295.216553 180.0
295.272888 112.0
295.345612 144.0
295.369843 148.0
295.446686 352.0
295.540588 228.0
295.658966 124.0
295.740051 212.0
295.805664 172.0
295.831055 256.0
295.925232 144.0
295.959381 120.0
296.023468 128.0
296.086182 56200.0
296.167633 160.0
296.190338 336.0
296.385315 128.0
296.501648 152.0
296.610687 104.0
296.696838 128.0
296.736267 136.0
296.794983 248.0
296.865387 260.0
296.925049 156.0
296.969482 152.0
297.007324 224.0
297.040985 244.0
297.089111 5016.0
297.143188 648.0
297.177673 148.0
297.301727 168.0
297.370422 268.0
297.420441 124.0
297.479309 220.0
297.740784 168.0
297.82666 156.0
298.093536 132.0
298.148468 192.0
298.781281 108.0
298.827698 120.0
299.023285 116.0
299.156372 280.0
299.221008 100.0
299.291656 172.0
299.767029 200.0
299.962128 156.0
300.084229 140.0
300.122925 140.0
300.33429 128.0
301.668732 144.0
301.992767 248.0
302.056885 1020.0
302.192047 124.0
302.339722 232.0
302.415863 156.0
302.661652 176.0
303.088043 4972.0
303.752136 116.0
304.092987 892.0
304.6698 180.0
305.08548 1724.0
305.243256 160.0
305.479767 160.0
305.51532 112.0
305.636322 196.0
305.671112 148.0
305.734467 156.0
305.783661 192.0
305.817291 160.0
305.985657 140.0
306.052002 6036.0
306.08606 1660.0
306.148041 116.0
306.355743 100.0
306.466888 124.0
306.768219 224.0
306.867462 140.0
306.994324 108.0
307.052002 1244.0
307.305267 200.0
307.903961 188.0
308.048798 2680.0
308.08606 1100.0
308.202606 156.0
308.433258 148.0
308.664001 140.0
309.050049 196.0
309.090302 288.0
309.24472 140.0
309.437256 160.0
309.766449 196.0
310.115112 156.0
310.323669 172.0
310.734009 192.0
311.262024 96.0
311.293549 108.0
311.977234 192.0
312.123199 100.0
312.360504 140.0
312.779236 160.0
313.067017 176.0
313.874908 220.0
314.06012 576.0
314.569916 172.0
314.711151 236.0
314.972473 164.0
315.079742 132.0
315.597992 172.0
316.072998 1436.0
316.705658 152.0
316.921753 172.0
317.075684 396.0
317.219452 180.0
317.535004 156.0
318.003326 160.0
318.085083 1168.0
318.599884 164.0
318.875519 208.0
319.072662 132.0
319.235107 144.0
319.392578 204.0
319.559784 140.0
319.593079 160.0
319.809052 148.0
319.894318 144.0
319.976196 156.0
320.068451 25528.0
320.168488 148.0
320.334106 176.0
320.417816 144.0
320.516693 144.0
320.853821 144.0
320.938171 160.0
321.069458 3612.0
321.193512 120.0
321.29126 148.0
321.334076 212.0
321.708801 156.0
321.862305 248.0
322.005615 124.0
322.064087 6708.0
322.16452 180.0
322.483917 204.0
322.798492 196.0
323.067139 656.0
323.848236 112.0
324.069183 152.0
324.11734 148.0
324.130188 152.0
325.12677 132.0
325.410583 152.0
325.496735 148.0
325.712219 204.0
327.137482 240.0
327.16861 196.0
327.519165 136.0
328.088623 176.0
328.437012 156.0
329.059998 164.0
329.505554 180.0
329.845245 180.0
330.070923 140.0
330.500092 156.0
330.767609 156.0
331.081726 2952.0
331.198517 140.0
331.969452 156.0
332.068726 2512.0
332.718689 224.0
333.076752 920.0
333.335358 160.0
333.371704 156.0
333.477081 140.0
333.564331 176.0
333.589783 200.0
333.629761 192.0
333.686218 136.0
333.717651 160.0
333.749725 204.0
333.775177 168.0
333.832581 184.0
333.877014 152.0
333.917999 236.0
333.975769 156.0
334.082489 24688.0
334.426361 160.0
334.460083 168.0
334.573578 156.0
334.610199 104.0
334.727997 140.0
334.921173 196.0
335.085175 5212.0
335.340576 160.0
335.474213 168.0
335.989624 160.0
336.079956 7468.0
336.194183 132.0
336.412964 168.0
336.795563 128.0
337.085175 1136.0
337.3909 120.0
337.435059 132.0
337.468781 176.0
337.611389 172.0
337.7229 104.0
338.093262 144.0
338.420868 216.0
338.784576 140.0
339.312286 128.0
340.040314 152.0
341.152954 188.0
341.40329 204.0
343.870483 168.0
344.536285 156.0
345.778687 148.0
346.08194 1212.0
347.086243 152.0
347.94342 168.0
348.089752 932.0
349.095062 688.0
349.132751 368.0
350.093445 292.0
350.263885 156.0
351.128235 284.0
352.962158 156.0
353.968719 152.0
354.051117 160.0
354.144745 140.0
354.85675 148.0
355.464386 152.0
355.558197 112.0
356.545898 176.0
358.382233 164.0
359.412872 172.0
359.981537 236.0
360.098053 5696.0
360.18927 152.0
360.793884 148.0
361.054779 180.0
361.09964 956.0
362.098053 2000.0
362.910248 176.0
363.108917 1364.0
363.720734 200.0
364.113892 452.0
364.781891 140.0
365.106262 652.0
366.109161 1280.0
367.099274 228.0
367.378967 144.0
368.116272 224.0
368.329468 180.0
368.89502 192.0
369.036469 160.0
369.12442 168.0
370.0159 296.0
370.088654 184.0
371.545044 140.0
371.615356 172.0
373.173431 232.0
373.515717 176.0
373.690552 124.0
374.827148 164.0
375.017365 180.0
375.086731 140.0
375.292542 124.0
375.639984 144.0
375.815613 156.0
375.907257 144.0
376.128052 104.0
376.161194 136.0
376.193817 148.0
376.244629 356.0
376.526459 132.0
376.564514 212.0
376.595123 104.0
376.714111 204.0
376.774963 116.0
376.863525 160.0
376.905884 140.0
376.964691 368.0
377.015198 268.0
377.051819 176.0
377.126556 113728.0
377.231384 184.0
377.280609 248.0
377.395508 212.0
377.473724 172.0
377.555328 272.0
377.609558 100.0
377.69635 164.0
377.764526 172.0
377.855347 260.0
377.944366 116.0
378.000031 128.0
378.128754 21872.0
378.188019 304.0
378.197662 516.0
378.235291 268.0
378.343689 224.0
378.440704 256.0
378.51001 136.0
378.920929 160.0
378.970612 216.0
379.028503 176.0
379.062714 292.0
379.122803 30036.0
379.614532 172.0
379.653809 112.0
379.849304 128.0
379.951508 140.0
380.015137 148.0
380.125244 3612.0
380.342896 152.0
380.358521 136.0
380.409576 104.0
380.499084 108.0
380.567078 160.0
380.683075 200.0
380.733368 148.0
381.138092 224.0
381.70874 112.0
381.957642 112.0
382.455841 112.0
382.650452 220.0
382.709412 120.0
382.970673 104.0
387.511841 112.0
392.053497 172.0
392.125305 9608.0
392.2341 152.0
392.512756 96.0
393.041321 120.0
393.127319 2016.0
393.445862 140.0
393.899994 160.0
394.12027 3344.0
394.171967 176.0
395.12262 816.0
395.378693 140.0
396.590637 232.0
397.924774 144.0
407.250061 176.0
409.151825 5456.0
409.901062 172.0
409.951508 140.0
410.154846 1824.0
411.149078 2284.0
412.100159 128.0
412.145599 340.0
415.155518 100.0
419.580292 96.0
431.447815 144.0
507.112793 144.0
547.585083 144.0
583.712891 156.0
676.536438 148.0
760.079529 104.0
796.611023 168.0
931.560486 144.0
989.97522 220.0
1038.87085 224.0
1078.18103 144.0
1203.127197 180.0
1211.737427 168.0
1228.184814 172.0
1256.701904 152.0
1262.204102 196.0
1296.838623 144.0
1298.057373 152.0
1322.016602 148.0
1329.698486 140.0
1333.227905 172.0
1344.377197 160.0
1345.97583 160.0
1351.238281 176.0
1357.383423 148.0
1361.492798 164.0
1377.150513 212.0
1380.121216 144.0
1385.356445 196.0
1386.642822 212.0
1388.310913 180.0
1392.957031 216.0
1413.272339 204.0
1421.049438 200.0
1427.997925 168.0
1432.687378 148.0
1434.28479 224.0
1437.203369 156.0
1437.950439 152.0
1439.701904 192.0
1459.365479 148.0
1460.802734 184.0
1462.667114 192.0
1482.608887 140.0
1483.091675 200.0
1484.325928 140.0
1486.235962 212.0
1486.312622 196.0
1493.587891 204.0
1501.28186 192.0
1507.02478 220.0
1508.230347 196.0
1509.482788 184.0
1512.291016 168.0
1513.212158 176.0
1517.194214 144.0
1524.801025 156.0
1531.577759 192.0
1537.604614 188.0
1538.058105 144.0
1539.876465 164.0
1548.424683 168.0
1548.597046 156.0
1548.925903 172.0
1557.947021 200.0
1563.812866 148.0
1564.064819 216.0
1570.651978 140.0
1572.324585 176.0
1574.132446 152.0
1577.616699 292.0
1578.684082 212.0
1585.04834 148.0
1588.148071 188.0
1589.060303 172.0
1590.314087 144.0
1597.509766 124.0
1603.397217 188.0
1606.257935 172.0
1606.873779 200.0
1616.437866 304.0
1616.894043 156.0
1618.887329 144.0
1619.039551 168.0
1625.556763 192.0
1628.824341 200.0
1632.634033 168.0
1639.347778 260.0
1642.121094 204.0
1643.540771 156.0
1644.097656 188.0
1644.460815 180.0
1646.454956 144.0
1647.78772 148.0
1648.401733 192.0
1650.899658 176.0
1652.484985 144.0
1653.472168 160.0
1654.832153 192.0
1656.557007 160.0
1662.970825 148.0
1671.951294 160.0
1673.905029 200.0
1680.131958 156.0
1680.466431 168.0
1682.400635 180.0
1683.682617 152.0
1685.871948 144.0
1686.615723 184.0
1693.30835 192.0
1695.585938 148.0
1696.512207 152.0
1697.553467 212.0
1700.211304 168.0
1700.908936 144.0
1703.117676 156.0
1706.536255 160.0
1707.440796 152.0
1708.304443 180.0
1711.26709 188.0
1711.917603 164.0
1713.284912 164.0
1715.996216 192.0
1718.156982 180.0
1719.105835 148.0
1725.647705 180.0
1726.292725 144.0
1730.140015 144.0
1734.928345 156.0
1740.561768 160.0
1746.620239 240.0
1746.803223 164.0
1747.543701 248.0
1748.325806 144.0
1754.339355 216.0
1756.140503 176.0
1757.859009 160.0
1759.019165 160.0
1761.657837 196.0
1765.009277 196.0
1765.778564 192.0
1772.501709 168.0
1773.078979 176.0
1774.227295 180.0
1780.234863 188.0
1782.561646 192.0
1786.193604 176.0
1786.563721 240.0
1787.320923 272.0
1788.154053 168.0
1789.33252 200.0
1790.528198 172.0
1793.316895 144.0
1796.791016 164.0
1798.048218 152.0
1798.335205 144.0
1799.939209 212.0
1800.184082 272.0
1800.834351 196.0
1802.878906 208.0
1803.208496 168.0
1804.696167 180.0
1805.085205 152.0
1806.851685 136.0
1807.563599 140.0
1808.232178 144.0
1808.384521 236.0
1808.460693 164.0
1810.433228 208.0
1810.966797 216.0
1811.780029 252.0
1812.322266 224.0
1812.644165 244.0
1813.771362 196.0
1814.737793 164.0
1815.769165 140.0
1818.263794 188.0
1818.521118 180.0
1819.650146 184.0
1821.696777 168.0
1821.892212 160.0
1821.977173 164.0
1822.393433 212.0
1823.294189 148.0
1823.897583 164.0
1825.130249 176.0
1825.521484 168.0
1828.507446 152.0
1829.971558 180.0
1830.737915 184.0
1835.168823 232.0
1837.608032 236.0
1838.205322 152.0
1838.393066 152.0
1839.920898 152.0
1841.85083 196.0
1842.508545 148.0
1844.302979 180.0
1844.931641 284.0
1850.701904 180.0
1851.678101 192.0
1852.157715 168.0
1856.099976 160.0
1856.494385 164.0
1857.429321 188.0
1857.901123 156.0
1858.922119 144.0
1859.57019 160.0
1860.501343 192.0
1862.321777 148.0
1862.914429 152.0
1863.120605 184.0
1864.100098 200.0
1864.830566 204.0
1865.062622 196.0
1866.885254 272.0
1868.984131 188.0
1869.89624 156.0
1871.764282 144.0
1874.374268 140.0
1876.525879 248.0
1876.88147 144.0
1878.469482 164.0
1881.610596 188.0
1881.835083 176.0
1883.277222 148.0
1883.588135 200.0
1887.883667 164.0
1888.242798 188.0
1891.803101 156.0
1893.525024 156.0
1893.612671 172.0
1894.236328 156.0
1894.834106 148.0
1895.977905 144.0
1897.36438 128.0
1898.119019 220.0
1898.821411 180.0
1900.426147 168.0
1901.779907 164.0
1902.170532 176.0
1904.124146 164.0
1904.984009 148.0
1907.069458 140.0
1907.625732 204.0
1909.634277 160.0
1909.747314 144.0
1910.460571 148.0
1911.165283 164.0
1911.408936 228.0
1912.096436 172.0
1912.731812 204.0
1914.594971 156.0
1914.830078 180.0
1916.337036 184.0
1917.041992 168.0
1918.053833 160.0
1918.768677 248.0
1919.483643 144.0
1920.093994 144.0
1921.541992 180.0
1921.611816 192.0
1923.470581 172.0
1923.732544 176.0
1924.221313 156.0
1927.234131 168.0
1928.00354 164.0
1928.134644 156.0
1929.54187 196.0
1930.181885 188.0
1930.285156 156.0
1930.731079 208.0
1932.191772 152.0
1932.366821 180.0
1935.438843 144.0
1935.920532 240.0
1936.192017 148.0
1936.542236 216.0
1939.530029 160.0
1943.848633 244.0
1944.143311 188.0
1944.476807 184.0
1945.679321 148.0
1947.347656 160.0
1950.510742 168.0
1950.756836 148.0
1951.02063 156.0
1953.025513 364.0
1953.790771 144.0
1954.380249 204.0
1958.702759 176.0
1959.812744 188.0
1960.21814 176.0
1961.478394 184.0
1964.908813 196.0
1965.093994 180.0
1966.082275 164.0
1966.514771 140.0
1968.333374 140.0
1969.993774 192.0
1970.2146 180.0
1971.754883 164.0
1972.087891 160.0
1973.086792 184.0
1974.634399 144.0
1974.899536 140.0
1974.970215 212.0
1977.657593 188.0
1979.483765 256.0
1980.413574 172.0
1980.794434 228.0
1983.869385 172.0
1983.940308 152.0
1984.711548 160.0
1985.565674 256.0
1985.722534 228.0
1985.84668 164.0
1986.28125 148.0
1986.569824 152.0
1989.545654 176.0
1992.690674 152.0
1993.645752 160.0
1993.792603 172.0
1994.947998 192.0
1995.819336 156.0
1999.316406 192.0
2001.166626 152.0
2001.442627 160.0
2001.505005 156.0
2001.576172 168.0
2001.923462 192.0
2003.134766 304.0
