>compound MLS002473129-01!(E)-3-(4-methoxyphenyl)prop-2-enoic acid
>formula C10H10O3
>ionization [M+H]+
>parentmass 179.071
#inchi InChI=1S/C10H10O3/c1-13-9-5-2-8(3-6-9)4-7-10(11)12/h2-7H,1H3,(H,11,12)/b7-4+
#inchikey AFDXODALSZRGIH
#Ion_Source LC-ESI
#Instrument qTof
#Compound_Source NIH Natural Product Library
#PI Dorrestein
#Data_Collector VVP/LMS
#Scan -1
#Precursor_MZ 179.071
#ExactMass 178.063
#Charge 1
#CAS_Number N/A
#Pubmed_ID N/A
#Smiles COc1ccc(/C=C/C(=O)O)cc1
#INCHI_AUX N/A
#Library_Class 3
#SpectrumID CCMSLIB00000079404
#IonMode Positive
#UpdateWorkflowName UPDATE-SINGLE-ANNOTATED-BRONZE
#LibraryQualityString Bronze
#TaskID b1d8e8f6646f4e71acdff9ca3d919d08
##Scan# 1809
#SpectrumFile p1-H05_GH5_01_17961.mzXML
#LibraryName NIH_Natural_Products_Library.mgf
#MQScore -1
#Organism NIH_Natural_Products_Library
#TIC_Query 0
#RT_Query -1
#MZErrorPPM -1
#SharedPeaks 0
#MassDiff 0
#LibMZ -1
#SpecMZ 179.071
#SpecCharge 0
#internalFilename spec-00000.mgf

>collision 10
97.501465 252.0
98.670372 132.0
98.992897 184.0
99.905914 196.0
100.857101 188.0
101.039078 332.0
102.043884 232.0
103.054428 656.0
103.081947 80.0
105.069763 344.0
105.584511 192.0
106.071815 164.0
107.04155 100.0
109.062843 180.0
110.067009 196.0
110.891258 156.0
111.073677 140.0
112.724304 140.0
112.986488 164.0
114.649086 148.0
114.815376 156.0
116.042793 164.0
116.098541 112.0
116.137146 128.0
118.039711 1088.0
119.047333 264.0
119.08123 140.0
119.899269 168.0
120.062782 96.0
120.195847 36.0
124.830757 92.0
125.967438 164.0
131.80809 84.0
132.054886 164.0
133.064835 2068.0
133.196472 32.0
133.835815 68.0
134.067963 144.0
135.109833 140.0
137.057816 160.0
144.562912 56.0
146.038376 180.0
161.057541 528.0
162.065445 176.0
180.081436 192.0
238.139099 20.0
240.148956 20.0
274.539185 20.0
834.741333 48.0
838.489075 168.0
861.951965 160.0
892.20697 204.0
907.994934 112.0
1038.808472 104.0
1073.842041 160.0
1095.308472 164.0
1148.463257 172.0
1183.305054 152.0
1194.979736 20.0
1195.537109 232.0
1240.708496 204.0
1250.894653 84.0
1259.900146 132.0
1271.910278 184.0
1279.651978 176.0
1303.240845 160.0
1322.79248 252.0
1366.022949 168.0
1366.530518 20.0
1373.743042 244.0
1405.967773 224.0
1441.874512 176.0
1464.758423 128.0
1496.718262 76.0
