>compound Gemfibrozil
>formula C15H22O3 
>ionization [M+H]+
>parentmass 251.164
#inchi InChI=1S/C15H22O3/c1-11-6-7-12(2)13(10-11)18-9-5-8-15(3,4)14(16)17/h6-7,10H,5,8-9H2,1-4H3,(H,16,17)
#inchikey HEMJJKBWTPKOJG
#Ion_Source LC-ESI
#Instrument qTof
#Compound_Source Isolated
#PI Sirenas
#Data_Collector Ed Esquenazi 
#Scan -1
#Precursor_MZ 251.164
#ExactMass 0.0
#Charge 1
#CAS_Number N/A
#Pubmed_ID N/A
#Smiles N/A
#INCHI_AUX N/A
#Library_Class 3
#SpectrumID CCMSLIB00000004573
#IonMode Positive
#UpdateWorkflowName UPDATE-SINGLE-ANNOTATED-BRONZE
#LibraryQualityString Bronze
#TaskID d19310cd93df49b68e9fcbec27720eb5
##Scan# 4
#SpectrumFile Gemfibrozil.mgf
#LibraryName fda_library.mgf
#MQScore -1
#Organism fda_library
#TIC_Query 0
#RT_Query -1
#MZErrorPPM -1
#SharedPeaks 0
#MassDiff 0
#LibMZ -1
#SpecMZ 251.164
#SpecCharge 0
#internalFilename spec-00000.mgf

>collision 10
101.096039 175.550003
103.055885 34.040138
107.084045 15.02193
108.057808 72.160019
111.080025 33.789471
111.135574 10.06944
119.084091 66.449417
121.062355 23.41667
122.630585 10.11204
122.773163 15.36915
123.080147 1570.447998
123.112617 11.35
123.209137 12.24575
123.243896 11.53846
123.294975 17.9375
123.696175 12.39254
128.639114 10.80474
129.090256 2864.154053
129.187378 15.32692
129.225327 15.74167
129.262726 12.7631
129.287292 17.52619
129.583893 12.14286
129.681778 14.28248
129.748856 12.34722
133.100815 19.50379
135.08046 20.765869
135.165726 18.077379
146.071884 28.06905
161.096268 53.540039
