>compound MLS002706489-01!
>formula C11H13NO2
>ionization [M+H]+
>parentmass 192.102
#inchi InChI=1S/C11H13NO2/c1-12-3-2-8-4-10-11(14-7-13-10)5-9(8)6-12/h4-5H,2-3,6-7H2,1H3
#inchikey XNZFFRJWTVYMBF
#Ion_Source LC-ESI
#Instrument qTof
#Compound_Source NIH Natural Product Library
#PI Dorrestein
#Data_Collector VVP/LMS
#Scan -1
#Precursor_MZ 192.102
#ExactMass 191.095
#Charge 1
#CAS_Number N/A
#Pubmed_ID N/A
#Smiles CN1CCc2cc3OCOc3cc2C1
#INCHI_AUX N/A
#Library_Class 3
#SpectrumID CCMSLIB00000080003
#IonMode Positive
#UpdateWorkflowName UPDATE-SINGLE-ANNOTATED-BRONZE
#LibraryQualityString Bronze
#TaskID b1d8e8f6646f4e71acdff9ca3d919d08
##Scan# 660
#SpectrumFile p2-G02_GG2_01_18050.mzXML
#LibraryName NIH_Natural_Products_Library.mgf
#MQScore -1
#Organism NIH_Natural_Products_Library
#TIC_Query 0
#RT_Query -1
#MZErrorPPM -1
#SharedPeaks 0
#MassDiff 0
#LibMZ -1
#SpecMZ 192.102
#SpecCharge 0
#internalFilename spec-00000.mgf

>collision 10
96.310646 176.0
103.053749 208.0
105.069763 332.0
106.072365 48.0
109.360878 176.0
116.932816 172.0
117.055527 164.0
118.06308 212.0
121.062256 148.0
121.893661 52.0
123.432304 20.0
131.051437 160.0
133.064178 152.0
134.098663 160.0
135.044632 180.0
136.056335 136.0
146.058701 188.0
147.073135 84.0
147.399185 172.0
148.082748 224.0
149.059586 1452.0
149.183044 80.0
150.06192 164.0
151.259003 160.0
151.51123 88.0
153.877213 68.0
161.057327 228.0
162.09462 136.0
163.608414 68.0
176.939743 176.0
192.106781 140.0
194.106461 144.0
199.542999 104.0
350.347198 20.0
465.760803 20.0
1299.645142 160.0
1342.957642 128.0
1390.636719 152.0
