>compound NCGC00160240-01!PERFAMINE
>formula C18H19NO4
>ionization [M+H]+
>parentmass 314.13916
#inchi InChI=1S/C18H19NO4/c1-11(2)7-9-18(22-4)14(20)6-5-12-15(21-3)13-8-10-23-17(13)19-16(12)18/h5-8,10H,9H2,1-4H3
#inchikey AOCCRKXUBBAOQI
#Ion_Source LC-ESI
#Instrument qTOF
#Compound_Source Prestwick Phytochem Lib
#PI Dorrestein
#Data_Collector VVP/LMS
#Scan -1
#Precursor_MZ 314.139
#ExactMass 314.139
#Charge 1
#CAS_Number N/A
#Pubmed_ID N/A
#Smiles COC1=C2C=COC2=NC3=C1C=CC(=O)C3(C\C=C(\C)C)OC
#INCHI_AUX N/A
#Library_Class 3
#SpectrumID CCMSLIB00000078747
#IonMode Positive
#UpdateWorkflowName UPDATE-SINGLE-ANNOTATED-BRONZE
#LibraryQualityString Bronze
#TaskID 67c915c6594c435cadc1fe2b5358144d
##Scan# 2032
#SpectrumFile p1-B03_GB3_01_17887.mzXML
#LibraryName phytochem_lib.mgf
#MQScore -1
#Organism phytochem_lib
#TIC_Query 0
#RT_Query -1
#MZErrorPPM -1
#SharedPeaks 0
#MassDiff 0
#LibMZ -1
#SpecMZ 314.139
#SpecCharge 0
#internalFilename spec-00000.mgf

>collision 10
95.108688 148.0
96.126534 208.0
96.17337 80.0
97.26165 120.0
98.2416 164.0
99.385132 104.0
99.766449 148.0
100.027046 144.0
100.040977 92.0
100.0569 116.0
100.078804 148.0
100.176392 136.0
101.708099 132.0
102.188385 80.0
103.87323 192.0
106.01403 164.0
106.2211 48.0
107.061722 152.0
109.416008 168.0
110.888649 72.0
112.451004 264.0
114.218414 136.0
114.778519 132.0
115.055885 196.0
115.265198 204.0
115.421234 68.0
116.931465 152.0
116.961594 164.0
117.653557 156.0
118.382202 92.0
118.882645 136.0
119.376076 188.0
121.881134 160.0
121.911896 164.0
122.843231 140.0
124.314545 136.0
126.478615 168.0
126.523392 140.0
127.041061 144.0
128.021027 188.0
128.046677 152.0
129.059845 160.0
130.067123 248.0
130.630661 148.0
131.393814 204.0
131.514755 104.0
131.654022 252.0
132.237 196.0
132.711182 160.0
132.90155 208.0
133.050735 120.0
133.089767 188.0
133.744949 164.0
134.415588 348.0
136.99144 216.0
137.124252 36.0
138.887161 120.0
139.59407 40.0
140.050522 208.0
140.736877 112.0
141.050858 164.0
141.096008 144.0
142.06459 380.0
143.03833 228.0
143.224594 180.0
143.400909 140.0
144.078583 144.0
145.051941 192.0
145.148438 164.0
146.289642 196.0
150.044662 132.0
150.884491 196.0
151.599213 144.0
152.045242 164.0
152.691666 152.0
155.041504 136.0
155.069199 164.0
155.339478 108.0
155.778839 104.0
156.041046 168.0
156.087021 244.0
156.911163 120.0
157.087479 348.0
158.092621 232.0
158.643631 156.0
160.025391 144.0
161.056793 152.0
161.658508 132.0
164.860153 64.0
168.044861 432.0
168.860443 88.0
169.048645 208.0
169.085526 172.0
170.061264 492.0
171.04512 232.0
171.104996 212.0
171.386292 140.0
172.477142 124.0
172.594788 28.0
173.301483 188.0
173.450867 140.0
173.768173 188.0
173.804901 132.0
174.056885 196.0
174.7771 108.0
177.553436 132.0
177.572006 180.0
178.036438 140.0
178.559982 216.0
179.470703 220.0
180.290192 172.0
181.779099 172.0
182.06366 232.0
182.222137 152.0
182.829834 200.0
183.029022 176.0
183.072113 112.0
184.043472 264.0
185.046127 1080.0
185.081131 192.0
186.051956 184.0
186.220108 52.0
186.671234 92.0
187.057556 204.0
187.357117 68.0
188.033585 1016.0
188.066086 228.0
189.211456 164.0
190.033661 176.0
190.338318 152.0
190.426193 172.0
190.571793 196.0
192.083176 172.0
192.803787 40.0
197.055252 216.0
197.301193 92.0
197.454971 140.0
198.053833 488.0
198.135162 88.0
199.057739 288.0
199.560898 192.0
199.583389 112.0
200.032318 348.0
200.071259 2380.0
200.109604 288.0
200.168655 52.0
200.305908 144.0
200.501068 48.0
200.735046 160.0
201.014313 80.0
201.045273 144.0
201.068466 644.0
201.121552 36.0
201.63559 104.0
202.051682 104.0
202.107834 96.0
202.317261 76.0
202.566467 104.0
202.606125 80.0
204.653839 92.0
208.363358 220.0
209.796539 124.0
210.056061 148.0
210.087799 140.0
210.772049 60.0
211.025894 2632.0
211.246185 56.0
211.636887 52.0
212.030014 236.0
212.078384 200.0
213.040085 140.0
213.080612 1432.0
214.055634 200.0
214.086029 204.0
215.053391 176.0
215.084763 220.0
215.262863 124.0
216.030991 956.0
216.064896 1024.0
216.769333 72.0
217.029831 564.0
217.069794 168.0
218.02533 156.0
218.557571 140.0
219.335037 36.0
220.072556 132.0
222.084869 144.0
224.070694 120.0
224.756332 120.0
224.989136 200.0
225.090652 168.0
225.819824 180.0
225.873657 212.0
225.981354 88.0
226.048096 3400.0
226.418396 100.0
227.05629 512.0
228.054123 312.0
228.102676 1360.0
228.348145 48.0
229.100662 112.0
229.148865 64.0
229.441193 104.0
230.041595 176.0
230.079361 288.0
230.110962 148.0
230.90567 88.0
231.051575 3396.0
231.15979 108.0
231.795685 100.0
231.880539 56.0
231.901749 104.0
231.98056 36.0
232.061005 368.0
232.097198 136.0
233.05687 192.0
233.468307 128.0
233.68428 84.0
233.714706 60.0
233.790787 148.0
234.049515 76.0
234.354111 44.0
238.092133 144.0
239.091278 140.0
240.067825 192.0
240.089417 196.0
241.066757 152.0
242.083374 156.0
242.178665 48.0
242.916382 140.0
244.064224 348.0
245.066544 216.0
246.073349 2572.0
247.076157 504.0
248.082062 140.0
248.259171 80.0
249.080032 184.0
249.188263 68.0
249.968048 136.0
250.081329 184.0
251.111603 48.0
252.060898 236.0
252.090256 164.0
253.07225 180.0
254.111801 344.0
255.09169 96.0
256.07489 172.0
256.103119 120.0
257.06955 172.0
257.098267 160.0
258.910889 192.0
264.105072 304.0
264.522949 176.0
265.073517 72.0
265.105927 144.0
266.06955 168.0
266.108215 84.0
267.649384 88.0
268.571625 64.0
270.110107 80.0
272.128326 320.0
273.114655 200.0
274.13855 164.0
282.120026 296.0
282.529083 92.0
283.11496 112.0
284.103607 168.0
285.584961 48.0
285.867554 56.0
285.978607 32.0
286.148163 336.0
286.204163 60.0
286.234467 64.0
286.284973 52.0
287.134216 84.0
287.309601 84.0
292.902954 172.0
296.128601 240.0
313.186005 80.0
313.474884 132.0
314.13916 620.0
314.416443 76.0
315.13327 116.0
315.705902 56.0
316.225952 108.0
359.311523 80.0
369.577606 88.0
384.466919 60.0
474.312805 48.0
573.934631 20.0
582.090637 120.0
684.690369 120.0
816.327209 60.0
1159.590576 160.0
1282.575317 164.0
1283.380981 180.0
1369.895752 112.0
1401.873779 60.0
1404.498047 148.0
1453.126099 160.0
1480.766479 188.0
1487.314209 152.0
1497.23999 168.0
