>compound MLS002473216-01!(E)-5-(1,3-benzodioxol-5-yl)-1-piperidin-1-ylpent-2-en-1-one
>formula C17H21NO3
>ionization [M+H]+
>parentmass 288.158325
#inchi InChI=1S/C17H21NO3/c19-17(18-10-4-1-5-11-18)7-3-2-6-14-8-9-15-16(12-14)21-13-20-15/h3,7-9,12H,1-2,4-6,10-11,13H2/b7-3+
#inchikey QHWOFMXDKFORMO
#Ion_Source LC-ESI
#Instrument qTof
#Compound_Source NIH Natural Product Library
#PI Dorrestein
#Data_Collector VVP/LMS
#Scan -1
#Precursor_MZ 288.16
#ExactMass 287.152
#Charge 1
#CAS_Number N/A
#Pubmed_ID N/A
#Smiles O=C(/C=C/CCc1ccc2OCOc2c1)N3CCCCC3
#INCHI_AUX N/A
#Library_Class 1
#SpectrumID CCMSLIB00000079762
#IonMode Positive
#UpdateWorkflowName UPDATE-SINGLE-ANNOTATED-GOLD
#LibraryQualityString Gold
#TaskID b1d8e8f6646f4e71acdff9ca3d919d08
##Scan# 2196
#SpectrumFile p1-G10_GG10_01_17954.mzXML
#LibraryName NIH_Natural_Products_Library.mgf
#MQScore -1
#Organism NIH_Natural_Products_Library
#TIC_Query 0
#RT_Query -1
#MZErrorPPM -1
#SharedPeaks 0
#MassDiff 0
#LibMZ -1
#SpecMZ 288.16
#SpecCharge 0
#internalFilename spec-00000.mgf

>collision 10
95.04451 116.0
95.084564 188.0
95.158463 136.0
95.26722 60.0
95.286644 132.0
95.352715 160.0
95.389641 148.0
95.420746 140.0
95.440193 180.0
95.470291 148.0
95.558838 48.0
95.586075 132.0
95.63015 124.0
95.72818 192.0
95.771454 220.0
95.819725 112.0
95.844688 168.0
95.917168 324.0
95.942505 112.0
96.026352 112.0
96.045349 324.0
96.086464 236.0
96.11219 164.0
96.1278 84.0
96.174637 120.0
96.278114 140.0
96.298401 208.0
96.326942 140.0
96.369926 132.0
96.406235 144.0
96.629967 48.0
96.721939 176.0
96.735641 156.0
96.86097 184.0
96.900146 224.0
96.968735 68.0
96.990295 152.0
97.049026 224.0
97.084404 172.0
97.214676 128.0
97.239388 152.0
97.310829 204.0
97.339508 148.0
97.360924 212.0
97.402359 160.0
97.427895 92.0
97.486839 140.0
97.530075 180.0
97.545807 252.0
97.559563 104.0
97.598885 60.0
97.618546 136.0
97.669685 164.0
97.737732 156.0
97.823166 172.0
97.840889 176.0
97.930153 240.0
97.955109 32.0
97.984657 100.0
97.998444 148.0
98.022095 96.0
98.047707 204.0
98.06234 180.0
98.077271 128.0
98.095917 744.0
98.18177 220.0
98.205437 168.0
98.248833 56.0
98.262642 60.0
98.317894 52.0
98.351448 144.0
98.365265 108.0
98.396851 144.0
98.423683 156.0
98.537071 216.0
98.641815 148.0
98.716942 148.0
98.763084 396.0
98.861572 148.0
98.898956 152.0
98.916771 92.0
98.934593 164.0
98.97023 116.0
98.984085 236.0
99.007278 236.0
99.071999 248.0
99.176262 144.0
99.249611 168.0
99.313072 48.0
99.353371 228.0
99.40036 48.0
99.43013 252.0
99.475784 124.0
99.608826 136.0
99.714134 124.0
99.825462 64.0
99.839386 176.0
99.918945 180.0
99.952774 176.0
100.005043 200.0
100.114014 192.0
100.181732 204.0
100.207634 192.0
100.327217 232.0
100.355125 176.0
100.375061 176.0
100.428909 204.0
100.450058 240.0
100.508934 180.0
100.540642 176.0
100.557945 208.0
100.575272 216.0
100.632462 204.0
100.650429 144.0
100.686378 184.0
100.71434 156.0
100.81823 144.0
100.837837 168.0
100.894188 200.0
100.940437 152.0
101.054741 72.0
101.193718 196.0
101.249222 120.0
101.364876 120.0
101.472076 80.0
101.568726 208.0
101.599129 184.0
101.678307 156.0
101.7118 188.0
101.771729 120.0
101.844025 112.0
101.950508 248.0
102.020859 180.0
102.059326 212.0
102.212265 168.0
102.251663 220.0
102.304512 152.0
102.368942 160.0
102.431374 100.0
102.463608 92.0
102.485771 160.0
102.522041 76.0
102.638962 48.0
102.65509 100.0
102.699463 196.0
102.735771 164.0
102.804375 168.0
102.91539 132.0
102.937607 116.0
102.961838 180.0
103.028496 140.0
103.054062 1648.0
103.095177 176.0
103.165916 104.0
103.228836 148.0
103.244774 28.0
103.343887 272.0
103.417267 216.0
103.432938 128.0
103.495529 180.0
103.52607 144.0
103.625626 160.0
103.659767 184.0
103.686111 164.0
103.753006 172.0
103.854393 136.0
103.924004 180.0
104.005508 76.0
104.05645 148.0
104.099808 104.0
104.115082 172.0
104.189339 56.0
104.359909 112.0
104.427162 144.0
104.681557 160.0
104.748528 168.0
104.84465 132.0
104.903641 140.0
104.954605 208.0
104.982475 152.0
105.001511 144.0
105.033157 7972.0
105.148407 212.0
105.170853 212.0
105.246391 140.0
105.281105 116.0
105.421989 212.0
105.475204 268.0
105.556984 176.0
105.626518 116.0
105.673569 208.0
105.737007 52.0
105.861885 80.0
105.876221 176.0
105.890556 172.0
105.985771 152.0
106.035408 704.0
106.053787 108.0
106.069016 164.0
106.089317 164.0
106.140251 180.0
106.146294 152.0
106.234917 112.0
106.3293 468.0
106.351883 212.0
106.388832 168.0
106.464989 128.0
106.518204 188.0
106.551071 160.0
106.612717 132.0
106.664093 164.0
106.731941 204.0
106.857407 160.0
106.873863 152.0
107.048309 664.0
107.094139 184.0
107.118858 156.0
107.147697 208.0
107.166245 168.0
107.193909 188.0
107.25486 164.0
107.289902 160.0
107.324951 252.0
107.436325 140.0
107.565376 104.0
107.59523 180.0
107.630333 176.0
107.644012 248.0
107.689186 72.0
107.756325 132.0
107.909264 144.0
107.923744 128.0
107.939079 212.0
107.969231 176.0
108.098785 192.0
108.198914 164.0
108.356316 48.0
108.426765 212.0
108.536476 208.0
108.569817 196.0
108.609222 64.0
108.646561 184.0
108.677681 164.0
108.715034 116.0
108.744087 180.0
108.779373 124.0
108.795982 132.0
108.926811 152.0
108.964203 196.0
109.034851 156.0
109.055634 148.0
109.074341 200.0
109.271904 88.0
109.563377 200.0
109.707169 80.0
109.858879 204.0
109.907387 144.0
109.959564 88.0
109.992958 108.0
110.024269 176.0
110.060905 1152.0
110.096558 1320.0
110.15583 264.0
110.231049 188.0
110.268661 232.0
110.287476 184.0
110.329285 48.0
110.348099 156.0
110.424286 176.0
110.444298 208.0
110.492409 152.0
110.540535 96.0
110.567741 160.0
110.733665 200.0
110.781311 72.0
110.795975 144.0
111.037033 52.0
111.064178 360.0
111.1017 732.0
111.188087 84.0
111.319885 164.0
111.398056 168.0
111.555664 108.0
111.62925 220.0
111.643967 200.0
111.658691 176.0
111.738625 136.0
111.765587 152.0
111.797539 136.0
111.886688 168.0
111.911209 96.0
111.930161 156.0
111.944901 172.0
112.046005 152.0
112.074829 840.0
112.110779 140.0
112.172447 220.0
112.227257 148.0
112.282089 184.0
112.36174 236.0
112.396004 192.0
112.421326 180.0
112.47831 140.0
112.577538 180.0
112.617668 64.0
112.83744 128.0
112.905106 112.0
113.049393 232.0
113.089172 176.0
113.135742 112.0
113.199257 116.0
113.268341 252.0
113.283974 128.0
113.301682 180.0
113.38356 164.0
113.415352 176.0
113.464111 132.0
113.536209 196.0
113.565895 152.0
113.591393 216.0
113.638023 68.0
113.663628 184.0
113.708054 148.0
113.788963 172.0
113.855988 176.0
113.913834 192.0
113.982002 144.0
114.062759 208.0
114.079765 148.0
114.175446 200.0
114.2967 156.0
114.354164 112.0
114.441437 228.0
114.479767 164.0
114.509254 128.0
114.567093 200.0
114.63102 40.0
114.686424 156.0
114.735458 160.0
114.75251 88.0
114.794006 196.0
114.807953 196.0
114.893272 136.0
114.908203 68.0
114.995697 160.0
115.054718 576.0
115.081329 208.0
115.132286 176.0
115.185814 212.0
115.224182 252.0
115.369164 124.0
115.455772 220.0
115.506325 188.0
115.581245 172.0
115.622581 164.0
115.656151 208.0
115.671135 204.0
115.788895 168.0
115.82959 180.0
115.878868 164.0
115.93029 168.0
115.981728 144.0
116.062706 176.0
116.209045 40.0
116.284157 152.0
116.361435 176.0
116.445175 188.0
116.510399 88.0
116.562599 176.0
116.60202 140.0
116.634254 224.0
116.655754 196.0
116.76326 168.0
116.81488 152.0
116.845001 188.0
116.918159 80.0
116.976631 192.0
117.070038 1796.0
117.124397 188.0
117.138657 344.0
117.333885 120.0
117.461349 148.0
117.566841 216.0
117.641647 188.0
117.685562 144.0
117.741707 176.0
117.767624 176.0
117.80867 152.0
117.823792 96.0
117.888611 76.0
117.916702 120.0
117.998848 192.0
118.074112 220.0
118.15889 176.0
118.191345 172.0
118.293068 216.0
118.375343 196.0
118.516136 172.0
118.62233 156.0
118.683037 164.0
118.735077 192.0
118.77195 176.0
118.858734 180.0
118.882599 160.0
118.921669 116.0
118.949318 216.0
118.999817 148.0
119.029587 180.0
119.036934 128.0
119.041794 192.0
119.058441 168.0
119.077667 160.0
119.143158 368.0
119.175743 96.0
119.253975 172.0
119.275711 108.0
119.306145 132.0
119.360504 72.0
119.388771 88.0
119.543228 180.0
119.580544 136.0
119.691254 176.0
119.758072 164.0
119.791435 192.0
119.854614 204.0
119.959229 152.0
120.059525 324.0
120.080467 1016.0
120.201317 252.0
120.218987 208.0
120.284256 184.0
120.325729 200.0
120.375175 168.0
120.408707 200.0
120.499527 208.0
120.518524 220.0
120.548019 172.0
120.629395 124.0
120.678703 100.0
120.701546 84.0
120.735229 212.0
120.765182 160.0
120.918114 188.0
121.062828 824.0
121.080399 348.0
121.242249 92.0
121.261971 176.0
121.329926 100.0
121.377167 72.0
121.457115 144.0
121.547058 124.0
121.593147 44.0
121.619484 32.0
121.746826 120.0
121.772781 208.0
121.810486 184.0
121.98851 228.0
122.044029 160.0
122.067039 272.0
122.094055 144.0
122.146843 200.0
122.325081 44.0
122.410942 188.0
122.458878 220.0
122.51667 148.0
122.538696 184.0
122.59819 180.0
122.662109 100.0
122.973114 140.0
123.012848 132.0
123.069504 336.0
123.129875 156.0
123.237083 188.0
123.361877 116.0
123.428207 168.0
123.649422 168.0
123.669342 208.0
123.715828 200.0
123.784462 164.0
123.807762 164.0
123.877487 148.0
124.008217 180.0
124.025948 76.0
124.074768 368.0
124.112892 1212.0
124.318855 236.0
124.369751 176.0
124.429688 188.0
124.474098 192.0
124.511848 216.0
124.566971 152.0
124.625145 184.0
124.709587 148.0
124.834084 128.0
124.945297 180.0
125.081879 440.0
125.114441 116.0
125.243591 144.0
125.315636 224.0
125.339394 108.0
125.421852 172.0
125.495415 172.0
125.557854 180.0
125.589081 64.0
125.876976 172.0
125.901543 108.0
125.95961 184.0
126.045784 140.0
126.093498 204.0
126.11602 104.0
126.149551 92.0
126.261353 168.0
126.321739 120.0
126.354012 188.0
126.422424 140.0
126.44165 144.0
126.516434 152.0
126.592773 208.0
126.609215 180.0
126.693352 120.0
126.767288 156.0
126.840546 216.0
127.038582 128.0
127.064468 208.0
127.215866 172.0
127.267502 132.0
127.2967 208.0
127.378815 320.0
127.504372 208.0
127.539337 260.0
127.667488 176.0
127.75071 96.0
127.851959 44.0
127.917236 168.0
127.964508 408.0
128.144684 124.0
128.190857 172.0
128.19545 84.0
128.204102 132.0
128.248352 108.0
128.289322 112.0
128.397156 116.0
128.430984 196.0
128.548309 192.0
128.568237 188.0
128.593445 172.0
128.680847 128.0
128.70047 156.0
128.755997 160.0
128.839569 148.0
128.90509 140.0
128.920914 128.0
129.029892 444.0
129.065582 320.0
129.090454 164.0
129.171875 208.0
129.314423 176.0
129.339325 132.0
129.391388 192.0
129.590698 200.0
129.719879 116.0
129.876343 228.0
129.897079 84.0
129.919434 172.0
129.975937 200.0
130.005661 176.0
130.039703 248.0
130.107803 164.0
130.266769 156.0
130.307663 200.0
130.371277 120.0
130.422134 212.0
130.466125 176.0
130.471939 128.0
130.479523 84.0
130.69191 156.0
130.946869 208.0
130.962814 208.0
131.018677 152.0
131.048782 2896.0
131.095352 164.0
131.202087 136.0
131.252243 188.0
131.316101 136.0
131.452972 188.0
131.523727 160.0
131.569382 76.0
131.615051 152.0
131.70639 160.0
131.854904 160.0
131.905197 252.0
131.941772 176.0
131.97377 140.0
132.050766 988.0
132.089035 160.0
132.132812 180.0
132.231827 184.0
132.280334 160.0
132.306686 164.0
132.335281 112.0
132.358185 216.0
132.406265 116.0
132.644104 20.0
132.665192 172.0
132.729385 84.0
132.747726 44.0
132.777542 260.0
132.841766 276.0
132.878479 248.0
132.954193 268.0
133.039459 248.0
133.063995 168.0
133.081757 84.0
133.088593 184.0
133.128677 168.0
133.172302 136.0
133.192108 212.0
133.25145 132.0
133.280273 156.0
133.312454 164.0
133.469284 196.0
133.496353 176.0
133.512451 108.0
133.540054 168.0
133.57785 148.0
133.586624 196.0
133.615936 168.0
133.641266 224.0
133.72641 148.0
133.823105 148.0
134.035004 208.0
134.05806 116.0
134.093964 480.0
134.18483 180.0
134.217102 184.0
134.240173 128.0
134.274765 124.0
134.334732 164.0
134.415482 172.0
134.463943 176.0
134.503479 248.0
134.535492 144.0
134.555344 184.0
134.575668 40.0
134.599365 212.0
134.663818 188.0
134.693146 152.0
134.730774 172.0
134.736801 96.0
134.744476 188.0
134.76088 156.0
134.777832 172.0
134.793701 116.0
134.802551 180.0
134.808289 228.0
134.835846 148.0
134.884384 256.0
134.913239 176.0
134.934158 276.0
134.951782 508.0
134.980682 504.0
134.999802 232.0
135.044449 208060.0
135.109558 72.0
135.126038 76.0
135.130325 156.0
135.150269 28.0
135.167969 248.0
135.191727 180.0
135.254074 232.0
135.297241 88.0
135.332642 76.0
135.356277 52.0
135.400879 116.0
135.424515 1700.0
135.488495 160.0
135.51944 136.0
135.567978 124.0
135.594391 104.0
135.616226 60.0
135.633423 64.0
135.664154 80.0
135.68866 88.0
135.705307 76.0
135.739868 224.0
135.784256 124.0
135.836929 72.0
135.863876 148.0
135.888336 124.0
135.928833 32.0
135.977631 84.0
136.003098 52.0
136.047241 18416.0
136.076614 868.0
136.111374 956.0
136.144562 112.0
136.162842 80.0
136.182678 212.0
136.230133 164.0
136.252502 120.0
136.272018 180.0
136.291077 28.0
136.332901 36.0
136.361954 68.0
136.383316 172.0
136.405899 108.0
136.440277 80.0
136.45961 76.0
136.500275 32.0
136.516556 48.0
136.535156 44.0
136.572372 104.0
136.607254 84.0
136.651154 60.0
136.674469 84.0
136.700317 68.0
136.729095 120.0
136.77832 204.0
136.830673 76.0
136.863022 152.0
136.870621 156.0
136.89238 104.0
136.940369 128.0
136.966675 212.0
136.999374 208.0
137.048813 1700.0
137.11937 288.0
137.137863 184.0
137.163223 80.0
137.181824 268.0
137.215759 192.0
137.242355 132.0
137.259384 152.0
137.328079 176.0
137.387665 112.0
137.462326 124.0
137.481003 80.0
137.511475 140.0
137.530014 156.0
137.558014 36.0
137.597702 84.0
137.635071 64.0
137.658859 228.0
137.68956 180.0
137.73082 80.0
137.754181 188.0
137.796219 44.0
137.82193 124.0
137.842957 92.0
137.863983 128.0
137.88324 136.0
137.911774 188.0
137.92128 140.0
137.93927 152.0
137.980057 164.0
138.002716 348.0
138.020615 132.0
138.057129 428.0
138.091461 77916.0
138.124008 896.0
138.15564 76.0
138.164963 104.0
138.189819 104.0
138.218613 52.0
138.25444 244.0
138.283936 124.0
138.310806 88.0
138.329346 112.0
138.359863 64.0
138.416199 136.0
138.475082 188.0
138.504608 92.0
138.526138 136.0
138.559525 76.0
138.593811 108.0
138.612823 48.0
138.629227 88.0
138.65715 48.0
138.702499 92.0
138.74408 40.0
138.78862 172.0
138.825974 56.0
138.849594 80.0
138.87178 104.0
138.962189 116.0
139.013809 200.0
139.09433 7612.0
139.134583 244.0
139.167801 160.0
139.208649 48.0
139.238174 64.0
139.274414 40.0
139.295547 48.0
139.36618 76.0
139.424774 184.0
139.467087 80.0
139.528503 64.0
139.584641 52.0
139.636368 60.0
139.690475 136.0
139.737518 52.0
139.81752 36.0
139.838715 124.0
139.870087 96.0
139.895203 40.0
139.925812 184.0
139.956421 108.0
139.98703 48.0
140.027344 100.0
140.056824 176.0
140.076996 192.0
140.103607 2408.0
140.149551 124.0
140.196014 108.0
140.27446 60.0
140.314545 156.0
140.331039 64.0
140.35463 244.0
140.517365 56.0
140.609406 32.0
140.665253 60.0
140.824249 60.0
140.883301 108.0
141.010895 56.0
141.055817 28.0
141.113312 176.0
141.17485 80.0
141.289932 104.0
141.42244 68.0
141.457947 112.0
141.50766 36.0
141.552658 208.0
141.633179 52.0
141.962616 48.0
142.088318 184.0
142.342285 64.0
142.605988 68.0
143.124603 36.0
143.176987 112.0
143.486755 68.0
143.546371 60.0
143.818344 76.0
143.906662 84.0
144.0858 36.0
144.186157 204.0
144.272202 108.0
144.334366 136.0
144.482651 120.0
144.537689 76.0
144.609482 100.0
144.666931 100.0
144.719604 184.0
144.78331 112.0
145.064056 652.0
145.098145 172.0
145.146103 44.0
145.165283 156.0
145.198868 56.0
145.262299 104.0
145.278015 140.0
145.501205 48.0
145.546814 84.0
145.79184 136.0
145.979355 48.0
146.005798 96.0
146.05661 64.0
146.067184 108.0
146.174194 64.0
146.198273 56.0
146.313049 116.0
146.342697 76.0
146.373993 44.0
146.499237 56.0
146.573929 136.0
146.636581 84.0
146.708893 116.0
147.022461 116.0
147.041763 164.0
147.077972 364.0
147.191437 136.0
147.312057 72.0
147.362106 164.0
147.483765 76.0
147.551453 144.0
147.599808 136.0
147.672348 48.0
148.025681 80.0
148.104477 184.0
148.207352 84.0
148.876862 176.0
148.9133 92.0
149.057663 312.0
149.192734 32.0
149.747528 64.0
150.088974 164.0
150.40097 44.0
150.579208 120.0
150.750229 96.0
150.891998 188.0
150.945786 196.0
151.109665 156.0
151.206512 128.0
151.227127 96.0
151.329941 52.0
151.513626 204.0
151.964737 152.0
152.106339 7240.0
152.470596 92.0
152.640213 184.0
152.686935 80.0
152.871445 44.0
153.011749 88.0
153.112946 3868.0
153.192627 44.0
153.359085 60.0
153.726547 92.0
154.119064 324.0
154.143875 52.0
154.20813 48.0
154.345001 124.0
154.408401 128.0
154.43808 64.0
154.545258 204.0
155.061005 276.0
155.23555 60.0
155.664841 96.0
155.992798 192.0
156.179291 68.0
156.365906 72.0
157.028625 136.0
157.066162 156.0
157.245682 92.0
157.585297 88.0
157.607788 40.0
158.13295 124.0
158.583771 40.0
158.75676 44.0
159.047592 96.0
159.082947 168.0
159.168304 52.0
159.555237 120.0
159.57283 80.0
160.043335 100.0
160.081116 128.0
160.668396 92.0
160.845032 104.0
161.058533 2564.0
161.158188 44.0
161.178406 64.0
161.509583 60.0
161.636078 108.0
161.81073 36.0
161.881622 148.0
162.061371 360.0
162.393555 96.0
162.588913 60.0
163.061295 164.0
163.203659 68.0
163.725311 100.0
163.766068 112.0
163.997925 60.0
165.59993 48.0
166.076508 188.0
166.121536 1092.0
166.880463 228.0
167.608887 60.0
167.858917 72.0
169.526276 136.0
169.567734 168.0
170.754227 136.0
171.934433 88.0
172.044052 116.0
172.36792 72.0
172.9785 44.0
173.057983 284.0
173.173691 92.0
173.378036 56.0
174.060089 116.0
174.099487 164.0
175.036987 196.0
175.075058 1128.0
175.114655 164.0
175.54422 64.0
176.045624 192.0
176.085236 144.0
177.625702 104.0
179.095627 136.0
183.059387 112.0
183.90863 100.0
184.121918 204.0
184.486694 176.0
185.053253 328.0
186.440964 192.0
187.071991 184.0
187.58139 96.0
189.826065 128.0
191.073074 152.0
193.006516 48.0
195.85112 128.0
196.634598 100.0
199.685684 212.0
202.22496 140.0
203.065613 520.0
204.068161 260.0
204.262253 100.0
204.467117 160.0
204.934128 72.0
205.082169 172.0
206.083969 136.0
209.204346 92.0
212.229279 88.0
212.525116 40.0
213.207535 200.0
215.17955 196.0
215.410263 192.0
216.937805 120.0
217.163589 64.0
217.906265 104.0
221.686722 100.0
221.899551 84.0
226.785507 96.0
227.655548 100.0
230.124695 128.0
230.154892 144.0
231.11911 144.0
234.593582 196.0
234.614914 68.0
237.078522 148.0
237.244034 120.0
237.685684 48.0
238.253693 120.0
241.174973 108.0
241.462524 136.0
242.211548 72.0
242.381943 212.0
245.621475 156.0
247.152298 164.0
247.330688 220.0
247.885025 44.0
249.6241 192.0
249.724731 188.0
250.48645 40.0
250.779495 108.0
251.426041 136.0
251.688049 64.0
252.171387 188.0
252.46225 72.0
252.867203 176.0
253.218628 64.0
254.258514 112.0
254.776093 84.0
255.526382 60.0
256.131226 104.0
256.688965 108.0
258.324219 52.0
259.060486 80.0
260.166229 456.0
260.459106 116.0
261.159821 96.0
262.41571 96.0
263.086761 192.0
263.190094 60.0
264.297028 96.0
264.509125 140.0
266.448395 76.0
266.802643 144.0
269.971954 84.0
271.950806 228.0
276.691101 176.0
277.734955 184.0
285.547424 76.0
286.151031 192.0
286.860596 44.0
287.231537 164.0
287.315857 140.0
287.346222 48.0
287.379974 148.0
287.558807 76.0
287.710724 128.0
287.855316 164.0
287.967346 172.0
288.017792 120.0
288.050354 308.0
288.105835 156.0
288.158325 13816.0
288.23761 28.0
288.264648 36.0
288.372772 40.0
288.450531 64.0
288.484344 64.0
288.606049 140.0
288.666901 44.0
288.697357 48.0
288.826569 260.0
288.883362 60.0
288.907043 76.0
289.022095 48.0
289.089752 80.0
289.16037 2840.0
289.211609 196.0
289.296234 108.0
289.336853 76.0
289.360535 132.0
289.44632 96.0
289.600983 72.0
289.787292 52.0
289.990631 48.0
290.024506 60.0
290.129608 72.0
290.162628 664.0
290.261841 84.0
290.296875 64.0
290.50943 48.0
290.570496 56.0
290.623077 120.0
290.774078 68.0
290.875916 56.0
291.001526 44.0
291.123749 80.0
291.190552 108.0
291.402496 64.0
291.663971 120.0
291.959747 44.0
293.20578 80.0
294.625244 44.0
296.839752 56.0
299.62381 132.0
300.413269 40.0
302.936829 60.0
305.930298 40.0
316.381683 64.0
319.451355 84.0
320.287872 72.0
342.089874 60.0
344.889618 68.0
348.153717 68.0
351.429413 56.0
355.87973 92.0
365.609894 72.0
369.968872 88.0
375.81073 56.0
380.334717 112.0
382.26239 80.0
384.444672 116.0
385.120087 48.0
387.177338 60.0
396.379852 84.0
405.955078 96.0
407.207184 56.0
408.831421 108.0
418.176361 72.0
423.889771 52.0
424.697418 64.0
425.887726 52.0
428.528778 44.0
431.496277 116.0
442.128418 104.0
462.17926 40.0
482.727203 64.0
484.832855 64.0
511.101532 76.0
521.871216 96.0
529.047791 48.0
534.767273 64.0
536.531494 60.0
540.29541 52.0
543.645447 92.0
551.82959 124.0
563.315552 76.0
577.892029 60.0
594.807922 164.0
601.296021 76.0
606.186462 100.0
622.718567 48.0
626.314697 76.0
629.062256 80.0
633.658142 76.0
636.582458 124.0
651.406372 176.0
654.36615 28.0
658.711121 44.0
669.677734 48.0
683.911438 168.0
691.024292 72.0
695.473389 172.0
696.092896 184.0
710.666809 184.0
712.546326 216.0
720.660767 196.0
721.948975 208.0
725.25769 88.0
726.391907 224.0
730.6922 108.0
734.544006 96.0
739.34729 236.0
744.883118 208.0
750.286926 144.0
751.983398 188.0
752.344055 244.0
753.883911 176.0
764.908142 228.0
766.703674 140.0
769.196716 172.0
770.240356 144.0
770.842529 192.0
770.953064 52.0
771.190735 176.0
771.356567 72.0
771.981323 132.0
773.237122 216.0
774.710022 136.0
774.831909 84.0
783.487549 192.0
785.248962 212.0
785.974182 144.0
791.754395 108.0
792.830017 128.0
801.438843 176.0
806.585754 160.0
814.848267 144.0
815.376709 176.0
816.354553 132.0
816.809509 156.0
818.944031 228.0
820.511108 156.0
822.182373 208.0
823.746826 156.0
825.209839 120.0
825.564392 36.0
827.257996 192.0
827.727478 216.0
829.835999 172.0
832.096558 228.0
834.756897 136.0
838.838928 112.0
838.98877 168.0
839.703796 156.0
840.586487 196.0
843.682251 196.0
845.510071 132.0
847.113953 112.0
850.175354 44.0
851.748779 208.0
854.347229 136.0
859.445129 72.0
864.757202 132.0
867.656799 164.0
870.026917 136.0
871.442322 164.0
871.818359 148.0
874.158875 144.0
874.706238 120.0
875.065308 184.0
875.130127 44.0
876.891479 156.0
879.049927 52.0
879.504333 212.0
887.372253 140.0
890.463867 116.0
891.521362 200.0
891.913635 224.0
892.496277 176.0
894.614319 188.0
895.799316 176.0
897.05072 140.0
897.295166 200.0
901.586914 116.0
904.565552 140.0
904.733154 168.0
908.41864 188.0
909.528748 156.0
910.321289 132.0
912.556519 192.0
913.236084 124.0
918.08429 196.0
918.199829 152.0
918.759827 152.0
920.033203 164.0
923.066284 68.0
925.117371 164.0
925.849976 128.0
926.376953 184.0
927.134338 196.0
928.401367 200.0
931.235596 112.0
931.381348 172.0
933.320007 152.0
934.542603 144.0
936.265259 180.0
941.058167 192.0
941.168091 160.0
942.450745 148.0
944.272461 184.0
944.602783 160.0
945.483826 152.0
945.618469 36.0
945.771484 172.0
946.506104 152.0
948.391602 188.0
948.699524 208.0
951.761047 116.0
951.865417 196.0
953.173828 80.0
955.824036 52.0
955.891724 72.0
956.778076 212.0
957.129028 140.0
958.280823 100.0
958.354736 160.0
958.477966 132.0
959.932739 128.0
961.684814 188.0
962.005798 56.0
962.215698 180.0
963.599121 124.0
964.12439 196.0
964.927917 128.0
970.475464 156.0
970.549866 196.0
971.23822 148.0
971.759338 152.0
971.852417 180.0
973.180664 128.0
973.578064 164.0
978.098145 176.0
979.156616 252.0
980.994751 204.0
981.457825 228.0
984.295166 180.0
984.950928 196.0
985.481934 124.0
986.850769 144.0
987.169678 112.0
987.413574 172.0
988.114136 116.0
988.41449 232.0
989.741455 156.0
989.960632 140.0
990.035767 156.0
993.75293 128.0
994.223572 168.0
995.774841 220.0
996.063171 156.0
1001.888367 208.0
1002.896606 172.0
1003.491455 188.0
1004.882996 120.0
1006.366211 140.0
1006.688293 204.0
1006.890381 144.0
1007.016663 136.0
1007.768433 96.0
1008.318176 136.0
1009.253784 124.0
1009.79126 112.0
1009.841858 200.0
1010.132874 152.0
1010.727539 168.0
1010.999634 140.0
1011.759216 176.0
1011.879517 124.0
1012.23407 164.0
1012.683716 188.0
1012.956116 160.0
1013.260193 164.0
1014.128296 208.0
1014.255066 180.0
1016.341553 316.0
1020.412842 184.0
1020.457397 160.0
1020.822571 204.0
1022.543823 224.0
1023.435059 160.0
1024.804443 136.0
1025.110352 176.0
1028.662842 216.0
1029.41626 220.0
1029.53125 140.0
1032.400635 216.0
1032.944214 140.0
1033.814331 196.0
1034.281616 168.0
1034.435181 168.0
1034.716919 176.0
1036.00415 76.0
1036.34375 240.0
1037.106323 60.0
1037.260132 180.0
1037.830688 192.0
1039.934814 152.0
1040.515503 160.0
1040.615356 96.0
1041.225342 196.0
1041.520752 176.0
1041.925537 212.0
1042.792969 176.0
1043.590088 224.0
1044.606201 212.0
1045.243164 140.0
1045.706543 176.0
1047.287598 116.0
1049.687866 132.0
1050.42041 176.0
1051.707153 88.0
1055.344238 196.0
1056.10083 184.0
1058.94043 204.0
1059.765015 188.0
1060.89917 240.0
1061.346436 192.0
1062.228516 136.0
1064.188477 164.0
1064.90271 140.0
1064.974243 176.0
1065.324951 112.0
1066.514038 176.0
1066.917114 204.0
1068.861816 156.0
1069.102661 240.0
1070.430664 192.0
1071.681274 88.0
1072.091797 224.0
1072.306763 208.0
1072.391602 260.0
1073.838989 236.0
1074.112915 136.0
1075.907471 60.0
1076.070679 168.0
1076.377563 152.0
1076.495117 228.0
1078.880005 204.0
1079.913086 220.0
1081.086182 68.0
1082.13147 192.0
1084.61438 184.0
1085.729004 164.0
1086.358643 28.0
1086.903198 160.0
1087.185303 184.0
1090.114258 196.0
1092.586426 180.0
1094.034302 144.0
1098.47583 120.0
1098.825439 184.0
1099.755981 168.0
1099.967163 136.0
1101.096191 204.0
1101.915283 64.0
1105.208008 180.0
1106.499512 160.0
1107.438965 160.0
1107.895996 164.0
1108.538696 132.0
1108.724243 152.0
1108.876709 196.0
1109.155029 204.0
1109.970581 212.0
1110.23584 204.0
1112.093506 176.0
1113.15564 168.0
1114.065674 208.0
1115.268311 168.0
1115.640625 172.0
1115.766968 224.0
1115.933105 188.0
1116.200928 88.0
1116.285522 220.0
1116.983887 108.0
1117.942017 156.0
1118.401123 52.0
1118.514282 176.0
1119.479736 188.0
1119.999268 164.0
1120.825317 160.0
1121.085205 172.0
1122.018311 208.0
1123.498901 44.0
1124.126099 168.0
1124.693359 136.0
1124.760132 112.0
1125.160645 132.0
1125.247437 180.0
1126.289185 168.0
1126.963989 152.0
1127.197754 156.0
1127.438354 168.0
1127.632202 56.0
1129.557861 160.0
1131.056763 208.0
1132.985352 176.0
1133.889893 156.0
1133.997192 144.0
1134.453003 28.0
1134.540161 132.0
1136.981689 144.0
1137.162842 128.0
1137.511963 148.0
1138.881714 128.0
1139.902832 84.0
1140.669067 232.0
1140.776611 140.0
1141.865967 152.0
1142.377075 152.0
1142.98938 224.0
1143.043213 228.0
1143.090332 116.0
1143.352783 164.0
1143.7229 144.0
1143.823853 124.0
1144.032593 192.0
1145.130127 188.0
1145.473633 260.0
1146.403442 200.0
1147.158325 48.0
1147.967407 172.0
1148.095581 160.0
1148.75647 152.0
1148.837524 228.0
1151.351929 152.0
1151.740112 192.0
1151.963013 48.0
1152.179199 184.0
1152.689697 208.0
1153.39563 212.0
1153.895874 192.0
1154.646362 220.0
1154.923706 196.0
1155.05896 116.0
1155.666382 152.0
1156.838623 132.0
1159.256714 180.0
1159.683594 188.0
1160.042847 192.0
1160.300537 220.0
1160.476807 100.0
1161.80603 132.0
1162.470947 132.0
1162.559204 200.0
1164.312622 168.0
1164.629883 140.0
1164.792969 144.0
1165.152954 144.0
1165.370361 216.0
1166.348999 184.0
1166.62085 164.0
1166.682129 172.0
1167.355225 204.0
1167.504761 156.0
1168.686768 168.0
1169.620728 184.0
1170.866699 180.0
1172.031616 160.0
1172.617676 188.0
1172.709473 200.0
1173.040283 184.0
1174.83374 196.0
1175.80957 144.0
1176.64917 148.0
1176.751465 232.0
1176.82666 204.0
1176.990479 128.0
1179.880615 152.0
1180.201904 144.0
1180.44812 152.0
1180.762695 44.0
1181.043091 96.0
1181.919189 136.0
1182.73999 88.0
1182.890625 192.0
1184.082031 168.0
1184.438232 216.0
1185.308228 80.0
1185.829102 172.0
1187.495117 204.0
1187.556885 128.0
1187.762695 192.0
1187.844971 36.0
1188.400635 256.0
1189.45752 152.0
1189.91748 184.0
1191.998657 200.0
1192.053589 164.0
1192.115479 180.0
1192.362915 192.0
1193.442139 160.0
1195.822388 148.0
1196.552002 136.0
1196.724121 172.0
1197.477661 220.0
1198.308228 128.0
1198.556274 172.0
1198.63208 28.0
1198.776855 228.0
1200.187622 148.0
1200.610596 136.0
1201.334839 72.0
1201.541748 124.0
1201.783203 128.0
1202.300781 188.0
1202.832153 104.0
1203.715942 228.0
1204.655273 176.0
1205.560303 200.0
1207.883423 160.0
1208.526855 148.0
1208.831299 136.0
1209.204956 172.0
1209.297485 204.0
1209.350342 220.0
1209.689453 88.0
1210.513428 44.0
1211.171387 144.0
1211.46228 172.0
1212.279907 200.0
1213.763306 68.0
1214.761963 140.0
1215.559937 180.0
1216.21228 128.0
1216.705078 224.0
1217.184204 188.0
1219.462891 116.0
1219.775635 144.0
1220.462769 104.0
1220.554321 172.0
1220.992432 192.0
1221.889771 164.0
1222.536865 128.0
1223.009155 144.0
1223.091919 136.0
1223.873291 132.0
1224.486816 160.0
1224.632446 160.0
1225.238403 216.0
1226.36731 216.0
1227.029541 180.0
1227.287476 112.0
1227.712891 224.0
1228.047607 120.0
1230.168945 68.0
1230.31543 92.0
1231.223267 32.0
1231.558472 168.0
1231.816895 276.0
1233.396118 148.0
1234.339966 184.0
1234.857422 132.0
1235.445068 116.0
1235.542969 176.0
1236.067749 212.0
1236.725586 196.0
1237.027466 152.0
1237.341553 120.0
1239.526855 244.0
1239.870239 128.0
1240.458984 184.0
1240.942749 152.0
1242.043823 152.0
1244.861816 144.0
1245.286499 192.0
1245.37085 180.0
1245.476196 168.0
1245.743042 164.0
1245.848511 104.0
1246.227905 136.0
1246.431641 104.0
1246.860229 128.0
1247.007935 56.0
1247.184204 144.0
1247.928711 176.0
1248.505371 272.0
1248.779663 164.0
1249.250977 160.0
1249.72937 208.0
1250.179688 152.0
1251.04541 144.0
1252.129761 132.0
1252.566528 144.0
1252.939819 164.0
1253.721924 76.0
1254.194214 180.0
1255.660767 192.0
1256.119141 188.0
1256.596802 240.0
1257.833862 168.0
1257.960938 48.0
1258.645752 68.0
1259.726318 188.0
1259.804077 148.0
1259.853516 100.0
1260.051392 144.0
1260.270386 136.0
1260.616577 184.0
1260.842773 112.0
1261.040649 148.0
1261.252686 100.0
1261.945435 124.0
1262.009155 172.0
1262.390991 116.0
1262.48291 148.0
1262.949707 160.0
1263.048706 92.0
1264.824707 140.0
1265.433594 140.0
1265.617676 188.0
1267.08374 204.0
1267.282104 168.0
1267.452271 56.0
1267.898682 152.0
1268.203369 324.0
1268.876831 188.0
1269.309326 176.0
1269.394409 196.0
1269.786255 248.0
1269.919312 116.0
1270.281006 76.0
1270.848511 188.0
1271.018799 156.0
1271.664673 164.0
1271.771118 32.0
1272.055054 80.0
1272.218262 184.0
1272.658447 208.0
1272.800537 100.0
1273.404175 112.0
1274.078979 80.0
1274.221069 184.0
1274.512329 216.0
1274.761108 200.0
1275.06665 168.0
1275.528687 212.0
1276.929321 140.0
1277.206787 172.0
1277.434326 252.0
1277.612183 232.0
1277.661987 180.0
1277.711792 180.0
1278.594116 192.0
1278.942871 76.0
1279.042603 112.0
1280.060669 156.0
1280.324097 196.0
1280.666016 292.0
1281.627686 176.0
1281.748901 56.0
1282.169312 168.0
1282.504272 228.0
1282.646851 28.0
1282.746582 40.0
1282.932007 216.0
1283.488037 136.0
1283.545166 124.0
1284.600708 148.0
1285.292725 100.0
1285.620972 156.0
1285.920776 136.0
1286.034912 232.0
1286.191895 152.0
1286.434692 220.0
1287.634277 132.0
1288.369995 172.0
1289.205933 128.0
1289.513184 220.0
1290.142212 156.0
1290.664185 168.0
1290.935913 120.0
1291.415039 68.0
1291.529541 208.0
1291.930054 192.0
1293.031982 228.0
1294.091431 212.0
1294.386108 160.0
1294.692993 152.0
1295.265991 156.0
1296.132812 164.0
1297.250854 36.0
1298.323853 156.0
1298.57019 112.0
1298.928833 168.0
1299.158447 188.0
1299.552979 132.0
1300.069702 100.0
1300.973999 188.0
1301.426392 80.0
1301.627441 212.0
1302.087036 156.0
1302.237793 204.0
1302.295288 196.0
1302.726318 52.0
1303.049561 220.0
1303.753784 140.0
1305.112305 240.0
1305.349609 128.0
1305.738037 220.0
1305.932129 72.0
1306.097656 84.0
1306.450073 256.0
1306.64917 60.0
1307.658936 192.0
1308.46521 136.0
1308.580322 184.0
1308.73877 164.0
1309.213989 176.0
1309.444458 100.0
1309.502075 136.0
1309.696533 192.0
1309.862183 140.0
1310.244019 64.0
1310.552856 152.0
1310.690796 132.0
1311.584351 188.0
1311.757446 240.0
1311.944824 128.0
1312.442261 188.0
1312.615356 132.0
1313.278809 148.0
1313.372559 144.0
1313.639526 176.0
1314.469238 212.0
1315.025391 168.0
1315.219727 208.0
1315.753784 188.0
1316.057251 188.0
1316.346069 152.0
1316.879761 132.0
1317.097168 144.0
1317.270508 296.0
1317.588379 120.0
1317.675049 136.0
1318.267578 108.0
1318.534912 240.0
1320.031372 116.0
1320.089233 160.0
1320.65332 136.0
1320.703979 172.0
1321.116333 208.0
1321.456299 212.0
1321.637207 140.0
1321.854248 148.0
1322.158203 188.0
1322.274048 160.0
1322.867554 152.0
1322.997803 184.0
1323.316406 156.0
1323.439453 88.0
1324.215698 168.0
1325.054688 76.0
1325.16333 172.0
1325.547363 188.0
1325.619751 156.0
1325.873413 44.0
1325.967651 116.0
1326.402588 180.0
1326.557251 184.0
1327.004272 140.0
1327.678589 140.0
1327.794678 164.0
1328.338623 60.0
1328.877441 200.0
1328.977051 156.0
1329.35437 176.0
1329.557617 216.0
1329.804321 128.0
1329.913208 140.0
1329.963989 160.0
1330.297974 136.0
1331.670288 132.0
1331.934204 208.0
1332.30957 180.0
1333.00708 216.0
1333.399414 116.0
1333.56665 160.0
1333.784668 156.0
1333.843872 144.0
1333.973633 176.0
1335.04248 184.0
1335.093384 120.0
1335.631104 276.0
1336.009888 56.0
1336.242676 116.0
1336.788452 184.0
1337.195923 196.0
1337.647217 108.0
1337.858276 48.0
1337.945679 160.0
1338.184814 172.0
1338.564575 156.0
1339.635254 120.0
1339.831909 188.0
1339.999512 152.0
1340.116089 172.0
1340.553223 168.0
1340.6698 208.0
1341.296631 168.0
1341.405884 204.0
1341.595581 152.0
1342.105835 120.0
1342.375732 208.0
1342.805908 220.0
1344.009644 128.0
1344.929199 228.0
1344.980225 216.0
1345.111694 192.0
1345.389038 188.0
1346.718018 124.0
1346.827637 204.0
1347.02478 152.0
1347.463135 180.0
1348.208496 92.0
1348.413086 156.0
1348.734741 152.0
1349.041748 108.0
1349.378052 60.0
1349.469971 124.0
1349.893799 204.0
1350.957642 148.0
1351.016235 32.0
1351.111328 416.0
1351.173584 152.0
1351.257568 112.0
1351.425903 148.0
1351.916138 204.0
1352.106445 172.0
1352.282104 332.0
1352.487793 184.0
1353.394775 168.0
1353.958618 108.0
1354.112427 220.0
1354.625244 156.0
1354.779053 172.0
1354.976807 176.0
1355.40918 116.0
1355.807373 204.0
1356.310547 76.0
1356.640381 236.0
1357.072998 112.0
1357.468994 144.0
1357.577271 180.0
1358.106934 184.0
1358.597046 108.0
1358.671875 168.0
1358.766724 120.0
1359.280762 52.0
1360.102783 156.0
1360.198242 188.0
1360.425781 36.0
1360.484497 140.0
1360.763428 168.0
1361.292114 196.0
1361.475586 136.0
1361.585938 128.0
1361.725464 244.0
1362.188232 188.0
1362.705811 204.0
1363.238892 76.0
1363.481323 204.0
1364.664795 144.0
1366.032715 156.0
1366.415283 164.0
1367.261475 220.0
1368.328857 68.0
1368.439331 172.0
1368.881104 172.0
1368.939941 148.0
1369.403931 180.0
1369.56604 196.0
1370.214233 172.0
1370.339478 264.0
1370.722656 116.0
1370.77417 172.0
1370.840576 176.0
1371.36377 120.0
1371.533325 144.0
1371.828247 168.0
1372.115723 124.0
1372.329468 188.0
1372.536011 140.0
1372.74939 220.0
1375.140137 184.0
1375.501831 92.0
1376.542725 168.0
1376.601807 204.0
1377.11145 240.0
1377.798462 148.0
1378.02002 196.0
1378.685059 168.0
1378.803345 112.0
1379.217285 176.0
1379.394653 180.0
1380.096924 68.0
1380.651611 124.0
1380.873413 152.0
1381.021362 196.0
1381.095337 184.0
1381.583496 168.0
1381.775879 148.0
1381.990479 152.0
1383.729736 168.0
1384.023438 156.0
1384.374023 212.0
1384.788696 168.0
1384.892334 176.0
1385.751709 188.0
1386.018433 116.0
1386.077759 200.0
1386.270386 184.0
1386.878174 212.0
1386.989258 180.0
1387.293213 220.0
1387.523071 152.0
1387.87146 188.0
1388.101318 156.0
1388.353516 36.0
1388.665039 92.0
1388.954224 172.0
1389.028442 148.0
1389.555176 152.0
1389.881592 224.0
1389.993896 176.0
1390.542114 156.0
1392.108521 208.0
1392.449829 224.0
1392.620972 52.0
1392.754639 224.0
1393.133545 124.0
1393.415894 176.0
1393.653564 44.0
1393.891357 120.0
1394.05481 184.0
1394.114258 184.0
1394.723755 160.0
1394.931885 172.0
1395.824097 204.0
1396.136353 204.0
1396.322266 132.0
1396.79834 180.0
1396.962036 156.0
1397.036377 104.0
1397.20752 84.0
1397.319092 56.0
1397.787842 124.0
1397.847412 196.0
1398.322266 152.0
1398.487427 84.0
1398.93396 200.0
1399.099365 152.0
1399.4552 196.0
1399.671021 144.0
1399.879517 116.0
1400.036011 140.0
1400.691406 156.0
1401.160767 172.0
1401.689697 56.0
1401.74939 52.0
1401.875977 152.0
1402.166626 84.0
1402.569092 148.0
1402.777832 124.0
1403.463745 84.0
1403.515991 104.0
1403.710693 168.0
1403.94104 44.0
1404.086304 164.0
1404.269165 148.0
1404.792725 164.0
1405.679077 164.0
1405.76123 124.0
1405.843262 168.0
1406.097046 48.0
1406.343384 220.0
1406.462769 176.0
1406.552368 164.0
1407.522827 116.0
1407.687134 152.0
1408.165161 212.0
1408.247314 168.0
1409.61438 132.0
1411.28125 132.0
1412.345581 156.0
1413.053955 132.0
1413.158691 176.0
1413.27832 176.0
1413.824585 44.0
1414.370972 188.0
1414.632935 208.0
1414.7677 144.0
1415.025391 156.0
1415.046509 204.0
1415.419067 244.0
1416.040649 248.0
1416.24292 68.0
1416.346802 188.0
1416.54248 136.0
1416.699829 200.0
1416.827148 224.0
1417.029541 168.0
1418.063599 64.0
1418.310913 260.0
1418.985596 140.0
1419.69043 196.0
1420.515503 152.0
1420.733032 164.0
1420.868042 100.0
1421.393311 196.0
1421.468384 148.0
1421.656006 212.0
1421.918579 228.0
1422.08374 176.0
1422.158813 232.0
1422.256348 76.0
1422.41394 168.0
1422.506226 144.0
1422.721802 88.0
1423.0896 176.0
1423.480103 32.0
1424.29126 188.0
1424.351318 172.0
1424.636719 172.0
1424.92981 208.0
1425.48584 164.0
1425.816406 200.0
1426.04187 148.0
1426.22229 200.0
1426.433228 128.0
1426.718384 196.0
1427.071777 160.0
1427.161987 180.0
1427.395142 108.0
1427.58313 140.0
1427.906494 96.0
1429.313232 128.0
1429.516479 236.0
1429.937866 144.0
1431.300415 152.0
1431.375732 188.0
1431.571533 140.0
1433.266357 188.0
1433.319092 56.0
1434.577759 160.0
1434.977417 104.0
1435.384521 116.0
1435.459961 196.0
1435.595703 116.0
1435.946655 136.0
1436.033081 308.0
1436.085938 76.0
1437.074097 180.0
1437.137573 188.0
1437.584961 204.0
1438.311768 196.0
1438.394775 128.0
1438.553345 144.0
1439.353638 132.0
1439.429077 184.0
1439.648071 124.0
1440.025757 248.0
1440.199463 180.0
1440.56958 128.0
1441.128662 144.0
1441.710449 124.0
1441.763428 188.0
1441.831421 144.0
1442.080811 196.0
1442.171509 160.0
1442.262207 176.0
1442.640137 152.0
1443.471802 108.0
1443.660889 164.0
1444.099487 208.0
1444.455078 132.0
1444.916504 156.0
1445.075439 204.0
1445.362915 36.0
1445.718628 120.0
1446.505737 116.0
1446.702515 208.0
1446.990234 156.0
1447.171875 192.0
1447.315796 100.0
1447.838257 232.0
1448.451782 160.0
1448.838135 176.0
1449.436646 156.0
1450.694824 192.0
1451.756348 120.0
1452.158203 176.0
1452.567871 176.0
1452.79541 52.0
1452.985107 100.0
1454.320679 128.0
1454.836792 136.0
1455.003784 216.0
1455.398682 140.0
1455.540161 196.0
1456.051758 172.0
1456.165649 196.0
1456.379639 124.0
1456.454224 160.0
1457.259521 136.0
1457.487427 148.0
1457.616577 124.0
1457.715454 120.0
1457.958618 208.0
1458.034546 132.0
1458.15625 84.0
1458.308228 144.0
1458.520996 172.0
1458.931519 116.0
1459.296387 184.0
1459.3573 84.0
1459.745117 208.0
1460.376343 124.0
1460.459961 124.0
1461.289185 192.0
1461.623901 116.0
1462.088135 64.0
1462.324097 220.0
1462.407837 100.0
1462.796021 60.0
1462.940552 128.0
1463.13855 116.0
1463.702026 220.0
1464.115723 204.0
1464.28833 148.0
1464.47876 192.0
1464.620972 260.0
1465.309082 256.0
1465.362427 168.0
1465.636719 104.0
1465.827271 120.0
1466.317749 332.0
1466.589355 132.0
1466.703613 220.0
1466.756958 80.0
1466.901855 184.0
1466.978027 108.0
1467.118774 168.0
1467.290649 176.0
1467.838867 152.0
1468.243896 140.0
1468.960815 164.0
1469.067505 144.0
1469.235352 180.0
1469.845825 128.0
1470.074707 188.0
1470.227295 192.0
1470.547852 144.0
1470.845581 220.0
1471.105103 132.0
1471.189087 120.0
1471.43335 64.0
1471.639526 112.0
1471.708252 160.0
1472.112915 136.0
1472.807861 124.0
1472.89624 172.0
1473.029419 248.0
1473.823975 184.0
1474.11853 252.0
1474.702759 136.0
1474.898438 140.0
1474.927002 208.0
1475.322021 176.0
1475.413696 204.0
1475.612549 228.0
1475.987183 160.0
1476.751831 128.0
1476.809814 188.0
1476.989014 160.0
1477.593384 200.0
1477.815186 96.0
1477.953003 196.0
1478.603394 220.0
1478.72583 208.0
1478.909546 160.0
1479.460693 192.0
1480.218628 128.0
1480.394775 200.0
1480.448364 168.0
1480.647583 140.0
1480.976807 108.0
1481.061157 248.0
1481.206665 168.0
1481.467163 136.0
1482.608765 84.0
1482.746704 156.0
1482.846313 160.0
1483.103638 232.0
1483.229614 208.0
1483.525146 216.0
1483.666504 144.0
1483.789185 196.0
1483.92041 164.0
1484.111206 132.0
1484.195557 160.0
1485.031494 136.0
1485.131226 104.0
1485.299927 160.0
1486.289551 100.0
1486.872803 224.0
1487.394775 204.0
1487.832275 56.0
1487.98584 156.0
1488.078003 156.0
1488.34668 204.0
1488.500244 128.0
1490.266968 164.0
1490.34375 200.0
1490.973877 80.0
1491.296631 100.0
1491.350464 196.0
1491.481079 64.0
1491.765503 172.0
1492.042358 168.0
1492.096069 72.0
1492.234497 184.0
1492.626709 208.0
1492.703491 64.0
1492.795776 216.0
1492.972656 112.0
1493.303345 96.0
1493.911011 72.0
1494.04187 144.0
1494.249512 116.0
1494.788208 176.0
1494.842041 204.0
1495.742554 172.0
1496.296753 224.0
1496.743408 76.0
1496.828003 128.0
1497.16687 248.0
1497.336304 124.0
1497.875488 124.0
1498.037231 156.0
1498.25293 188.0
1498.388062 220.0
1498.545654 44.0
1498.792236 160.0
1498.961792 120.0
1499.023438 168.0
1499.1698 40.0
1499.300903 44.0
1499.894287 212.0
1500.302856 60.0
1500.981323 144.0
1501.61377 176.0
1501.976318 144.0
1502.29248 252.0
1502.693726 108.0
1502.986938 120.0
1503.271729 192.0
1503.419067 164.0
1503.511597 208.0
1503.604248 204.0
1503.766357 112.0
1503.843506 156.0
1504.060425 164.0
1504.252563 56.0
