>compound Ponatinib (AP24534)
>formula C29H27F3N6O
>ionization [M+H]+
>parentmass 533.227905
#inchi InChI=1S/C29H27F3N6O/c1-20-5-6-22(16-21(20)8-10-25-18-33-27-4-3-11-34-38(25)27)28(39)35-24-9-7-23(26(17-24)29(30,31)32)19-37-14-12-36(2)13-15-37/h3-7,9,11,16-18H,12-15,19H2,1-2H3,(H,35,39)
#inchikey PHXJVRSECIGDHY
#Ion_Source LC-ESI
#Instrument qTof
#Compound_Source Commercial
#PI Dorrestein
#Data_Collector Garg_Neha
#Scan -1
#Precursor_MZ 533.227
#ExactMass 532.22
#Charge 1
#CAS_Number 943319-70-8, 1232836-25-7 (3HCl)
#Pubmed_ID N/A
#Smiles C1C=NN2C(C=1)=NC=C2C#CC3=C(C=CC(=C3)C(=O)NC4=CC(=C(C=C4)CN5CCN(CC5)C)C(F)(F)F)C
#INCHI_AUX N/A
#Library_Class 1
#SpectrumID CCMSLIB00000078163
#IonMode Positive
#UpdateWorkflowName UPDATE-SINGLE-ANNOTATED-GOLD
#LibraryQualityString Gold
#TaskID 77f51c88eb8b467eb4a01dd2d0cb90d2
##Scan# 1233
#SpectrumFile Plate3_1_20_GG9_01_16498.mzXML
#LibraryName FDALibrary_2_04302014.mgf
#MQScore -1
#Organism FDALibrary_2_04302014
#TIC_Query 0
#RT_Query -1
#MZErrorPPM -1
#SharedPeaks 0
#MassDiff 0
#LibMZ -1
#SpecMZ 533.227
#SpecCharge 0
#internalFilename spec-00000.mgf

>collision 10
45.026947 228.0
45.123158 176.0
45.511711 224.0
45.590965 160.0
45.740257 144.0
46.413055 208.0
47.019775 156.0
47.228817 184.0
47.301338 204.0
47.367065 248.0
47.382133 152.0
47.526337 204.0
48.069622 256.0
48.545486 148.0
49.322369 160.0
49.72435 172.0
51.083656 188.0
51.287277 156.0
51.495594 140.0
51.659973 176.0
51.881943 160.0
51.969429 180.0
52.591114 220.0
52.723988 176.0
52.734104 200.0
53.25425 224.0
54.331543 196.0
54.61211 156.0
54.884552 160.0
55.017338 244.0
55.233086 212.0
55.766243 164.0
56.27784 156.0
57.626297 128.0
58.094437 160.0
58.152096 188.0
58.434742 172.0
58.602219 164.0
58.977631 156.0
59.070904 184.0
59.095383 180.0
59.872108 156.0
60.838501 212.0
61.473534 268.0
61.557831 228.0
61.761002 228.0
62.050709 148.0
62.633728 152.0
62.830776 204.0
62.86549 196.0
62.878113 220.0
64.677353 168.0
64.68856 420.0
65.250053 192.0
65.356201 188.0
65.792976 140.0
66.341393 160.0
66.44194 172.0
66.628639 196.0
67.311089 212.0
67.351921 164.0
67.68882 184.0
67.757614 164.0
68.08403 156.0
68.404648 196.0
68.463921 256.0
68.715744 244.0
68.836617 244.0
69.226875 152.0
69.3992 156.0
71.040314 148.0
71.519211 152.0
71.820816 164.0
72.226204 164.0
72.432709 152.0
72.608986 396.0
72.979172 188.0
73.901924 200.0
74.835632 168.0
75.887856 172.0
76.045715 208.0
76.4524 152.0
76.5168 168.0
76.731094 212.0
77.246902 132.0
77.512383 232.0
77.633339 192.0
77.770187 180.0
78.230728 224.0
78.454453 216.0
78.851608 176.0
78.911713 200.0
79.771538 148.0
79.935165 152.0
80.348534 176.0
80.396706 168.0
80.430618 156.0
82.101006 144.0
82.140686 176.0
82.343239 164.0
82.375351 140.0
83.54969 248.0
84.626877 212.0
85.178886 164.0
85.31855 216.0
86.388153 188.0
86.673271 192.0
86.780777 176.0
87.406731 220.0
87.449532 176.0
87.540756 200.0
87.570557 192.0
87.769958 176.0
88.530502 168.0
88.678505 144.0
89.128899 208.0
89.290565 184.0
89.3564 172.0
89.535225 140.0
89.850006 184.0
90.123299 160.0
90.848892 184.0
91.061485 160.0
91.192581 208.0
91.255318 144.0
91.880005 140.0
93.083923 176.0
93.547272 156.0
93.739876 188.0
94.46196 144.0
94.796906 200.0
95.041229 188.0
95.596977 168.0
96.766182 172.0
96.893486 200.0
97.446747 164.0
97.507668 204.0
98.08239 168.0
98.197075 168.0
99.093269 744.0
99.167526 172.0
99.193291 172.0
99.782898 168.0
99.814713 188.0
100.184906 152.0
100.685562 212.0
100.861382 164.0
100.927353 172.0
101.005814 208.0
101.108719 8560.0
102.11026 1260.0
102.486954 208.0
102.591759 196.0
103.055946 192.0
104.026031 152.0
104.251389 184.0
104.310417 144.0
104.937393 156.0
106.35923 164.0
106.819511 168.0
106.842651 160.0
107.478783 208.0
107.526245 208.0
107.76165 196.0
107.798843 152.0
108.193893 172.0
108.531609 160.0
108.863617 172.0
110.000832 140.0
110.169563 204.0
110.485237 148.0
110.499878 144.0
110.621262 232.0
111.47699 148.0
112.361336 152.0
113.035347 176.0
113.238579 184.0
113.306366 168.0
113.333908 236.0
113.473793 140.0
113.815392 220.0
113.932205 176.0
115.058807 180.0
115.640228 176.0
115.991508 176.0
117.011925 144.0
117.866051 160.0
118.233665 160.0
119.283447 164.0
119.688103 168.0
119.936462 216.0
120.45797 212.0
120.702751 176.0
120.890877 188.0
121.438583 188.0
121.939171 160.0
122.392342 144.0
123.610802 184.0
123.736969 192.0
123.929657 208.0
124.790833 168.0
125.325058 176.0
125.777725 188.0
126.045723 196.0
126.616173 216.0
127.054794 296.0
127.893692 144.0
128.227036 140.0
128.472809 180.0
129.336014 204.0
129.483185 144.0
130.10675 212.0
130.193039 172.0
130.293045 140.0
131.050598 200.0
131.278549 172.0
132.292999 152.0
133.364227 140.0
133.435501 184.0
133.518906 204.0
134.075409 204.0
134.201248 228.0
134.668335 188.0
134.802338 192.0
135.772308 240.0
136.187759 180.0
136.257446 148.0
136.466614 180.0
136.548004 148.0
137.288589 200.0
137.377228 208.0
138.710144 160.0
138.738266 264.0
138.792694 240.0
138.84848 256.0
138.906494 152.0
139.054932 152.0
139.346115 204.0
139.414261 164.0
139.781097 140.0
139.821106 192.0
140.052612 440.0
140.120148 168.0
140.200272 140.0
140.57637 120.0
140.745178 144.0
141.33374 180.0
142.160736 176.0
142.436142 240.0
142.462265 152.0
143.416473 140.0
143.621521 140.0
143.64061 152.0
144.055298 156.0
144.68013 148.0
145.569656 184.0
146.031998 544.0
146.076782 160.0
146.34874 176.0
146.676376 156.0
146.946472 148.0
148.936386 184.0
149.062714 160.0
149.130768 180.0
149.174515 140.0
149.359314 216.0
149.549103 172.0
149.656219 148.0
150.014359 208.0
150.485199 304.0
151.081528 148.0
151.24794 204.0
151.850677 152.0
152.049362 256.0
152.292465 140.0
152.577515 164.0
153.056091 624.0
153.412079 180.0
153.757401 176.0
154.065582 816.0
154.923615 104.0
155.063721 344.0
155.149994 144.0
155.954269 144.0
156.039398 224.0
156.071106 204.0
156.521484 140.0
156.591202 176.0
156.987457 144.0
157.394211 148.0
157.846481 164.0
157.944016 164.0
157.999054 180.0
158.026566 156.0
158.442169 164.0
158.492279 140.0
158.595032 144.0
158.783081 156.0
158.926056 260.0
159.355408 144.0
160.049606 160.0
160.450211 140.0
161.563934 152.0
162.366898 180.0
163.996613 140.0
164.38681 144.0
164.879684 192.0
165.329788 184.0
165.39888 152.0
165.460327 180.0
165.698502 144.0
166.147156 144.0
166.59642 152.0
167.030853 156.0
167.095169 168.0
167.762177 144.0
168.063919 184.0
168.138763 144.0
169.01738 176.0
169.154541 148.0
169.216675 204.0
169.478271 164.0
169.805801 184.0
169.913849 180.0
170.0392 156.0
170.062485 128.0
170.893341 152.0
171.031265 144.0
171.599167 172.0
172.201965 140.0
172.48938 156.0
172.693329 160.0
173.321625 192.0
174.140106 276.0
175.050049 144.0
175.751205 168.0
176.157776 144.0
176.6521 160.0
177.057068 192.0
177.170975 180.0
177.245163 148.0
177.266357 144.0
177.430695 140.0
178.06459 448.0
178.136597 156.0
178.373093 172.0
178.410309 144.0
179.067459 248.0
179.384628 140.0
179.763367 180.0
179.888809 164.0
180.227982 172.0
180.578186 140.0
180.95549 236.0
181.073227 256.0
181.66568 204.0
181.828903 216.0
182.041443 144.0
182.060242 168.0
182.891006 148.0
183.418945 148.0
183.980042 212.0
184.074966 180.0
184.596069 144.0
184.999207 144.0
186.143372 144.0
186.211258 164.0
186.295471 156.0
187.307404 192.0
187.650772 196.0
187.71077 164.0
187.868958 176.0
188.12001 172.0
189.024063 160.0
189.054779 148.0
189.983627 164.0
190.104355 188.0
190.83226 200.0
191.556046 148.0
192.063934 144.0
192.12944 204.0
192.212219 188.0
192.595963 152.0
192.615295 168.0
193.06517 348.0
193.835388 156.0
194.373322 180.0
194.848114 152.0
195.056534 176.0
195.098236 160.0
195.173309 152.0
196.633026 152.0
196.658142 140.0
197.046295 160.0
197.227936 148.0
197.420853 188.0
197.879745 196.0
198.084183 232.0
198.597137 204.0
198.950699 188.0
199.242767 188.0
199.464767 168.0
201.543304 160.0
201.91214 200.0
202.633957 156.0
202.744461 308.0
203.071991 144.0
203.493317 172.0
204.075882 300.0
204.556564 176.0
205.075455 2676.0
205.90152 148.0
206.07753 508.0
207.029144 176.0
207.076187 160.0
207.353149 168.0
207.646545 132.0
208.085983 784.0
208.834366 196.0
209.001221 192.0
209.086761 264.0
209.58284 140.0
210.021042 148.0
210.373077 164.0
211.726257 144.0
212.05365 172.0
213.941727 192.0
213.985382 184.0
214.425247 176.0
214.615997 184.0
214.792618 156.0
214.824707 164.0
215.055237 168.0
215.317993 260.0
215.52832 192.0
215.9142 160.0
215.940521 164.0
216.007797 168.0
216.121887 156.0
217.059067 244.0
217.40242 144.0
218.062088 168.0
218.139633 140.0
218.303223 132.0
218.501358 264.0
218.592575 168.0
218.727951 148.0
219.066589 224.0
219.178543 152.0
219.290527 196.0
219.824326 148.0
219.930573 204.0
220.568588 176.0
221.388138 200.0
222.135025 248.0
222.452545 164.0
223.683212 180.0
224.052475 176.0
224.079636 100.0
224.905319 164.0
225.395096 168.0
225.493713 160.0
225.716125 172.0
226.184647 164.0
226.385239 148.0
226.481079 144.0
227.347534 156.0
228.284805 164.0
229.606873 152.0
229.827072 212.0
230.072067 860.0
230.207413 180.0
230.628494 96.0
230.966003 168.0
231.079971 4040.0
231.123322 160.0
231.310959 148.0
231.731918 168.0
231.868271 140.0
232.087021 12788.0
232.510986 148.0
232.52951 172.0
233.051743 152.0
233.091156 2100.0
233.349609 184.0
233.580734 148.0
234.085159 272.0
234.55307 148.0
234.625244 140.0
234.946747 172.0
235.087265 144.0
235.931885 244.0
235.993027 168.0
236.080505 1892.0
236.372314 148.0
236.761093 148.0
236.94487 212.0
237.084518 912.0
237.199234 172.0
238.085938 184.0
238.107437 164.0
238.614441 140.0
238.681168 120.0
238.983521 164.0
239.962051 192.0
240.008347 116.0
241.723557 168.0
242.006256 204.0
242.336639 200.0
242.938095 144.0
243.375687 212.0
246.165695 152.0
246.228165 276.0
246.38121 152.0
246.49057 188.0
247.097153 172.0
248.28746 160.0
249.050125 176.0
249.095123 148.0
249.405182 216.0
249.571808 140.0
249.694687 156.0
250.098831 828.0
250.204193 160.0
250.752289 164.0
251.094681 240.0
251.12117 188.0
251.919769 192.0
252.103561 116.0
252.317963 192.0
252.504517 204.0
252.542465 172.0
253.355988 172.0
253.951935 160.0
254.208908 192.0
257.24527 148.0
257.39212 316.0
257.500702 160.0
257.670013 264.0
257.858551 180.0
258.370483 160.0
258.48645 152.0
258.565338 196.0
258.661377 176.0
258.686981 148.0
258.764984 108.0
258.811829 176.0
258.842255 156.0
258.869476 176.0
258.920715 176.0
258.950684 100.0
259.071106 288.0
259.235565 240.0
259.28595 148.0
259.30838 432.0
259.368713 184.0
259.422852 152.0
259.457367 244.0
259.545593 364.0
259.596527 104.0
259.703705 160.0
259.73642 296.0
259.804382 164.0
259.879456 124.0
259.912079 160.0
259.955658 220.0
260.004272 412.0
260.041595 248.0
260.083069 150564.0
260.174042 248.0
260.210205 168.0
260.285217 124.0
260.408813 204.0
260.503784 144.0
260.571472 124.0
260.61084 300.0
260.701721 144.0
260.737701 192.0
260.811096 168.0
260.848846 96.0
260.87384 180.0
260.977325 160.0
261.084869 26780.0
261.274353 188.0
261.329834 96.0
261.436951 96.0
261.48764 104.0
261.575043 128.0
261.667389 172.0
261.895721 140.0
261.976685 124.0
262.000275 196.0
262.088287 2464.0
262.400757 104.0
262.471924 104.0
262.630615 168.0
262.710114 108.0
262.731049 128.0
262.772583 104.0
262.813171 220.0
262.886627 128.0
262.95282 100.0
262.991852 348.0
263.038361 236.0
263.07254 292.0
263.392395 160.0
263.47583 140.0
263.776215 112.0
263.841492 108.0
263.875 128.0
264.078094 3668.0
264.286957 140.0
265.081238 524.0
265.648529 180.0
266.083649 328.0
266.439789 144.0
267.122467 160.0
267.18103 152.0
267.522736 140.0
269.420715 156.0
270.543671 104.0
271.463104 156.0
274.066467 168.0
279.100983 172.0
282.807373 232.0
282.961334 164.0
283.89621 152.0
287.013428 180.0
287.053894 140.0
290.066284 164.0
294.46579 152.0
298.13501 152.0
301.298126 240.0
306.945251 160.0
310.221222 144.0
310.347443 148.0
310.792908 156.0
311.89563 152.0
314.805786 244.0
315.201416 164.0
320.02182 200.0
322.225983 156.0
325.963104 192.0
330.444977 172.0
331.70163 140.0
333.97467 224.0
343.339935 140.0
343.74942 168.0
345.25293 184.0
352.472168 156.0
354.047028 148.0
355.131775 152.0
355.242706 252.0
363.209625 172.0
363.346191 140.0
367.207153 164.0
370.050201 168.0
371.230377 204.0
371.276398 176.0
372.239624 164.0
372.439331 168.0
377.511261 160.0
378.858215 140.0
383.669373 148.0
389.425507 200.0
392.55423 164.0
399.783356 116.0
400.667847 236.0
404.085327 216.0
404.393463 156.0
408.944946 160.0
409.118011 324.0
412.931183 204.0
414.031982 168.0
414.117035 148.0
414.571716 196.0
415.333008 296.0
416.160889 192.0
419.904663 164.0
422.647491 160.0
423.210602 140.0
424.513672 208.0
427.35614 172.0
428.084717 156.0
430.158539 164.0
431.129181 156.0
432.242889 148.0
432.651306 152.0
432.684052 132.0
432.808624 144.0
433.048401 152.0
433.127686 20128.0
433.52774 216.0
433.705444 212.0
433.799835 112.0
434.025391 148.0
434.130127 5556.0
434.21582 116.0
434.420441 96.0
434.538147 144.0
434.748627 172.0
434.907135 116.0
435.131531 1040.0
435.338806 120.0
436.135986 248.0
436.8284 252.0
437.059021 208.0
437.108978 140.0
438.149872 208.0
441.037567 208.0
441.259125 200.0
443.238892 168.0
446.978607 148.0
448.003357 152.0
448.289856 144.0
452.907623 192.0
456.842621 172.0
458.094177 168.0
459.100067 208.0
459.63092 152.0
461.8591 240.0
462.47522 140.0
466.83844 156.0
468.293091 160.0
468.896271 148.0
471.533264 160.0
471.969879 212.0
472.304962 224.0
477.487579 208.0
485.688446 180.0
488.908936 140.0
489.190613 220.0
489.305084 140.0
491.166718 152.0
493.199554 144.0
496.104126 164.0
496.379028 164.0
497.883392 196.0
499.581299 192.0
499.98175 184.0
501.990906 140.0
507.0336 140.0
508.244354 144.0
508.482208 208.0
513.133423 140.0
516.366577 180.0
521.273193 164.0
526.031189 196.0
527.168457 144.0
527.901489 160.0
528.773682 152.0
529.529114 160.0
529.890991 168.0
530.191284 148.0
531.099915 172.0
531.19281 152.0
531.234253 416.0
531.286987 112.0
531.338745 256.0
531.463623 140.0
531.695618 148.0
531.746582 152.0
531.812378 180.0
531.844543 144.0
531.968445 140.0
532.096741 168.0
532.153748 180.0
532.215515 304.0
532.261353 140.0
532.359924 196.0
532.431824 196.0
532.467468 240.0
532.546997 152.0
532.601013 132.0
532.620117 100.0
532.685791 132.0
532.775085 144.0
532.814026 136.0
532.858948 164.0
532.964172 444.0
533.036194 220.0
533.116577 160.0
533.153076 184.0
533.227905 99112.0
533.351013 268.0
533.395325 240.0
533.474976 252.0
533.547119 244.0
533.633667 136.0
533.791626 140.0
533.878296 188.0
533.919128 176.0
533.973572 292.0
534.067383 160.0
534.151001 172.0
534.230713 33424.0
534.648804 104.0
534.693665 116.0
534.81842 188.0
534.881775 128.0
535.002502 152.0
535.138306 168.0
535.234314 5188.0
535.3255 124.0
535.581299 116.0
535.992676 148.0
536.242065 1084.0
536.982056 100.0
537.022339 132.0
537.065918 184.0
537.105286 112.0
537.222168 140.0
537.265259 112.0
537.345459 124.0
537.385681 132.0
538.038391 148.0
538.192932 112.0
538.483887 148.0
541.101135 144.0
542.657898 156.0
548.62738 140.0
601.013245 144.0
605.432312 144.0
620.857727 164.0
687.215393 148.0
698.021362 140.0
709.521118 156.0
712.33905 144.0
769.980469 148.0
1033.352417 152.0
1123.230469 148.0
1168.196777 196.0
1287.860596 248.0
1300.512329 228.0
1336.312988 156.0
1356.623291 220.0
1389.456055 144.0
1416.300171 180.0
1430.251221 164.0
1482.881714 168.0
1516.184082 144.0
1542.648071 180.0
1555.086914 168.0
1558.581421 144.0
1582.099854 204.0
1594.951416 188.0
1652.605957 216.0
1659.831055 184.0
1664.781128 192.0
1681.339722 168.0
1688.24292 192.0
1696.758545 156.0
1700.367798 180.0
1714.035278 200.0
1727.964478 188.0
1732.261108 156.0
1754.949463 192.0
1770.977783 188.0
1772.56958 168.0
1775.134644 156.0
1780.144409 176.0
1814.468994 140.0
1849.061523 140.0
1854.568726 188.0
1855.837524 144.0
1856.506348 140.0
1866.966187 152.0
1878.050537 148.0
1894.829468 196.0
1895.453247 232.0
1899.953125 204.0
1906.978027 224.0
1929.817627 140.0
1937.335449 164.0
1939.473633 164.0
1942.130371 152.0
1961.00769 184.0
1961.712891 192.0
1966.802612 140.0
1969.672363 148.0
1984.123291 164.0
1984.930176 156.0
1991.062256 148.0
1993.327515 140.0
1997.36377 188.0
2003.123047 216.0
