>compound MLS001140235-01!
>formula C24H23N3O2
>ionization [M+H]+
>parentmass 386.187164
#inchi InChI=1S/C24H23N3O2/c1-15-7-2-3-9-17(15)22-23-19(18-10-4-5-11-20(18)26-23)13-21(27-22)24(28)25-14-16-8-6-12-29-16/h2-5,7,9-11,13,16,27H,6,8,12,14H2,1H3,(H,25,28)
#inchikey WEXUTYRSGLZPOA
#Ion_Source LC-ESI
#Instrument qTof
#Compound_Source NIH Natural Product Library
#PI Dorrestein
#Data_Collector VVP/LMS
#Scan -1
#Precursor_MZ 386.187
#ExactMass 385.179
#Charge 1
#CAS_Number N/A
#Pubmed_ID N/A
#Smiles Cc1ccccc1c2[nH]c(cc3c4ccccc4nc23)C(=O)NCC5CCCO5
#INCHI_AUX N/A
#Library_Class 1
#SpectrumID CCMSLIB00000080299
#IonMode Positive
#UpdateWorkflowName UPDATE-SINGLE-ANNOTATED-GOLD
#LibraryQualityString Gold
#TaskID b1d8e8f6646f4e71acdff9ca3d919d08
##Scan# 2387
#SpectrumFile p2-H06_GH6_01_18066.mzXML
#LibraryName NIH_Natural_Products_Library.mgf
#MQScore -1
#Organism NIH_Natural_Products_Library
#TIC_Query 0
#RT_Query -1
#MZErrorPPM -1
#SharedPeaks 0
#MassDiff 0
#LibMZ -1
#SpecMZ 386.187
#SpecCharge 0
#internalFilename spec-00000.mgf

>collision 10
94.969376 120.0
94.991684 140.0
95.018845 208.0
95.050453 152.0
95.064545 116.0
95.080391 196.0
95.094322 168.0
95.121101 144.0
95.134109 228.0
95.162468 112.0
95.178741 168.0
95.193039 296.0
95.217979 116.0
95.232674 560.0
95.272049 400.0
95.296135 196.0
95.333145 356.0
95.381104 252.0
95.408844 544.0
95.423279 248.0
95.462601 220.0
95.481613 356.0
95.503708 216.0
95.524185 204.0
95.559158 256.0
95.582191 60.0
95.602692 60.0
95.631638 180.0
95.639763 148.0
95.666924 160.0
95.682564 116.0
95.699112 104.0
95.720528 68.0
95.738914 204.0
95.783676 228.0
95.823044 244.0
95.846558 304.0
95.85363 452.0
95.869362 120.0
95.924477 112.0
95.939247 128.0
95.956924 152.0
95.971642 92.0
96.002609 128.0
96.015709 180.0
96.044823 152.0
96.077454 100.0
96.094139 356.0
96.11039 112.0
96.125999 216.0
96.156555 180.0
96.188141 152.0
96.193878 128.0
96.213715 184.0
96.22876 132.0
96.245949 116.0
96.265648 104.0
96.286751 152.0
96.344681 96.0
96.367195 212.0
96.384361 104.0
96.39817 244.0
96.468208 212.0
96.50679 144.0
96.528542 180.0
96.541565 132.0
96.575996 108.0
96.607483 164.0
96.631104 184.0
96.637459 100.0
96.645905 160.0
96.675911 120.0
96.704292 188.0
96.717537 60.0
96.731499 228.0
96.749321 124.0
96.775002 200.0
96.789642 84.0
96.806259 180.0
96.838913 152.0
96.87484 100.0
96.904228 308.0
96.922821 196.0
96.946457 328.0
96.977242 140.0
96.998009 108.0
97.006088 252.0
97.015488 104.0
97.020088 176.0
97.056595 240.0
97.078232 232.0
97.102486 148.0
97.124374 256.0
97.15403 132.0
97.178612 140.0
97.192856 140.0
97.214645 288.0
97.222176 68.0
97.227165 228.0
97.256897 144.0
97.274986 104.0
97.333733 280.0
97.340691 156.0
97.370316 60.0
97.389984 176.0
97.418243 212.0
97.43087 448.0
97.446815 148.0
97.512947 124.0
97.517479 148.0
97.534431 172.0
97.549446 136.0
97.59024 332.0
97.610382 196.0
97.640312 176.0
97.645027 172.0
97.658867 108.0
97.671356 308.0
97.695763 120.0
97.742844 300.0
97.77021 180.0
97.807602 96.0
97.826462 116.0
97.854851 180.0
97.875114 112.0
97.903877 116.0
97.923775 112.0
97.937561 204.0
97.954735 200.0
97.97403 148.0
97.991089 116.0
98.014954 168.0
98.038887 80.0
98.063904 164.0
98.077522 376.0
98.086212 128.0
98.094276 280.0
98.130692 96.0
98.145958 116.0
98.164322 72.0
98.189255 172.0
98.214645 112.0
98.232735 168.0
98.251625 188.0
98.273109 132.0
98.292847 296.0
98.311638 240.0
98.325027 116.0
98.346008 384.0
98.367783 156.0
98.394531 224.0
98.420738 232.0
98.46196 488.0
98.497147 132.0
98.534309 104.0
98.54718 128.0
98.574707 144.0
98.596252 172.0
98.60952 100.0
98.615334 140.0
98.641296 212.0
98.654259 224.0
98.677109 172.0
98.701324 140.0
98.730141 140.0
98.73671 112.0
98.748146 260.0
98.785728 184.0
98.810333 108.0
98.826614 148.0
98.83979 196.0
98.853645 104.0
98.868507 184.0
98.925133 336.0
98.945244 144.0
98.968216 196.0
99.003136 140.0
99.024582 176.0
99.029022 96.0
99.038689 172.0
99.058144 196.0
99.079369 152.0
99.112061 112.0
99.128632 204.0
99.146027 144.0
99.152603 92.0
99.159309 140.0
99.186508 132.0
99.214401 184.0
99.235161 80.0
99.24292 116.0
99.273567 148.0
99.278358 144.0
99.286568 204.0
99.302574 120.0
99.32859 172.0
99.339294 284.0
99.373901 244.0
99.37915 276.0
99.402618 140.0
99.422287 128.0
99.434891 152.0
99.451256 164.0
99.465202 100.0
99.474373 44.0
99.481148 108.0
99.50412 192.0
99.523582 124.0
99.541092 156.0
99.558456 212.0
99.586349 268.0
99.634697 136.0
99.658104 104.0
99.675148 260.0
99.699287 96.0
99.725182 72.0
99.750137 180.0
99.783295 212.0
99.819374 204.0
99.838394 196.0
99.893311 100.0
99.918312 268.0
99.939842 248.0
99.976265 104.0
100.026611 168.0
100.053574 284.0
100.056908 256.0
100.086502 60.0
100.093414 156.0
100.114937 152.0
100.13784 140.0
100.153397 232.0
100.175087 140.0
100.192719 180.0
100.227592 360.0
100.265656 176.0
100.288742 288.0
100.327026 228.0
100.352211 172.0
100.375557 248.0
100.39724 100.0
100.415184 96.0
100.449181 72.0
100.485008 192.0
100.51738 268.0
100.535072 144.0
100.568253 212.0
100.591316 248.0
100.62072 348.0
100.636131 128.0
100.642021 136.0
100.649658 120.0
100.683899 308.0
100.708992 128.0
100.73983 140.0
100.755287 172.0
100.77504 76.0
100.796494 96.0
100.82003 268.0
100.837738 220.0
100.854111 156.0
100.861877 112.0
100.895683 224.0
100.919502 200.0
100.940918 160.0
100.967117 300.0
100.987579 228.0
101.014763 140.0
101.041344 152.0
101.072655 188.0
101.105766 152.0
101.129417 136.0
101.152328 96.0
101.169914 372.0
101.21064 192.0
101.218063 176.0
101.224197 148.0
101.246086 108.0
101.270035 136.0
101.289841 68.0
101.293793 200.0
101.306694 288.0
101.319588 128.0
101.341667 220.0
101.355812 124.0
101.372231 348.0
101.396996 124.0
101.414993 256.0
101.427322 184.0
101.455421 256.0
101.470879 264.0
101.477837 244.0
101.504036 148.0
101.525398 240.0
101.560219 116.0
101.591446 304.0
101.61454 80.0
101.636208 80.0
101.654366 120.0
101.668236 128.0
101.692657 176.0
101.717239 88.0
101.73056 100.0
101.755432 80.0
101.775093 212.0
101.816849 268.0
101.850868 244.0
101.874176 260.0
101.909081 64.0
101.913208 132.0
101.923012 220.0
101.948708 128.0
101.967842 108.0
101.984947 124.0
102.003548 284.0
102.021896 84.0
102.045692 164.0
102.102676 152.0
102.132736 84.0
102.15332 164.0
102.195511 316.0
102.217827 136.0
102.250343 120.0
102.287331 140.0
102.312561 148.0
102.331848 260.0
102.346596 120.0
102.384621 176.0
102.404617 312.0
102.429939 188.0
102.443069 140.0
102.458862 176.0
102.475517 140.0
102.516174 180.0
102.541252 348.0
102.55777 136.0
102.59594 176.0
102.612427 172.0
102.628357 120.0
102.667175 216.0
102.680046 120.0
102.694984 212.0
102.719917 112.0
102.748062 180.0
102.779121 348.0
102.802826 120.0
102.822823 100.0
102.8666 348.0
102.886559 244.0
102.906937 84.0
102.922058 264.0
102.941559 64.0
102.946777 140.0
102.954659 120.0
102.968697 144.0
102.982872 180.0
103.01152 44.0
103.040321 164.0
103.055199 112.0
103.069099 84.0
103.082939 100.0
103.086479 224.0
103.107185 120.0
103.124702 180.0
103.153488 176.0
103.176796 136.0
103.211952 160.0
103.21553 128.0
103.242317 200.0
103.259125 308.0
103.286156 112.0
103.311111 148.0
103.325394 192.0
103.348236 244.0
103.382637 156.0
103.417107 136.0
103.433693 144.0
103.442345 88.0
103.494751 292.0
103.53447 176.0
103.553528 108.0
103.57663 272.0
103.597847 180.0
103.616867 268.0
103.622459 92.0
103.630836 84.0
103.636566 140.0
103.660408 176.0
103.674919 456.0
103.700607 124.0
103.726875 192.0
103.739342 108.0
103.780617 352.0
103.801247 340.0
103.816376 392.0
103.856972 208.0
103.872803 168.0
103.897888 84.0
103.9048 124.0
103.916939 128.0
103.938744 284.0
103.975548 188.0
104.004303 132.0
104.025833 132.0
104.047981 248.0
104.097649 68.0
104.117882 192.0
104.140572 100.0
104.169243 160.0
104.178246 80.0
104.187317 212.0
104.211189 200.0
104.217361 124.0
104.222992 180.0
104.25145 164.0
104.271011 104.0
104.295387 120.0
104.312798 148.0
104.335678 348.0
104.381828 168.0
104.413086 152.0
104.433586 60.0
104.465263 400.0
104.514328 256.0
104.535194 136.0
104.557198 100.0
104.581039 360.0
104.608589 72.0
104.650787 144.0
104.72097 264.0
104.728943 144.0
104.771507 112.0
104.780853 212.0
104.803612 100.0
104.824059 116.0
104.844177 148.0
104.860298 132.0
104.889008 172.0
104.915985 120.0
104.96302 244.0
104.978287 124.0
104.997307 172.0
105.019501 128.0
105.027077 120.0
105.044525 156.0
105.073608 120.0
105.101807 192.0
105.119408 160.0
105.135353 92.0
105.149696 128.0
105.169151 152.0
105.215424 132.0
105.240768 100.0
105.2743 184.0
105.290649 140.0
105.306374 116.0
105.341156 120.0
105.357018 172.0
105.370476 300.0
105.409584 132.0
105.433273 88.0
105.44693 120.0
105.483986 168.0
105.506569 136.0
105.52108 260.0
105.549149 156.0
105.56823 112.0
105.595757 256.0
105.603722 152.0
105.638145 128.0
105.663017 336.0
105.668633 192.0
105.701813 304.0
105.741135 328.0
105.770401 252.0
105.803131 120.0
105.825241 156.0
105.865669 332.0
105.881638 228.0
105.903526 304.0
105.92894 92.0
105.960869 140.0
105.977562 268.0
105.992058 224.0
106.009392 72.0
106.019203 188.0
106.0383 196.0
106.070007 88.0
106.099503 176.0
106.130623 148.0
106.151184 56.0
106.173744 304.0
106.202705 260.0
106.243423 308.0
106.264618 160.0
106.285545 176.0
106.308685 328.0
106.326057 116.0
106.372597 112.0
106.395065 172.0
106.451935 244.0
106.48365 272.0
106.498947 232.0
106.512985 332.0
106.530106 324.0
106.572083 116.0
106.585907 36.0
106.619164 160.0
106.626007 152.0
106.641281 228.0
106.670044 112.0
106.679161 192.0
106.698814 96.0
106.725548 296.0
106.753929 140.0
106.790924 216.0
106.838821 176.0
106.86116 220.0
106.8759 228.0
106.895554 112.0
106.926781 204.0
106.997162 144.0
107.001472 260.0
107.031265 208.0
107.058281 168.0
107.082352 240.0
107.105164 96.0
107.135216 264.0
107.164848 256.0
107.199593 136.0
107.22226 64.0
107.239906 100.0
107.259293 76.0
107.281067 196.0
107.296471 88.0
107.325935 216.0
107.38308 76.0
107.413635 152.0
107.452782 96.0
107.488075 200.0
107.507896 296.0
107.535835 108.0
107.560776 132.0
107.579376 268.0
107.60154 164.0
107.62027 264.0
107.622749 200.0
107.63269 84.0
107.638535 448.0
107.656036 108.0
107.693047 156.0
107.720825 64.0
107.737579 212.0
107.766647 372.0
107.791245 152.0
107.817436 60.0
107.85096 148.0
107.868317 160.0
107.888237 188.0
107.92382 264.0
107.9823 320.0
107.991722 200.0
107.998589 264.0
108.011948 192.0
108.031181 136.0
108.054817 264.0
108.087547 84.0
108.108391 152.0
108.130432 144.0
108.163231 232.0
108.177704 284.0
108.185165 196.0
108.199982 100.0
108.234962 220.0
108.258781 156.0
108.301216 484.0
108.313698 308.0
108.330788 124.0
108.350571 252.0
108.383865 196.0
108.405128 176.0
108.445831 156.0
108.469955 452.0
108.487541 228.0
108.51754 116.0
108.524307 56.0
108.539566 116.0
108.556435 232.0
108.568871 152.0
108.60154 140.0
108.618324 140.0
108.644707 44.0
108.664818 152.0
108.700691 264.0
108.721939 124.0
108.726753 80.0
108.736946 144.0
108.755341 112.0
108.775635 44.0
108.791885 92.0
108.826752 116.0
108.833267 132.0
108.851982 276.0
108.874245 168.0
108.892525 300.0
108.90937 216.0
108.925247 164.0
108.947998 100.0
108.986053 140.0
108.99984 192.0
109.049629 216.0
109.081871 256.0
109.097542 132.0
109.11763 160.0
109.156372 112.0
109.178581 132.0
109.194725 156.0
109.208481 156.0
109.232231 116.0
109.255257 240.0
109.288177 168.0
109.30378 208.0
109.338676 104.0
109.375069 300.0
109.408005 260.0
109.446159 188.0
109.45507 116.0
109.45977 156.0
109.475502 248.0
109.492981 168.0
109.512924 324.0
109.551376 212.0
109.567093 196.0
109.602158 236.0
109.62989 156.0
109.672165 140.0
109.69297 188.0
109.697708 252.0
109.731697 216.0
109.736794 196.0
109.773659 176.0
109.807098 160.0
109.852859 220.0
109.879097 188.0
109.895187 240.0
109.931404 180.0
109.948151 124.0
109.972404 72.0
109.994751 80.0
110.013947 152.0
110.051811 196.0
110.088394 136.0
110.104057 156.0
110.13855 172.0
110.144379 144.0
110.153313 172.0
110.174416 76.0
110.206741 128.0
110.225227 144.0
110.259094 136.0
110.273094 168.0
110.289627 108.0
110.314301 84.0
110.344139 336.0
110.358261 180.0
110.365486 120.0
110.370117 228.0
110.407837 152.0
110.425285 164.0
110.449387 236.0
110.487602 436.0
110.525291 192.0
110.570358 108.0
110.591476 76.0
110.624123 72.0
110.643158 252.0
110.667191 136.0
110.68779 180.0
110.724274 188.0
110.743835 148.0
110.751381 188.0
110.780952 164.0
110.799095 252.0
110.822762 208.0
110.840294 180.0
110.868439 308.0
110.899193 108.0
110.930435 268.0
110.936935 180.0
110.971809 156.0
110.996246 176.0
111.027977 256.0
111.05793 204.0
111.08712 164.0
111.128174 196.0
111.162216 80.0
111.168091 128.0
111.212578 260.0
111.229271 144.0
111.24942 100.0
111.276428 248.0
111.299042 220.0
111.313751 340.0
111.343048 152.0
111.362274 256.0
111.413513 224.0
111.437012 472.0
111.460854 444.0
111.498474 156.0
111.523064 120.0
111.555168 148.0
111.561699 136.0
111.569672 200.0
111.58136 224.0
111.597641 248.0
111.641266 184.0
111.671761 184.0
111.691948 460.0
111.71682 156.0
111.738312 212.0
111.775284 116.0
111.805275 152.0
111.813843 100.0
111.823006 156.0
111.83934 172.0
111.855499 116.0
111.877373 120.0
111.884613 116.0
111.907478 68.0
111.924225 248.0
111.976578 128.0
112.002251 68.0
112.027069 220.0
112.030975 176.0
112.057083 100.0
112.080391 184.0
112.097916 284.0
112.124542 236.0
112.148514 112.0
112.170822 148.0
112.18721 108.0
112.212929 136.0
112.221237 184.0
112.269188 92.0
112.296021 84.0
112.30088 112.0
112.348572 124.0
112.370171 160.0
112.407631 148.0
112.425949 92.0
112.432724 216.0
112.463043 308.0
112.48777 356.0
112.507195 116.0
112.530281 128.0
112.560562 144.0
112.575615 128.0
112.588593 168.0
112.620277 140.0
112.639618 108.0
112.660721 256.0
112.691093 208.0
112.736481 200.0
112.752205 112.0
112.774429 92.0
112.808342 216.0
112.82605 160.0
112.866425 400.0
112.901337 216.0
112.930061 164.0
112.944817 104.0
112.960632 304.0
112.993515 156.0
113.007919 232.0
113.038521 232.0
113.05674 192.0
113.075966 192.0
113.080215 68.0
113.108727 104.0
113.129105 128.0
113.132965 80.0
113.144516 164.0
113.170059 132.0
113.173828 128.0
113.191467 248.0
113.256592 192.0
113.271973 308.0
113.306938 144.0
113.352287 112.0
113.390434 84.0
113.409042 100.0
113.423874 100.0
113.446854 188.0
113.463211 60.0
113.46801 148.0
113.498199 144.0
113.555405 164.0
113.57373 136.0
113.604065 128.0
113.627937 360.0
113.651703 356.0
113.689468 104.0
113.718094 140.0
113.734558 232.0
113.75 116.0
113.771065 100.0
113.804848 200.0
113.826645 208.0
113.863159 148.0
113.866318 120.0
113.887115 240.0
113.915855 336.0
113.937973 132.0
113.961273 148.0
113.978271 92.0
113.993149 68.0
114.013496 160.0
114.042656 136.0
114.082817 340.0
114.111794 148.0
114.139198 176.0
114.186455 108.0
114.202469 196.0
114.229332 348.0
114.283241 368.0
114.312691 136.0
114.330772 292.0
114.400749 164.0
114.419594 148.0
114.444107 76.0
114.468513 224.0
114.503349 152.0
114.545471 392.0
114.561951 176.0
114.578171 72.0
114.621437 136.0
114.663147 268.0
114.670662 184.0
114.677956 88.0
114.698761 396.0
114.738853 224.0
114.760948 108.0
114.800018 192.0
114.823082 108.0
114.828606 140.0
114.857796 100.0
114.884338 216.0
114.928825 284.0
114.951996 120.0
114.966629 64.0
114.988739 116.0
115.011894 264.0
115.054634 1720.0
115.079498 84.0
115.101341 188.0
115.129356 316.0
115.152725 220.0
115.166428 108.0
115.186966 376.0
115.204033 116.0
115.212463 156.0
115.230019 268.0
115.258263 104.0
115.290802 184.0
115.323448 104.0
115.330574 160.0
115.337952 168.0
115.360901 168.0
115.36618 220.0
115.380241 268.0
115.401215 260.0
115.439095 112.0
115.444901 112.0
115.463234 320.0
115.489952 188.0
115.505898 300.0
115.513344 196.0
115.522469 168.0
115.547729 88.0
115.571106 164.0
115.59893 116.0
115.617569 152.0
115.63636 208.0
115.668488 112.0
115.703896 100.0
115.724785 124.0
115.757339 160.0
115.779861 124.0
115.794876 144.0
115.808472 96.0
115.838081 324.0
115.884979 200.0
115.913147 476.0
115.932487 396.0
115.958565 108.0
116.009392 144.0
116.013412 140.0
116.040787 344.0
116.05439 92.0
116.062401 216.0
116.109825 384.0
116.140167 300.0
116.164566 156.0
116.189743 100.0
116.212395 192.0
116.254227 132.0
116.280434 104.0
116.319687 252.0
116.373131 324.0
116.397934 224.0
116.439316 188.0
116.454346 164.0
116.482986 96.0
116.501106 228.0
116.549255 180.0
116.586838 168.0
116.612923 140.0
116.668411 136.0
116.702148 320.0
116.72525 148.0
116.745689 84.0
116.763184 188.0
116.782845 152.0
116.787895 224.0
116.821655 128.0
116.827454 112.0
116.857635 184.0
116.910049 184.0
116.936462 52.0
116.964844 168.0
116.985909 120.0
117.008636 336.0
117.026268 152.0
117.033562 464.0
117.05648 5052.0
117.081047 164.0
117.108612 152.0
117.162209 232.0
117.202187 168.0
117.224556 180.0
117.254967 128.0
117.285667 260.0
117.310768 192.0
117.354645 160.0
117.385895 288.0
117.432495 248.0
117.463112 124.0
117.490845 224.0
117.516953 120.0
117.525833 128.0
117.546158 232.0
117.567986 128.0
117.603767 264.0
117.611847 188.0
117.63118 68.0
117.636162 124.0
117.646378 204.0
117.674751 172.0
117.690018 148.0
117.714241 360.0
117.736702 100.0
117.755081 180.0
117.780457 188.0
117.805115 108.0
117.830307 120.0
117.852913 280.0
117.879814 168.0
117.903 148.0
117.923294 120.0
117.942398 192.0
117.965607 188.0
117.971931 120.0
117.98391 124.0
117.994171 356.0
118.010361 140.0
118.033119 148.0
118.06134 896.0
118.09314 212.0
118.126999 152.0
118.132339 208.0
118.14344 348.0
118.16642 128.0
118.215599 152.0
118.248848 352.0
118.281395 376.0
118.300346 104.0
118.315567 188.0
118.360481 80.0
118.382027 176.0
118.405739 160.0
118.43895 144.0
118.459862 244.0
118.463562 72.0
118.486214 176.0
118.504448 264.0
118.514488 256.0
118.532608 140.0
118.581161 104.0
118.633324 128.0
118.655197 92.0
118.676857 160.0
118.715073 132.0
118.748192 128.0
118.751472 104.0
118.784813 284.0
118.840134 116.0
118.885406 96.0
118.945175 156.0
118.991386 524.0
119.025612 120.0
119.034225 108.0
119.04245 160.0
119.075478 128.0
119.100525 144.0
119.14492 116.0
119.172035 132.0
119.187599 312.0
119.230202 240.0
119.253639 124.0
119.27758 232.0
119.303436 236.0
119.32476 276.0
119.347374 156.0
119.387238 116.0
119.41153 72.0
119.439529 268.0
119.484238 324.0
119.506882 188.0
119.526466 128.0
119.545105 68.0
119.568008 132.0
119.589348 112.0
119.594353 144.0
119.601212 116.0
119.620453 304.0
119.64743 152.0
119.667053 68.0
119.675148 144.0
119.702332 208.0
119.720284 136.0
119.739929 216.0
119.781197 100.0
119.815971 108.0
119.833427 164.0
119.859093 240.0
119.88002 224.0
119.899803 128.0
119.928162 148.0
119.952332 112.0
120.003487 184.0
120.027061 128.0
120.048569 96.0
120.084518 176.0
120.106071 104.0
120.135216 144.0
120.154633 196.0
120.186195 136.0
120.199799 216.0
120.218437 196.0
120.236626 228.0
120.246414 136.0
120.251961 164.0
120.270546 144.0
120.292511 200.0
120.33091 184.0
120.357445 128.0
120.380806 196.0
120.398689 264.0
120.429657 224.0
120.473663 228.0
120.492386 320.0
120.517143 92.0
120.532402 256.0
120.559029 260.0
120.584045 148.0
120.603081 228.0
120.627678 192.0
120.646217 144.0
120.654839 60.0
120.662056 164.0
120.69593 160.0
120.719711 88.0
120.764847 100.0
120.788261 212.0
120.82032 100.0
120.853142 148.0
120.872299 316.0
120.895538 120.0
120.920937 200.0
120.959724 80.0
120.965691 132.0
121.002235 152.0
121.035912 160.0
121.05809 268.0
121.101219 188.0
121.147224 272.0
121.167213 180.0
121.189636 100.0
121.208763 184.0
121.254921 112.0
121.281273 276.0
121.312477 104.0
121.317917 132.0
121.335907 156.0
121.360817 240.0
121.380501 164.0
121.411064 52.0
121.442017 288.0
121.458115 168.0
121.480011 64.0
121.526932 180.0
121.550926 224.0
121.577927 80.0
121.595116 48.0
121.614494 184.0
121.631149 204.0
121.648712 128.0
121.6856 324.0
121.720993 152.0
121.741455 236.0
121.784851 136.0
121.816467 92.0
121.843155 320.0
121.887268 228.0
121.905869 248.0
121.931297 92.0
121.978157 160.0
122.012375 172.0
122.04808 248.0
122.062408 124.0
122.079422 136.0
122.107948 192.0
122.128502 100.0
122.166344 256.0
122.198448 300.0
122.218704 320.0
122.244492 128.0
122.292702 156.0
122.316086 108.0
122.336006 156.0
122.351067 264.0
122.37014 192.0
122.388054 156.0
122.405045 148.0
122.441071 208.0
122.456566 132.0
122.493202 148.0
122.555984 184.0
122.562675 208.0
122.589622 168.0
122.605972 176.0
122.645317 136.0
122.669815 220.0
122.686653 192.0
122.711266 92.0
122.733376 104.0
122.755196 124.0
122.777084 180.0
122.816864 212.0
122.849716 176.0
122.889008 180.0
122.909576 232.0
122.945007 128.0
122.958237 116.0
122.966583 112.0
122.981247 336.0
123.006866 112.0
123.030296 132.0
123.050842 136.0
123.071098 216.0
123.101662 376.0
123.157867 208.0
123.19664 156.0
123.217583 92.0
123.238213 200.0
123.258011 152.0
123.291359 200.0
123.310081 188.0
123.335815 100.0
123.363716 72.0
123.406822 104.0
123.434853 124.0
123.453842 420.0
123.472458 236.0
123.487144 112.0
123.521683 368.0
123.588974 192.0
123.612442 92.0
123.637192 164.0
123.667465 172.0
123.703926 152.0
123.712334 180.0
123.733101 276.0
123.753197 264.0
123.769867 160.0
123.789635 168.0
123.81691 424.0
123.843521 172.0
123.878227 88.0
123.899925 144.0
123.92215 276.0
123.9478 236.0
123.975983 168.0
123.992371 232.0
124.013268 136.0
124.028709 88.0
124.041313 472.0
124.102715 152.0
124.126915 176.0
124.166763 92.0
124.216164 180.0
124.251228 160.0
124.280014 124.0
124.298485 124.0
124.324532 80.0
124.341499 236.0
124.363037 208.0
124.388084 164.0
124.408241 148.0
124.444778 328.0
124.464951 188.0
124.502312 164.0
124.519142 140.0
124.552185 88.0
124.585007 156.0
124.607323 144.0
124.614639 120.0
124.623154 136.0
124.63961 116.0
124.667961 248.0
124.714401 112.0
124.739243 52.0
124.7715 252.0
124.805824 184.0
124.84005 352.0
124.865707 304.0
124.918724 152.0
124.936234 276.0
124.968681 72.0
124.996552 168.0
125.017029 112.0
125.02639 160.0
125.054153 244.0
125.061142 224.0
125.071228 212.0
125.076561 100.0
125.095169 316.0
125.113914 76.0
125.139771 120.0
125.15741 272.0
125.17907 136.0
125.186974 172.0
125.22599 308.0
125.26664 72.0
125.283798 244.0
125.315491 280.0
125.31839 228.0
125.345444 164.0
125.407501 204.0
125.428589 360.0
125.443703 140.0
125.471664 88.0
125.487274 168.0
125.510536 204.0
125.532921 144.0
125.556213 144.0
125.57975 180.0
125.598282 228.0
125.618393 296.0
125.651245 104.0
125.68293 116.0
125.717201 260.0
125.750877 388.0
125.788277 100.0
125.825478 116.0
125.840652 308.0
125.847015 224.0
125.862991 104.0
125.880478 148.0
125.940643 180.0
125.993904 236.0
126.012184 288.0
126.030922 204.0
126.044556 148.0
126.064629 80.0
126.072571 152.0
126.088539 164.0
126.108894 140.0
126.12896 152.0
126.152817 300.0
126.172989 200.0
126.189026 412.0
126.216591 76.0
126.251167 152.0
126.272163 284.0
126.302399 192.0
126.326065 132.0
126.35833 332.0
126.388199 168.0
126.436714 144.0
126.496819 172.0
126.51947 80.0
126.556786 168.0
126.576866 124.0
126.593361 160.0
126.608276 124.0
126.642685 276.0
126.689308 272.0
126.716309 288.0
126.73896 120.0
126.762566 192.0
126.782944 96.0
126.806458 336.0
126.825615 84.0
126.831703 136.0
126.847939 124.0
126.871826 276.0
126.890259 148.0
126.905983 132.0
126.948799 92.0
126.975723 156.0
126.989731 288.0
127.036369 176.0
127.059586 252.0
127.076012 152.0
127.120171 188.0
127.130585 100.0
127.175194 108.0
127.214531 184.0
127.243393 288.0
127.277809 88.0
127.310371 268.0
127.33429 128.0
127.358002 344.0
127.402328 72.0
127.408821 108.0
127.439026 168.0
127.460609 172.0
127.477226 104.0
127.501945 212.0
127.526222 180.0
127.551392 212.0
127.575577 272.0
127.598602 144.0
127.625587 132.0
127.662712 188.0
127.686302 144.0
127.715042 144.0
127.743309 84.0
127.750755 144.0
127.759651 184.0
127.765427 136.0
127.786926 104.0
127.792953 228.0
127.832916 188.0
127.863113 200.0
127.883705 356.0
127.91806 76.0
127.950958 256.0
127.957802 92.0
127.985718 180.0
128.021637 132.0
128.049484 1476.0
128.136047 192.0
128.14212 288.0
128.166046 376.0
128.183685 188.0
128.208115 112.0
128.236877 148.0
128.266693 152.0
128.287857 144.0
128.311264 172.0
128.327393 176.0
128.352341 164.0
128.395477 328.0
128.424133 224.0
128.447617 108.0
128.46579 172.0
128.484177 212.0
128.519272 216.0
128.527298 164.0
128.538818 104.0
128.547089 92.0
128.554184 136.0
128.578705 200.0
128.600464 168.0
128.63208 172.0
128.654816 212.0
128.699478 140.0
128.718262 192.0
128.740479 180.0
128.76738 144.0
128.774765 64.0
128.778946 132.0
128.782867 252.0
128.792618 76.0
128.800995 160.0
128.818787 288.0
128.839783 176.0
128.862839 240.0
128.879257 236.0
128.903198 204.0
128.932541 172.0
128.948135 144.0
128.963531 108.0
128.985046 132.0
129.007782 140.0
129.024109 104.0
129.051697 148.0
129.07103 132.0
129.08905 176.0
129.107925 156.0
129.134277 324.0
129.160309 212.0
129.210953 296.0
129.234879 60.0
129.252441 228.0
129.273392 104.0
129.299164 192.0
129.325638 136.0
129.341766 100.0
129.34845 100.0
129.374908 336.0
129.421326 148.0
129.45372 168.0
129.480011 112.0
129.502457 328.0
129.528397 164.0
129.556656 204.0
129.572983 156.0
129.606323 140.0
129.6418 168.0
129.68129 96.0
129.715454 84.0
129.739594 76.0
129.792221 324.0
129.812683 212.0
129.837555 124.0
129.894485 152.0
129.944595 68.0
129.967377 188.0
129.995728 152.0
130.0103 212.0
130.041504 156.0
130.067215 196.0
130.10405 208.0
130.153534 276.0
130.182892 164.0
130.213043 96.0
130.266357 336.0
130.307037 320.0
130.322647 180.0
130.341415 256.0
130.360565 224.0
130.368896 64.0
130.380127 168.0
130.393539 356.0
130.417236 164.0
130.42543 136.0
130.445694 156.0
130.466324 156.0
130.498947 172.0
130.533569 140.0
130.557404 200.0
130.580627 156.0
130.597534 124.0
130.634506 148.0
130.652466 348.0
130.679871 292.0
130.718079 228.0
130.732376 256.0
130.754242 136.0
130.776947 188.0
130.801147 192.0
130.820129 216.0
130.823288 204.0
130.834747 184.0
130.842102 148.0
130.870956 208.0
130.903198 84.0
130.90889 152.0
130.941055 144.0
130.968704 144.0
130.998978 140.0
131.020523 204.0
131.073151 208.0
131.09317 140.0
131.131836 180.0
131.166901 228.0
131.207947 204.0
131.24823 84.0
131.273087 220.0
131.30925 200.0
131.354279 352.0
131.360947 120.0
131.369965 204.0
131.388748 168.0
131.421036 212.0
131.428055 100.0
131.436584 152.0
131.48497 316.0
131.506378 48.0
131.546814 96.0
131.56636 116.0
131.611328 140.0
131.636765 140.0
131.662292 68.0
131.695511 192.0
131.714035 140.0
131.729614 120.0
131.762207 140.0
131.789551 92.0
131.839111 268.0
131.912415 180.0
131.940079 176.0
131.968582 160.0
131.992981 272.0
132.013458 264.0
132.022263 180.0
132.025711 156.0
132.054916 148.0
132.075912 140.0
132.137085 252.0
132.167084 144.0
132.173828 68.0
132.183746 148.0
132.198486 256.0
132.241409 304.0
132.266724 80.0
132.288132 104.0
132.308304 64.0
132.323761 156.0
132.342484 200.0
132.379715 176.0
132.407196 124.0
132.4552 88.0
132.475204 104.0
132.491898 152.0
132.495651 156.0
132.507141 152.0
132.516678 128.0
132.531403 276.0
132.555664 248.0
132.575531 228.0
132.606201 264.0
132.658905 332.0
132.697052 220.0
132.721725 568.0
132.747803 100.0
132.771759 164.0
132.790955 128.0
132.819626 132.0
132.849899 272.0
132.877121 148.0
132.907272 340.0
132.93721 196.0
132.980118 184.0
133.006226 344.0
133.032516 204.0
133.054321 120.0
133.091461 136.0
133.113037 240.0
133.136124 172.0
133.159866 92.0
133.167557 108.0
133.217819 200.0
133.25943 180.0
133.287827 288.0
133.29425 144.0
133.32489 44.0
133.343277 120.0
133.374039 164.0
133.395233 216.0
133.417206 344.0
133.439392 272.0
133.47319 404.0
133.497757 144.0
133.534164 160.0
133.561157 140.0
133.579971 120.0
133.599731 144.0
133.616211 244.0
133.660187 208.0
133.666977 168.0
133.675629 296.0
133.691345 240.0
133.729675 328.0
133.767838 164.0
133.815155 248.0
133.846603 128.0
133.862183 108.0
133.893051 200.0
133.922089 176.0
133.949188 360.0
133.975998 148.0
133.999313 132.0
134.019882 132.0
134.043381 92.0
134.087601 180.0
134.10997 152.0
134.159851 120.0
134.181183 176.0
134.196213 120.0
134.219879 184.0
134.245743 96.0
134.279572 160.0
134.283585 216.0
134.306213 164.0
134.33371 116.0
134.376282 200.0
134.404312 240.0
134.421066 160.0
134.43837 132.0
134.478271 84.0
134.514374 248.0
134.547623 180.0
134.584381 96.0
134.600174 176.0
134.632065 120.0
134.672394 160.0
134.707367 352.0
134.730469 144.0
134.751266 148.0
134.767426 300.0
134.78688 260.0
134.816055 100.0
134.836761 120.0
134.853867 140.0
134.881622 304.0
134.904617 100.0
134.94017 180.0
134.948914 172.0
134.987106 240.0
135.013687 76.0
135.033279 92.0
135.067749 444.0
135.07135 172.0
135.096542 208.0
135.105637 144.0
135.110748 212.0
135.150879 204.0
135.184006 196.0
135.209 188.0
135.23732 124.0
135.263062 104.0
135.280869 312.0
135.307755 124.0
135.346313 256.0
135.37561 168.0
135.393814 144.0
135.409866 200.0
135.43988 128.0
135.470764 124.0
135.490158 184.0
135.514862 232.0
135.559387 296.0
135.599518 96.0
135.61879 256.0
135.630356 188.0
135.640442 232.0
135.674225 216.0
135.709732 252.0
135.746719 144.0
135.773636 96.0
135.79451 116.0
135.803406 332.0
135.861496 208.0
135.913025 144.0
135.930084 424.0
135.950684 152.0
135.958786 144.0
135.969177 144.0
135.973312 180.0
136.009033 128.0
136.055008 160.0
136.074753 196.0
136.102356 252.0
136.128601 128.0
136.1483 356.0
136.164322 84.0
136.193985 196.0
136.252411 212.0
136.275558 164.0
136.282883 96.0
136.290955 160.0
136.321625 188.0
136.342285 148.0
136.378189 204.0
136.412766 228.0
136.434357 188.0
136.458344 164.0
136.486267 256.0
136.519348 388.0
136.547348 128.0
136.576263 228.0
136.613998 148.0
136.660385 396.0
136.698349 140.0
136.716843 260.0
136.764618 184.0
136.791183 116.0
136.809647 136.0
136.815918 184.0
136.834503 232.0
136.873764 172.0
136.892914 248.0
136.91922 180.0
136.988297 180.0
137.025558 128.0
137.066833 144.0
137.10144 300.0
137.145447 140.0
137.159378 452.0
137.193237 152.0
137.213409 164.0
137.259705 152.0
137.277908 96.0
137.302536 276.0
137.348267 156.0
137.411224 272.0
137.444916 88.0
137.466385 400.0
137.475723 148.0
137.485367 164.0
137.505432 112.0
137.54686 332.0
137.568314 168.0
137.614746 164.0
137.650467 208.0
137.689819 136.0
137.707657 188.0
137.732376 272.0
137.786423 124.0
137.818298 140.0
137.858459 212.0
137.876617 184.0
137.900635 208.0
137.917999 140.0
137.95459 328.0
137.976456 116.0
138.026337 116.0
138.044128 236.0
138.053223 144.0
138.094406 164.0
138.123077 260.0
138.150299 72.0
138.179642 132.0
138.203949 188.0
138.230896 232.0
138.256073 148.0
138.282974 148.0
138.307281 276.0
138.324295 160.0
138.339005 292.0
138.371613 120.0
138.413834 240.0
138.429657 136.0
138.438416 168.0
138.471756 156.0
138.503265 112.0
138.510223 148.0
138.521271 248.0
138.550079 136.0
138.55481 56.0
138.580078 112.0
138.613541 136.0
138.633118 164.0
138.670349 208.0
138.715927 152.0
138.752594 208.0
138.779633 232.0
138.798096 332.0
138.866089 140.0
138.885849 100.0
138.904617 156.0
138.926102 152.0
138.953873 188.0
139.016006 184.0
139.041168 112.0
139.069778 116.0
139.102631 280.0
139.122269 108.0
139.139465 240.0
139.171387 280.0
139.196732 116.0
139.221802 116.0
139.268768 144.0
139.301559 200.0
139.32103 124.0
139.337677 136.0
139.357712 136.0
139.398529 184.0
139.420059 152.0
139.44931 388.0
139.46817 108.0
139.514359 316.0
139.544312 248.0
139.582718 144.0
139.600281 204.0
139.630905 168.0
139.671265 176.0
139.693024 348.0
139.719009 112.0
139.762146 172.0
139.769882 124.0
139.79361 268.0
139.836884 152.0
139.846054 116.0
139.854416 228.0
139.885193 140.0
139.917633 120.0
139.94809 108.0
139.975723 120.0
139.985123 196.0
140.000854 108.0
140.01886 148.0
140.047836 944.0
140.078903 280.0
140.104294 100.0
140.127029 128.0
140.1689 192.0
140.200348 232.0
140.251999 352.0
140.267532 132.0
140.28717 168.0
140.302887 416.0
140.338043 160.0
140.365952 48.0
140.373108 76.0
140.412491 300.0
140.429138 128.0
140.444214 268.0
140.482925 248.0
140.532181 148.0
140.567322 240.0
140.595551 212.0
140.621429 64.0
140.630447 116.0
140.653809 104.0
140.66571 208.0
140.696579 100.0
140.732056 200.0
140.758774 148.0
140.798416 68.0
140.834106 160.0
140.8703 172.0
140.920135 204.0
140.948212 172.0
140.982239 412.0
141.024017 52.0
141.057388 384.0
141.111145 200.0
141.134949 116.0
141.157806 80.0
141.177765 260.0
141.188263 124.0
141.203552 208.0
141.233704 152.0
141.254684 140.0
141.299789 104.0
141.349945 412.0
141.372467 156.0
141.399902 128.0
141.42424 168.0
141.449249 52.0
141.45578 92.0
141.464951 116.0
141.497147 148.0
141.539795 100.0
141.561539 132.0
141.579941 264.0
141.643784 140.0
141.667862 152.0
141.731003 260.0
141.77124 136.0
141.789673 188.0
141.822708 164.0
141.850906 108.0
141.894226 196.0
141.918701 188.0
141.945999 148.0
141.956345 32.0
141.960846 236.0
141.993774 176.0
142.023041 152.0
142.043488 252.0
142.065735 144.0
142.106979 188.0
142.136124 216.0
142.167557 184.0
142.17421 296.0
142.200165 368.0
142.221954 164.0
142.243439 136.0
142.249741 164.0
142.313629 152.0
142.365326 216.0
142.40242 160.0
142.409058 260.0
142.445297 156.0
142.474655 324.0
142.493347 128.0
142.512085 44.0
142.536865 216.0
142.559616 128.0
142.579865 284.0
142.62616 124.0
142.649017 148.0
142.668381 152.0
142.698303 116.0
142.723038 264.0
142.758789 144.0
142.771713 132.0
142.814453 128.0
142.835526 160.0
142.86319 124.0
142.904648 152.0
142.930573 52.0
142.955017 148.0
143.001678 348.0
143.038742 260.0
143.068146 204.0
143.092697 176.0
143.135025 144.0
143.15033 128.0
143.170837 236.0
143.204285 188.0
143.207474 104.0
143.232941 152.0
143.265915 100.0
143.300552 204.0
143.327377 120.0
143.349518 300.0
143.381104 236.0
143.40152 160.0
143.430801 236.0
143.47113 164.0
143.493423 372.0
143.556122 276.0
143.574814 164.0
143.626251 300.0
143.645737 164.0
143.67157 160.0
143.701492 136.0
143.744293 184.0
143.776855 160.0
143.801041 140.0
143.818665 144.0
143.850739 188.0
143.882339 128.0
143.91626 408.0
143.936417 108.0
143.955612 132.0
143.99472 256.0
144.013062 144.0
144.047409 92.0
144.064789 480.0
144.070511 536.0
144.101318 144.0
144.149063 276.0
144.170212 204.0
144.187592 308.0
144.221085 168.0
144.231918 172.0
144.23819 144.0
144.275467 336.0
144.330368 212.0
144.335556 128.0
144.402634 256.0
144.413071 136.0
144.438049 216.0
144.469055 136.0
144.489761 180.0
144.513092 168.0
144.5354 500.0
144.566574 160.0
144.59317 128.0
144.615463 64.0
144.638016 348.0
144.677032 220.0
144.694046 340.0
144.716721 108.0
144.74646 300.0
144.769562 256.0
144.807251 120.0
144.831009 192.0
144.863785 108.0
144.88707 208.0
144.91983 84.0
144.941391 176.0
144.995209 152.0
145.016449 116.0
145.044113 176.0
145.060349 128.0
145.086426 172.0
145.106018 120.0
145.140121 92.0
145.174576 108.0
145.216644 324.0
145.225922 160.0
145.252838 144.0
145.298477 152.0
145.323013 128.0
145.360107 164.0
145.385986 144.0
145.406845 168.0
145.429932 144.0
145.441376 156.0
145.4702 100.0
145.492279 392.0
145.517517 320.0
145.545639 176.0
145.569382 284.0
145.613892 152.0
145.620483 172.0
145.638901 188.0
145.662903 184.0
145.68927 140.0
145.740143 88.0
145.781967 136.0
145.821106 228.0
145.855286 204.0
145.883514 152.0
145.936966 164.0
145.954742 344.0
145.984619 176.0
146.00499 136.0
146.0224 176.0
146.059509 264.0
146.107803 152.0
146.123077 200.0
146.151764 224.0
146.179764 100.0
146.209503 156.0
146.234253 100.0
146.25119 160.0
146.277328 144.0
146.307816 128.0
146.343765 168.0
146.364838 228.0
146.39209 108.0
146.426865 160.0
146.453125 220.0
146.487076 220.0
146.507599 164.0
146.513138 284.0
146.548279 220.0
146.587112 92.0
146.611313 172.0
146.636871 164.0
146.661392 180.0
146.690857 80.0
146.744324 204.0
146.7668 320.0
146.795609 208.0
146.839584 188.0
146.86113 148.0
146.896454 296.0
146.93544 184.0
146.967148 196.0
146.997208 256.0
147.021301 268.0
147.062851 260.0
147.105927 168.0
147.135147 164.0
147.166458 148.0
147.192688 100.0
147.218155 360.0
147.253799 220.0
147.291 176.0
147.323059 148.0
147.371628 152.0
147.392883 160.0
147.412521 200.0
147.438919 156.0
147.464249 128.0
147.489777 232.0
147.512909 212.0
147.542526 76.0
147.561172 152.0
147.579849 200.0
147.610886 152.0
147.63089 108.0
147.650467 188.0
147.668777 312.0
147.685226 160.0
147.701996 204.0
147.730972 164.0
147.764297 288.0
147.781281 56.0
147.796539 148.0
147.821548 224.0
147.840454 296.0
147.857346 120.0
147.871048 208.0
147.907349 108.0
147.913437 148.0
147.963608 140.0
147.987183 160.0
148.042511 300.0
148.064468 124.0
148.073593 164.0
148.0923 132.0
148.132599 240.0
148.173477 180.0
148.205551 236.0
148.231476 284.0
148.292923 344.0
148.309967 172.0
148.313858 124.0
148.326706 100.0
148.333023 124.0
148.353134 184.0
148.377197 140.0
148.418396 300.0
148.448303 164.0
148.480148 84.0
148.518158 452.0
148.553726 192.0
148.619064 212.0
148.657242 100.0
148.710083 116.0
148.765106 508.0
148.790726 268.0
148.821533 228.0
148.85907 244.0
148.904236 76.0
148.939377 160.0
148.964844 156.0
148.985611 168.0
149.016617 104.0
149.047668 276.0
149.068832 164.0
149.101105 156.0
149.144501 188.0
149.162292 72.0
149.174072 168.0
149.206772 288.0
149.232697 168.0
149.263626 96.0
149.288132 144.0
149.327621 136.0
149.352097 40.0
149.380844 420.0
149.396896 152.0
149.417862 88.0
149.440491 104.0
149.463638 268.0
149.489029 260.0
149.499985 148.0
149.507111 100.0
149.566132 188.0
149.604736 224.0
149.631546 240.0
149.670914 204.0
149.70076 96.0
149.738449 148.0
149.764175 164.0
149.792725 196.0
149.829056 56.0
149.838516 144.0
149.895126 84.0
149.93222 344.0
149.981323 260.0
150.024155 136.0
150.032547 132.0
150.04364 168.0
150.076614 96.0
150.114548 316.0
150.135666 280.0
150.185303 156.0
150.208115 160.0
150.230164 320.0
150.254456 212.0
150.298309 204.0
150.318314 140.0
150.364029 180.0
150.392166 148.0
150.417999 140.0
150.461258 176.0
150.490707 224.0
150.519516 448.0
150.561493 180.0
150.601379 180.0
150.638275 132.0
150.675156 160.0
150.707382 100.0
150.72963 312.0
150.750336 100.0
150.76622 132.0
150.785187 196.0
150.802063 192.0
150.829178 132.0
150.860001 196.0
150.886002 140.0
150.906723 124.0
150.934006 144.0
150.961792 344.0
150.991821 236.0
151.013153 100.0
151.038834 136.0
151.060349 184.0
151.099991 236.0
151.116913 228.0
151.141846 132.0
151.164841 152.0
151.19223 144.0
151.217758 212.0
151.290329 148.0
151.310104 196.0
151.328293 276.0
151.355774 152.0
151.399704 200.0
151.437759 100.0
151.475555 324.0
151.492218 124.0
151.510666 132.0
151.546249 288.0
151.577972 424.0
151.597321 184.0
151.617889 136.0
151.65094 164.0
151.670975 128.0
151.687103 380.0
151.706131 184.0
151.725739 244.0
151.746094 228.0
151.77597 224.0
151.805634 148.0
151.829346 332.0
151.860611 248.0
151.88356 304.0
151.910995 208.0
151.936768 184.0
151.955719 284.0
152.006653 84.0
152.050735 404.0
152.097198 204.0
152.130539 116.0
152.159958 132.0
152.194183 204.0
152.24147 180.0
152.290146 276.0
152.314362 140.0
152.338715 140.0
152.360184 260.0
152.402344 80.0
152.43924 128.0
152.483109 112.0
152.508835 200.0
152.531982 144.0
152.555115 356.0
152.58194 184.0
152.598892 140.0
152.635925 252.0
152.667404 184.0
152.708313 304.0
152.728485 132.0
152.751541 148.0
152.760681 104.0
152.788956 136.0
152.824463 176.0
152.869553 212.0
152.889603 196.0
152.908554 100.0
152.934067 308.0
152.974915 192.0
153.037277 240.0
153.051498 168.0
153.089661 124.0
153.10556 228.0
153.140411 140.0
153.178009 112.0
153.251236 372.0
153.293701 132.0
153.301208 92.0
153.329254 84.0
153.374847 204.0
153.421631 84.0
153.468613 184.0
153.502625 280.0
153.552734 88.0
153.588318 200.0
153.625076 132.0
153.672745 196.0
153.697922 280.0
153.758545 152.0
153.787186 184.0
153.817993 124.0
153.844406 188.0
153.87648 140.0
153.914886 192.0
153.940689 228.0
153.964951 92.0
154.02211 304.0
154.061737 268.0
154.118103 196.0
154.155121 188.0
154.174347 184.0
154.213531 312.0
154.260269 100.0
154.279938 128.0
154.307617 168.0
154.337326 268.0
154.359741 136.0
154.382614 88.0
154.401886 144.0
154.431213 108.0
154.437469 200.0
154.4646 160.0
154.482422 136.0
154.528961 268.0
154.533966 188.0
154.54509 448.0
154.578583 164.0
154.630936 204.0
154.649628 112.0
154.690292 136.0
154.733597 184.0
154.771118 140.0
154.799026 132.0
154.824722 156.0
154.844925 144.0
154.898483 160.0
154.918213 244.0
154.928802 108.0
154.942535 224.0
154.963852 128.0
154.983063 128.0
155.018951 148.0
155.062241 1012.0
155.096191 316.0
155.132935 336.0
155.164154 140.0
155.190247 260.0
155.225693 204.0
155.255997 244.0
155.263733 104.0
155.27095 160.0
155.305893 224.0
155.330719 216.0
155.368286 108.0
155.376648 156.0
155.41626 136.0
155.457764 164.0
155.4767 140.0
155.509567 228.0
155.57518 104.0
155.596603 172.0
155.613617 220.0
155.660965 160.0
155.672455 132.0
155.682495 92.0
155.713394 132.0
155.741653 136.0
155.770599 124.0
155.822052 124.0
155.84375 164.0
155.848862 252.0
155.883011 132.0
155.952957 188.0
155.975021 136.0
155.999344 172.0
156.01944 212.0
156.042633 96.0
156.067383 116.0
156.106689 88.0
156.135986 92.0
156.158371 48.0
156.184586 292.0
156.219925 176.0
156.247192 160.0
156.269318 260.0
156.292572 152.0
156.329819 148.0
156.362625 448.0
156.407806 96.0
156.461868 120.0
156.487625 140.0
156.527573 148.0
156.535049 128.0
156.545746 196.0
156.569733 268.0
156.611374 112.0
156.627792 140.0
156.666595 96.0
156.695206 312.0
156.713501 36.0
156.738358 168.0
156.767242 256.0
156.841568 188.0
156.858917 264.0
156.895477 280.0
156.935593 160.0
156.994827 84.0
157.028305 256.0
157.050674 180.0
157.077606 172.0
157.12326 288.0
157.147034 312.0
157.188629 88.0
157.223663 220.0
157.230515 280.0
157.250305 220.0
157.260605 220.0
157.289703 100.0
157.333206 96.0
157.381317 152.0
157.412903 184.0
157.432358 104.0
157.45314 64.0
157.487488 208.0
157.521057 160.0
157.549072 128.0
157.558701 116.0
157.579254 240.0
157.58844 180.0
157.595963 172.0
157.623352 260.0
157.640839 164.0
157.675476 228.0
157.729614 180.0
157.773453 124.0
157.801147 120.0
157.878601 92.0
157.927292 232.0
157.95929 124.0
157.986816 80.0
158.013657 224.0
158.030594 176.0
158.053253 144.0
158.069977 116.0
158.088058 120.0
158.093155 56.0
158.109894 84.0
158.148071 196.0
158.17337 256.0
158.19986 224.0
158.227814 132.0
158.254044 108.0
158.288101 160.0
158.317215 136.0
158.345917 116.0
158.362244 340.0
158.392242 328.0
158.434479 300.0
158.467499 144.0
158.4935 192.0
158.516602 188.0
158.52742 92.0
158.560226 148.0
158.590561 360.0
158.615524 180.0
158.641846 192.0
158.698517 240.0
158.72818 244.0
158.754684 208.0
158.783707 116.0
158.815216 108.0
158.832794 332.0
158.863235 104.0
158.879578 144.0
158.889114 156.0
158.919632 148.0
158.956909 172.0
158.990479 148.0
159.013016 224.0
159.036469 288.0
159.051605 200.0
159.074936 436.0
159.100952 120.0
159.149506 148.0
159.165329 120.0
159.196198 164.0
159.220123 144.0
159.243378 152.0
159.265396 152.0
159.301758 156.0
159.348831 280.0
159.387955 192.0
159.40654 244.0
159.442215 168.0
159.468185 640.0
159.487137 164.0
159.519821 184.0
159.541367 96.0
159.55658 108.0
159.593781 128.0
159.619003 228.0
159.64357 168.0
159.654724 88.0
159.661026 164.0
159.69754 224.0
159.723297 128.0
159.764847 112.0
159.79451 264.0
159.821289 352.0
159.844696 332.0
159.872391 300.0
159.927048 268.0
159.975601 124.0
160.001877 100.0
160.035233 236.0
160.055389 172.0
160.089218 348.0
160.129837 216.0
160.161377 280.0
160.183777 228.0
160.219681 128.0
160.249634 192.0
160.269333 100.0
160.288864 144.0
160.309372 104.0
160.349899 420.0
160.37149 180.0
160.399796 160.0
160.42627 232.0
160.457184 200.0
160.46698 244.0
160.493835 388.0
160.536957 292.0
160.555862 160.0
160.582428 344.0
160.601166 240.0
160.610413 120.0
160.622253 496.0
160.662857 148.0
160.679825 92.0
160.723724 164.0
160.748947 128.0
160.793594 220.0
160.84613 196.0
160.854919 200.0
160.874741 344.0
160.891937 96.0
160.928131 148.0
160.958725 204.0
160.981873 372.0
161.003799 152.0
161.046753 128.0
161.085831 332.0
161.137909 124.0
161.154709 332.0
161.171936 312.0
161.197815 260.0
161.222 76.0
161.245499 184.0
161.304077 172.0
161.336136 112.0
161.366714 132.0
161.409149 84.0
161.439621 176.0
161.471649 308.0
161.513687 148.0
161.561264 148.0
161.582489 124.0
161.61203 316.0
161.646667 100.0
161.703415 280.0
161.725082 104.0
161.785873 236.0
161.828262 220.0
161.861267 96.0
161.86702 92.0
161.883331 164.0
161.90184 112.0
161.912506 260.0
161.930847 104.0
161.985168 140.0
161.993393 176.0
162.006348 104.0
162.012985 136.0
162.043915 340.0
162.080872 248.0
162.101913 168.0
162.143814 184.0
162.184235 444.0
162.201263 180.0
162.220001 372.0
162.260147 100.0
162.29364 288.0
162.329971 80.0
162.353149 264.0
162.373215 148.0
162.414627 124.0
162.456039 244.0
162.506699 144.0
162.515503 200.0
162.541473 208.0
162.595276 216.0
162.634018 120.0
162.666336 96.0
162.671097 64.0
162.707275 236.0
162.726959 224.0
162.749039 152.0
162.792587 100.0
162.812576 120.0
162.821289 116.0
162.838821 280.0
162.868362 212.0
162.90918 164.0
162.946701 312.0
162.987793 340.0
163.006882 180.0
163.014801 200.0
163.043289 144.0
163.069092 156.0
163.087234 84.0
163.119247 48.0
163.130768 92.0
163.141342 112.0
163.145279 188.0
163.163498 168.0
163.184921 160.0
163.202072 184.0
163.223068 112.0
163.240875 44.0
163.263412 176.0
163.312927 184.0
163.335358 212.0
163.365494 92.0
163.383301 152.0
163.40654 148.0
163.439285 88.0
163.458496 152.0
163.502075 136.0
163.511292 176.0
163.544846 92.0
163.578476 156.0
163.596909 164.0
163.632919 204.0
163.65564 140.0
163.685043 256.0
163.691177 184.0
163.700409 248.0
163.727234 68.0
163.777573 288.0
163.804764 148.0
163.836472 100.0
163.865967 124.0
163.902344 140.0
163.924561 308.0
163.943909 220.0
163.975525 124.0
164.01123 128.0
164.036499 296.0
164.043716 112.0
164.053818 152.0
164.064789 188.0
164.126373 200.0
164.152527 184.0
164.175522 176.0
164.225388 80.0
164.264267 128.0
164.312347 152.0
164.331223 404.0
164.357224 316.0
164.397186 260.0
164.42128 92.0
164.450623 196.0
164.489105 160.0
164.53447 296.0
164.569656 220.0
164.589569 132.0
164.625854 128.0
164.657944 356.0
164.688721 124.0
164.712585 136.0
164.747589 116.0
164.776627 352.0
164.830475 272.0
164.845108 196.0
164.885681 372.0
164.915878 88.0
164.941376 144.0
164.955322 208.0
164.992188 136.0
165.028366 80.0
165.062393 156.0
165.070938 172.0
165.081589 172.0
165.147827 172.0
165.176529 192.0
165.20755 400.0
165.257324 124.0
165.275238 228.0
165.319107 292.0
165.344086 208.0
165.361969 148.0
165.390381 132.0
165.4198 152.0
165.440094 128.0
165.462372 152.0
165.482559 388.0
165.527496 228.0
165.547821 172.0
165.613235 188.0
165.644135 268.0
165.658417 156.0
165.709045 140.0
165.755173 172.0
165.803314 224.0
165.812744 208.0
165.836807 40.0
165.864197 256.0
165.889816 216.0
165.916245 132.0
165.944992 96.0
165.976715 176.0
165.994263 92.0
166.029053 184.0
166.044464 644.0
166.065521 108.0
166.105728 124.0
166.153992 180.0
166.164398 256.0
166.178253 76.0
166.215073 164.0
166.237106 312.0
166.253189 248.0
166.288742 144.0
166.310257 280.0
166.333435 380.0
166.346268 156.0
166.350952 144.0
166.373627 120.0
166.394928 180.0
166.423294 116.0
166.440414 192.0
166.477768 140.0
166.517075 108.0
166.522964 140.0
166.531631 212.0
166.55191 284.0
166.618561 172.0
166.646179 224.0
166.673462 164.0
166.712494 68.0
166.753937 232.0
166.774887 188.0
166.804871 316.0
166.839355 296.0
166.883865 308.0
166.915588 188.0
166.936157 192.0
166.960815 196.0
166.999008 156.0
167.026169 156.0
167.071564 324.0
167.1064 220.0
167.154816 164.0
167.198563 332.0
167.215439 296.0
167.259216 140.0
167.287979 140.0
167.345001 252.0
167.410004 152.0
167.433701 232.0
167.479202 336.0
167.505829 204.0
167.528595 304.0
167.547607 124.0
167.600281 192.0
167.647095 432.0
167.697754 140.0
167.704453 124.0
167.734375 148.0
167.774734 88.0
167.781387 180.0
167.794952 256.0
167.81813 148.0
167.83551 260.0
167.883896 140.0
167.922775 212.0
167.944916 176.0
167.972809 220.0
167.993805 152.0
168.0215 208.0
168.045105 148.0
168.090317 168.0
168.118393 196.0
168.13736 264.0
168.174835 240.0
168.182877 80.0
168.241043 220.0
168.283813 100.0
168.308136 104.0
168.36055 296.0
168.383087 108.0
168.418106 148.0
168.456879 308.0
168.481186 144.0
168.505814 164.0
168.547043 356.0
168.587509 252.0
168.591858 144.0
168.615814 100.0
168.632935 116.0
168.677475 180.0
168.700272 124.0
168.730865 196.0
168.760071 184.0
168.793716 176.0
168.820984 228.0
168.84494 140.0
168.91217 124.0
168.942093 164.0
168.992554 228.0
169.034027 320.0
169.061981 296.0
169.087585 116.0
169.117706 184.0
169.14798 488.0
169.170273 264.0
169.21994 132.0
169.250854 196.0
169.285721 128.0
169.332626 228.0
169.363403 52.0
169.369156 164.0
169.401581 160.0
169.444717 116.0
169.482529 280.0
169.519409 256.0
169.551254 212.0
169.560669 108.0
169.566071 100.0
169.571381 176.0
169.602066 136.0
169.663208 52.0
169.700378 96.0
169.727631 208.0
169.757431 240.0
169.777435 268.0
169.786774 84.0
169.806976 168.0
169.826324 276.0
169.847626 172.0
169.87027 104.0
169.903351 352.0
169.961075 148.0
169.989487 156.0
169.99585 144.0
170.013336 144.0
170.062988 196.0
170.108032 168.0
170.121994 292.0
170.144943 192.0
170.161621 156.0
170.18045 204.0
170.210602 128.0
170.219666 228.0
170.229401 212.0
170.263 244.0
170.295624 120.0
170.342361 276.0
170.37883 152.0
170.412155 172.0
170.447357 128.0
170.480804 256.0
170.501221 176.0
170.530792 292.0
170.584778 248.0
170.61705 236.0
170.667389 224.0
170.710251 184.0
170.735748 116.0
170.765717 148.0
170.787445 156.0
170.829865 192.0
170.852264 108.0
170.887268 192.0
170.911987 188.0
170.936646 168.0
170.963165 240.0
170.999863 172.0
171.028625 176.0
171.076279 116.0
171.099808 168.0
171.135956 88.0
171.185776 176.0
171.233017 236.0
171.266418 116.0
171.291168 96.0
171.316589 116.0
171.336502 168.0
171.355545 116.0
171.378937 292.0
171.399033 224.0
171.420914 248.0
171.442993 76.0
171.465179 156.0
171.48764 120.0
171.532547 124.0
171.577423 264.0
171.601242 180.0
171.635834 304.0
171.675323 188.0
171.716324 344.0
171.733505 188.0
171.762253 288.0
171.794922 108.0
171.81546 128.0
171.849075 160.0
171.877487 140.0
171.899094 172.0
171.928101 168.0
171.961243 96.0
172.001846 196.0
172.036728 208.0
172.065521 136.0
172.097885 224.0
172.132736 148.0
172.176422 176.0
172.206207 112.0
172.235657 220.0
172.258209 348.0
172.29837 268.0
172.356018 196.0
172.37764 340.0
172.395798 308.0
172.403061 184.0
172.413544 160.0
172.463486 368.0
172.52063 120.0
172.570038 264.0
172.593002 436.0
172.640671 188.0
172.662308 148.0
172.704834 160.0
172.732635 160.0
172.741745 128.0
172.779968 116.0
172.809982 152.0
172.838379 184.0
172.890991 164.0
172.921738 352.0
172.946594 148.0
172.953522 188.0
172.976517 120.0
173.023132 204.0
173.02684 164.0
173.040588 76.0
173.051453 200.0
173.076004 252.0
173.103333 268.0
173.113251 160.0
173.15593 116.0
173.218765 172.0
173.252533 172.0
173.299225 404.0
173.322083 68.0
173.362915 84.0
173.399643 352.0
173.438797 92.0
173.467285 104.0
173.497971 296.0
173.510284 144.0
173.535141 336.0
173.573517 160.0
173.605881 184.0
173.635086 116.0
173.647034 144.0
173.657883 112.0
173.670486 148.0
173.67514 144.0
173.712692 172.0
173.74205 84.0
173.763336 252.0
173.815002 148.0
173.840134 168.0
173.868958 148.0
173.898621 220.0
173.939835 240.0
173.996567 244.0
174.043045 268.0
174.077927 248.0
174.10112 184.0
174.12294 360.0
174.167313 172.0
174.220993 304.0
174.253693 112.0
174.276443 152.0
174.328537 112.0
174.360321 132.0
174.37793 144.0
174.408142 124.0
174.427216 152.0
174.461319 108.0
174.485336 144.0
174.525299 312.0
174.569794 140.0
174.589569 144.0
174.655914 360.0
174.676682 136.0
174.685791 112.0
174.713135 144.0
174.747375 256.0
174.771896 92.0
174.79039 140.0
174.809387 116.0
174.871674 316.0
174.89978 124.0
174.947098 104.0
175.005936 164.0
175.029434 276.0
175.033966 248.0
175.0513 156.0
175.100403 120.0
175.138611 136.0
175.157272 124.0
175.1884 272.0
175.225555 124.0
175.248886 116.0
175.257782 104.0
175.269531 156.0
175.303589 192.0
175.327667 88.0
175.388123 300.0
175.409973 208.0
175.420685 112.0
175.425613 144.0
175.444977 100.0
175.476974 144.0
175.508652 216.0
175.536987 164.0
175.564575 88.0
175.592255 164.0
175.633026 136.0
175.672409 152.0
175.692947 72.0
175.700516 156.0
175.725479 156.0
175.757248 96.0
175.784775 112.0
175.81636 240.0
175.852066 120.0
175.858612 116.0
175.866211 172.0
175.910858 184.0
175.936371 128.0
175.967743 184.0
175.998322 184.0
176.021027 164.0
176.039154 276.0
176.062531 88.0
176.073837 112.0
176.086121 84.0
176.096344 164.0
176.117889 124.0
176.159912 108.0
176.183624 128.0
176.234177 316.0
176.25885 140.0
176.305344 120.0
176.328476 332.0
176.34845 164.0
176.365265 228.0
176.416534 140.0
176.467453 304.0
176.491867 112.0
176.510605 200.0
176.542572 312.0
176.565399 60.0
176.571671 144.0
176.5979 96.0
176.617981 84.0
176.651093 280.0
176.6828 140.0
176.704529 164.0
176.748291 328.0
176.793625 248.0
176.831787 148.0
176.873322 260.0
176.908569 132.0
176.941132 200.0
176.973923 244.0
177.038635 124.0
177.04541 156.0
177.067566 172.0
177.093185 160.0
177.099091 100.0
177.111969 120.0
177.116653 156.0
177.155899 240.0
177.199814 152.0
177.24411 192.0
177.264404 328.0
177.299881 308.0
177.340881 84.0
177.372528 156.0
177.402405 124.0
177.454819 172.0
177.488586 204.0
177.528229 300.0
177.554062 152.0
177.583069 180.0
177.610458 76.0
177.654419 340.0
177.686996 80.0
177.749283 584.0
177.809357 100.0
177.83461 352.0
177.864487 196.0
177.910431 132.0
177.937241 120.0
177.967773 320.0
178.005844 232.0
178.044006 92.0
178.076263 144.0
178.096848 112.0
178.115646 220.0
178.134384 164.0
178.161224 176.0
178.18071 284.0
178.212463 112.0
178.260513 332.0
178.282639 300.0
178.300323 184.0
178.330383 260.0
178.360733 100.0
178.393616 428.0
178.439926 92.0
178.474014 140.0
178.495972 352.0
178.545517 224.0
178.590042 164.0
178.615265 40.0
178.625763 156.0
178.668137 104.0
178.750443 408.0
178.773911 168.0
178.831879 136.0
178.865829 124.0
178.899246 228.0
178.927689 120.0
178.969757 288.0
178.996231 120.0
179.024902 136.0
179.060745 1248.0
179.107208 188.0
179.133667 280.0
179.156189 64.0
179.177505 44.0
179.244125 208.0
179.291107 156.0
179.316849 304.0
179.350632 116.0
179.38826 200.0
179.465881 168.0
179.49765 324.0
179.528259 156.0
179.563263 148.0
179.587143 164.0
179.6315 244.0
179.6577 144.0
179.678925 164.0
179.724625 204.0
179.737305 176.0
179.743835 160.0
179.77359 80.0
179.819351 292.0
179.854858 136.0
179.876389 128.0
179.903976 160.0
179.955215 292.0
179.981812 148.0
180.003387 252.0
180.056808 396.0
180.08754 200.0
180.149307 164.0
180.17955 96.0
180.210938 264.0
180.24884 164.0
180.297806 200.0
180.320358 168.0
180.370804 152.0
180.421402 100.0
180.450272 132.0
180.480698 192.0
180.525146 200.0
180.528809 112.0
180.550797 272.0
180.589066 220.0
180.614883 136.0
180.636032 248.0
180.669037 160.0
180.695511 244.0
180.725418 80.0
180.755524 64.0
180.779297 124.0
180.804153 224.0
180.832214 116.0
180.853378 140.0
180.887802 236.0
180.929276 144.0
180.971558 152.0
180.993698 188.0
181.026901 164.0
181.047653 152.0
181.067154 120.0
181.085495 188.0
181.115402 364.0
181.142044 120.0
181.171997 240.0
181.206436 128.0
181.254074 248.0
181.273514 120.0
181.311569 144.0
181.33667 44.0
181.379379 184.0
181.400421 184.0
181.431015 160.0
181.439011 224.0
181.463913 156.0
181.498383 172.0
181.547501 244.0
181.583252 148.0
181.611267 144.0
181.638351 164.0
181.643143 120.0
181.653809 116.0
181.698669 124.0
181.730942 188.0
181.751831 208.0
181.773804 160.0
181.797028 184.0
181.815704 312.0
181.834839 180.0
181.857315 168.0
181.889084 168.0
181.932068 148.0
182.03688 128.0
182.061798 284.0
182.083786 232.0
182.1129 124.0
182.176498 300.0
182.211731 124.0
182.235809 132.0
182.258575 292.0
182.280441 84.0
182.29985 144.0
182.331863 172.0
182.343643 160.0
182.363617 160.0
182.391357 352.0
182.409897 132.0
182.451218 96.0
182.485611 76.0
182.509323 196.0
182.532486 140.0
182.560913 288.0
182.579636 104.0
182.61647 132.0
182.639938 324.0
182.668137 172.0
182.708511 128.0
182.717453 172.0
182.746628 104.0
182.776917 280.0
182.812653 140.0
182.841858 184.0
182.880219 140.0
182.899612 184.0
182.939621 428.0
182.96434 116.0
182.983154 288.0
183.00383 292.0
183.06163 176.0
183.118011 312.0
183.164658 112.0
183.209824 228.0
183.234467 224.0
183.252853 404.0
183.276093 352.0
183.298004 64.0
183.30452 184.0
183.349075 136.0
183.368759 172.0
183.404388 140.0
183.448364 180.0
183.472015 212.0
183.504837 152.0
183.534454 120.0
183.553284 132.0
183.580719 124.0
183.615433 176.0
183.641388 180.0
183.682083 148.0
183.69928 136.0
183.7314 168.0
183.757721 116.0
183.791962 108.0
183.848724 172.0
183.875992 236.0
183.936752 68.0
183.959213 124.0
183.976974 168.0
184.024811 388.0
184.054062 80.0
184.115906 112.0
184.166016 116.0
184.242523 160.0
184.251602 168.0
184.308289 148.0
184.335464 132.0
184.355072 116.0
184.39418 140.0
184.417542 136.0
184.433029 172.0
184.460098 120.0
184.515228 216.0
184.589767 116.0
184.613052 124.0
184.632751 196.0
184.679932 344.0
184.688919 196.0
184.709381 356.0
184.729218 128.0
184.736008 116.0
184.753754 300.0
184.784088 148.0
184.831039 96.0
184.869324 192.0
184.927429 152.0
184.956833 128.0
184.98584 136.0
184.992447 180.0
185.034332 420.0
185.07811 88.0
185.110382 252.0
185.130844 248.0
185.176712 156.0
185.208099 172.0
185.238312 132.0
185.261826 240.0
185.310608 232.0
185.343506 132.0
185.387421 116.0
185.410843 168.0
185.422089 96.0
185.429169 148.0
185.44545 68.0
185.464661 188.0
185.499283 340.0
185.534637 128.0
185.604004 136.0
185.624695 136.0
185.665222 244.0
185.714569 216.0
185.759125 348.0
185.782913 176.0
185.80452 204.0
185.813766 132.0
185.852905 236.0
185.902908 204.0
185.922699 224.0
185.940674 172.0
185.965546 284.0
185.988083 144.0
186.020981 160.0
186.054672 188.0
186.077347 172.0
186.112839 144.0
186.140091 132.0
186.182236 176.0
186.204742 320.0
186.244247 256.0
186.269211 196.0
186.295654 136.0
186.334488 132.0
186.374893 204.0
186.392334 240.0
186.435455 212.0
186.495941 136.0
186.508026 176.0
186.513596 124.0
186.553696 116.0
186.573578 128.0
186.595901 224.0
186.631516 296.0
186.655014 152.0
186.673645 184.0
186.695175 276.0
186.738495 148.0
186.75769 96.0
186.801392 160.0
186.849426 56.0
186.881042 160.0
186.908417 72.0
186.932083 232.0
186.988358 312.0
187.026321 112.0
187.048706 140.0
187.056717 196.0
187.074432 168.0
187.09491 108.0
187.105011 164.0
187.14357 88.0
187.169724 152.0
187.202591 136.0
187.24939 176.0
187.270981 292.0
187.316498 236.0
187.346786 140.0
187.415939 152.0
187.44632 148.0
187.475082 332.0
187.50119 172.0
187.536926 112.0
187.586365 144.0
187.622498 184.0
187.641602 188.0
187.663834 180.0
187.709518 120.0
187.721756 128.0
187.763519 128.0
187.806427 136.0
187.823853 144.0
187.855942 68.0
187.876862 144.0
187.909607 108.0
187.951752 88.0
187.976303 120.0
187.997742 168.0
188.041321 156.0
188.063644 120.0
188.108292 156.0
188.134613 96.0
188.177414 160.0
188.202866 184.0
188.248062 400.0
188.287521 340.0
188.309372 348.0
188.336456 144.0
188.378326 132.0
188.429993 76.0
188.465469 232.0
188.474838 148.0
188.485519 168.0
188.495193 124.0
188.513351 304.0
188.547974 144.0
188.567062 88.0
188.586746 168.0
188.603058 164.0
188.628525 132.0
188.638504 176.0
188.676025 160.0
188.717117 212.0
188.766266 240.0
188.788193 64.0
188.833527 108.0
188.868637 216.0
188.905258 132.0
188.927139 72.0
188.973267 132.0
189.021912 188.0
189.039841 160.0
189.061218 316.0
189.111801 292.0
189.174713 120.0
189.19043 156.0
189.254395 148.0
189.279449 128.0
189.289505 92.0
189.319229 208.0
189.345108 260.0
189.383118 172.0
189.408005 192.0
189.460815 128.0
189.499725 284.0
189.550232 280.0
189.574417 212.0
189.594681 80.0
189.601013 180.0
189.648605 76.0
189.675583 144.0
189.681931 164.0
189.71283 172.0
189.75177 220.0
189.804153 236.0
189.854126 160.0
189.898849 392.0
189.957138 228.0
189.984085 144.0
190.026947 192.0
190.068161 472.0
190.09259 196.0
190.117218 332.0
190.143768 128.0
190.195526 160.0
190.218704 360.0
190.252594 184.0
190.275009 192.0
190.312759 100.0
190.351486 332.0
190.375793 148.0
190.399094 156.0
190.440399 204.0
190.479324 168.0
190.522171 248.0
190.575851 276.0
190.618668 160.0
190.659973 152.0
190.729874 352.0
190.78154 244.0
190.825027 140.0
190.849762 88.0
190.878189 256.0
190.901321 96.0
190.922394 316.0
190.942627 136.0
190.951965 92.0
190.965118 72.0
190.975998 132.0
191.005554 112.0
191.041534 288.0
191.07579 232.0
191.084427 156.0
191.152191 140.0
191.187164 104.0
191.229156 172.0
191.262894 72.0
191.311981 128.0
191.339172 128.0
191.373734 112.0
191.395996 132.0
191.409271 132.0
191.414551 176.0
191.435883 160.0
191.471542 128.0
191.484482 56.0
191.49379 176.0
191.52774 184.0
191.548813 248.0
191.572083 144.0
191.595444 116.0
191.619843 164.0
191.653046 120.0
191.705856 52.0
191.752716 120.0
191.79892 272.0
191.83519 160.0
191.876495 120.0
191.914124 116.0
191.94046 392.0
192.000046 264.0
192.047607 184.0
192.065796 304.0
192.092545 140.0
192.113144 84.0
192.122803 204.0
192.132477 128.0
192.147888 276.0
192.168365 104.0
192.188004 204.0
192.239136 160.0
192.263809 164.0
192.319061 144.0
192.339966 156.0
192.365799 120.0
192.445267 180.0
192.480164 168.0
192.518219 200.0
192.552078 144.0
192.601944 296.0
192.621872 304.0
192.655258 224.0
192.686523 140.0
192.71521 240.0
192.766052 180.0
192.827148 200.0
192.867676 180.0
192.893616 180.0
192.942307 216.0
192.996719 108.0
193.006332 148.0
193.016739 124.0
193.07666 172.0
193.119415 96.0
193.149841 92.0
193.194595 160.0
193.226517 140.0
193.255356 236.0
193.275162 152.0
193.318451 140.0
193.35347 128.0
193.389191 128.0
193.446289 156.0
193.474335 188.0
193.511566 136.0
193.523376 144.0
193.529587 132.0
193.55159 100.0
193.561646 76.0
193.613892 140.0
193.619461 60.0
193.649078 328.0
193.685944 352.0
193.723999 312.0
193.774338 412.0
193.837936 300.0
193.869141 116.0
193.89946 268.0
193.919891 116.0
193.967529 260.0
193.985474 320.0
194.06398 288.0
194.094254 96.0
194.120468 304.0
194.150909 140.0
194.175232 140.0
194.205658 140.0
194.256699 180.0
194.268097 136.0
194.27269 96.0
194.281479 40.0
194.328247 152.0
194.349091 136.0
194.363693 168.0
194.420273 488.0
194.478271 152.0
194.503616 116.0
194.511627 64.0
194.522827 144.0
194.541367 264.0
194.575485 192.0
194.611328 224.0
194.62001 92.0
194.631195 252.0
194.654297 172.0
194.684067 308.0
194.720932 156.0
194.765488 84.0
194.791687 124.0
194.839066 196.0
194.881821 196.0
194.909271 140.0
194.959351 176.0
194.969788 112.0
194.999268 120.0
195.034714 396.0
195.077026 148.0
195.085007 232.0
195.114075 172.0
195.125092 168.0
195.160507 156.0
195.187286 196.0
195.22467 324.0
195.277679 264.0
195.295715 84.0
195.328888 176.0
195.377319 200.0
195.413467 76.0
195.44574 124.0
195.46553 200.0
195.483749 288.0
195.504883 100.0
195.513123 116.0
195.563889 248.0
195.631409 296.0
195.663025 204.0
195.692261 528.0
195.710251 84.0
195.735229 188.0
195.755524 168.0
195.779587 116.0
195.811905 156.0
195.836761 92.0
195.865707 132.0
195.893433 208.0
195.929947 124.0
195.974777 204.0
196.013824 408.0
196.037582 196.0
196.048157 96.0
196.058929 264.0
196.069809 204.0
196.098251 92.0
196.133606 336.0
196.173248 292.0
196.211304 320.0
196.264832 152.0
196.340714 312.0
196.361481 168.0
196.422195 128.0
196.447571 96.0
196.477325 152.0
196.518997 160.0
196.523605 152.0
196.536621 180.0
196.56369 300.0
196.60881 136.0
196.638687 332.0
196.670456 80.0
196.71608 360.0
196.753891 252.0
196.799377 212.0
196.850616 256.0
196.892303 184.0
196.954819 300.0
196.965515 72.0
196.973419 184.0
197.020844 192.0
197.061371 192.0
197.088715 256.0
197.1082 216.0
197.16011 140.0
197.212051 240.0
197.252289 212.0
197.328232 248.0
197.370956 232.0
197.396561 212.0
197.417969 232.0
197.42894 76.0
197.437897 144.0
197.475922 44.0
197.517105 92.0
197.569107 68.0
197.587219 304.0
197.618607 128.0
197.654663 92.0
197.695602 212.0
197.717911 68.0
197.725327 116.0
197.765213 108.0
197.80867 160.0
197.848587 116.0
197.877747 320.0
197.919525 152.0
197.930756 80.0
197.988098 192.0
198.022873 128.0
198.053467 164.0
198.091202 520.0
198.120972 140.0
198.163406 212.0
198.202057 236.0
198.228485 236.0
198.27594 144.0
198.299377 240.0
198.333817 180.0
198.370041 104.0
198.401978 196.0
198.438477 232.0
198.463623 132.0
198.531219 112.0
198.561157 268.0
198.619873 212.0
198.665176 120.0
198.672882 124.0
198.70166 188.0
198.741394 156.0
198.765884 244.0
198.801559 164.0
198.851501 148.0
198.895752 248.0
198.93132 192.0
198.968735 212.0
199.001602 176.0
199.06282 288.0
199.093781 200.0
199.114456 264.0
199.154541 216.0
199.211121 104.0
199.246201 168.0
199.288452 188.0
199.338226 256.0
199.375565 140.0
199.396011 152.0
199.471603 252.0
199.51886 128.0
199.549255 168.0
199.578674 332.0
199.600937 208.0
199.646164 224.0
199.705734 332.0
199.755264 100.0
199.774826 116.0
199.787582 176.0
199.82756 216.0
199.868515 204.0
199.887405 76.0
199.895187 120.0
199.914856 128.0
199.936951 264.0
199.94458 152.0
199.976837 156.0
199.996567 256.0
200.067627 252.0
200.103668 212.0
200.131989 188.0
200.150482 192.0
200.170547 160.0
200.220535 208.0
200.282593 192.0
200.299103 224.0
200.319885 340.0
200.369339 200.0
200.393692 68.0
200.416763 136.0
200.438034 84.0
200.450989 196.0
200.458023 168.0
200.474945 200.0
200.532318 124.0
200.580841 300.0
200.603897 408.0
200.62674 96.0
200.651245 128.0
200.712341 224.0
200.745163 204.0
200.772415 276.0
200.825867 112.0
200.886002 132.0
200.91954 124.0
200.988876 208.0
200.997559 188.0
201.059143 228.0
201.086441 236.0
201.104813 152.0
201.113022 128.0
201.140228 292.0
201.166168 140.0
201.221802 188.0
201.255157 144.0
201.276581 220.0
201.322586 312.0
201.357178 232.0
201.405518 168.0
201.438202 208.0
201.46048 120.0
201.48143 320.0
201.503525 92.0
201.540497 124.0
201.615494 244.0
201.653091 208.0
201.689804 324.0
201.731781 284.0
201.784286 132.0
201.807663 132.0
201.815536 152.0
201.825943 168.0
201.881516 408.0
201.916794 132.0
201.964111 112.0
201.980606 100.0
202.008163 120.0
202.035034 168.0
202.075943 1172.0
202.143539 208.0
202.170746 108.0
202.210327 300.0
202.232193 136.0
202.2547 188.0
202.289734 252.0
202.328934 144.0
202.379944 220.0
202.422791 140.0
202.480011 196.0
202.523941 180.0
202.560394 200.0
202.604202 364.0
202.626892 264.0
202.654694 148.0
202.663681 100.0
202.669861 276.0
202.693726 168.0
202.717407 136.0
202.756546 224.0
202.777725 156.0
202.809601 68.0
202.832199 216.0
202.892288 40.0
202.955902 148.0
202.989548 192.0
203.01738 128.0
203.083893 1632.0
203.150269 168.0
203.161453 112.0
203.19606 148.0
203.236328 256.0
203.274292 300.0
203.302719 176.0
203.334946 180.0
203.35289 88.0
203.389954 156.0
203.445236 176.0
203.481918 244.0
203.497345 160.0
203.501755 140.0
203.523987 272.0
203.558487 164.0
203.589584 120.0
203.63118 204.0
203.663162 284.0
203.688049 288.0
203.711639 116.0
203.73526 104.0
203.767609 388.0
203.851013 180.0
203.907364 136.0
203.916107 96.0
203.931091 296.0
203.964783 160.0
203.993027 120.0
204.004044 52.0
204.013443 136.0
204.044586 164.0
204.082153 844.0
204.127518 76.0
204.168335 136.0
204.200638 144.0
204.22171 364.0
204.228989 184.0
204.288971 112.0
204.328293 212.0
204.353729 352.0
204.374908 36.0
204.393372 328.0
204.437561 260.0
204.442688 144.0
204.455811 148.0
204.464523 200.0
204.473251 120.0
204.485489 172.0
204.510498 272.0
204.533325 388.0
204.56897 128.0
204.574646 208.0
204.67012 264.0
204.700241 148.0
204.729614 268.0
204.749344 232.0
204.774292 96.0
204.846252 340.0
204.870758 176.0
204.879059 204.0
204.916061 196.0
204.992188 140.0
205.037125 144.0
205.058533 84.0
205.088364 192.0
205.117722 152.0
205.171753 116.0
205.211533 348.0
205.238022 132.0
205.279922 180.0
205.313461 352.0
205.346878 188.0
205.374481 140.0
205.452454 304.0
205.477631 172.0
205.498367 220.0
205.52774 136.0
205.542969 76.0
205.576843 112.0
205.598038 292.0
205.620789 164.0
205.649765 304.0
205.701889 152.0
205.711288 184.0
205.740967 112.0
205.785751 180.0
205.844879 304.0
205.872757 288.0
205.896423 216.0
205.942627 276.0
205.974716 216.0
206.017075 132.0
206.062592 156.0
206.091583 212.0
206.099182 196.0
206.142578 244.0
206.183807 160.0
206.23407 148.0
206.298737 188.0
206.316483 180.0
206.365494 216.0
206.410339 260.0
206.440018 116.0
206.471832 248.0
206.492126 224.0
206.529968 228.0
206.572525 284.0
206.590912 176.0
206.615479 168.0
206.634476 100.0
206.658401 116.0
206.690262 120.0
206.734222 64.0
206.758316 148.0
206.792816 164.0
206.835831 164.0
206.868759 260.0
206.888351 324.0
206.954788 156.0
207.014236 152.0
207.035492 136.0
207.060852 388.0
207.126312 196.0
207.148682 208.0
207.169312 160.0
207.210083 76.0
207.252991 192.0
207.264465 72.0
207.277496 248.0
207.314026 148.0
207.339539 140.0
207.374329 388.0
207.413498 276.0
207.432678 408.0
207.480392 148.0
207.518997 172.0
207.556854 96.0
207.610184 196.0
207.636475 348.0
207.673828 168.0
207.694092 324.0
207.73819 212.0
207.798737 124.0
207.808624 260.0
207.862 264.0
207.882843 324.0
207.939346 72.0
207.986282 136.0
208.039261 144.0
208.046082 288.0
208.085037 116.0
208.106262 84.0
208.115509 132.0
208.15239 260.0
208.180557 300.0
208.221695 140.0
208.25563 180.0
208.31105 152.0
208.330902 280.0
208.348923 184.0
208.39209 128.0
208.416061 128.0
208.43718 184.0
208.461044 252.0
208.480423 232.0
208.49765 152.0
208.519516 96.0
208.549728 288.0
208.617249 192.0
208.67955 212.0
208.716843 140.0
208.740341 220.0
208.797638 332.0
208.844177 232.0
208.883972 240.0
208.921661 260.0
208.951721 92.0
208.967957 72.0
209.022919 164.0
209.07106 324.0
209.103592 188.0
209.14679 296.0
209.171005 64.0
209.190201 120.0
209.227264 288.0
209.261093 144.0
209.269516 128.0
209.291107 128.0
209.322159 196.0
209.374161 208.0
209.405396 280.0
209.432785 76.0
209.464813 276.0
209.534653 120.0
209.582382 340.0
209.602142 288.0
209.640289 152.0
209.674713 328.0
209.704941 272.0
209.748566 196.0
209.79213 436.0
209.818558 156.0
209.84346 128.0
209.854309 160.0
209.868637 160.0
209.877075 180.0
209.913696 340.0
209.974548 116.0
210.038834 216.0
210.049271 184.0
210.107025 136.0
210.174805 508.0
210.229874 168.0
210.256546 312.0
210.283661 108.0
210.319122 160.0
210.368439 204.0
210.375565 112.0
210.404892 132.0
210.413254 68.0
210.425522 116.0
210.462799 356.0
210.485107 176.0
210.533798 256.0
210.56813 348.0
210.608917 80.0
210.622528 272.0
210.69693 216.0
210.727905 212.0
210.759766 84.0
210.821304 200.0
210.861801 180.0
210.884674 604.0
210.906723 192.0
210.931992 140.0
210.968582 152.0
211.00943 164.0
211.049622 248.0
211.057755 264.0
211.088272 192.0
211.121063 88.0
211.166229 232.0
211.213913 188.0
211.234695 92.0
211.278595 172.0
211.321503 280.0
211.368576 128.0
211.399841 224.0
211.457642 200.0
211.504044 156.0
211.569412 328.0
211.611267 124.0
211.632202 284.0
211.675461 68.0
211.70459 152.0
211.743744 108.0
211.781845 248.0
211.812302 244.0
211.851898 112.0
211.870972 216.0
211.910248 152.0
211.930527 56.0
211.984573 172.0
212.030975 172.0
212.065765 48.0
212.102676 184.0
212.138443 184.0
212.180664 160.0
212.204742 132.0
212.231888 168.0
212.276886 348.0
212.304947 124.0
212.326813 336.0
212.380753 292.0
212.420502 120.0
212.443451 208.0
212.507462 332.0
212.556854 180.0
212.580276 168.0
212.61171 160.0
212.66423 152.0
212.683914 144.0
212.732147 192.0
212.765976 88.0
212.799225 56.0
212.833298 120.0
212.8992 128.0
212.941193 424.0
212.983627 148.0
213.010559 180.0
213.070099 276.0
213.12149 124.0
213.143005 336.0
213.194153 264.0
213.242233 320.0
213.269775 132.0
213.299118 140.0
213.331039 224.0
213.361679 176.0
213.391403 260.0
213.433884 316.0
213.456131 104.0
213.464264 176.0
213.510925 200.0
213.54454 288.0
213.577759 200.0
213.605804 180.0
213.662109 160.0
213.695724 148.0
213.720428 224.0
213.772781 280.0
213.800934 144.0
213.83847 176.0
213.861008 124.0
213.869217 128.0
213.877884 104.0
213.893631 168.0
213.930435 128.0
213.969223 348.0
214.002274 120.0
214.028442 300.0
214.064148 636.0
214.091324 236.0
214.124329 156.0
214.171097 84.0
214.201477 152.0
214.240097 152.0
214.249664 132.0
214.262482 164.0
214.296951 208.0
214.330734 524.0
214.362015 224.0
214.407516 304.0
214.47435 140.0
214.521103 68.0
214.574829 304.0
214.626465 132.0
214.651276 284.0
214.680893 172.0
214.71283 368.0
214.733856 152.0
214.774521 228.0
214.795334 152.0
214.820206 244.0
214.861511 320.0
214.893936 116.0
214.954575 176.0
214.97995 72.0
215.023941 184.0
215.072571 732.0
215.101685 244.0
215.148727 416.0
215.170959 164.0
215.20755 168.0
215.256165 128.0
215.296692 248.0
215.336792 168.0
215.359863 176.0
215.385712 112.0
215.420578 88.0
215.458725 228.0
215.475143 140.0
215.482285 148.0
215.505035 172.0
215.560104 132.0
215.583328 228.0
215.625259 172.0
215.663574 108.0
215.702927 340.0
215.739502 312.0
215.766815 208.0
215.830307 248.0
215.914474 236.0
215.938354 148.0
215.988739 136.0
216.034836 128.0
216.042114 152.0
216.079285 1060.0
216.12114 140.0
216.136902 208.0
216.172806 84.0
216.205704 284.0
216.243469 152.0
216.283371 152.0
216.307083 164.0
216.36377 192.0
216.388962 108.0
216.44104 116.0
216.509811 408.0
216.54921 320.0
216.587372 132.0
216.637817 136.0
216.673248 208.0
216.718857 120.0
216.780975 296.0
216.808258 312.0
216.818069 196.0
216.843155 320.0
216.901993 308.0
216.952347 132.0
216.9758 148.0
217.050034 292.0
217.088577 12132.0
217.157608 196.0
217.203857 180.0
217.242935 132.0
217.265732 232.0
217.315781 164.0
217.325806 232.0
217.363663 136.0
217.39476 124.0
217.424484 256.0
217.482147 408.0
217.520508 288.0
217.533737 152.0
217.548233 132.0
217.583054 140.0
217.621277 112.0
217.648315 96.0
217.728088 188.0
217.753418 200.0
217.795563 160.0
217.833221 184.0
217.873978 252.0
217.893066 216.0
217.922852 564.0
217.96286 320.0
218.015793 204.0
218.092529 3184.0
218.170044 96.0
218.189819 400.0
218.230621 124.0
218.260681 164.0
218.285339 192.0
218.305283 128.0
218.345886 96.0
218.384247 312.0
218.428574 280.0
218.433304 332.0
218.446548 120.0
218.52449 80.0
218.556625 216.0
218.594772 128.0
218.631912 188.0
218.657349 196.0
218.693848 268.0
218.706879 116.0
218.713257 128.0
218.747452 452.0
218.771423 204.0
218.808914 128.0
218.812454 192.0
218.843704 208.0
218.884125 204.0
218.91246 192.0
218.946243 104.0
218.983459 196.0
219.005142 160.0
219.036575 276.0
219.099869 348.0
219.167984 236.0
219.206345 152.0
219.237411 372.0
219.243073 180.0
219.278275 184.0
219.348495 156.0
219.404221 164.0
219.444824 128.0
219.470261 120.0
219.500336 172.0
219.544769 168.0
219.552185 176.0
219.58252 264.0
219.641571 300.0
219.713379 116.0
219.757843 200.0
219.795395 140.0
219.824036 144.0
219.848724 388.0
219.875549 172.0
219.90564 152.0
219.942123 188.0
219.964722 152.0
219.996979 108.0
220.030441 140.0
220.06395 348.0
220.084702 132.0
220.123718 48.0
220.158112 92.0
220.206329 156.0
220.273575 156.0
220.2845 220.0
220.338333 248.0
220.347443 216.0
220.355911 320.0
220.381699 280.0
220.42923 116.0
220.480133 144.0
220.497955 124.0
220.519775 140.0
220.528473 164.0
220.560928 204.0
220.577545 300.0
220.612061 160.0
220.648071 140.0
220.687668 108.0
220.718979 232.0
220.740738 464.0
220.748367 196.0
220.783463 360.0
220.823898 212.0
220.845047 332.0
220.888611 396.0
220.915283 108.0
220.959717 128.0
220.974365 296.0
221.007172 44.0
221.01535 164.0
221.056641 36.0
221.085663 96.0
221.10585 244.0
221.119843 40.0
221.128662 308.0
221.150558 180.0
221.156342 244.0
221.189987 152.0
221.202164 72.0
221.214752 176.0
221.223083 148.0
221.26265 100.0
221.317764 96.0
221.342133 144.0
221.361557 244.0
221.386307 204.0
221.419937 260.0
221.463272 164.0
221.497711 180.0
221.532028 100.0
221.557343 132.0
221.598282 176.0
221.626968 176.0
221.66217 160.0
221.681412 280.0
221.722626 184.0
221.752808 164.0
221.761902 160.0
221.774689 188.0
221.782867 104.0
221.827316 272.0
221.89975 320.0
221.906631 188.0
221.920044 172.0
221.971664 156.0
222.000809 124.0
222.053192 152.0
222.097504 112.0
222.129578 104.0
222.187729 152.0
222.237167 128.0
222.277252 160.0
222.299332 96.0
222.355148 160.0
222.386978 160.0
222.426834 404.0
222.454987 468.0
222.487503 632.0
222.551865 148.0
222.621155 188.0
222.645386 112.0
222.666901 296.0
222.709106 324.0
222.738586 124.0
222.76799 224.0
222.802872 200.0
222.850189 144.0
222.888474 224.0
222.93457 148.0
222.965179 36.0
222.996887 120.0
223.075302 276.0
223.152588 84.0
223.174713 152.0
223.225464 216.0
223.246063 108.0
223.314789 184.0
223.322845 60.0
223.334213 168.0
223.399796 244.0
223.446564 128.0
223.497177 180.0
223.54126 152.0
223.589035 272.0
223.65094 192.0
223.695282 260.0
223.732605 148.0
223.777267 164.0
223.801056 268.0
223.839798 176.0
223.882599 104.0
223.931946 144.0
223.943375 124.0
223.950714 208.0
223.984222 200.0
224.029083 188.0
224.059357 188.0
224.087265 124.0
224.114685 220.0
224.151825 112.0
224.202911 144.0
224.238892 140.0
224.292511 240.0
224.324432 212.0
224.363144 172.0
224.433334 300.0
224.44249 108.0
224.454636 132.0
224.484711 176.0
224.516266 108.0
224.542191 220.0
224.624481 328.0
224.645874 152.0
224.675858 192.0
224.709793 188.0
224.72316 156.0
224.729416 204.0
224.769455 280.0
224.817581 100.0
224.855026 244.0
224.910873 112.0
224.960846 124.0
224.984467 88.0
225.034149 128.0
225.065353 124.0
225.085693 108.0
225.115219 148.0
225.1521 240.0
225.192764 168.0
225.221725 288.0
225.243134 208.0
225.263824 132.0
225.293274 212.0
225.348267 156.0
225.354019 112.0
225.39325 172.0
225.453613 188.0
225.471085 192.0
225.500916 160.0
225.556702 88.0
225.576477 352.0
225.598831 172.0
225.634949 152.0
225.671417 236.0
225.696579 80.0
225.717361 112.0
225.755035 228.0
225.790131 228.0
225.830246 240.0
225.83638 200.0
225.861511 140.0
225.912659 120.0
225.966507 184.0
226.009903 264.0
226.050705 312.0
226.062851 184.0
226.138321 92.0
226.162079 132.0
226.207336 148.0
226.213257 76.0
226.284714 264.0
226.296005 268.0
226.304291 180.0
226.328751 288.0
226.35318 88.0
226.384079 192.0
226.429901 160.0
226.45488 348.0
226.511169 172.0
226.531006 284.0
226.552567 80.0
226.596527 300.0
226.654205 168.0
226.685837 164.0
226.707886 212.0
226.734589 100.0
226.769547 116.0
226.792343 224.0
226.81015 192.0
226.858627 188.0
226.895157 168.0
226.932434 60.0
226.97139 300.0
226.993637 156.0
227.031509 100.0
227.077026 400.0
227.115982 336.0
227.154373 312.0
227.201248 108.0
227.225113 148.0
227.251663 148.0
227.271957 156.0
227.31076 152.0
227.346573 332.0
227.399872 176.0
227.409958 124.0
227.48671 112.0
227.498383 188.0
227.582962 204.0
227.622406 212.0
227.6586 92.0
227.699524 128.0
227.74147 228.0
227.753128 176.0
227.814789 176.0
227.874084 152.0
227.932175 208.0
227.973816 264.0
228.000198 136.0
228.030441 68.0
228.080383 1960.0
228.123154 264.0
228.140244 192.0
228.181213 136.0
228.23291 132.0
228.260818 212.0
228.304108 136.0
228.335342 340.0
228.38826 168.0
228.420334 144.0
228.44693 276.0
228.474579 140.0
228.504486 264.0
228.513321 156.0
228.5224 188.0
228.546844 236.0
228.593124 148.0
228.6297 192.0
228.677826 280.0
228.730499 360.0
228.752045 144.0
228.790085 388.0
228.819168 140.0
228.844009 240.0
228.871658 172.0
228.901917 108.0
228.948761 160.0
228.980377 164.0
229.017227 136.0
229.030212 232.0
229.08754 3428.0
229.141434 180.0
229.179184 316.0
229.216385 356.0
229.252335 296.0
229.262894 148.0
229.277481 184.0
229.334747 264.0
229.363586 100.0
229.422363 408.0
229.453445 212.0
229.488388 100.0
229.517578 100.0
229.52417 76.0
229.554916 180.0
229.619385 240.0
229.655212 368.0
229.687546 136.0
229.716614 124.0
229.765137 280.0
229.792419 196.0
229.846359 240.0
229.871719 408.0
229.903564 320.0
229.936218 324.0
229.976959 348.0
230.050781 440.0
230.097214 99064.0
230.172806 104.0
230.215088 296.0
230.243057 148.0
230.263062 76.0
230.267593 192.0
230.305038 220.0
230.336029 72.0
230.370224 220.0
230.422729 136.0
230.449585 60.0
230.475067 220.0
230.50441 248.0
230.539581 252.0
230.590546 252.0
230.620865 216.0
230.671524 144.0
230.699127 124.0
230.726501 228.0
230.732986 92.0
230.745544 176.0
230.768051 40.0
230.789307 124.0
230.817673 200.0
230.880188 232.0
230.910019 276.0
230.934952 132.0
230.963135 136.0
231.002869 140.0
231.024994 56.0
231.099701 17712.0
231.14682 296.0
231.196503 208.0
231.212021 156.0
231.26329 244.0
231.285568 128.0
231.318542 288.0
231.34816 128.0
231.39003 160.0
231.43811 68.0
231.469696 116.0
231.523697 252.0
231.572495 108.0
231.597549 156.0
231.619217 156.0
231.675873 344.0
231.697723 176.0
231.763107 160.0
231.802399 196.0
231.815567 212.0
231.825058 180.0
231.891068 440.0
231.91864 184.0
231.943344 192.0
231.992752 164.0
232.016846 216.0
232.072128 316.0
232.101013 2360.0
232.16185 148.0
232.210052 336.0
232.233383 148.0
232.245895 80.0
232.253571 220.0
232.288849 136.0
232.30365 136.0
232.309113 168.0
232.332642 268.0
232.368011 312.0
232.4095 320.0
232.451279 116.0
232.502548 240.0
232.525253 244.0
232.586929 148.0
232.595535 68.0
232.630569 100.0
232.656433 248.0
232.708679 132.0
232.733841 180.0
232.791412 168.0
232.849152 292.0
232.89299 200.0
232.915451 376.0
232.964844 96.0
232.989532 124.0
233.026016 272.0
233.075287 296.0
233.131226 104.0
233.156616 328.0
233.188965 176.0
233.233368 292.0
233.290085 172.0
233.323715 152.0
233.364075 196.0
233.398132 144.0
233.4189 272.0
233.498138 380.0
233.540924 188.0
233.586868 200.0
233.641235 120.0
233.689209 172.0
233.739136 128.0
233.776245 364.0
233.806366 88.0
233.852036 308.0
233.87471 96.0
233.879852 188.0
233.926315 268.0
233.963913 108.0
234.003586 312.0
234.086777 264.0
234.138275 184.0
234.168701 272.0
234.193481 80.0
234.201584 176.0
234.249588 152.0
234.285431 72.0
234.333328 404.0
234.358719 176.0
234.400406 184.0
234.431107 168.0
234.495758 420.0
234.520294 216.0
234.570862 316.0
234.637207 140.0
234.666901 140.0
234.70993 96.0
234.738052 60.0
234.77005 160.0
234.793686 204.0
234.834625 136.0
234.906509 192.0
234.934219 228.0
234.966278 180.0
235.004669 152.0
235.016037 172.0
235.057877 216.0
235.092773 196.0
235.1241 164.0
235.13504 132.0
235.142273 164.0
235.179413 360.0
235.213638 168.0
235.241669 296.0
235.269882 216.0
235.309875 168.0
235.355347 128.0
235.419525 112.0
235.427658 272.0
235.436432 176.0
235.46286 80.0
235.472458 164.0
235.508759 168.0
235.522766 80.0
235.555573 140.0
235.599884 200.0
235.644852 136.0
235.6577 48.0
235.69281 312.0
235.731781 224.0
235.762436 112.0
235.785446 268.0
235.819504 140.0
235.843246 156.0
235.875931 160.0
235.912628 180.0
235.93959 212.0
235.965469 64.0
236.033112 128.0
236.065414 160.0
236.09906 156.0
236.122208 84.0
236.165894 108.0
236.189835 188.0
236.241074 148.0
236.268112 132.0
236.307526 132.0
236.343521 140.0
236.353241 128.0
236.367447 152.0
236.376068 168.0
236.426331 116.0
236.433807 152.0
236.446289 140.0
236.467178 112.0
236.512665 308.0
236.585281 176.0
236.612289 248.0
236.627914 72.0
236.634857 164.0
236.720215 156.0
236.738266 156.0
236.781235 160.0
236.802185 116.0
236.829803 180.0
236.855057 48.0
236.890045 124.0
236.916321 340.0
236.956635 148.0
236.98056 136.0
237.026321 184.0
237.057983 120.0
237.103226 152.0
237.138153 192.0
237.179047 136.0
237.207443 100.0
237.260681 132.0
237.286316 148.0
237.30101 92.0
237.358429 260.0
237.420975 312.0
237.445618 160.0
237.496017 180.0
237.567078 156.0
237.609192 284.0
237.641785 332.0
237.688278 136.0
237.701187 260.0
237.709076 108.0
237.741135 176.0
237.771713 116.0
237.808655 180.0
237.8685 276.0
237.938522 52.0
237.984406 196.0
238.013596 116.0
238.045837 232.0
238.06813 124.0
238.09111 68.0
238.154297 116.0
238.19072 156.0
238.236893 164.0
238.261078 172.0
238.287384 304.0
238.354309 124.0
238.416519 200.0
238.472763 328.0
238.502563 152.0
238.526276 164.0
238.558395 184.0
238.610413 124.0
238.641632 184.0
238.664322 60.0
238.686981 140.0
238.723984 120.0
238.751312 288.0
238.787338 152.0
238.841049 32.0
238.870102 132.0
238.927185 100.0
238.964005 112.0
238.968613 208.0
239.017288 296.0
239.065826 208.0
239.110168 352.0
239.157806 132.0
239.184631 240.0
239.216812 212.0
239.24614 332.0
239.333466 124.0
239.413528 168.0
239.445938 160.0
239.453125 128.0
239.464142 148.0
239.488266 60.0
239.498627 140.0
239.513184 192.0
239.525223 196.0
239.56131 180.0
239.622986 132.0
239.655579 140.0
239.703842 144.0
239.728226 132.0
239.758453 104.0
239.800201 300.0
239.821777 240.0
239.883133 88.0
239.889786 140.0
239.916733 300.0
239.945251 256.0
240.006088 152.0
240.040665 248.0
240.080841 5488.0
240.140976 232.0
240.16394 236.0
240.189819 328.0
240.213745 132.0
240.253677 120.0
240.295578 368.0
240.328293 204.0
240.370117 240.0
240.41066 248.0
240.437653 380.0
240.482544 136.0
240.507935 312.0
240.536301 216.0
240.558929 236.0
240.602997 176.0
240.653152 112.0
240.688217 112.0
240.711685 272.0
240.780746 220.0
240.797089 160.0
240.835358 68.0
240.862335 120.0
240.918762 56.0
240.969498 320.0
241.001511 184.0
241.005753 172.0
241.041763 352.0
241.08728 8144.0
241.136017 324.0
241.169144 168.0
241.21344 328.0
241.24733 168.0
241.277893 120.0
241.308807 116.0
241.341797 96.0
241.365021 260.0
241.394104 408.0
241.438797 168.0
241.473404 392.0
241.538193 664.0
241.56604 372.0
241.617966 180.0
241.651016 288.0
241.676575 312.0
241.694855 188.0
241.732681 380.0
241.777512 164.0
241.801117 108.0
241.834061 264.0
241.865448 288.0
241.894608 116.0
241.926926 332.0
241.941986 280.0
241.952652 128.0
241.991287 380.0
241.996674 340.0
242.020554 520.0
242.031021 220.0
242.084808 117192.0
242.170349 92.0
242.196884 108.0
242.203354 124.0
242.259003 132.0
242.301193 280.0
242.3517 208.0
242.400589 160.0
242.448151 252.0
242.510605 104.0
242.538544 136.0
242.593063 304.0
242.635529 188.0
242.698563 284.0
242.738281 384.0
242.764923 116.0
242.810715 164.0
242.849518 260.0
242.86554 156.0
242.892563 196.0
242.936203 148.0
242.968231 144.0
243.008911 228.0
243.032013 240.0
243.087311 21288.0
243.175003 104.0
243.221512 176.0
243.266937 272.0
243.310257 224.0
243.368256 100.0
243.37677 108.0
243.411606 232.0
243.437073 148.0
243.480484 164.0
243.494141 160.0
243.504837 184.0
243.515869 196.0
243.56958 424.0
243.600998 104.0
243.660385 68.0
243.705353 184.0
243.713058 76.0
243.725388 176.0
243.739914 52.0
243.766052 140.0
243.824219 252.0
243.848328 132.0
243.912476 108.0
243.96199 200.0
243.999039 68.0
244.048416 152.0
244.088623 1988.0
244.12883 136.0
244.164993 248.0
244.195312 172.0
244.227737 364.0
244.257935 228.0
244.29718 244.0
244.317474 188.0
244.341034 156.0
244.367203 148.0
244.404251 244.0
244.414658 128.0
244.47963 68.0
244.504242 196.0
244.522125 256.0
244.558548 88.0
244.580444 180.0
244.59285 180.0
244.664383 240.0
244.699188 548.0
244.72879 432.0
244.767517 196.0
244.771729 296.0
244.835999 204.0
244.872589 196.0
244.901611 260.0
244.937485 352.0
244.979019 216.0
245.002319 172.0
245.024551 276.0
245.06041 204.0
245.095398 224.0
245.158813 472.0
245.196518 388.0
245.220367 152.0
245.24675 244.0
245.30899 140.0
245.313873 160.0
245.339386 92.0
245.365753 156.0
245.42157 176.0
245.432388 132.0
245.465866 172.0
245.509888 136.0
245.548691 36.0
245.561615 120.0
245.581711 168.0
245.608337 196.0
245.629944 112.0
245.644897 40.0
245.6521 124.0
245.681152 100.0
245.728256 308.0
245.765442 124.0
245.814087 172.0
245.874664 332.0
245.950134 184.0
245.992569 276.0
246.025467 124.0
246.051331 264.0
246.094513 392.0
246.125824 324.0
246.165192 268.0
246.209137 180.0
246.235031 160.0
246.26236 320.0
246.289047 184.0
246.342224 256.0
246.365311 276.0
246.395782 164.0
246.428696 104.0
246.453659 188.0
246.496094 140.0
246.52298 164.0
246.585007 140.0
246.59877 140.0
246.608353 220.0
246.642059 216.0
246.703369 240.0
246.717743 124.0
246.728592 260.0
246.755432 52.0
246.782028 228.0
246.809677 124.0
246.853302 40.0
246.889038 108.0
246.916977 336.0
246.964203 124.0
246.994492 96.0
247.027512 128.0
247.094269 332.0
247.141937 56.0
247.172791 184.0
247.222397 168.0
247.257553 92.0
247.288376 184.0
247.320465 272.0
247.353668 160.0
247.38472 200.0
247.419113 92.0
247.480255 200.0
247.538483 180.0
247.578293 144.0
247.62854 372.0
247.664246 212.0
247.70668 100.0
247.767899 72.0
247.775497 220.0
247.785568 328.0
247.819427 232.0
247.868729 172.0
247.905899 96.0
247.930344 116.0
247.959167 468.0
248.012634 172.0
248.08783 504.0
248.099686 200.0
248.109665 308.0
248.168472 280.0
248.193497 152.0
248.22583 80.0
248.271622 156.0
248.311752 104.0
248.343277 84.0
248.401459 300.0
248.430267 128.0
248.458725 136.0
248.503922 296.0
248.540771 132.0
248.567734 384.0
248.59314 124.0
248.629974 112.0
248.652802 120.0
248.725296 160.0
248.759445 176.0
248.817215 272.0
248.853836 108.0
248.875549 132.0
248.90596 152.0
248.927765 184.0
248.965103 160.0
248.996811 172.0
249.077621 488.0
249.144867 304.0
249.175095 152.0
249.198166 140.0
249.26593 212.0
249.289124 100.0
249.332901 160.0
249.396622 252.0
249.443069 272.0
249.512604 172.0
249.541016 144.0
249.570602 176.0
249.597427 384.0
249.623764 116.0
249.632675 132.0
249.655441 228.0
249.662842 144.0
249.692139 140.0
249.727554 328.0
249.764236 284.0
249.791809 360.0
249.835007 116.0
249.853806 200.0
249.862244 208.0
249.894852 136.0
249.933212 128.0
249.957306 280.0
249.987946 104.0
250.021988 56.0
250.074371 176.0
250.102066 200.0
250.144928 144.0
250.188965 208.0
250.209732 316.0
250.238068 100.0
250.279312 204.0
250.327408 196.0
250.366211 92.0
250.399719 144.0
250.423584 88.0
250.475525 160.0
250.549194 168.0
250.577194 196.0
250.637283 112.0
250.667496 292.0
250.709076 152.0
250.749283 252.0
250.791992 316.0
250.826202 188.0
250.850006 84.0
250.919128 240.0
250.94519 268.0
250.97525 112.0
250.983765 108.0
250.995575 184.0
251.035309 216.0
251.080429 88.0
251.11853 60.0
251.159698 160.0
251.207779 144.0
251.239349 160.0
251.300278 364.0
251.337296 156.0
251.36908 156.0
251.403564 76.0
251.411865 128.0
251.423935 160.0
251.47551 160.0
251.506943 112.0
251.513458 92.0
251.567337 120.0
251.585541 192.0
251.619919 224.0
251.650742 212.0
251.674911 68.0
251.686005 128.0
251.72821 96.0
251.759216 204.0
251.794769 176.0
251.855011 280.0
251.919739 144.0
251.96669 204.0
252.008545 104.0
252.0392 360.0
252.092331 156.0
252.157593 228.0
252.190567 136.0
252.202835 84.0
252.211563 140.0
252.240265 184.0
252.25 120.0
252.260834 180.0
252.283615 224.0
252.312881 96.0
252.342529 280.0
252.362747 132.0
252.391144 132.0
252.478577 272.0
252.517578 156.0
252.539963 268.0
252.577682 148.0
252.584 324.0
252.600601 152.0
252.611847 328.0
252.622696 164.0
252.634415 336.0
252.665436 164.0
252.702316 168.0
252.736526 352.0
252.795929 544.0
252.829758 144.0
252.854156 316.0
252.865829 160.0
252.906052 148.0
252.928711 460.0
252.972534 180.0
253.002197 124.0
253.074722 240.0
253.137894 220.0
253.205292 280.0
253.278397 180.0
253.300644 200.0
253.346375 192.0
253.393463 216.0
253.404617 304.0
253.433838 116.0
253.446609 192.0
253.474121 224.0
253.530762 244.0
253.581528 304.0
253.632385 104.0
253.68364 148.0
253.723846 176.0
253.749451 124.0
253.77095 220.0
253.807968 68.0
253.81723 132.0
253.828217 112.0
253.838745 128.0
253.868622 152.0
253.930679 188.0
253.994019 200.0
254.027405 248.0
254.076904 404.0
254.135315 316.0
254.149979 168.0
254.166168 308.0
254.212524 280.0
254.244385 344.0
254.26619 272.0
254.31778 84.0
254.366821 184.0
254.41156 364.0
254.466751 80.0
254.49501 184.0
254.519821 148.0
254.55304 184.0
254.57785 196.0
254.616821 196.0
254.650604 320.0
254.706192 648.0
254.768311 128.0
254.817322 504.0
254.842606 104.0
254.850739 236.0
254.864273 280.0
254.902466 264.0
254.911606 88.0
254.934921 336.0
254.981766 192.0
255.009308 660.0
255.09227 48816.0
255.183807 368.0
255.196899 212.0
255.222961 80.0
255.245117 360.0
255.274521 360.0
255.301788 444.0
255.326141 128.0
255.376511 332.0
255.412079 252.0
255.467636 316.0
255.500641 336.0
255.542053 388.0
255.586716 212.0
255.622559 468.0
255.683502 524.0
255.72345 420.0
255.753601 380.0
255.794189 368.0
255.819321 316.0
255.844696 608.0
255.893158 648.0
255.908035 176.0
255.91539 348.0
255.951691 588.0
256.005829 1152.0
256.057556 1240.0
256.101746 285312.0
256.190643 204.0
256.217712 332.0
256.262238 524.0
256.306335 552.0
256.321838 676.0
256.402679 740.0
256.411682 788.0
256.44632 644.0
256.48587 588.0
256.515076 744.0
256.541748 432.0
256.56485 504.0
256.586365 612.0
256.62677 5520.0
256.667725 856.0
256.733429 652.0
256.773071 668.0
256.782806 664.0
256.825958 1020.0
256.848907 700.0
256.869507 844.0
256.891663 888.0
256.928467 1524.0
256.946106 1204.0
256.999512 1400.0
257.110016 491288.0
257.22525 244.0
257.258392 80.0
257.328247 400.0
257.403473 3396.0
257.454132 1188.0
257.500275 812.0
257.544891 752.0
257.594208 1816.0
257.636169 26420.0
257.660889 5412.0
257.714294 656.0
257.745117 564.0
257.766144 280.0
257.801483 468.0
257.84726 220.0
257.881073 856.0
257.92691 648.0
257.944 612.0
257.980042 472.0
258.014404 372.0
258.111847 289324.0
258.218475 420.0
258.274414 96.0
258.313202 180.0
258.324097 168.0
258.334839 180.0
258.405579 708.0
258.456238 404.0
258.50354 392.0
258.529907 312.0
258.576019 228.0
258.637848 884.0
258.674042 584.0
258.69519 396.0
258.716125 452.0
258.759705 288.0
258.790894 292.0
258.815887 288.0
258.895752 432.0
258.904449 420.0
258.9198 528.0
258.929932 468.0
258.953888 372.0
258.983673 192.0
259.015961 360.0
259.026825 308.0
259.037476 268.0
259.11438 22900.0
259.177246 484.0
259.21814 424.0
259.280792 248.0
259.329895 356.0
259.383759 280.0
259.396912 108.0
259.40918 108.0
259.422699 328.0
259.464966 392.0
259.505707 176.0
259.55426 208.0
259.584595 340.0
259.621674 344.0
259.681915 272.0
259.70639 664.0
259.741638 512.0
259.79422 272.0
259.806885 240.0
259.820709 536.0
259.861481 348.0
259.874176 412.0
259.888062 536.0
259.926453 496.0
259.942535 740.0
259.946686 564.0
259.980927 496.0
260.020081 420.0
260.066193 420.0
260.11438 1136.0
260.172333 276.0
260.220978 320.0
260.25 312.0
260.297546 304.0
260.352325 124.0
260.366119 108.0
260.385864 220.0
260.412933 116.0
260.439484 128.0
260.462769 104.0
260.46756 312.0
260.495392 160.0
260.541168 108.0
260.600525 272.0
260.644257 228.0
260.674805 160.0
260.71875 180.0
260.763214 228.0
260.791901 508.0
260.840393 308.0
260.890686 120.0
260.924225 212.0
260.972565 196.0
260.97821 348.0
261.010773 364.0
261.081635 428.0
261.123749 224.0
261.160919 72.0
261.183807 136.0
261.214111 108.0
261.268097 128.0
261.326355 92.0
261.371307 100.0
261.40213 128.0
261.425903 88.0
261.431488 120.0
261.464355 164.0
261.484283 60.0
261.519592 144.0
261.574432 112.0
261.612091 180.0
261.65329 168.0
261.69165 144.0
261.729401 300.0
261.754639 124.0
261.776642 128.0
261.80481 136.0
261.83667 128.0
261.909454 200.0
261.969849 172.0
261.995209 128.0
262.019073 128.0
262.044983 152.0
262.09259 204.0
262.135895 52.0
262.171783 88.0
262.21936 120.0
262.254791 112.0
262.287537 156.0
262.317535 100.0
262.352966 160.0
262.380493 60.0
262.429047 44.0
262.464539 84.0
262.485626 72.0
262.509827 180.0
262.550903 280.0
262.621613 236.0
262.667542 80.0
262.681488 72.0
262.718231 156.0
262.763123 40.0
262.809357 92.0
262.848541 32.0
262.897064 232.0
262.970367 156.0
263.022827 44.0
263.070343 320.0
263.118774 40.0
263.176758 164.0
263.254333 192.0
263.272705 100.0
263.33844 64.0
263.361511 192.0
263.394165 164.0
263.466217 92.0
263.519165 132.0
263.547974 316.0
263.62735 128.0
263.676483 32.0
263.699799 168.0
263.768311 248.0
263.81424 44.0
263.842438 56.0
263.877197 136.0
263.91449 112.0
263.972992 172.0
264.005035 60.0
264.051422 116.0
264.100922 216.0
264.150574 44.0
264.185944 364.0
264.21051 76.0
264.233063 80.0
264.259155 92.0
264.296143 112.0
264.323669 128.0
264.360931 308.0
264.467682 140.0
264.493561 140.0
264.535645 96.0
264.575348 156.0
264.631683 128.0
264.694305 160.0
264.755829 112.0
264.806183 80.0
264.843292 164.0
264.872437 56.0
264.898346 64.0
264.935516 204.0
264.967407 240.0
264.990936 92.0
265.025452 188.0
265.081268 72.0
265.114197 136.0
265.147827 164.0
265.175751 124.0
265.253204 196.0
265.313141 116.0
265.347321 52.0
265.435822 168.0
265.485016 136.0
265.542572 48.0
265.595276 40.0
265.617981 56.0
265.649689 200.0
265.702881 172.0
265.761627 148.0
265.826721 144.0
265.859497 120.0
265.907715 148.0
265.960785 216.0
266.030121 152.0
266.061707 120.0
266.070831 88.0
266.085144 168.0
266.124817 48.0
266.169708 76.0
266.223694 116.0
266.256805 172.0
266.325226 312.0
266.372803 68.0
266.423065 304.0
266.484619 80.0
266.517181 152.0
266.552063 232.0
266.590088 148.0
266.62384 96.0
266.757782 132.0
266.831665 132.0
266.881195 156.0
266.906647 148.0
266.960785 104.0
267.044525 212.0
267.076447 72.0
267.118744 80.0
267.173676 116.0
267.202606 72.0
267.211456 56.0
267.248871 68.0
267.28421 84.0
267.291168 72.0
267.331482 72.0
267.363708 168.0
267.384308 84.0
267.425751 92.0
267.449799 108.0
267.493958 112.0
267.541809 148.0
267.562164 124.0
267.596771 216.0
267.622681 52.0
267.668762 128.0
267.69809 84.0
267.728485 108.0
267.738739 100.0
267.749451 220.0
267.771759 64.0
267.819916 168.0
267.90329 144.0
267.932617 164.0
267.979187 108.0
268.024231 192.0
268.053162 88.0
268.082642 184.0
268.135712 48.0
268.205383 124.0
268.227783 40.0
268.267181 120.0
268.276367 184.0
268.329315 116.0
268.33551 116.0
268.416504 104.0
268.452789 68.0
268.498932 156.0
268.535645 44.0
268.560822 180.0
268.622253 92.0
268.673828 100.0
268.714111 96.0
268.738922 84.0
268.78656 88.0
268.816223 76.0
268.842224 72.0
268.87677 120.0
268.920441 60.0
268.925781 56.0
268.947845 84.0
268.999878 104.0
269.034912 84.0
269.077087 148.0
269.098785 204.0
269.176208 116.0
269.22937 136.0
269.30368 160.0
269.372375 164.0
269.394592 84.0
269.436157 60.0
269.458618 108.0
269.512573 96.0
269.545013 184.0
269.568176 164.0
269.609802 36.0
269.641846 208.0
269.678436 104.0
269.706207 176.0
269.747986 156.0
269.807281 80.0
269.842377 116.0
269.868286 108.0
269.903687 168.0
269.959656 160.0
270.014679 76.0
270.062653 156.0
270.072723 128.0
270.081726 104.0
270.13504 56.0
270.164886 180.0
270.207428 104.0
270.2547 112.0
270.302673 132.0
270.320862 196.0
270.359772 156.0
270.395752 88.0
270.444122 80.0
270.458527 72.0
270.469482 116.0
270.500275 116.0
270.53009 88.0
270.576569 64.0
270.607269 268.0
270.646637 284.0
270.68399 88.0
270.729828 128.0
270.769684 136.0
270.782684 72.0
270.790985 100.0
270.812317 168.0
270.863342 124.0
270.934082 100.0
270.972107 208.0
271.003784 52.0
271.05899 228.0
271.063995 140.0
271.090149 136.0
271.121735 376.0
271.166351 92.0
271.195648 176.0
271.241669 116.0
271.276733 128.0
271.31842 128.0
271.37088 52.0
271.404633 96.0
271.416473 84.0
271.505432 152.0
271.541412 112.0
271.592377 164.0
271.646271 124.0
271.706329 104.0
271.739777 304.0
271.764496 140.0
271.798767 156.0
271.811401 108.0
271.822571 108.0
271.925293 144.0
271.946808 172.0
271.970795 60.0
272.034454 140.0
272.074646 600.0
272.134735 216.0
272.175323 120.0
272.209473 156.0
272.256134 140.0
272.324524 84.0
272.3461 120.0
272.371826 152.0
272.396332 132.0
272.434235 148.0
272.467102 280.0
272.538574 208.0
272.568359 44.0
272.592377 188.0
272.629211 60.0
272.687805 100.0
272.753693 76.0
272.785889 164.0
272.820587 72.0
272.84082 140.0
272.876099 108.0
272.906952 380.0
272.938263 192.0
273.010468 108.0
273.090393 104.0
273.120331 56.0
273.190247 108.0
273.221466 132.0
273.268677 180.0
273.320862 68.0
273.32605 160.0
273.371338 76.0
273.399811 76.0
273.444397 212.0
273.479523 128.0
273.529999 104.0
273.5672 244.0
273.620483 156.0
273.657318 252.0
273.68985 228.0
273.705505 92.0
273.737762 152.0
273.781891 212.0
273.832825 120.0
273.914795 436.0
273.981506 208.0
274.012299 156.0
274.083832 360.0
274.118378 352.0
274.180145 100.0
274.190369 68.0
274.207001 148.0
274.227509 252.0
274.25351 116.0
274.292664 108.0
274.29895 156.0
274.340698 196.0
274.374908 232.0
274.39621 332.0
274.433868 144.0
274.496002 164.0
274.53894 336.0
274.560608 116.0
274.575012 108.0
274.599274 132.0
274.613739 156.0
274.64856 364.0
274.715332 140.0
274.737976 124.0
274.761871 188.0
274.822357 264.0
274.85968 348.0
274.890991 404.0
274.94635 340.0
275.00177 580.0
275.073761 760.0
275.119812 326332.0
275.218445 376.0
275.247925 176.0
275.294189 204.0
275.3414 464.0
275.378357 148.0
275.421661 700.0
275.477325 380.0
275.503448 240.0
275.55365 240.0
275.591675 264.0
275.620941 208.0
275.662781 3644.0
275.694702 172.0
275.72995 200.0
275.760101 300.0
275.796539 156.0
275.834015 252.0
275.896149 248.0
275.918671 164.0
275.941162 444.0
276.001587 324.0
276.022827 448.0
276.12146 77252.0
276.192535 300.0
276.20813 168.0
276.217346 308.0
276.263855 124.0
276.296265 216.0
276.342041 68.0
276.372986 84.0
276.40033 188.0
276.42511 152.0
276.465607 188.0
276.477722 196.0
276.527435 152.0
276.559143 60.0
276.578125 264.0
276.655029 64.0
276.667908 108.0
276.677612 184.0
276.703918 184.0
276.76297 176.0
276.79541 264.0
276.850677 204.0
276.8573 116.0
276.909027 132.0
276.971436 148.0
277.00412 48.0
277.03949 148.0
277.123871 6380.0
277.211731 56.0
277.217896 44.0
277.239227 60.0
277.266724 120.0
277.302032 152.0
277.364227 196.0
277.406982 132.0
277.45697 116.0
277.494446 208.0
277.518311 128.0
277.538605 196.0
277.578583 216.0
277.63327 148.0
277.673859 80.0
277.709015 136.0
277.732178 212.0
277.754883 216.0
277.796265 264.0
277.81012 108.0
277.824097 88.0
277.845673 216.0
277.887634 316.0
277.945801 372.0
277.980377 348.0
278.035309 120.0
278.0448 184.0
278.083313 164.0
278.127502 836.0
278.17569 280.0
278.219238 144.0
278.267273 140.0
278.279358 196.0
278.327698 168.0
278.355957 80.0
278.365814 48.0
278.374481 80.0
278.409332 136.0
278.420105 104.0
278.433777 176.0
278.472626 40.0
278.510284 144.0
278.610382 68.0
278.63382 136.0
278.695099 108.0
278.717468 224.0
278.768311 84.0
278.792603 144.0
278.801544 44.0
278.81485 144.0
278.870789 192.0
278.906067 72.0
278.938385 48.0
278.97998 164.0
279.02066 188.0
279.056183 232.0
279.079163 124.0
279.089142 108.0
279.119568 104.0
279.172638 240.0
279.265991 156.0
279.3349 64.0
279.383057 36.0
279.458862 132.0
279.531067 96.0
279.558105 212.0
279.579529 60.0
279.616364 44.0
279.642151 96.0
279.689575 108.0
279.724213 80.0
279.75769 148.0
279.790802 268.0
279.815308 128.0
279.862701 44.0
279.91684 92.0
279.972595 160.0
279.999237 44.0
280.021606 80.0
280.048309 92.0
280.074738 204.0
280.119141 132.0
280.20575 40.0
280.229095 64.0
280.264679 76.0
280.31131 72.0
280.359039 48.0
280.409027 48.0
280.441711 104.0
280.489014 128.0
280.52774 116.0
280.5784 64.0
280.601288 160.0
280.645721 96.0
280.740967 64.0
280.753296 136.0
280.783691 96.0
280.876678 108.0
280.929199 152.0
281.019287 48.0
281.069336 56.0
281.120789 96.0
281.206177 88.0
281.288208 48.0
281.344971 192.0
281.379761 112.0
281.42984 120.0
281.502625 184.0
281.583435 68.0
281.673615 44.0
281.718262 100.0
281.807251 52.0
281.854034 160.0
281.930908 68.0
282.031158 96.0
282.100311 140.0
282.158203 76.0
282.205536 76.0
282.239288 144.0
282.295288 100.0
282.335419 28.0
282.365509 176.0
282.419037 208.0
282.446625 144.0
282.518219 160.0
282.574829 84.0
282.604553 88.0
282.654724 88.0
282.720154 40.0
282.81192 160.0
282.947754 60.0
282.973053 64.0
283.003052 180.0
283.069183 184.0
283.094879 136.0
283.172119 132.0
283.242462 80.0
283.309448 88.0
283.336243 68.0
283.389862 72.0
283.438904 164.0
283.472595 52.0
283.532104 80.0
283.557404 132.0
283.579712 116.0
283.671387 32.0
283.740265 124.0
283.786926 132.0
283.829224 152.0
283.855377 96.0
283.881775 128.0
283.89212 48.0
283.904755 152.0
283.983948 168.0
284.028625 160.0
284.118103 44856.0
284.176025 68.0
284.234833 48.0
284.242615 136.0
284.257996 44.0
284.297272 156.0
284.33429 132.0
284.413727 220.0
284.448395 76.0
284.496094 204.0
284.521881 52.0
284.553925 164.0
284.620331 116.0
284.64566 104.0
284.693604 124.0
284.734467 72.0
284.803131 216.0
284.841339 328.0
284.890228 100.0
284.942291 160.0
284.955292 148.0
284.97876 144.0
285.001251 100.0
285.050629 92.0
285.103516 78168.0
285.206421 280.0
285.248413 60.0
285.278534 48.0
285.305481 84.0
285.351013 104.0
285.399323 164.0
285.448486 108.0
285.475281 104.0
285.495697 132.0
285.53421 96.0
285.558777 88.0
285.603088 164.0
285.626617 108.0
285.656006 36.0
285.690735 160.0
285.722992 132.0
285.767029 92.0
285.792938 176.0
285.814941 152.0
285.86911 96.0
285.881134 48.0
285.893127 96.0
285.933472 52.0
285.966156 156.0
286.018219 132.0
286.042267 192.0
286.105743 15232.0
286.247467 44.0
286.319489 104.0
286.368042 120.0
286.404724 104.0
286.439362 88.0
286.469604 92.0
286.507111 184.0
286.531403 72.0
286.638977 176.0
286.671417 140.0
286.727783 176.0
286.781982 176.0
286.814514 96.0
286.873383 88.0
286.903809 96.0
286.931122 96.0
287.021271 120.0
287.051025 136.0
287.110504 1700.0
287.152008 412.0
287.220398 108.0
287.287262 52.0
287.294159 84.0
287.35733 64.0
287.391083 76.0
287.440125 52.0
287.466156 84.0
287.515381 152.0
287.557861 104.0
287.635254 112.0
287.681183 88.0
287.722443 136.0
287.778015 56.0
287.787109 84.0
287.837524 60.0
287.868042 96.0
287.932953 84.0
287.961578 72.0
287.997314 160.0
288.042419 208.0
288.114136 360.0
288.184082 208.0
288.229584 128.0
288.250671 120.0
288.377167 108.0
288.441376 48.0
288.481964 28.0
288.526337 64.0
288.626526 156.0
288.664185 40.0
288.721497 104.0
288.765991 72.0
288.799805 60.0
288.84021 64.0
288.886627 48.0
288.910217 88.0
288.93512 108.0
288.991608 104.0
289.050171 56.0
289.093689 88.0
289.14621 140.0
289.207611 228.0
289.240204 132.0
289.35141 108.0
289.378479 96.0
289.439911 100.0
289.481354 84.0
289.545624 68.0
289.57489 128.0
289.634888 68.0
289.679901 80.0
289.734406 48.0
289.784943 52.0
289.856079 124.0
289.974701 28.0
289.998413 120.0
290.106903 128.0
290.147125 60.0
290.189392 96.0
290.39267 44.0
290.491455 252.0
290.524017 108.0
290.622406 104.0
290.778503 76.0
290.815857 60.0
290.857941 120.0
290.945923 60.0
291.005951 60.0
291.155365 44.0
291.189331 56.0
291.296265 92.0
291.321808 40.0
291.421906 156.0
291.455444 84.0
291.564514 56.0
291.661621 36.0
291.726196 80.0
291.926819 64.0
291.95401 52.0
292.022034 56.0
292.056061 84.0
292.253357 152.0
292.321411 88.0
292.397736 180.0
292.496124 36.0
292.586914 160.0
292.665222 36.0
292.934265 68.0
293.036469 56.0
293.063721 88.0
293.131897 52.0
293.217072 92.0
293.262451 88.0
293.319336 136.0
293.347168 240.0
293.493195 80.0
293.539001 64.0
293.656891 56.0
293.759674 124.0
293.800171 88.0
293.91275 144.0
293.943481 124.0
293.981018 68.0
294.851868 84.0
294.875793 96.0
294.937317 136.0
294.985168 224.0
295.132172 48.0
295.333954 32.0
295.378418 92.0
295.405792 64.0
295.49295 84.0
295.566589 32.0
295.641876 120.0
295.738861 160.0
295.875305 100.0
295.902039 68.0
295.967072 152.0
296.039001 60.0
296.120209 128.0
296.2034 116.0
296.330139 36.0
296.374695 40.0
296.412384 100.0
296.450073 60.0
296.508331 48.0
296.594208 72.0
296.659149 32.0
296.71402 108.0
296.774109 136.0
296.850464 100.0
296.863495 80.0
296.916321 36.0
297.086365 112.0
297.133453 120.0
297.194183 44.0
297.406952 80.0
297.475616 36.0
297.661011 92.0
297.702209 140.0
297.794952 92.0
297.856781 64.0
297.91861 64.0
297.942657 96.0
297.988098 108.0
298.014801 92.0
298.07666 84.0
298.134338 788.0
298.269135 216.0
298.482269 132.0
298.547607 72.0
298.616394 96.0
298.681763 108.0
298.719604 80.0
298.829681 132.0
298.864075 56.0
298.936554 68.0
299.011475 164.0
299.13504 320.0
299.197937 108.0
299.273682 104.0
299.394226 48.0
299.497528 64.0
299.521637 84.0
299.571747 44.0
299.728363 64.0
299.752472 40.0
299.814514 144.0
299.897217 96.0
299.942047 56.0
299.984161 72.0
300.086823 96.0
300.130341 104.0
300.293732 84.0
300.355835 32.0
300.478882 96.0
300.57663 56.0
300.659454 40.0
300.69397 104.0
300.851501 120.0
300.88382 76.0
301.108276 256.0
301.204742 120.0
301.260254 164.0
301.297089 96.0
301.484833 156.0
301.557434 124.0
301.657654 32.0
301.69223 72.0
301.920441 76.0
301.961945 84.0
302.006897 120.0
302.079559 72.0
302.128326 5732.0
302.195374 120.0
302.258118 72.0
302.299164 84.0
302.330017 72.0
302.456726 92.0
302.626892 108.0
302.665009 100.0
302.693726 88.0
302.732788 164.0
302.775269 96.0
302.842712 176.0
302.903412 256.0
302.933868 184.0
302.968414 132.0
303.054993 264.0
303.113586 57088.0
303.184723 276.0
303.221466 64.0
303.30899 100.0
303.372681 68.0
303.44632 152.0
303.482544 80.0
303.526978 100.0
303.606079 160.0
303.670532 104.0
303.709564 92.0
303.773499 32.0
303.805939 80.0
303.854218 116.0
303.89267 116.0
303.97821 56.0
304.015381 96.0
304.064972 96.0
304.115387 9468.0
304.172455 204.0
304.217712 56.0
304.255096 172.0
304.300934 92.0
304.373932 52.0
304.415619 52.0
304.495758 108.0
304.578156 60.0
304.625031 88.0
304.681641 68.0
304.736816 76.0
304.762054 60.0
304.787292 72.0
304.903412 68.0
304.995819 128.0
305.048431 60.0
305.117767 1648.0
305.173004 120.0
305.202179 124.0
305.238403 80.0
305.295898 92.0
305.350464 68.0
305.404327 56.0
305.430481 80.0
305.458282 48.0
305.489594 32.0
305.534943 116.0
305.634918 192.0
305.68042 128.0
305.733154 92.0
305.760254 56.0
305.868011 184.0
305.901459 80.0
305.915558 60.0
305.926086 104.0
305.959106 44.0
305.998871 144.0
306.033234 244.0
306.070831 56.0
306.118561 108.0
306.161652 148.0
306.185944 152.0
306.195374 84.0
306.21347 92.0
306.226074 112.0
306.261932 96.0
306.351654 168.0
306.43454 96.0
306.527161 44.0
306.558533 48.0
306.681366 96.0
306.729309 144.0
306.828735 76.0
306.900116 76.0
306.987305 148.0
307.011719 44.0
307.060547 80.0
307.100983 108.0
307.126801 132.0
307.217499 164.0
307.273315 28.0
307.318695 120.0
307.368408 112.0
307.741028 76.0
307.796875 52.0
308.121704 128.0
308.149658 80.0
308.223053 96.0
308.488678 132.0
308.590057 128.0
308.632019 64.0
308.708954 88.0
308.750916 100.0
309.03775 52.0
309.139221 120.0
309.248444 152.0
309.31424 56.0
309.503296 136.0
309.555817 48.0
309.695343 76.0
309.776459 76.0
309.918091 152.0
309.993683 80.0
310.028748 124.0
310.105835 80.0
310.144226 164.0
310.186462 48.0
310.288116 196.0
310.368774 88.0
310.470459 60.0
310.628296 52.0
310.677399 60.0
310.800201 140.0
310.95462 44.0
311.064819 156.0
311.110962 96.0
311.158203 160.0
311.213074 96.0
311.400513 132.0
311.42511 128.0
311.534851 100.0
311.565613 52.0
311.642914 44.0
312.142029 84.0
312.166656 124.0
312.320068 96.0
312.595825 108.0
312.638062 128.0
312.754211 56.0
313.140289 152.0
313.201385 36.0
313.500854 96.0
313.581909 88.0
313.793427 40.0
313.885101 72.0
314.131622 1020.0
314.294281 80.0
314.386017 168.0
314.481323 48.0
314.686066 40.0
314.830841 40.0
314.88028 88.0
315.008087 100.0
315.127441 144.0
315.27597 80.0
315.537567 36.0
315.727783 136.0
315.908905 108.0
316.036255 44.0
316.12561 112.0
316.305237 60.0
316.432678 88.0
316.54599 68.0
316.751404 144.0
317.208069 128.0
317.251068 76.0
317.28653 92.0
317.3255 92.0
317.407074 40.0
317.822083 112.0
317.903687 40.0
318.077606 36.0
318.152161 36.0
318.265778 40.0
318.425568 116.0
318.46463 116.0
318.521484 52.0
318.73465 56.0
319.218079 56.0
319.55957 96.0
319.680542 72.0
320.118408 60.0
320.175385 64.0
320.324982 36.0
320.39978 120.0
320.649231 160.0
321.02713 76.0
321.06073 108.0
321.191193 56.0
321.308899 40.0
321.651489 48.0
321.84787 88.0
321.905701 112.0
321.965698 104.0
321.997833 76.0
322.047852 68.0
322.126434 104.0
322.16217 56.0
322.194305 44.0
322.405121 48.0
322.456635 196.0
322.508789 52.0
322.548096 68.0
322.686127 144.0
322.771942 144.0
322.873474 140.0
322.984344 128.0
323.088074 80.0
323.155853 136.0
323.206146 84.0
323.374359 56.0
323.501099 76.0
323.564087 68.0
323.642853 28.0
323.829071 52.0
323.87561 72.0
324.011749 112.0
324.036835 44.0
324.087006 44.0
324.147034 132.0
324.29483 48.0
324.398804 128.0
324.484833 132.0
324.599579 136.0
324.725098 76.0
324.796844 32.0
325.022858 92.0
325.051575 64.0
325.187927 60.0
325.245361 72.0
325.270477 68.0
325.324341 180.0
325.374603 96.0
325.419464 48.0
325.475128 32.0
325.532593 44.0
325.93045 132.0
326.131775 412.0
326.200867 152.0
326.240417 72.0
326.499298 96.0
326.992188 52.0
327.028198 128.0
327.182983 84.0
327.370209 108.0
327.613922 96.0
327.672791 144.0
328.058411 84.0
328.328827 112.0
328.602966 84.0
328.855591 36.0
329.213013 40.0
329.339417 100.0
329.91037 52.0
330.192383 48.0
330.485413 44.0
330.68576 44.0
331.223969 140.0
331.318146 52.0
331.361603 132.0
331.854553 96.0
331.927063 52.0
331.952454 152.0
332.03949 112.0
332.086639 60.0
332.130157 104.0
332.454498 116.0
332.551056 84.0
332.677063 140.0
333.033966 56.0
333.135681 76.0
333.270081 56.0
333.360931 64.0
333.408173 148.0
333.677185 80.0
333.764435 56.0
333.837158 68.0
333.984894 84.0
334.109955 32.0
334.197296 76.0
334.346466 108.0
334.484802 96.0
334.532104 44.0
334.783356 72.0
334.856171 80.0
334.943604 112.0
335.107544 60.0
335.311615 136.0
335.745453 136.0
336.05188 88.0
336.139313 120.0
336.197815 52.0
336.373016 64.0
336.449677 76.0
336.533661 56.0
336.767365 104.0
336.7966 148.0
336.913483 136.0
336.968292 156.0
337.01944 92.0
337.085236 56.0
337.191193 92.0
337.267944 36.0
337.501923 112.0
337.626251 84.0
337.779877 52.0
337.875 40.0
337.922546 200.0
338.167206 352.0
338.22998 84.0
338.257538 112.0
338.467926 76.0
338.504547 56.0
339.02475 148.0
339.169189 288.0
339.237335 116.0
339.402313 104.0
339.534332 44.0
339.6297 76.0
340.158081 156.0
340.234039 116.0
340.270935 60.0
340.444489 40.0
340.929413 128.0
341.167847 124.0
341.631714 80.0
341.683197 108.0
342.051208 76.0
342.378906 112.0
342.408356 68.0
342.437836 56.0
342.467285 124.0
342.669922 140.0
342.725189 104.0
342.923431 120.0
343.149048 56.0
343.185913 144.0
343.237549 56.0
343.266846 112.0
343.359222 212.0
343.525208 108.0
343.912659 44.0
344.326202 36.0
344.503479 64.0
344.603241 124.0
344.776917 108.0
345.675568 48.0
345.701447 228.0
346.071625 84.0
346.225037 80.0
346.308624 32.0
346.34198 76.0
346.380646 100.0
346.508667 72.0
346.938568 72.0
347.320526 32.0
347.539398 32.0
347.795471 64.0
347.917969 76.0
347.999664 84.0
348.129639 172.0
348.248474 124.0
348.274475 96.0
348.378479 112.0
348.452789 52.0
348.480988 88.0
348.553101 48.0
348.929291 76.0
349.010315 80.0
349.170227 56.0
349.263214 88.0
349.441772 196.0
349.508728 84.0
349.860565 144.0
350.052216 44.0
350.154785 140.0
350.295349 128.0
350.398621 104.0
350.476868 36.0
350.670654 116.0
350.789917 80.0
351.252319 32.0
351.345581 52.0
351.375427 120.0
351.74057 196.0
351.834473 36.0
352.164734 92.0
352.3013 36.0
352.331177 52.0
352.536682 224.0
352.61145 120.0
352.648804 76.0
352.727295 48.0
352.831573 36.0
352.865631 108.0
353.10495 28.0
353.565125 72.0
353.834656 48.0
353.995636 144.0
354.093018 84.0
354.299042 92.0
354.344696 172.0
354.56134 112.0
354.685028 84.0
354.91745 44.0
354.969971 144.0
355.044952 156.0
355.093719 68.0
355.243744 76.0
355.3237 128.0
355.607727 44.0
355.903259 128.0
356.133392 52.0
356.174377 440.0
356.197998 104.0
356.227295 48.0
356.324982 100.0
356.559113 168.0
356.638489 112.0
356.689514 108.0
356.772217 76.0
356.979004 132.0
357.186859 168.0
357.392792 64.0
357.626099 92.0
357.761627 44.0
357.957397 80.0
357.99884 72.0
358.025177 88.0
358.134399 76.0
358.175842 84.0
358.393311 136.0
359.118164 144.0
359.17099 56.0
359.295471 68.0
359.340729 88.0
359.383972 184.0
359.518097 88.0
359.642639 144.0
360.394165 100.0
360.73053 216.0
360.946014 96.0
361.010315 68.0
361.048126 64.0
361.225891 64.0
361.290222 56.0
361.320465 64.0
361.430206 36.0
361.556915 152.0
361.674164 112.0
361.78598 116.0
362.183594 36.0
362.30481 136.0
362.357849 56.0
363.176666 92.0
363.256348 152.0
363.362549 44.0
363.491577 168.0
363.692719 56.0
364.082123 104.0
364.140747 104.0
364.296478 80.0
364.429443 56.0
364.722076 72.0
365.049042 124.0
365.193573 60.0
365.24823 140.0
365.322906 208.0
365.4104 68.0
365.539764 132.0
365.634918 76.0
365.7453 48.0
365.973694 60.0
366.019409 52.0
366.046051 188.0
366.091766 112.0
366.156494 76.0
366.320282 68.0
366.423126 64.0
366.510773 56.0
366.594025 80.0
366.712738 64.0
366.907166 116.0
366.998657 144.0
367.040619 72.0
367.1474 40.0
367.51358 96.0
367.578461 60.0
367.65097 92.0
368.074707 80.0
368.10907 40.0
368.175415 6288.0
368.262726 116.0
368.345856 44.0
368.387054 112.0
368.453247 144.0
368.682098 80.0
368.777649 48.0
368.982849 76.0
369.071991 116.0
369.17865 1896.0
369.343536 56.0
369.485077 60.0
369.511871 96.0
369.787384 44.0
369.821838 136.0
369.871582 80.0
369.997925 104.0
370.043854 108.0
370.082153 88.0
370.181335 156.0
370.235321 76.0
370.403351 92.0
370.411499 60.0
370.695038 84.0
370.826874 200.0
370.871338 84.0
370.974823 144.0
371.076569 112.0
371.18396 156.0
371.2854 52.0
371.427307 84.0
371.538574 124.0
371.741913 204.0
371.776733 116.0
371.818665 56.0
371.910797 52.0
371.987549 160.0
372.098907 120.0
372.144958 48.0
372.641266 112.0
372.863312 32.0
372.901733 84.0
373.536743 84.0
373.586212 60.0
373.705475 120.0
373.824738 84.0
373.870941 76.0
373.959442 72.0
374.186584 48.0
374.783569 36.0
374.903015 228.0
375.138153 48.0
375.276947 32.0
375.494812 152.0
375.643311 56.0
375.739777 84.0
375.932678 32.0
376.639221 68.0
376.770569 56.0
377.160858 80.0
377.218842 84.0
377.288452 36.0
377.884033 44.0
377.922729 108.0
378.100739 80.0
378.151062 52.0
378.205231 112.0
378.662109 104.0
378.724091 60.0
378.782196 80.0
379.165771 40.0
379.577545 92.0
379.619354 80.0
379.793427 100.0
379.894745 80.0
379.999512 72.0
380.115906 124.0
380.223083 52.0
380.298309 108.0
380.608887 76.0
380.73703 220.0
380.896271 92.0
381.261505 64.0
381.358673 76.0
381.420868 36.0
381.574402 96.0
381.833008 232.0
381.883575 112.0
381.922455 36.0
382.058624 92.0
382.10141 80.0
382.198669 76.0
382.576202 120.0
382.603455 56.0
382.938354 120.0
383.187653 108.0
383.448181 140.0
383.51889 64.0
383.641479 112.0
383.686523 112.0
383.885376 112.0
383.95166 96.0
384.111603 136.0
384.158386 52.0
384.248138 84.0
384.279327 112.0
384.423706 76.0
384.525177 148.0
384.642273 112.0
384.668091 52.0
384.720367 100.0
384.777252 132.0
384.897552 124.0
384.940674 160.0
385.034302 160.0
385.11084 96.0
385.165527 124.0
385.220215 88.0
385.29834 36.0
385.32962 28.0
385.385162 164.0
385.462982 60.0
385.505432 60.0
385.604645 104.0
385.653961 80.0
385.707916 124.0
385.724152 100.0
385.731781 132.0
385.772675 156.0
385.81424 156.0
385.87738 132.0
385.93454 116.0
386.036041 280.0
386.098969 424.0
386.187164 73004.0
386.280518 56.0
386.337402 184.0
386.351196 264.0
386.441162 80.0
386.476746 132.0
386.52002 196.0
386.558868 116.0
386.595673 204.0
386.631317 184.0
386.677002 120.0
386.706696 88.0
386.757111 120.0
386.7883 148.0
386.82663 116.0
386.897888 64.0
386.937683 100.0
386.970428 84.0
386.987579 44.0
387.01535 48.0
387.04834 120.0
387.085846 40.0
387.117157 88.0
387.190247 13156.0
387.271973 228.0
387.33551 64.0
387.41806 164.0
387.463745 100.0
387.512787 88.0
387.551971 48.0
387.618591 52.0
387.666412 116.0
387.741211 96.0
387.776978 116.0
387.806702 88.0
387.882629 120.0
387.917664 104.0
387.998779 124.0
388.13797 80.0
388.192169 2248.0
388.328156 68.0
388.371979 72.0
388.406616 84.0
388.459564 80.0
388.505127 120.0
388.543915 68.0
388.626312 72.0
388.673401 32.0
388.783264 104.0
388.864899 56.0
388.921783 84.0
389.010925 64.0
389.093353 88.0
389.190826 140.0
389.27005 80.0
389.305389 48.0
389.403595 56.0
389.47522 100.0
389.547821 76.0
389.612579 116.0
389.665894 124.0
389.747314 72.0
389.849182 104.0
389.903564 92.0
389.961517 116.0
390.024384 56.0
390.059784 76.0
390.161987 40.0
390.213074 56.0
390.315308 84.0
390.430206 56.0
390.464752 48.0
390.583771 100.0
390.657501 132.0
390.707642 72.0
390.767639 40.0
390.795197 56.0
390.899628 96.0
390.91037 132.0
390.968323 48.0
391.090332 68.0
391.137573 116.0
391.236298 52.0
391.314728 60.0
391.430359 84.0
391.476166 48.0
391.535248 28.0
391.716431 48.0
391.948883 72.0
392.078918 60.0
392.475983 72.0
392.518188 112.0
392.682373 64.0
392.780762 76.0
393.159515 108.0
393.191101 128.0
393.23056 48.0
393.266083 56.0
393.337128 100.0
393.384491 52.0
393.479248 120.0
393.562164 60.0
393.609558 40.0
393.755676 68.0
394.008484 72.0
394.65271 48.0
394.680389 40.0
395.467651 72.0
395.76059 60.0
395.814453 100.0
395.950684 132.0
396.12677 96.0
396.223999 72.0
396.323029 56.0
396.473633 112.0
397.024689 44.0
397.139709 92.0
397.242828 32.0
397.310272 76.0
397.381683 96.0
397.478485 116.0
397.726959 84.0
397.965149 44.0
398.211365 72.0
398.314636 36.0
398.529144 84.0
398.715942 36.0
398.819275 92.0
398.871674 88.0
399.44693 104.0
399.539032 124.0
399.693878 48.0
399.877258 52.0
400.061737 92.0
400.268982 120.0
400.494415 132.0
400.538208 72.0
400.613922 36.0
400.956573 48.0
401.267517 32.0
401.425293 60.0
401.570587 48.0
401.706207 40.0
401.747894 88.0
402.085236 72.0
402.228943 72.0
402.349945 168.0
402.436523 48.0
402.683502 76.0
403.415375 124.0
403.511322 40.0
403.723236 92.0
403.775238 84.0
403.815216 88.0
403.999237 92.0
404.243896 132.0
404.395386 72.0
404.515472 72.0
404.663574 56.0
404.995972 80.0
405.104126 76.0
405.280396 60.0
405.308441 64.0
405.344513 60.0
405.519897 84.0
405.605011 104.0
405.870972 72.0
406.013977 36.0
406.198883 84.0
406.407104 92.0
406.495392 96.0
406.932922 76.0
406.973053 40.0
407.069427 72.0
407.205505 68.0
408.230804 100.0
408.287109 80.0
408.455353 120.0
408.665222 80.0
409.104706 80.0
409.309235 60.0
409.514618 120.0
409.599213 56.0
409.869141 64.0
410.006165 40.0
410.81662 48.0
410.921509 92.0
410.973969 52.0
411.304901 64.0
411.33316 96.0
411.375763 72.0
411.488403 88.0
412.021698 56.0
412.068146 72.0
412.302521 48.0
412.334869 60.0
412.52887 56.0
412.646118 108.0
412.997925 28.0
413.224487 44.0
413.463226 44.0
413.499664 44.0
413.612976 44.0
413.730377 124.0
413.778961 92.0
414.289246 56.0
414.487762 60.0
414.613403 84.0
414.706604 72.0
414.78363 48.0
415.087708 36.0
415.477081 56.0
415.68808 136.0
415.728638 36.0
415.773285 56.0
415.874756 48.0
416.033081 48.0
416.061493 64.0
416.195465 52.0
416.24826 60.0
416.508179 56.0
416.625977 52.0
416.747864 60.0
416.87384 56.0
416.955109 88.0
416.98764 40.0
417.109589 84.0
417.251862 84.0
417.459229 40.0
417.670715 56.0
418.012482 64.0
418.093872 92.0
418.403229 104.0
418.452087 52.0
418.953003 56.0
419.046722 76.0
419.283051 44.0
419.490936 64.0
419.649933 48.0
419.825287 60.0
419.874207 40.0
420.547424 64.0
420.763763 84.0
420.812744 80.0
420.861755 36.0
420.898499 84.0
421.283234 60.0
422.136658 48.0
422.292084 100.0
422.619354 80.0
422.946747 108.0
423.184174 76.0
423.528168 52.0
423.66745 72.0
423.743317 116.0
423.823151 96.0
423.888702 100.0
424.33139 92.0
424.441345 108.0
425.351013 104.0
425.664917 80.0
425.972961 56.0
426.001709 56.0
426.387939 84.0
426.934723 36.0
427.103363 76.0
427.135986 60.0
427.189758 112.0
427.638275 56.0
427.765869 76.0
427.97995 80.0
428.173492 60.0
428.262451 100.0
428.432983 72.0
428.626648 84.0
428.754395 136.0
428.861542 44.0
428.985229 76.0
429.084686 92.0
429.133636 80.0
429.863739 76.0
430.251709 52.0
430.519714 112.0
430.763794 76.0
430.821625 60.0
431.119141 96.0
431.234863 52.0
431.404327 84.0
431.79715 100.0
432.744781 72.0
432.90625 48.0
432.993225 44.0
433.096771 204.0
433.183777 36.0
434.025085 88.0
434.099731 80.0
434.234283 92.0
434.385925 40.0
434.800842 124.0
434.88385 52.0
434.921204 44.0
435.423615 36.0
435.519135 104.0
435.722687 44.0
435.912415 72.0
435.938751 136.0
436.042633 88.0
436.165253 52.0
436.308685 44.0
436.35025 112.0
436.628845 84.0
436.915863 72.0
437.413788 92.0
437.523499 76.0
437.698364 124.0
437.769135 60.0
437.827454 56.0
437.960724 40.0
438.169006 80.0
438.198181 96.0
438.239838 64.0
438.423187 72.0
438.773346 92.0
438.815033 52.0
438.894257 68.0
439.043182 112.0
439.294617 60.0
439.390594 40.0
439.440643 124.0
439.553314 64.0
439.670166 56.0
439.724396 40.0
440.392456 76.0
440.455109 40.0
440.496887 84.0
440.806061 36.0
441.215668 132.0
441.364471 136.0
441.428894 108.0
441.58783 88.0
441.700775 108.0
441.968506 36.0
442.001984 96.0
442.07312 36.0
442.619904 84.0
442.755524 116.0
443.223022 100.0
443.362976 96.0
443.639618 48.0
443.720459 84.0
443.817108 48.0
443.891174 64.0
443.983459 88.0
444.084106 44.0
444.482117 64.0
444.574982 36.0
444.982147 48.0
445.372681 88.0
445.696167 64.0
445.792816 72.0
445.973541 64.0
446.305664 52.0
446.347687 92.0
446.440216 60.0
446.772491 80.0
446.96814 96.0
447.079651 72.0
447.201721 56.0
447.694305 52.0
447.892242 60.0
448.081818 72.0
448.279877 76.0
448.410522 92.0
448.705597 60.0
448.82785 80.0
448.876709 96.0
449.228516 132.0
449.32135 60.0
449.443695 48.0
449.840424 92.0
450.571014 80.0
451.002045 68.0
451.095032 40.0
451.251465 120.0
451.38913 100.0
451.468933 84.0
451.623596 56.0
451.836578 92.0
451.995911 72.0
452.093231 64.0
452.241364 84.0
452.39798 52.0
452.921204 72.0
453.325562 36.0
453.787598 116.0
454.423798 108.0
454.776001 72.0
455.204803 52.0
455.404419 76.0
455.944 52.0
456.250031 88.0
456.326569 56.0
456.628479 96.0
457.777557 60.0
458.096985 60.0
458.173676 48.0
458.246094 64.0
458.531616 132.0
458.92807 72.0
458.987762 108.0
459.149811 92.0
459.29483 44.0
459.328949 36.0
459.465454 28.0
459.74707 56.0
460.267883 156.0
460.601776 88.0
461.041077 88.0
461.070984 64.0
461.635284 76.0
461.768311 40.0
461.951782 72.0
462.275024 92.0
462.361053 80.0
462.619385 36.0
463.75882 72.0
463.797638 64.0
463.925995 56.0
464.114624 44.0
464.333344 36.0
464.938263 76.0
465.25589 80.0
465.371826 76.0
465.732544 76.0
465.762604 60.0
466.076233 44.0
466.16217 72.0
466.613495 72.0
467.10376 80.0
467.146759 88.0
467.404907 100.0
467.650208 64.0
467.942963 92.0
468.196991 32.0
468.399445 96.0
468.558838 96.0
468.593292 76.0
469.075989 120.0
469.278595 40.0
470.14563 96.0
470.197418 60.0
470.460724 64.0
470.572968 52.0
470.892517 68.0
471.216522 44.0
471.510345 48.0
471.566528 96.0
471.93399 116.0
472.167511 68.0
472.206421 88.0
472.301575 80.0
472.595764 88.0
472.725586 68.0
472.993927 64.0
473.188721 104.0
473.604828 92.0
474.081024 68.0
474.332428 96.0
474.726959 68.0
474.978516 68.0
475.130341 48.0
475.668457 52.0
475.711884 60.0
476.133057 64.0
476.51532 68.0
477.619507 48.0
477.649963 84.0
477.767426 72.0
477.897949 48.0
478.102478 76.0
478.142151 68.0
478.18515 92.0
479.029877 40.0
479.247711 44.0
479.705322 68.0
479.770721 88.0
480.254761 44.0
480.294006 52.0
480.568848 60.0
481.07074 136.0
481.201721 48.0
481.245392 60.0
481.861206 56.0
482.547394 56.0
482.882446 64.0
483.610413 68.0
483.649811 92.0
483.808411 88.0
483.873077 40.0
483.912476 56.0
484.078857 72.0
484.297852 52.0
484.486206 36.0
484.757874 76.0
485.196167 96.0
485.4505 64.0
485.902283 124.0
486.016357 80.0
486.674744 68.0
487.039246 80.0
487.149078 40.0
487.562103 36.0
487.755493 52.0
488.076416 108.0
488.234741 56.0
488.714233 88.0
488.758209 40.0
488.837433 60.0
489.396454 80.0
489.841278 48.0
490.356812 56.0
490.555145 100.0
490.894653 32.0
491.146027 52.0
491.397491 40.0
491.675507 96.0
491.913849 84.0
492.995972 56.0
493.15506 36.0
493.296509 44.0
494.061554 48.0
494.19873 116.0
494.968903 116.0
495.099213 56.0
495.234619 44.0
495.540283 88.0
495.686523 32.0
495.996735 76.0
496.076538 76.0
496.187378 84.0
496.481506 72.0
496.941345 84.0
498.028992 28.0
498.406616 108.0
498.646576 80.0
498.695465 48.0
498.769867 92.0
498.859924 56.0
499.02887 40.0
499.360168 80.0
499.518066 52.0
499.776123 108.0
499.882904 52.0
500.310211 36.0
501.013214 84.0
501.067291 80.0
501.610992 32.0
501.722443 48.0
501.77594 88.0
502.114838 32.0
502.214203 72.0
502.346771 76.0
502.382477 68.0
502.712646 52.0
502.837616 56.0
502.984894 44.0
503.158997 60.0
503.42691 80.0
503.72168 80.0
504.088043 116.0
504.159546 56.0
504.511169 60.0
504.624451 56.0
504.700439 96.0
504.803284 72.0
504.924042 104.0
505.272949 40.0
505.572754 56.0
505.966644 96.0
506.011414 32.0
506.486115 52.0
506.521942 52.0
506.584656 44.0
507.651398 56.0
507.799377 44.0
507.884613 32.0
508.642944 84.0
508.840454 60.0
509.024567 48.0
509.379364 140.0
510.201752 88.0
510.516479 76.0
510.682892 84.0
510.754852 44.0
511.191284 76.0
511.222778 40.0
511.587341 52.0
511.726929 68.0
512.145752 44.0
512.303406 68.0
512.794556 92.0
512.889221 84.0
513.50238 112.0
513.637695 88.0
513.81366 56.0
514.012207 84.0
514.197205 52.0
515.421021 104.0
515.723816 52.0
515.829102 56.0
516.406555 60.0
516.487976 80.0
516.52417 64.0
517.320618 60.0
517.542419 52.0
517.619385 92.0
517.691895 44.0
517.929749 84.0
518.040649 88.0
518.625183 56.0
518.71582 48.0
519.146545 60.0
519.200989 76.0
520.058472 96.0
520.482178 96.0
520.616882 80.0
521.048401 116.0
521.302856 100.0
521.475586 56.0
521.507385 64.0
521.716492 28.0
522.421387 108.0
522.639771 80.0
522.871826 100.0
522.996887 68.0
523.231445 44.0
523.327087 48.0
523.522888 76.0
523.727844 76.0
524.028503 72.0
524.078613 76.0
524.611816 48.0
524.72583 92.0
524.771423 48.0
525.117981 64.0
525.163574 56.0
525.340637 104.0
525.373413 84.0
525.469238 48.0
525.971191 52.0
526.605896 32.0
526.953064 88.0
527.058167 96.0
527.108398 56.0
527.282104 48.0
527.734619 68.0
528.54425 52.0
529.098083 64.0
529.23999 60.0
529.336182 80.0
529.465454 84.0
529.716309 60.0
529.748352 88.0
530.018677 84.0
530.472412 52.0
530.573242 68.0
530.871277 64.0
531.054749 28.0
531.118958 72.0
531.325378 64.0
531.472229 96.0
531.8302 52.0
531.931152 104.0
532.348999 88.0
532.923157 92.0
532.996643 56.0
533.125366 80.0
533.244812 88.0
533.856262 48.0
533.98407 92.0
534.205872 60.0
534.665955 80.0
534.900696 76.0
535.204529 72.0
535.421021 152.0
535.923096 72.0
536.665161 68.0
537.038696 100.0
537.243225 72.0
537.320129 48.0
537.366272 72.0
537.993896 104.0
538.132446 56.0
538.197083 72.0
538.252502 88.0
538.321716 56.0
538.649658 64.0
538.996155 44.0
539.486084 52.0
540.188965 124.0
540.804443 96.0
540.855347 68.0
541.355347 48.0
541.397034 48.0
542.027039 40.0
542.49054 56.0
542.722351 76.0
543.074768 88.0
543.422729 48.0
543.580444 84.0
543.780029 96.0
544.434631 56.0
544.536804 108.0
544.959534 56.0
545.335938 76.0
545.410339 80.0
546.135681 36.0
546.619507 48.0
546.852234 88.0
548.05835 88.0
548.277405 88.0
548.501099 60.0
548.724854 132.0
549.387146 72.0
549.485107 76.0
549.732422 84.0
549.919067 32.0
550.054443 88.0
550.41394 44.0
551.014526 88.0
551.287476 32.0
551.736206 108.0
551.90918 68.0
552.275757 92.0
552.512512 60.0
553.092773 80.0
553.411133 96.0
553.687439 60.0
553.968445 88.0
554.099609 64.0
554.535461 80.0
555.243408 92.0
555.773499 48.0
555.839172 88.0
556.186462 64.0
556.352966 60.0
556.439941 108.0
556.59021 52.0
556.745178 84.0
556.782776 96.0
557.214905 124.0
557.525024 48.0
557.666016 36.0
558.089111 104.0
558.333679 56.0
558.406128 48.0
558.559387 72.0
558.738159 48.0
559.062866 36.0
559.158081 68.0
559.684204 52.0
559.754822 132.0
560.051575 68.0
560.216431 48.0
560.527405 40.0
560.73114 68.0
560.831238 92.0
560.951538 68.0
561.432495 88.0
561.706055 28.0
562.215637 84.0
562.579041 112.0
562.994568 84.0
563.259033 60.0
563.391357 100.0
563.575562 52.0
564.081299 60.0
564.37915 52.0
564.691223 48.0
564.979797 68.0
566.158386 56.0
566.665222 84.0
566.821594 64.0
567.456726 56.0
567.518372 56.0
567.736511 48.0
567.911987 128.0
567.964172 64.0
568.006836 56.0
568.72583 76.0
568.827759 116.0
568.965454 76.0
570.32074 104.0
570.837524 72.0
571.474915 40.0
571.893677 28.0
572.022217 68.0
572.303101 52.0
572.507874 44.0
572.641174 56.0
573.198608 56.0
573.279602 92.0
573.932678 60.0
574.886719 64.0
574.94397 120.0
575.158752 52.0
575.249451 60.0
575.469055 56.0
575.660034 72.0
576.013489 68.0
576.57251 36.0
577.983215 100.0
578.81134 44.0
578.873596 80.0
579.007629 44.0
579.055542 52.0
579.290283 100.0
579.795288 64.0
579.941956 124.0
580.522034 64.0
580.747437 60.0
582.989563 60.0
583.220215 104.0
583.306763 40.0
583.441345 40.0
584.157898 44.0
584.634277 56.0
584.797913 52.0
585.163757 60.0
585.813904 76.0
586.006592 32.0
586.772949 112.0
587.53009 40.0
588.191223 48.0
588.253967 40.0
588.553345 92.0
588.596802 72.0
588.901001 76.0
588.968628 40.0
589.055603 48.0
589.229492 68.0
589.432434 52.0
590.018677 56.0
590.360596 60.0
591.400757 72.0
592.587219 120.0
593.037903 64.0
593.377258 72.0
593.57605 72.0
593.990967 108.0
594.259949 88.0
594.418518 136.0
594.492859 96.0
594.667603 64.0
594.905396 80.0
594.983093 60.0
595.046204 124.0
595.692139 68.0
596.416138 40.0
596.625183 96.0
596.737 48.0
596.780762 48.0
596.824524 52.0
596.887756 64.0
597.009277 36.0
597.067627 52.0
597.670837 88.0
597.914185 92.0
598.124695 60.0
598.323059 76.0
598.410706 92.0
598.600586 44.0
599.141235 88.0
599.682129 64.0
601.032959 88.0
601.1745 136.0
601.364868 44.0
601.442932 64.0
601.877441 104.0
602.190002 88.0
603.416504 48.0
603.524109 76.0
603.964233 44.0
604.340942 84.0
604.845032 40.0
605.256226 84.0
605.633362 72.0
605.780273 48.0
606.079163 52.0
606.137939 32.0
606.260437 36.0
606.378113 92.0
606.907532 52.0
607.035034 52.0
608.502136 56.0
609.184753 56.0
610.280762 96.0
610.42334 68.0
610.462708 92.0
610.526611 60.0
610.885681 64.0
611.230042 44.0
611.520447 80.0
611.732056 68.0
611.820679 68.0
612.209656 48.0
612.465759 32.0
612.588928 48.0
612.963379 40.0
613.401062 104.0
613.549927 52.0
613.796448 52.0
614.778076 48.0
614.995239 188.0
615.044617 80.0
615.844482 56.0
615.923523 76.0
615.992676 40.0
616.669617 56.0
618.494812 124.0
618.672974 48.0
618.707642 32.0
618.861145 48.0
618.984924 60.0
619.123596 76.0
619.405884 96.0
620.069824 68.0
620.253235 64.0
620.411865 60.0
621.47821 68.0
621.706421 60.0
622.331909 80.0
622.525574 36.0
623.270691 72.0
623.558899 80.0
623.891968 136.0
623.991394 72.0
624.35437 52.0
624.647827 52.0
624.757263 68.0
625.782532 72.0
627.147461 60.0
627.242188 92.0
627.351868 120.0
627.398254 128.0
627.680908 56.0
627.755737 52.0
628.628723 48.0
628.758484 52.0
629.132812 64.0
629.637146 52.0
629.707031 64.0
630.281555 80.0
630.321533 60.0
630.606384 56.0
631.006287 76.0
631.116272 48.0
631.201294 52.0
631.492249 88.0
631.536377 44.0
631.791504 52.0
632.071655 64.0
632.231812 144.0
632.286865 76.0
632.702332 52.0
633.036438 132.0
633.253113 80.0
633.323242 76.0
633.403381 28.0
634.069824 60.0
634.139954 120.0
634.375549 84.0
634.726501 64.0
636.352234 80.0
636.3974 84.0
636.859436 40.0
637.045288 52.0
637.613037 72.0
638.709167 136.0
640.15863 56.0
640.470886 56.0
640.601868 96.0
640.642151 132.0
641.796326 60.0
641.922363 76.0
642.35614 48.0
642.477173 136.0
643.294739 56.0
643.734009 60.0
643.956177 140.0
644.64325 72.0
645.209351 68.0
646.529541 72.0
646.964844 124.0
647.729553 48.0
649.290649 64.0
649.539185 44.0
650.132812 36.0
650.23938 40.0
651.365479 92.0
653.450928 124.0
653.583191 84.0
654.112488 48.0
654.55542 108.0
654.799866 100.0
654.886475 40.0
655.497803 36.0
655.762817 96.0
655.854553 68.0
656.111328 96.0
656.655029 80.0
657.221313 60.0
657.323364 104.0
657.67041 40.0
658.167419 88.0
658.64563 56.0
659.463196 72.0
659.867004 84.0
660.306824 28.0
661.698669 72.0
661.934204 56.0
664.599609 40.0
665.010193 40.0
667.075073 52.0
667.145569 112.0
667.445251 84.0
668.793152 52.0
670.518555 60.0
670.879395 52.0
671.82312 96.0
671.890198 64.0
672.096558 80.0
673.784912 116.0
673.976074 36.0
674.51355 64.0
675.356384 76.0
675.615051 72.0
675.759888 80.0
676.396423 80.0
676.639709 28.0
678.100525 36.0
678.800415 80.0
680.149292 120.0
681.016418 72.0
681.53595 52.0
681.956848 48.0
682.383118 68.0
682.705505 64.0
682.845947 72.0
682.970764 64.0
683.667969 108.0
684.167603 72.0
685.714661 84.0
686.230774 72.0
687.065247 56.0
687.717529 52.0
687.827148 72.0
688.526794 60.0
690.162415 64.0
690.266968 112.0
691.569641 40.0
691.684814 64.0
692.705933 108.0
693.240356 56.0
693.638672 80.0
693.879822 84.0
694.876282 60.0
695.67926 84.0
695.994263 44.0
696.220093 64.0
696.51947 60.0
697.023804 56.0
697.644043 120.0
697.764954 68.0
699.421997 56.0
701.207581 84.0
701.360413 108.0
701.397278 76.0
701.597595 68.0
701.840149 56.0
702.01947 84.0
702.420288 116.0
703.592834 84.0
703.966736 68.0
704.759033 60.0
705.356262 40.0
705.609985 56.0
706.122925 40.0
706.21814 76.0
709.660278 104.0
709.914856 76.0
710.567261 76.0
710.61499 128.0
710.752991 76.0
710.86438 44.0
712.398804 80.0
712.457275 68.0
712.515686 80.0
712.924866 96.0
713.155151 60.0
713.514832 40.0
714.238098 40.0
714.871216 80.0
714.977661 80.0
715.360901 36.0
715.701599 124.0
716.021118 64.0
716.346008 48.0
717.246582 44.0
717.689087 80.0
718.238342 112.0
718.43042 40.0
719.796753 80.0
720.624695 44.0
722.249817 112.0
722.303345 72.0
722.891846 48.0
723.084534 44.0
723.560913 68.0
724.530273 56.0
724.948181 92.0
725.612854 92.0
726.095459 56.0
726.42804 52.0
726.562134 60.0
727.197937 100.0
727.265137 100.0
727.69458 72.0
727.973755 56.0
729.069702 56.0
729.542664 48.0
730.225586 76.0
730.709717 76.0
731.328552 92.0
731.764587 84.0
731.969238 116.0
732.023071 104.0
732.308533 72.0
732.910522 80.0
732.954956 44.0
733.041199 52.0
733.122009 136.0
733.240601 28.0
733.838928 60.0
734.32428 72.0
734.750427 40.0
735.11731 112.0
735.937805 104.0
737.190979 88.0
737.8927 72.0
739.153931 32.0
739.294617 28.0
740.491089 96.0
740.534424 100.0
743.451233 88.0
743.619446 36.0
745.03125 100.0
745.58551 72.0
745.857239 116.0
746.64563 48.0
746.808777 60.0
747.55957 40.0
747.614014 84.0
747.750061 80.0
749.351013 48.0
750.326599 64.0
750.691895 92.0
751.542847 52.0
751.859375 108.0
752.44342 44.0
753.011353 76.0
753.410095 100.0
753.994751 56.0
755.181152 128.0
755.246826 72.0
755.782959 52.0
756.877686 76.0
757.102173 52.0
757.704712 48.0
757.81427 108.0
759.003723 72.0
759.266907 72.0
759.416931 68.0
759.672852 88.0
760.891174 108.0
761.308472 76.0
761.714905 92.0
762.396179 68.0
762.594055 108.0
762.978821 60.0
764.188782 56.0
764.502441 48.0
765.157471 104.0
765.333679 84.0
765.941284 60.0
766.424255 56.0
767.306152 36.0
767.962341 96.0
768.138855 36.0
768.276733 52.0
769.391541 68.0
770.551331 44.0
772.176514 52.0
772.320312 64.0
772.386719 44.0
772.746277 44.0
773.155762 44.0
773.260925 40.0
773.548706 40.0
775.691223 88.0
777.545044 72.0
779.238708 68.0
780.592285 108.0
781.518311 56.0
782.035828 84.0
782.609253 76.0
785.049927 84.0
785.178162 48.0
785.289734 120.0
785.702515 104.0
786.500488 88.0
788.337952 80.0
790.56366 116.0
790.821106 36.0
790.94989 40.0
791.399353 68.0
792.013733 48.0
792.910217 88.0
793.050354 64.0
793.610962 44.0
793.902527 128.0
795.327576 48.0
796.164124 56.0
797.546265 64.0
798.294006 48.0
799.272827 60.0
799.548523 72.0
800.235291 128.0
800.516846 36.0
801.389893 36.0
802.032349 52.0
802.229675 108.0
802.804749 80.0
803.126221 104.0
803.24469 32.0
804.491821 36.0
807.186829 92.0
807.463928 100.0
807.741089 44.0
807.854248 100.0
809.093628 48.0
809.144592 52.0
810.46991 100.0
810.645569 56.0
811.93811 68.0
812.562073 52.0
813.266968 76.0
814.236633 44.0
814.537659 48.0
816.117554 32.0
816.600952 44.0
818.439087 76.0
819.156677 52.0
820.313477 92.0
820.570007 36.0
823.126221 88.0
824.582947 80.0
824.91449 80.0
825.42334 36.0
826.021729 80.0
827.466003 52.0
827.666382 76.0
828.496887 68.0
828.789062 64.0
828.829163 60.0
828.9151 104.0
828.995361 92.0
829.348511 84.0
830.996521 96.0
831.501526 84.0
831.622009 52.0
832.242004 28.0
833.247131 88.0
833.758545 168.0
834.034424 92.0
834.155151 120.0
834.747314 108.0
835.302124 52.0
835.966858 100.0
837.815125 96.0
838.950439 64.0
839.694275 72.0
839.763489 72.0
840.098022 80.0
840.651917 92.0
840.836609 84.0
841.050171 48.0
842.014343 108.0
842.470703 92.0
842.863586 68.0
843.279663 44.0
843.632263 44.0
844.112122 72.0
844.233582 88.0
845.072327 72.0
845.853577 48.0
845.980957 64.0
846.044617 44.0
847.718567 48.0
847.967712 108.0
848.87793 28.0
849.237488 100.0
849.730591 80.0
850.003296 36.0
850.188965 48.0
850.276001 88.0
850.757812 44.0
851.117737 140.0
851.820496 28.0
853.889709 72.0
855.53064 76.0
855.85083 72.0
858.408875 68.0
858.607178 44.0
858.7005 68.0
859.213806 140.0
859.69812 60.0
860.153381 84.0
860.468628 100.0
862.595093 100.0
864.753418 92.0
865.701843 56.0
866.287537 92.0
866.90863 52.0
867.424377 72.0
868.039978 52.0
868.086914 116.0
869.025452 60.0
869.694458 64.0
869.970337 96.0
872.955078 64.0
874.879089 76.0
875.467896 68.0
875.538574 80.0
876.551819 92.0
876.640198 52.0
876.905396 88.0
877.506653 52.0
877.577393 48.0
877.966614 40.0
878.532837 80.0
879.9729 52.0
881.709534 104.0
881.904602 64.0
882.081909 72.0
882.407043 96.0
883.731934 64.0
883.980408 64.0
884.039612 56.0
884.400635 44.0
888.204712 116.0
888.495361 100.0
889.872253 88.0
890.038513 148.0
892.022888 48.0
892.760132 52.0
892.920715 96.0
894.170105 80.0
894.414124 44.0
895.420349 92.0
896.850281 112.0
897.285461 64.0
900.197266 48.0
900.256958 56.0
900.979736 64.0
901.427856 40.0
901.654907 40.0
902.707092 44.0
902.880493 108.0
905.715271 108.0
905.813293 72.0
906.040955 80.0
906.130859 48.0
907.227539 36.0
907.971069 48.0
909.163879 96.0
909.663086 52.0
911.2005 52.0
911.693237 100.0
912.180054 80.0
914.267151 52.0
915.200195 156.0
915.501282 148.0
916.766357 44.0
917.043579 68.0
917.724792 48.0
918.496704 36.0
919.474182 40.0
919.57074 60.0
919.781982 40.0
919.932922 60.0
921.297729 64.0
922.935608 68.0
925.113647 52.0
925.165833 160.0
926.918518 68.0
928.28241 64.0
928.816101 44.0
928.985962 108.0
930.444885 112.0
930.606384 52.0
931.75238 64.0
931.99469 112.0
932.191772 68.0
933.042725 76.0
933.109558 80.0
934.070435 64.0
934.50238 64.0
936.925476 48.0
937.0047 40.0
937.126526 48.0
937.528748 44.0
937.991943 80.0
938.162598 68.0
941.17627 88.0
941.982727 100.0
942.202637 40.0
942.923706 88.0
945.382202 120.0
945.694336 56.0
946.45343 92.0
947.151611 92.0
947.500793 116.0
950.1922 76.0
950.94696 112.0
951.106567 120.0
952.131897 64.0
952.979614 56.0
953.477356 52.0
954.141235 72.0
954.829895 76.0
955.777283 32.0
956.054199 76.0
957.599487 96.0
958.831665 72.0
959.670044 80.0
962.00824 44.0
963.478027 64.0
963.922913 84.0
964.71405 108.0
966.185852 64.0
966.328186 236.0
966.897461 116.0
967.993225 52.0
970.124573 44.0
970.254761 96.0
971.277954 64.0
972.698914 36.0
975.220764 36.0
976.259033 112.0
976.937012 60.0
977.447205 176.0
978.44928 72.0
980.21814 64.0
981.626953 60.0
983.223999 80.0
985.128357 52.0
985.915649 64.0
986.453186 36.0
987.028381 68.0
987.47699 76.0
988.836304 112.0
989.111694 92.0
989.524902 80.0
989.787842 56.0
993.071716 68.0
993.215942 36.0
993.360229 64.0
995.406311 88.0
996.159973 92.0
996.650024 32.0
997.253296 72.0
1000.76355 124.0
1001.09729 60.0
1003.018921 56.0
1003.479126 48.0
1006.577209 64.0
1006.994019 120.0
1007.865784 92.0
1009.104614 72.0
1010.179749 144.0
1010.464417 56.0
1010.812439 72.0
1011.749146 68.0
1011.837769 96.0
1012.604004 56.0
1012.667297 132.0
1013.902771 36.0
1015.589233 44.0
1015.728821 40.0
1017.588196 52.0
1019.614563 40.0
1020.307434 72.0
1020.860596 84.0
1021.560242 68.0
1021.840149 112.0
1021.903748 48.0
1022.075562 60.0
1022.406433 92.0
1022.998413 80.0
1025.030151 52.0
1025.928833 96.0
1027.937866 84.0
1028.365479 52.0
1029.840454 48.0
1030.300293 32.0
1030.869019 100.0
1031.335571 112.0
1034.188232 80.0
1034.309814 52.0
1034.988403 112.0
1037.596191 72.0
1038.930054 56.0
1038.974976 88.0
1040.162231 64.0
1041.491333 176.0
1041.658325 56.0
1041.709717 52.0
1041.754761 92.0
1042.442261 72.0
1042.667114 48.0
1045.400269 76.0
1046.088989 80.0
1046.185547 76.0
1046.404419 112.0
1048.098389 100.0
1048.891113 44.0
1051.187134 60.0
1051.264526 84.0
1051.838989 92.0
1052.652466 116.0
1052.878418 64.0
1053.815063 52.0
1053.970215 92.0
1055.372803 40.0
1055.502075 48.0
1059.463135 48.0
1060.927734 72.0
1062.296021 44.0
1066.750854 48.0
1067.225464 128.0
1068.03833 140.0
1068.298462 68.0
1069.49585 220.0
1070.537476 124.0
1072.746216 60.0
1073.782959 92.0
1074.474487 100.0
1075.10083 72.0
1077.079102 116.0
1077.203247 100.0
1077.5625 48.0
1079.052734 96.0
1080.471924 196.0
1082.448608 56.0
1082.494385 64.0
1083.391724 60.0
1084.553589 140.0
1086.276123 64.0
1088.120239 72.0
1089.31543 52.0
1092.02356 108.0
1092.641846 96.0
1093.286743 32.0
1099.672852 60.0
1103.623291 40.0
1107.514648 176.0
1108.33606 120.0
1111.326416 80.0
1111.93396 200.0
1112.547607 40.0
1113.230347 116.0
1113.556885 68.0
1113.636597 56.0
1114.433838 44.0
1114.918945 52.0
1114.985352 136.0
1116.606079 112.0
1117.452393 172.0
1119.895386 40.0
1120.621582 64.0
1128.644409 140.0
1128.798218 40.0
1129.025635 204.0
1130.601929 188.0
1131.461182 132.0
1131.53479 44.0
1132.666626 112.0
1133.684937 72.0
1134.194336 48.0
1134.770874 40.0
1135.354248 44.0
1135.843872 124.0
1136.112183 64.0
1137.158936 72.0
1137.521362 60.0
1139.193481 160.0
1139.825073 88.0
1140.880249 148.0
1141.438354 104.0
1142.783569 136.0
1143.515869 112.0
1143.867065 52.0
1143.934448 120.0
1144.957886 60.0
1145.564087 60.0
1146.338867 48.0
1146.520752 76.0
1151.465942 100.0
1151.823975 88.0
1152.438721 48.0
1156.990479 92.0
1158.717407 88.0
1158.785156 124.0
1160.235474 56.0
1160.296509 76.0
1160.655884 148.0
1161.510376 148.0
1161.881226 60.0
1165.047119 228.0
1166.480957 128.0
1167.487183 88.0
1168.072144 104.0
1168.317017 112.0
1169.167603 124.0
1170.903564 40.0
1171.121582 108.0
1171.918579 60.0
1172.797729 144.0
1174.236328 60.0
1174.543213 52.0
1174.816162 204.0
1175.607544 104.0
1178.523315 100.0
1180.519287 68.0
1181.333252 116.0
1182.843628 116.0
1183.201538 136.0
1183.578125 108.0
1184.276611 72.0
1185.071289 144.0
1185.482422 160.0
1186.428223 68.0
1187.648804 48.0
1187.799805 76.0
1188.190796 92.0
1188.609375 72.0
1189.350464 88.0
1193.07373 40.0
1193.266235 68.0
1193.5 100.0
1196.258789 76.0
1199.144897 128.0
1199.710083 164.0
1200.165161 72.0
1200.903076 196.0
1201.013428 56.0
1201.123779 104.0
1202.289795 120.0
1202.420898 44.0
1204.536377 224.0
1205.618408 120.0
1206.026245 140.0
1208.102661 140.0
1208.239014 180.0
1208.439697 104.0
1208.802612 44.0
1209.13855 84.0
1209.754639 32.0
1210.647827 108.0
1211.444336 76.0
1213.322388 64.0
1214.105957 132.0
1214.418945 112.0
1214.896606 108.0
1216.822754 236.0
1217.40918 100.0
1218.10376 64.0
1218.242676 132.0
1220.049561 32.0
1220.904785 104.0
1221.579468 108.0
1221.88562 84.0
1223.29834 100.0
1223.528076 128.0
1224.50293 40.0
1225.62439 92.0
1226.760498 144.0
1227.157837 164.0
1227.304321 52.0
1228.043457 72.0
1229.683105 180.0
1230.101929 80.0
1230.374146 64.0
1230.876831 36.0
1231.582153 160.0
1233.077393 128.0
1233.266113 140.0
1233.713501 88.0
1234.930176 36.0
1235.853638 72.0
1235.909546 192.0
1236.994385 192.0
1237.18335 140.0
1237.603394 176.0
1237.904541 148.0
1238.471802 180.0
1238.569824 72.0
1239.060181 40.0
1240.006226 72.0
1240.496826 116.0
1240.588013 100.0
1241.765991 124.0
1242.635864 28.0
1243.155029 56.0
1246.42041 76.0
1248.374512 88.0
1248.923096 40.0
1249.28186 108.0
1249.429565 132.0
1249.929199 120.0
1250.654053 136.0
1251.069336 76.0
1251.13269 76.0
1251.498779 60.0
1251.893188 52.0
1252.322754 84.0
1252.956665 180.0
1253.197876 152.0
1253.428833 48.0
1253.830444 104.0
1254.577637 152.0
1257.046265 196.0
1257.178345 116.0
1258.316772 80.0
1259.686768 156.0
1261.573608 240.0
1261.919922 232.0
1262.040161 132.0
1262.337158 148.0
1263.044434 172.0
1263.483032 40.0
1264.721313 132.0
1264.969116 84.0
1265.493042 156.0
1267.178711 80.0
1267.277832 76.0
1267.858887 48.0
1268.248657 152.0
1268.879639 80.0
1269.092285 92.0
1269.141968 68.0
1269.588745 120.0
1270.092285 144.0
1271.057129 112.0
1271.979736 92.0
1272.597412 96.0
1273.05896 160.0
1273.54187 76.0
1274.581543 56.0
1274.731445 116.0
1275.005493 56.0
1275.396362 132.0
1275.872559 248.0
1276.633423 84.0
1277.401611 204.0
1277.949341 92.0
1278.027588 88.0
1278.141479 52.0
1278.756958 188.0
1278.917236 152.0
1279.372803 204.0
1280.156006 128.0
1280.440796 76.0
1280.697266 76.0
1283.041626 132.0
1284.460815 104.0
1285.552368 28.0
1285.780762 60.0
1286.159058 156.0
1286.358887 140.0
1287.122803 64.0
1287.415527 40.0
1288.401245 100.0
1288.880005 256.0
1289.469482 176.0
1290.002075 156.0
1290.259399 220.0
1291.010132 120.0
1292.19043 184.0
1292.898804 140.0
1293.027588 152.0
1293.263794 124.0
1293.707642 116.0
1294.445068 108.0
1295.032349 96.0
1295.125488 148.0
1295.741455 40.0
1295.848999 108.0
1296.020874 60.0
1296.250244 120.0
1296.415039 52.0
1297.922119 204.0
1298.070923 156.0
1300.531738 100.0
1301.902954 64.0
1303.081055 160.0
1303.174438 136.0
1303.246338 108.0
1303.33252 136.0
1303.508911 96.0
1303.598389 160.0
1304.964111 168.0
1305.17981 36.0
1306.762207 56.0
1307.258667 144.0
1307.510498 124.0
1307.877563 200.0
1307.985596 160.0
1309.087158 48.0
1309.648804 80.0
1311.529419 40.0
1311.832153 356.0
1313.786499 96.0
1313.930786 88.0
1314.702881 192.0
1314.861572 136.0
1315.107056 68.0
1316.666504 168.0
1317.29541 152.0
1317.648926 56.0
1318.62439 156.0
1318.73999 156.0
1318.935181 56.0
1319.274902 120.0
1319.535156 76.0
1319.69043 152.0
1319.788208 52.0
1320.200439 96.0
1320.569214 108.0
1321.249268 80.0
1321.589233 136.0
1322.29126 104.0
1322.703735 68.0
1322.942627 72.0
1323.326294 192.0
1323.507324 92.0
1323.594238 96.0
1324.18811 76.0
1325.115234 148.0
1325.187012 212.0
1325.839966 196.0
1326.369019 140.0
1327.15918 76.0
1327.5 76.0
1327.601562 228.0
1328.823608 132.0
1330.72168 212.0
1331.513184 132.0
1331.709351 188.0
1332.004761 204.0
1332.304932 120.0
1332.653687 40.0
1333.598389 120.0
1333.82373 68.0
1334.856079 88.0
1334.921509 184.0
1335.87439 96.0
1337.336914 76.0
1337.87561 172.0
1338.035767 104.0
1338.458008 56.0
1339.193604 104.0
1339.656006 116.0
1339.86377 124.0
1340.220703 104.0
1341.080688 68.0
1341.273682 116.0
1341.824219 148.0
1341.991943 156.0
1342.283569 224.0
1342.480469 144.0
1342.845093 84.0
1343.202515 176.0
1344.858765 176.0
1345.121582 80.0
1345.705688 152.0
1345.837036 144.0
1346.311646 172.0
1346.633057 148.0
1346.939819 136.0
1347.188232 124.0
1347.327026 196.0
1347.823853 52.0
1347.999146 100.0
1348.751953 136.0
1349.029785 140.0
1349.790039 124.0
1350.206909 100.0
1350.755493 128.0
1351.135864 104.0
1351.465088 32.0
1351.713867 168.0
1352.731201 52.0
1353.243652 192.0
1353.463379 64.0
1353.924683 160.0
1354.95752 80.0
1355.038086 200.0
1355.206543 116.0
1355.536377 168.0
1356.005371 140.0
1356.137329 132.0
1356.621094 136.0
1356.833618 120.0
1357.068237 80.0
1357.706177 76.0
1358.513062 152.0
1358.65979 216.0
1358.77124 172.0
1358.916504 144.0
1359.187988 220.0
1359.438965 176.0
1359.525635 100.0
1359.679688 48.0
1359.775146 228.0
1360.421021 124.0
1360.487183 68.0
1360.669312 168.0
1361.272705 108.0
1363.167969 204.0
1363.351685 124.0
1364.08667 104.0
1364.858643 196.0
1365.093994 92.0
1365.182129 168.0
1366.498901 180.0
1366.550293 40.0
1366.682739 96.0
1367.109619 188.0
1367.308228 72.0
1367.543823 64.0
1367.823486 84.0
1367.882324 164.0
1368.221069 140.0
1369.163574 132.0
1369.487549 112.0
1370.539185 220.0
1371.587524 144.0
1371.63916 132.0
1371.94873 160.0
1373.043213 164.0
1373.121094 124.0
1373.89563 108.0
1374.13916 216.0
1374.249756 64.0
1374.891724 140.0
1375.275513 124.0
1375.334595 96.0
1375.570801 80.0
1376.161377 264.0
1376.279541 128.0
1377.682739 100.0
1378.724609 128.0
1378.872437 88.0
1379.027588 160.0
1379.611572 112.0
1379.752075 152.0
1380.047729 152.0
1380.158691 124.0
1380.853882 120.0
1380.986938 176.0
1381.393799 152.0
1381.475098 164.0
1381.785889 180.0
1382.311157 112.0
1382.370361 116.0
1382.732544 172.0
1383.162354 260.0
1384.035889 112.0
1384.087769 68.0
1384.28772 68.0
1384.398804 176.0
1384.450562 96.0
1384.672729 184.0
1385.154175 100.0
1386.06543 60.0
1386.487915 72.0
1386.888062 112.0
1387.118774 156.0
1387.525635 184.0
1388.163208 72.0
1388.26709 188.0
1388.585938 112.0
1389.085205 64.0
1389.409302 72.0
1389.765503 120.0
1390.134033 60.0
1390.247803 108.0
1390.908325 92.0
1391.034546 96.0
1391.130981 140.0
1392.237305 120.0
1392.571533 168.0
1393.277222 100.0
1393.329224 152.0
1393.752686 192.0
1395.261475 196.0
1395.566284 156.0
1395.677856 100.0
1395.833984 152.0
1396.525635 140.0
1396.689331 132.0
1397.410889 148.0
1397.842407 144.0
1397.91687 188.0
1398.28894 152.0
1398.817383 196.0
1399.17334 224.0
1399.199585 180.0
1399.383179 176.0
1399.867188 140.0
1399.963989 100.0
1400.248413 152.0
1400.731201 128.0
1400.95459 92.0
1402.306274 132.0
1402.921997 132.0
1402.989136 100.0
1403.615356 48.0
1403.90625 92.0
1403.976685 152.0
1404.143555 168.0
1405.480225 56.0
1405.741333 100.0
1406.562256 124.0
1407.562744 164.0
1407.838989 112.0
1408.234863 124.0
1409.303101 128.0
1409.370361 68.0
1409.908325 184.0
1409.983154 120.0
1410.491333 140.0
1410.543701 68.0
1411.126831 352.0
1411.208984 152.0
1411.380981 132.0
1411.463257 80.0
1411.792236 148.0
1412.091431 140.0
1412.143799 76.0
1412.779541 164.0
1413.303345 160.0
1414.005371 112.0
1414.06665 168.0
1415.092163 112.0
1415.855957 92.0
1416.013184 124.0
1416.118042 152.0
1416.777222 256.0
1416.859619 136.0
1416.93457 116.0
1417.234253 100.0
1417.743774 100.0
1418.305908 52.0
1418.418335 56.0
1418.680664 184.0
1419.123047 148.0
1419.422974 44.0
1419.632935 192.0
1419.707886 120.0
1419.782959 192.0
1419.958008 160.0
1420.220581 156.0
1420.581299 160.0
1420.765503 56.0
1420.855591 72.0
1420.915527 120.0
1421.175415 132.0
1421.380737 136.0
1422.836792 148.0
1423.279785 172.0
1423.377441 212.0
1423.903076 88.0
1424.301147 96.0
1425.165161 184.0
1425.394653 148.0
1426.337524 140.0
1426.663696 124.0
1427.059204 124.0
1427.593018 248.0
1427.750977 92.0
1427.803589 132.0
1428.089478 64.0
1428.209839 80.0
1428.42041 108.0
1428.856689 220.0
1428.977051 40.0
1430.70813 88.0
1430.866211 100.0
1430.948975 76.0
1431.212524 144.0
1431.596558 152.0
1431.928711 204.0
1432.304565 84.0
1432.944824 184.0
1433.174683 40.0
1433.404419 204.0
1433.668213 184.0
1433.758667 180.0
1434.437012 132.0
1434.54248 128.0
1435.53772 148.0
1435.779053 160.0
1435.869629 132.0
1436.035522 192.0
1436.153076 136.0
1436.181885 80.0
1436.442871 112.0
1436.691772 56.0
1436.804932 100.0
1437.325562 168.0
1437.491577 100.0
1437.695312 60.0
1437.959473 144.0
1438.540649 48.0
1438.638794 180.0
1439.144653 132.0
1439.710938 160.0
1440.050781 32.0
1440.345337 152.0
1440.398193 196.0
1440.577271 204.0
1441.199097 92.0
1441.629761 132.0
1441.894287 124.0
1442.068115 48.0
1442.355347 116.0
1442.521606 168.0
1442.695435 128.0
1442.7948 140.0
1442.922241 176.0
1443.134033 108.0
1443.481812 116.0
1443.580078 240.0
1443.829712 136.0
1444.018677 100.0
1444.244629 132.0
1444.411987 168.0
1444.565674 128.0
1444.699463 116.0
1445.032349 124.0
1445.206421 84.0
1445.471191 152.0
1445.592285 36.0
1445.743652 132.0
1446.046387 76.0
1446.265869 148.0
1446.371826 84.0
1446.765503 156.0
1446.984985 96.0
1447.25 128.0
1447.363647 112.0
1448.052734 68.0
1448.378418 108.0
1449.11438 192.0
1449.408691 160.0
1449.530029 164.0
1449.643677 160.0
1449.757324 140.0
1450.083252 196.0
1450.302979 220.0
1450.916992 148.0
1451.030762 164.0
1451.318848 76.0
1451.371948 120.0
1451.447754 100.0
1451.804199 188.0
1451.998291 196.0
1452.123779 88.0
1452.562622 212.0
1452.775024 164.0
1452.881226 128.0
1453.040527 88.0
1453.245361 156.0
1453.731079 36.0
1454.140869 100.0
1454.224365 124.0
1454.353394 132.0
1454.476807 148.0
1454.596191 152.0
1454.672119 152.0
1454.915039 60.0
1455.127686 208.0
1455.871826 176.0
1456.010864 228.0
1456.099609 112.0
1456.388184 92.0
1456.878174 220.0
1457.094727 44.0
1457.542969 168.0
1457.664551 84.0
1457.900146 104.0
1458.538574 140.0
1459.02832 160.0
1459.085938 188.0
1459.329224 184.0
1459.405273 196.0
1459.774292 136.0
1459.990723 120.0
1460.211304 184.0
1460.46228 96.0
1460.913818 92.0
1461.154541 92.0
1461.420776 100.0
1462.029541 48.0
1462.123657 176.0
1462.608032 192.0
1462.793213 180.0
1463.255127 52.0
1463.407349 120.0
1463.620483 56.0
1463.721924 156.0
1463.902222 136.0
1463.978394 168.0
1464.29834 180.0
1464.869507 76.0
1465.357178 132.0
1465.966675 132.0
1466.11438 116.0
1466.263916 136.0
1466.629761 124.0
1467.231934 84.0
1467.407349 124.0
1467.514038 68.0
1467.8302 200.0
1467.910522 136.0
1467.986816 48.0
1468.505371 80.0
1468.589355 116.0
1468.749512 68.0
1469.069824 144.0
1469.13855 144.0
1469.207153 84.0
1470.550171 132.0
1470.847778 148.0
1471.015747 64.0
1471.092163 144.0
1471.649414 104.0
1471.72583 44.0
1471.779175 68.0
1471.985352 228.0
1472.038818 128.0
1472.222168 220.0
1472.405396 60.0
1472.466553 100.0
1472.762451 140.0
1472.924805 96.0
1473.268555 264.0
1474.334473 148.0
1474.506348 116.0
1474.620972 64.0
1475.769043 232.0
1476.127075 116.0
1476.318237 136.0
1476.570557 204.0
1476.631836 128.0
1476.761841 140.0
1477.205444 116.0
1477.266602 88.0
1477.473145 68.0
1477.67981 164.0
1477.939941 160.0
1478.200073 132.0
1478.444946 96.0
1478.605713 152.0
1478.934814 208.0
1479.485962 152.0
1479.914673 120.0
1479.983521 176.0
1480.037109 108.0
1480.251587 136.0
1480.578979 100.0
1480.917847 128.0
1481.063354 72.0
1481.178223 200.0
1482.151245 112.0
1482.258545 116.0
1482.315186 100.0
1482.626343 116.0
1482.695312 76.0
1483.109131 216.0
1483.569092 136.0
1483.829834 104.0
1484.025269 144.0
1484.232178 164.0
1484.427856 80.0
1484.588867 120.0
1484.841919 40.0
1484.995361 112.0
1485.102783 152.0
1485.455566 64.0
1485.66272 60.0
1485.885132 180.0
1486.007935 160.0
1486.583374 92.0
1486.667847 76.0
1486.82312 52.0
1487.060913 112.0
1487.419922 128.0
1487.601807 224.0
1488.103271 152.0
1488.226074 124.0
1488.287476 88.0
1488.364258 172.0
1488.617676 52.0
1488.917114 128.0
1489.147583 216.0
1489.35498 164.0
1490.169312 172.0
1490.299927 172.0
1490.39209 112.0
1490.584229 48.0
1490.707153 100.0
1490.814697 208.0
1491.137451 72.0
1491.567871 168.0
1491.898438 48.0
1492.328979 52.0
1493.484009 140.0
1493.605591 56.0
1493.867065 124.0
1493.967163 104.0
1494.230469 192.0
1494.542236 192.0
1494.982788 44.0
1495.280273 128.0
1495.721558 124.0
1496.05835 192.0
1496.499146 232.0
1496.722412 136.0
1496.791748 96.0
1496.914917 96.0
1497.064697 136.0
1497.197021 168.0
1497.415527 136.0
1497.515625 64.0
1497.885986 52.0
1497.939331 180.0
1498.047363 156.0
1498.138672 144.0
1498.554077 180.0
1498.725098 168.0
1498.779053 144.0
1498.933105 140.0
1499.518799 72.0
1499.696167 164.0
1499.940918 260.0
1500.212524 100.0
1500.335938 104.0
1501.137817 132.0
1501.230347 96.0
1501.35376 220.0
1501.692993 92.0
1501.785645 240.0
1501.893555 44.0
1501.993896 88.0
1502.749878 216.0
1503.073975 52.0
1503.374878 124.0
1503.498413 96.0
1503.625366 200.0
1503.845703 76.0
1504.115845 108.0
