>compound Genipin
>formula C11H14O5
>ionization [M+H]+
>parentmass 227.091
#inchi InChI=1S/C11H14O5/c1-15-10(13)8-5-16-11(14)9-6(4-12)2-3-7(8)9/h2,5,7,9,11-12,14H,3-4H2,1H3/t7-,9-,11+/m1/s1
#inchikey AZKVWQKMDGGDSV
#Ion_Source LC-ESI
#Instrument qTof
#Compound_Source Commercial
#PI Dorrestein
#Data_Collector Garg_Neha
#Scan -1
#Precursor_MZ 227.091
#ExactMass 226.084
#Charge 1
#CAS_Number 6902-77-8, 1202641-87-9
#Pubmed_ID N/A
#Smiles O1C=C([C@@]2([C@]([C@H]1O)(C(=CC2)CO)[H])[H])C(=O)OC
#INCHI_AUX N/A
#Library_Class 1
#SpectrumID CCMSLIB00000078468
#IonMode Positive
#UpdateWorkflowName UPDATE-SINGLE-ANNOTATED-GOLD
#LibraryQualityString Gold
#TaskID 77f51c88eb8b467eb4a01dd2d0cb90d2
##Scan# 997
#SpectrumFile Plate7_41_60_GD4_01_15769.mzXML
#LibraryName FDALibrary_2_04302014.mgf
#MQScore -1
#Organism FDALibrary_2_04302014
#TIC_Query 0
#RT_Query -1
#MZErrorPPM -1
#SharedPeaks 0
#MassDiff 0
#LibMZ -1
#SpecMZ 227.091
#SpecCharge 0
#internalFilename spec-00000.mgf

>collision 10
45.492477 148.0
56.449608 232.0
58.532154 148.0
60.81995 148.0
61.439304 192.0
89.643661 284.0
91.052155 292.0
103.054001 248.0
104.684311 160.0
105.069656 328.0
107.532036 172.0
110.491196 172.0
111.758469 220.0
114.95401 168.0
119.04435 156.0
120.054115 156.0
121.064651 1756.0
122.072128 156.0
122.520065 152.0
131.051498 128.0
132.042831 168.0
133.065857 152.0
134.061264 184.0
135.113998 820.0
142.208694 160.0
143.014465 164.0
145.930679 140.0
145.957138 144.0
147.042282 144.0
148.051788 168.0
149.024521 232.0
149.05928 3252.0
150.064209 176.0
152.142212 796.0
155.04425 184.0
158.032501 148.0
159.039612 288.0
160.04393 268.0
161.539658 200.0
162.030792 172.0
163.078842 148.0
167.959351 144.0
177.053375 1700.0
178.05661 352.0
181.083878 288.0
191.070984 1124.0
192.069977 200.0
192.979233 156.0
194.064606 188.0
200.857925 156.0
204.95752 144.0
206.55632 160.0
209.082031 152.0
227.945038 172.0
228.552444 176.0
229.136566 164.0
230.023804 1728.0
239.076004 148.0
1271.681396 168.0
1290.767334 156.0
1694.947266 188.0
1809.23645 140.0
1871.350708 164.0
1886.007812 144.0
1973.205811 168.0
2001.171997 160.0
