>compound MLS000028603-01!SULFAMETHIZOLE
>formula C9H10N4O2S2
>ionization [M+H]+
>parentmass 271.03179401209053
#inchi InChI=1S/C9H10N4O2S2/c1-6-11-12-9(16-6)13-17(14,15)8-4-2-7(10)3-5-8/h2-5H,10H2,1H3,(H,12,13)
#inchikey VACCAVUAMIDAGB
#Ion_Source LC-ESI
#Instrument qTof
#Compound_Source NIH Pharmacologically Active Library
#PI Dorrestein
#Data_Collector VP/LMS
#Scan -1
#Precursor_MZ 271.035
#ExactMass 270.025
#Charge 1
#CAS_Number N/A
#Pubmed_ID N/A
#Smiles Cc1nnc(NS(=O)(=O)c2ccc(N)cc2)s1
#INCHI_AUX N/A
#Library_Class 1
#SpectrumID CCMSLIB00000086149
#IonMode Positive
#UpdateWorkflowName UPDATE-SINGLE-ANNOTATED-GOLD
#LibraryQualityString Gold
#TaskID d252d724072548979f1f6f1ced849daf
##Scan# 1292
#SpectrumFile p5-G02_GG2_01_18471.mzXML
#LibraryName Pharm_Active_Library.mgf
#MQScore -1
#Organism Pharm_Active_Library
#TIC_Query 0
#RT_Query -1
#MZErrorPPM -1
#SharedPeaks 0
#MassDiff 0
#LibMZ -1
#SpecMZ 271.035
#SpecCharge 0
#internalFilename spec-00000.mgf

>collision 10
45.919178 112.0
46.285408 116.0
46.387016 184.0
46.481956 164.0
47.17384 108.0
48.377552 88.0
50.06147 140.0
51.473885 184.0
53.432762 76.0
53.991432 180.0
54.65007 180.0
55.08498 136.0
55.89299 124.0
56.784847 144.0
57.094231 128.0
59.099682 180.0
60.642761 132.0
61.64658 200.0
63.152733 204.0
64.459557 140.0
64.667458 212.0
68.179016 164.0
68.305618 80.0
68.692726 132.0
68.82476 188.0
69.075966 188.0
70.927666 140.0
71.004791 168.0
71.216263 228.0
71.325478 140.0
73.484734 124.0
73.775063 144.0
74.386627 172.0
75.608665 112.0
75.974274 116.0
77.321205 184.0
77.915634 160.0
78.237465 176.0
78.604073 132.0
79.4711 112.0
79.625534 200.0
80.166359 184.0
80.73584 248.0
81.300148 180.0
84.189545 164.0
84.818932 160.0
85.0886 192.0
85.140015 56.0
86.591461 88.0
87.415733 200.0
87.751007 176.0
90.129143 172.0
90.157486 144.0
90.700676 112.0
91.462372 132.0
91.66996 140.0
91.881607 196.0
92.049866 1360.0
92.072487 128.0
93.048157 384.0
93.571999 64.0
95.505234 188.0
96.525208 128.0
96.56823 220.0
97.875229 176.0
99.000801 300.0
100.027283 180.0
100.751167 128.0
101.119095 140.0
104.06633 168.0
104.358902 124.0
104.379242 208.0
105.975426 192.0
106.625931 184.0
107.466095 144.0
107.577538 160.0
107.596123 108.0
108.01149 136.0
108.044762 5896.0
108.083893 44.0
108.1791 112.0
108.25985 48.0
108.402786 104.0
108.440094 64.0
108.493988 88.0
108.587296 88.0
108.711769 80.0
109.047455 544.0
109.241585 84.0
109.291519 152.0
109.628853 244.0
110.0513 164.0
110.083626 52.0
110.878586 212.0
111.182678 64.0
111.916313 64.0
113.968018 200.0
114.979523 220.0
115.0158 104.0
115.719131 52.0
116.027267 1036.0
116.098404 60.0
117.035301 192.0
118.023529 148.0
124.210899 180.0
137.540268 72.0
152.012283 220.0
156.012497 1008.0
156.078262 28.0
156.254852 56.0
156.583435 92.0
157.014587 152.0
158.008759 128.0
161.758484 184.0
167.354813 84.0
168.076523 124.0
170.0952 128.0
171.106796 176.0
172.107635 184.0
173.368484 32.0
173.601791 32.0
173.969131 116.0
177.974289 168.0
182.097534 96.0
183.103409 56.0
184.049942 124.0
184.112045 284.0
184.655258 72.0
185.118042 104.0
198.123917 124.0
199.127289 124.0
199.934174 132.0
201.081207 168.0
212.147095 184.0
217.886597 100.0
219.03978 136.0
229.130295 140.0
243.841354 80.0
247.475555 196.0
271.177032 148.0
274.17984 164.0
352.30368 20.0
362.178253 48.0
732.990295 100.0
786.419373 228.0
786.480774 68.0
800.260315 188.0
921.583252 76.0
973.799194 144.0
985.616882 180.0
996.990479 160.0
1012.757019 200.0
1028.947266 192.0
1097.153687 184.0
1099.73291 156.0
1120.681885 148.0
1122.008179 176.0
1128.009644 80.0
1128.410767 84.0
1131.421387 188.0
1179.309326 228.0
1183.352295 152.0
1197.594727 112.0
1202.593506 76.0
1211.146484 180.0
1211.479004 188.0
1215.868042 180.0
1217.13147 184.0
1226.530396 136.0
1230.157593 224.0
1231.079224 208.0
1237.421265 108.0
1242.544556 108.0
1246.905151 208.0
1267.780762 200.0
1269.893433 208.0
1277.180786 188.0
1286.651245 176.0
1290.537964 128.0
1294.416138 164.0
1304.172974 204.0
1311.111084 204.0
1315.799561 128.0
1316.059448 92.0
1321.125854 236.0
1323.318726 40.0
1324.339722 296.0
1337.714966 136.0
1337.947876 172.0
1343.4646 188.0
1344.507935 152.0
1358.365845 172.0
1362.241699 168.0
1373.695923 220.0
1383.835327 152.0
1390.729614 140.0
1418.065308 144.0
1432.085327 188.0
1438.705933 172.0
1438.90979 68.0
1443.753296 212.0
1461.511353 184.0
1468.657104 236.0
1473.443359 164.0
1482.633179 208.0
1485.370361 160.0
1498.693359 184.0
1501.052002 228.0
1501.622681 192.0
