>compound MLS002153973-01!Althiazide5588-16-9
>formula C11H14ClN3O4S3
>ionization [M+H]+
>parentmass 383.9907730600905
#inchi InChI=1S/C11H14ClN3O4S3/c1-2-3-20-6-11-14-8-4-7(12)9(21(13,16)17)5-10(8)22(18,19)15-11/h2,4-5,11,14-15H,1,3,6H2,(H2,13,16,17)
#inchikey VGLGVJVUHYTIIU
#Ion_Source LC-ESI
#Instrument qTof
#Compound_Source NIH Pharmacologically Active Library
#PI Dorrestein
#Data_Collector VP/LMS
#Scan -1
#Precursor_MZ 383.996
#ExactMass 382.983
#Charge 1
#CAS_Number N/A
#Pubmed_ID N/A
#Smiles NS(=O)(=O)c1cc2c(NC(CSCC=C)NS2(=O)=O)cc1Cl
#INCHI_AUX N/A
#Library_Class 3
#SpectrumID CCMSLIB00000086035
#IonMode Positive
#UpdateWorkflowName UPDATE-SINGLE-ANNOTATED-BRONZE
#LibraryQualityString Bronze
#TaskID d252d724072548979f1f6f1ced849daf
##Scan# 1713
#SpectrumFile p5-B05_GB5_01_18444.mzXML
#LibraryName Pharm_Active_Library.mgf
#MQScore -1
#Organism Pharm_Active_Library
#TIC_Query 0
#RT_Query -1
#MZErrorPPM -1
#SharedPeaks 0
#MassDiff 0
#LibMZ -1
#SpecMZ 383.996
#SpecCharge 0
#internalFilename spec-00000.mgf

>collision 10
45.321568 232.0
45.911682 136.0
46.088512 168.0
46.961403 200.0
46.981865 180.0
47.601875 140.0
47.832844 184.0
48.049198 108.0
50.221245 108.0
51.740318 108.0
52.563885 112.0
53.568611 160.0
53.61232 80.0
54.760914 152.0
55.045532 88.0
55.168163 136.0
55.361984 128.0
55.74025 196.0
55.793755 164.0
55.988674 108.0
56.177967 128.0
56.318279 244.0
56.662331 124.0
57.236073 156.0
58.284294 80.0
58.383099 104.0
58.74102 52.0
58.983807 128.0
59.184216 196.0
59.621391 160.0
60.080231 132.0
60.205254 72.0
62.950714 132.0
63.487167 72.0
65.79451 132.0
65.828415 176.0
66.805733 108.0
66.833389 152.0
67.168991 156.0
67.239151 212.0
67.529961 132.0
69.107536 80.0
69.418938 196.0
69.872375 152.0
70.020523 124.0
70.045509 180.0
70.082153 96.0
70.377373 148.0
70.482605 116.0
70.689949 192.0
70.934471 164.0
73.775101 140.0
74.20652 236.0
74.369484 160.0
74.615128 168.0
75.016235 180.0
75.288841 108.0
75.60347 136.0
76.702873 148.0
76.941856 116.0
77.08683 188.0
77.193459 168.0
77.464737 80.0
78.450562 180.0
78.609291 164.0
78.716972 124.0
78.814117 80.0
78.996216 116.0
79.300766 152.0
79.563293 116.0
80.310654 168.0
80.419495 136.0
80.948662 52.0
81.052551 168.0
82.819855 196.0
83.627823 148.0
83.961227 188.0
84.972748 172.0
85.031471 44.0
85.950966 276.0
86.693085 116.0
89.16021 160.0
89.538353 84.0
90.579041 164.0
90.955734 260.0
92.345383 28.0
93.04863 212.0
93.148491 176.0
93.519585 192.0
94.310371 40.0
94.480537 84.0
94.749634 148.0
96.378098 152.0
96.927925 88.0
97.143585 132.0
97.222061 132.0
97.744766 72.0
98.008614 176.0
98.164337 156.0
99.026245 404.0
99.048203 196.0
99.081436 176.0
99.356995 148.0
99.992844 164.0
100.028671 136.0
100.363365 196.0
100.445129 292.0
100.794502 180.0
101.000572 152.0
103.028694 192.0
103.649818 184.0
103.98645 172.0
104.278908 44.0
104.33786 184.0
104.958443 180.0
106.034096 184.0
106.050491 168.0
106.263756 64.0
106.952171 132.0
107.090118 180.0
108.083084 180.0
108.549141 208.0
109.480095 48.0
109.919937 164.0
109.972107 136.0
110.010391 152.0
110.049347 188.0
110.630539 112.0
111.020248 156.0
111.505203 164.0
112.00174 164.0
112.069153 184.0
112.531044 212.0
112.976967 200.0
113.006584 156.0
113.975487 148.0
114.011894 488.0
114.132835 144.0
114.27108 196.0
114.788658 168.0
115.047951 196.0
115.345879 40.0
115.55545 152.0
116.008545 220.0
116.558891 188.0
116.724403 52.0
116.956749 168.0
116.99334 208.0
117.045853 336.0
117.357437 136.0
117.460953 156.0
118.052719 160.0
118.47261 160.0
118.507271 180.0
119.475555 136.0
119.991692 156.0
120.473991 176.0
121.049202 116.0
121.073296 184.0
121.465614 76.0
121.509483 184.0
122.003609 128.0
122.060776 236.0
122.29837 152.0
122.553818 128.0
122.990456 176.0
123.008118 160.0
123.996178 740.0
125.033936 124.0
125.992722 180.0
126.012833 88.0
126.375023 148.0
127.413055 136.0
127.754761 116.0
128.162262 196.0
128.214081 96.0
128.952072 180.0
129.025925 448.0
129.045456 132.0
129.959778 136.0
130.005966 344.0
130.486694 152.0
131.018478 404.0
131.062515 144.0
131.40451 212.0
131.434174 84.0
131.637329 128.0
131.968643 156.0
132.004669 264.0
132.076126 176.0
132.277481 236.0
132.942139 184.0
132.997208 160.0
134.006058 388.0
134.048218 144.0
135.004288 204.0
135.061722 160.0
135.997787 132.0
136.132431 156.0
136.813675 160.0
136.981339 128.0
137.018539 120.0
138.010757 232.0
138.628479 176.0
138.996292 168.0
139.680283 200.0
139.842636 148.0
139.990952 256.0
140.127563 108.0
140.589722 216.0
141.010086 212.0
141.052628 196.0
141.423981 200.0
141.646545 108.0
141.748428 200.0
141.977631 220.0
142.005463 320.0
142.070877 176.0
142.866684 92.0
142.995178 108.0
143.385757 152.0
143.702896 64.0
143.970566 144.0
144.004059 244.0
144.378891 160.0
145.004395 196.0
145.041458 168.0
145.884628 144.0
145.980804 220.0
146.015533 196.0
146.052063 208.0
146.823654 200.0
147.01088 72.0
147.0625 104.0
147.412674 132.0
147.540771 168.0
147.988358 212.0
148.010391 232.0
148.890396 220.0
149.016174 356.0
149.135773 44.0
149.279205 128.0
150.000031 116.0
150.036423 156.0
150.492645 172.0
150.729584 156.0
150.849335 64.0
151.011246 492.0
151.740417 108.0
152.008621 140.0
152.01564 176.0
153.000366 312.0
153.006393 240.0
153.017242 160.0
153.190353 200.0
153.898148 136.0
153.954941 184.0
154.005417 168.0
154.07103 176.0
154.966614 200.0
155.00177 340.0
155.075653 152.0
155.135147 216.0
155.643738 148.0
155.959 144.0
155.984955 1644.0
156.123322 64.0
156.29248 68.0
156.364639 84.0
156.977631 120.0
157.018188 920.0
157.191986 28.0
157.713943 100.0
157.913971 208.0
157.958984 148.0
157.995621 528.0
158.024033 172.0
158.166672 108.0
158.314377 220.0
159.012558 660.0
159.395538 152.0
159.581528 140.0
159.699722 48.0
159.820465 144.0
159.963928 64.0
159.999176 644.0
160.019302 160.0
160.049515 164.0
160.407257 56.0
160.954712 116.0
160.972397 148.0
161.018265 596.0
161.096146 148.0
161.116364 144.0
161.457581 180.0
161.897919 156.0
161.951111 120.0
161.984039 112.0
162.027466 284.0
162.887054 76.0
162.997681 152.0
163.031265 576.0
163.29628 136.0
163.573608 96.0
163.634705 152.0
163.993881 128.0
164.035873 176.0
164.116241 76.0
164.197845 48.0
164.409592 96.0
164.682755 216.0
164.889709 112.0
165.016525 316.0
165.455002 228.0
165.993042 112.0
166.030411 856.0
166.629578 120.0
166.999054 104.0
167.008942 76.0
167.016418 148.0
167.046036 196.0
167.96904 168.0
168.003189 164.0
168.033173 216.0
168.13591 64.0
168.717072 64.0
168.758438 60.0
168.975128 704.0
169.035629 168.0
169.278519 76.0
169.983124 388.0
170.354858 164.0
170.990112 236.0
171.661392 200.0
171.962372 372.0
172.01622 256.0
172.925812 144.0
172.971634 196.0
173.011185 404.0
173.148346 48.0
173.95433 180.0
173.97789 212.0
174.012756 208.0
174.544403 132.0
174.683792 100.0
174.939041 176.0
175.001556 220.0
175.824646 56.0
175.938263 164.0
176.035828 232.0
176.561707 188.0
177.006287 160.0
177.037476 164.0
177.041412 224.0
178.019226 136.0
178.9944 220.0
179.029739 120.0
179.95874 360.0
180.256821 236.0
180.97641 304.0
181.01918 96.0
181.110245 140.0
181.740219 80.0
181.764374 176.0
181.850235 140.0
181.87439 104.0
181.95224 124.0
181.983002 1596.0
182.038162 120.0
182.086502 244.0
182.981003 196.0
183.14888 212.0
183.545029 152.0
183.982101 424.0
184.027161 176.0
184.190796 228.0
184.460236 140.0
184.911942 196.0
184.975372 272.0
185.003845 180.0
185.971649 48.0
186.262177 108.0
186.969543 324.0
187.045288 120.0
187.789124 200.0
187.909149 172.0
187.949295 216.0
187.970047 184.0
188.027756 132.0
188.054367 344.0
188.192993 68.0
188.755859 36.0
188.950958 300.0
188.987152 180.0
189.021179 140.0
189.056747 180.0
189.927979 140.0
189.954941 180.0
189.977356 384.0
190.045135 204.0
190.540131 112.0
190.941452 308.0
192.023804 188.0
193.00589 944.0
194.007446 232.0
194.028519 76.0
194.43071 60.0
194.733322 156.0
194.98674 112.0
195.008377 140.0
195.111221 112.0
195.784576 188.0
195.965958 140.0
196.035294 148.0
196.993729 1116.0
197.943176 40.0
197.975555 1152.0
198.203674 144.0
198.55687 160.0
198.868301 216.0
198.952042 120.0
198.971283 352.0
198.991257 668.0
199.970993 472.0
200.68837 40.0
200.961182 428.0
202.375122 144.0
202.831223 124.0
202.958191 112.0
203.032455 168.0
203.933273 144.0
203.943756 152.0
203.954575 524.0
203.975952 212.0
204.541183 100.0
204.905685 108.0
204.945587 88.0
204.983673 2888.0
205.127182 72.0
205.187836 44.0
205.273376 80.0
205.567184 108.0
205.929749 176.0
205.982727 304.0
206.312637 68.0
206.572861 48.0
206.924866 40.0
206.979233 1000.0
207.239899 64.0
207.331604 156.0
207.646957 100.0
207.859238 36.0
207.948196 160.0
207.970627 128.0
208.007263 160.0
208.10321 52.0
208.140533 144.0
208.804352 140.0
209.299301 112.0
209.961685 148.0
210.002457 164.0
211.172165 80.0
211.797348 44.0
211.997253 124.0
212.020432 92.0
212.176956 120.0
212.969543 472.0
213.965668 160.0
213.971954 112.0
213.98175 144.0
214.960434 176.0
215.57074 172.0
215.921539 136.0
215.959564 136.0
215.988815 196.0
216.943817 144.0
216.98468 196.0
217.013763 52.0
217.826675 76.0
217.997086 192.0
218.132278 112.0
219.062134 152.0
219.931992 112.0
220.73555 140.0
220.898209 224.0
220.977615 1840.0
221.043182 68.0
221.223724 112.0
221.262207 44.0
221.979874 176.0
222.935074 80.0
222.975693 664.0
224.003174 184.0
224.990234 316.0
225.049942 112.0
225.297821 44.0
225.983871 312.0
226.153015 52.0
226.59021 104.0
226.991623 220.0
228.57785 84.0
228.984421 660.0
229.991943 168.0
230.994812 132.0
231.088226 148.0
231.239517 140.0
231.930084 120.0
231.978577 136.0
231.999802 176.0
232.94342 192.0
232.955322 184.0
232.983582 324.0
233.232208 248.0
233.931824 116.0
234.972626 552.0
236.780548 304.0
236.958008 180.0
237.568283 80.0
237.918121 164.0
238.004089 172.0
238.941132 180.0
239.079956 88.0
240.973297 392.0
241.981445 184.0
242.990265 148.0
244.010468 232.0
244.975189 96.0
245.00322 132.0
245.948059 184.0
246.006393 240.0
246.944748 196.0
247.938065 188.0
248.009415 184.0
248.78093 92.0
248.957428 2512.0
249.038406 92.0
249.964172 212.0
250.541977 172.0
250.617584 32.0
250.955383 548.0
251.645782 84.0
251.950867 180.0
252.950867 824.0
253.954788 424.0
254.349274 68.0
254.90506 160.0
254.94632 872.0
255.770096 164.0
255.954742 208.0
256.658905 132.0
256.990631 168.0
257.919922 56.0
257.981659 388.0
258.971863 196.0
259.924713 244.0
259.965027 268.0
260.088379 92.0
260.907501 128.0
260.954498 1688.0
261.425354 116.0
261.621674 92.0
261.882507 220.0
261.963379 2944.0
262.033905 40.0
262.133789 64.0
262.209442 60.0
262.253021 52.0
262.530273 40.0
262.688324 60.0
262.807678 80.0
262.960449 640.0
263.036804 56.0
263.912292 140.0
263.961945 1484.0
264.015778 40.0
264.271301 140.0
264.643524 92.0
264.948944 336.0
265.158569 72.0
265.735748 76.0
266.044067 48.0
266.914917 488.0
266.946167 152.0
268.291962 80.0
268.496338 188.0
268.898682 152.0
268.947449 1032.0
269.01944 164.0
269.577942 52.0
269.952057 180.0
270.061798 80.0
270.940338 132.0
271.991669 68.0
273.958069 132.0
274.792145 60.0
275.966217 504.0
276.460754 128.0
276.948456 800.0
277.295319 44.0
277.603638 72.0
277.955322 152.0
278.855194 44.0
278.943878 264.0
278.97818 164.0
279.966339 256.0
280.89624 140.0
280.943573 540.0
281.139801 128.0
281.206543 192.0
281.420166 120.0
281.750824 40.0
281.86441 100.0
281.94046 180.0
282.068268 84.0
282.934357 424.0
283.942261 204.0
285.969421 172.0
286.957275 288.0
287.941437 144.0
287.96582 164.0
288.002228 132.0
288.952545 488.0
288.999481 112.0
297.949219 112.0
297.976715 120.0
298.973877 160.0
299.968414 132.0
300.997345 96.0
301.98764 108.0
302.909851 128.0
302.986053 144.0
306.885529 136.0
306.976929 384.0
317.970001 160.0
320.947449 184.0
320.993774 64.0
323.920837 96.0
324.920105 232.0
326.904327 220.0
331.193298 164.0
332.226379 208.0
332.955933 84.0
341.931305 116.0
342.229462 64.0
342.933075 108.0
343.917847 72.0
343.943695 112.0
351.275909 92.0
359.247345 184.0
373.221222 144.0
382.175385 132.0
387.234528 100.0
415.711182 52.0
433.757812 32.0
455.856171 168.0
570.972595 40.0
593.482666 20.0
593.567505 64.0
811.149231 60.0
815.559509 108.0
1008.46521 224.0
1066.26062 32.0
1103.024536 164.0
1113.765381 172.0
1119.232422 52.0
1124.491455 176.0
1190.724121 136.0
1192.909058 172.0
1224.182129 164.0
1253.948975 228.0
1271.452759 256.0
1271.985107 172.0
1298.276489 144.0
1311.259888 112.0
1338.52002 164.0
1348.49231 148.0
1349.88855 208.0
1358.750977 144.0
1371.420898 112.0
1387.253784 208.0
1390.049805 136.0
1398.127441 168.0
1402.156372 220.0
1405.646362 128.0
1437.628662 48.0
1459.01062 172.0
1466.904663 132.0
1467.750977 268.0
1473.971802 176.0
1483.301758 180.0
1491.944458 216.0
1493.63623 132.0
