>compound MLS001076853-01!
>formula C21H23N3O4S
>ionization [M+H]+
>parentmass 414.149
#inchi InChI=1S/C21H23N3O4S/c1-27-17-7-6-14(9-18(17)28-2)20(26)22-21(29)23-10-13-8-15(12-23)16-4-3-5-19(25)24(16)11-13/h3-7,9,13,15H,8,10-12H2,1-2H3,(H,22,26,29)/t13-,15-/m1/s1
#inchikey DSNBJZDRWMZWQT
#Ion_Source LC-ESI
#Instrument qTof
#Compound_Source NIH Natural Product Library
#PI Dorrestein
#Data_Collector VVP/LMS
#Scan -1
#Precursor_MZ 414.149
#ExactMass 413.141
#Charge 1
#CAS_Number N/A
#Pubmed_ID N/A
#Smiles COc1ccc(cc1OC)C(=O)NC(=S)N2C[C@H]3C[C@H](C2)c4cccc(=O)n4C3
#INCHI_AUX N/A
#Library_Class 1
#SpectrumID CCMSLIB00000080515
#IonMode Positive
#UpdateWorkflowName UPDATE-SINGLE-ANNOTATED-GOLD
#LibraryQualityString Gold
#TaskID b1d8e8f6646f4e71acdff9ca3d919d08
##Scan# 1676
#SpectrumFile p2-A10_GA10_01_17986.mzXML
#LibraryName NIH_Natural_Products_Library.mgf
#MQScore -1
#Organism NIH_Natural_Products_Library
#TIC_Query 0
#RT_Query -1
#MZErrorPPM -1
#SharedPeaks 0
#MassDiff 0
#LibMZ -1
#SpecMZ 414.149
#SpecCharge 0
#internalFilename spec-00000.mgf

>collision 10
95.011284 220.0
95.038445 148.0
95.057846 172.0
95.073372 212.0
95.251999 204.0
95.376366 176.0
95.485245 140.0
95.533875 152.0
95.617546 176.0
95.775253 404.0
95.87072 160.0
95.919449 172.0
96.013039 152.0
96.048141 120.0
96.069603 148.0
96.163261 172.0
96.379211 172.0
96.573578 116.0
96.685097 156.0
96.722282 140.0
96.747734 108.0
96.910286 184.0
97.025307 164.0
97.038124 144.0
97.178902 160.0
97.237778 216.0
97.392113 192.0
97.447891 212.0
97.479332 192.0
97.536331 196.0
97.571716 220.0
97.719223 184.0
97.79203 172.0
97.855026 156.0
97.98304 168.0
98.014572 140.0
98.036247 640.0
98.071724 224.0
98.253143 128.0
98.272873 160.0
98.596718 108.0
98.820168 192.0
99.046501 196.0
99.666824 196.0
99.885513 64.0
100.331589 224.0
100.481163 192.0
100.521072 244.0
100.566978 164.0
100.758682 176.0
100.804634 116.0
100.87059 196.0
100.966568 184.0
101.008568 124.0
101.12262 136.0
101.196686 160.0
101.539352 44.0
101.662529 192.0
101.723953 144.0
101.858498 136.0
102.28479 128.0
102.335121 172.0
102.437836 220.0
102.552689 72.0
102.639374 192.0
102.768471 224.0
102.817093 188.0
102.919853 196.0
102.971268 192.0
102.996597 168.0
103.065285 148.0
103.083473 180.0
103.107719 128.0
103.320038 180.0
103.407051 200.0
103.483971 52.0
103.5103 128.0
103.629807 164.0
103.680466 160.0
103.749382 176.0
103.909599 180.0
103.99572 128.0
104.021217 132.0
104.050316 168.0
104.064758 184.0
104.086189 132.0
104.523224 100.0
104.563919 172.0
104.614807 36.0
104.67054 140.0
104.832985 152.0
104.857201 168.0
104.948936 168.0
104.989723 152.0
105.03566 960.0
105.075394 76.0
105.177429 168.0
105.293808 152.0
105.312187 320.0
105.348961 116.0
105.444992 180.0
105.489967 148.0
105.511757 200.0
105.565613 128.0
105.667885 88.0
105.837769 176.0
105.862343 152.0
105.909447 100.0
106.013939 176.0
106.040581 164.0
106.190254 136.0
106.214867 192.0
106.520721 176.0
106.586464 52.0
106.615234 124.0
106.812614 52.0
107.01358 528.0
107.05098 664.0
107.071274 108.0
107.086372 152.0
107.125511 200.0
107.139931 136.0
107.275948 92.0
107.579193 108.0
107.634941 220.0
107.738213 136.0
107.938576 200.0
108.040047 188.0
108.068298 220.0
108.104187 108.0
108.118675 136.0
108.317444 208.0
108.33194 156.0
108.532982 208.0
108.665726 144.0
108.88784 188.0
109.028839 704.0
109.06488 3048.0
109.205841 84.0
109.23288 136.0
109.265854 108.0
109.382706 84.0
109.453491 176.0
109.48056 56.0
109.538879 40.0
109.711845 116.0
109.749374 220.0
109.947548 168.0
110.034424 356.0
110.066689 436.0
110.375793 160.0
110.402977 164.0
110.490829 40.0
110.520126 224.0
110.547325 136.0
110.666641 188.0
110.708519 128.0
110.849083 80.0
110.941101 172.0
110.95787 200.0
111.007225 688.0
111.045715 188.0
111.207497 204.0
111.274673 176.0
111.612953 176.0
111.629776 148.0
111.729691 232.0
111.77282 196.0
111.793861 184.0
112.202499 200.0
112.229904 68.0
112.284737 128.0
112.404984 164.0
112.468491 176.0
112.510513 124.0
112.605537 108.0
112.630882 96.0
112.677361 112.0
112.704826 216.0
112.7323 76.0
112.876045 48.0
112.909882 124.0
112.98391 140.0
113.058853 144.0
113.195572 224.0
113.318428 152.0
113.362923 40.0
113.483894 224.0
113.507721 100.0
113.579178 72.0
113.640701 224.0
113.66404 60.0
113.708611 56.0
114.052689 196.0
114.095207 180.0
114.175232 120.0
114.37175 128.0
114.520798 156.0
114.603882 252.0
114.648628 156.0
114.819183 200.0
115.500526 132.0
116.190323 136.0
116.237526 168.0
116.282593 108.0
116.514511 84.0
116.591866 192.0
116.626251 204.0
116.826233 200.0
116.910149 256.0
116.998398 180.0
117.064896 104.0
117.172844 184.0
117.213783 108.0
117.303963 200.0
117.651627 156.0
117.800636 208.0
117.906509 208.0
117.967026 204.0
118.02108 128.0
118.144356 136.0
118.176811 164.0
118.330482 160.0
118.37812 168.0
118.484253 192.0
118.541649 212.0
118.557922 192.0
118.616447 288.0
118.961357 128.0
118.980896 96.0
119.056892 140.0
119.087303 164.0
119.124176 164.0
119.127144 140.0
119.135452 192.0
119.178543 168.0
119.317642 216.0
119.380699 136.0
119.51992 144.0
119.561264 184.0
119.591736 44.0
119.877037 180.0
120.081657 112.0
120.143044 88.0
120.20414 156.0
120.221596 72.0
120.324188 192.0
120.44648 164.0
120.522942 192.0
120.635437 172.0
120.732803 108.0
120.750298 132.0
120.84436 176.0
120.896881 136.0
121.029549 1368.0
121.093918 188.0
121.15744 92.0
121.179352 156.0
121.229744 148.0
121.473122 188.0
121.661842 92.0
121.815567 180.0
121.912247 168.0
122.002365 168.0
122.037025 7080.0
122.095551 168.0
122.385185 28.0
122.62751 92.0
122.660576 64.0
122.696701 176.0
122.98262 72.0
123.041733 428.0
123.19239 144.0
123.23838 172.0
123.319672 220.0
123.493019 212.0
123.762848 116.0
123.809509 176.0
123.922478 132.0
123.98896 116.0
124.043221 124.0
124.237297 188.0
124.352684 84.0
124.370445 176.0
124.552521 128.0
124.837006 240.0
124.854797 140.0
124.932648 164.0
124.966019 224.0
124.990494 164.0
125.061714 176.0
125.31974 212.0
125.551559 144.0
125.667862 132.0
125.783913 80.0
125.989365 116.0
126.032761 1560.0
126.476852 152.0
126.658226 184.0
126.729912 164.0
126.768005 180.0
126.889046 88.0
126.933891 192.0
127.032166 216.0
127.068474 148.0
127.133545 152.0
127.16272 160.0
127.265984 56.0
127.299667 116.0
127.349075 88.0
127.414223 212.0
127.49511 48.0
127.841438 68.0
127.859444 196.0
127.904457 192.0
128.035049 120.0
128.050812 144.0
128.068832 200.0
128.269379 248.0
128.456543 156.0
128.901321 168.0
128.998505 192.0
129.057281 172.0
129.071991 152.0
129.174896 180.0
129.274445 176.0
129.412521 156.0
129.489517 188.0
129.561996 176.0
129.715363 172.0
129.897507 116.0
130.064178 308.0
130.149429 184.0
130.206207 188.0
130.399323 160.0
130.456146 184.0
130.599396 256.0
130.617599 48.0
130.849716 200.0
131.073593 124.0
131.104843 136.0
131.458313 180.0
131.494827 212.0
131.624954 204.0
131.76886 144.0
131.976852 232.0
132.042099 204.0
132.080261 144.0
132.13237 108.0
132.217834 112.0
132.27655 236.0
132.457443 152.0
132.67305 144.0
132.803574 144.0
132.828796 168.0
133.051147 660.0
133.088135 132.0
133.248917 116.0
133.453461 52.0
133.493103 68.0
133.738724 176.0
133.777863 108.0
133.867661 172.0
133.916016 48.0
134.005859 156.0
134.061279 344.0
134.084213 220.0
134.224838 112.0
134.289413 204.0
134.347076 196.0
134.377075 148.0
134.494766 84.0
134.522461 44.0
134.540924 148.0
134.559402 220.0
134.730301 132.0
134.866638 124.0
135.0448 448.0
135.070831 144.0
135.125641 40.0
135.255234 188.0
135.990005 36.0
136.048752 160.0
136.071259 200.0
136.087509 224.0
136.131622 44.0
136.208267 240.0
136.398819 132.0
136.424377 200.0
136.568558 192.0
136.640671 196.0
136.770981 144.0
136.7966 128.0
136.86644 168.0
136.893478 124.0
136.938629 96.0
136.978226 52.0
137.025757 472.0
137.060272 8492.0
137.101715 176.0
137.152985 28.0
137.199615 168.0
137.27684 164.0
137.388519 156.0
137.470184 168.0
137.690155 140.0
137.745682 52.0
137.797073 36.0
137.884476 204.0
137.930283 248.0
138.023804 100.0
138.066925 664.0
138.097763 180.0
138.185196 80.0
138.339661 216.0
138.388824 188.0
138.412231 296.0
138.454391 128.0
138.534027 180.0
138.587906 36.0
138.639465 176.0
138.662903 88.0
138.784805 156.0
138.876266 64.0
138.972443 84.0
138.990784 176.0
139.00412 288.0
139.031113 168.0
139.381012 140.0
139.463257 160.0
139.522034 192.0
139.625488 156.0
139.764282 148.0
140.049057 120.0
140.372025 192.0
140.645691 128.0
140.766098 132.0
140.836945 128.0
141.056427 488.0
141.125549 200.0
141.224335 168.0
141.371277 96.0
141.416245 172.0
141.558289 136.0
141.693298 80.0
141.726471 72.0
141.863266 212.0
141.928619 168.0
142.025177 136.0
142.058395 120.0
142.074997 68.0
142.096344 28.0
142.385941 132.0
142.428696 132.0
142.488083 152.0
142.721008 112.0
142.851822 80.0
143.208878 60.0
143.22554 176.0
143.246979 208.0
143.266037 116.0
143.325607 156.0
143.611679 112.0
143.766769 124.0
144.079559 332.0
144.30661 160.0
144.399872 128.0
144.419006 176.0
144.47641 88.0
144.543411 156.0
144.619995 176.0
144.672653 196.0
145.059082 192.0
145.101486 136.0
145.37973 180.0
145.482941 44.0
145.559784 160.0
145.576584 120.0
145.744736 204.0
145.871643 196.0
146.060791 720.0
146.100296 376.0
146.139069 232.0
146.170349 96.0
146.313095 336.0
146.372543 132.0
146.483337 112.0
146.538742 48.0
146.625488 112.0
146.668884 220.0
146.958267 108.0
147.04274 160.0
147.065613 176.0
147.112732 204.0
147.194824 144.0
147.513748 204.0
147.566925 192.0
147.685425 160.0
147.716873 52.0
147.77977 236.0
147.813644 176.0
147.870865 124.0
147.935532 200.0
148.029083 124.0
148.048462 80.0
148.076691 12348.0
148.14534 32.0
148.201065 40.0
148.271347 72.0
148.346481 136.0
148.365875 32.0
148.474991 60.0
148.491974 32.0
148.538055 64.0
148.584152 56.0
148.605988 100.0
148.647232 36.0
148.686066 128.0
148.724167 132.0
148.797729 260.0
148.902145 148.0
148.943436 68.0
149.080322 1028.0
149.334763 156.0
149.413605 176.0
149.450867 132.0
149.588211 148.0
149.702255 176.0
150.039612 156.0
150.085434 196.0
150.127274 128.0
150.299484 88.0
150.360489 160.0
150.550919 76.0
150.633957 28.0
150.721909 68.0
150.770782 180.0
150.989777 172.0
151.326065 136.0
151.522003 132.0
151.691086 144.0
151.901978 156.0
151.980484 116.0
152.090927 208.0
152.181763 44.0
152.32666 184.0
152.533066 156.0
152.877411 100.0
153.025101 112.0
153.054489 344.0
153.150681 160.0
153.411896 72.0
153.500656 144.0
153.697983 160.0
153.737473 148.0
153.76709 104.0
153.853485 88.0
154.02623 728.0
154.068329 188.0
154.102921 156.0
154.248734 84.0
154.634598 132.0
154.674194 136.0
154.716278 108.0
155.038284 180.0
155.071075 2028.0
155.097763 112.0
155.278763 120.0
155.472275 48.0
155.529373 164.0
155.646057 168.0
155.70813 88.0
155.737946 192.0
155.839798 96.0
155.872101 164.0
156.053543 96.0
156.07962 188.0
156.110733 156.0
156.23262 44.0
156.302277 108.0
156.421738 184.0
156.546234 180.0
156.566147 172.0
156.770432 188.0
156.790375 128.0
156.865143 100.0
156.952408 196.0
157.014755 72.0
157.034698 160.0
157.087082 136.0
157.122009 272.0
157.21434 164.0
157.306686 56.0
157.40155 76.0
157.419037 124.0
157.442398 180.0
157.503952 52.0
157.663864 68.0
157.761337 196.0
157.785995 208.0
157.883865 160.0
158.033951 156.0
158.060928 356.0
158.194122 36.0
158.269424 204.0
158.655075 132.0
158.735306 152.0
159.028824 168.0
159.066803 492.0
159.297501 148.0
159.435699 132.0
159.684601 196.0
159.755035 88.0
159.800308 168.0
160.076111 4732.0
160.182983 116.0
160.208176 116.0
160.356842 144.0
160.553482 200.0
160.712418 164.0
160.858627 192.0
160.901703 108.0
161.015335 216.0
161.048172 32.0
161.082062 560.0
161.179535 156.0
161.199753 44.0
161.455078 188.0
161.576492 132.0
161.594208 192.0
161.632156 164.0
161.765701 220.0
162.042343 160.0
162.09201 664.0
162.118362 32.0
162.343643 128.0
162.409927 76.0
162.432755 124.0
162.511398 184.0
162.606522 232.0
162.739838 132.0
162.818558 124.0
163.044662 88.0
163.133636 168.0
163.204819 104.0
163.250595 48.0
163.273468 196.0
163.31163 156.0
163.352325 208.0
163.403198 196.0
163.60936 68.0
163.647537 60.0
163.838562 124.0
163.874222 212.0
163.927734 184.0
164.032227 96.0
164.093384 252.0
164.256638 100.0
164.314087 84.0
164.34848 140.0
164.427582 100.0
164.450943 212.0
164.532822 176.0
164.570923 208.0
164.616852 208.0
164.656601 188.0
164.665878 132.0
164.681702 204.0
164.7202 160.0
164.77301 144.0
164.810638 128.0
164.841293 92.0
164.869507 152.0
164.893692 208.0
164.904633 128.0
164.90979 224.0
164.933578 296.0
164.944885 168.0
164.952225 200.0
164.961594 116.0
165.005478 384.0
165.025772 312.0
165.056076 128008.0
165.102051 100.0
165.145142 80.0
165.172318 168.0
165.180893 140.0
165.188614 148.0
165.229568 104.0
165.253952 84.0
165.298172 176.0
165.324524 156.0
165.343674 72.0
165.379761 44.0
165.39975 152.0
165.429001 116.0
165.476685 688.0
165.498688 48.0
165.524475 112.0
165.553741 96.0
165.575516 136.0
165.595993 76.0
165.633957 148.0
165.694687 144.0
165.734329 36.0
165.770203 96.0
165.828537 132.0
165.854782 32.0
165.897354 260.0
165.94606 112.0
165.969147 112.0
165.989929 152.0
166.058701 14972.0
166.11377 72.0
166.137802 76.0
166.155106 216.0
166.224091 48.0
166.254898 32.0
166.307037 176.0
166.339584 124.0
166.380936 76.0
166.419174 88.0
166.439484 44.0
166.478989 76.0
166.506805 180.0
166.548935 132.0
166.558838 84.0
166.568573 124.0
166.59639 128.0
166.648895 184.0
166.670898 180.0
166.696594 88.0
166.729996 116.0
166.807114 72.0
166.852432 116.0
166.915085 124.0
166.968719 164.0
167.061218 968.0
167.108856 140.0
167.150452 104.0
167.184494 116.0
167.209518 124.0
167.2995 164.0
167.325623 72.0
167.362106 104.0
167.393326 144.0
167.441559 76.0
167.458618 144.0
167.499313 56.0
167.517349 152.0
167.617828 76.0
167.824036 52.0
167.849152 124.0
168.059753 308.0
168.146484 160.0
168.167145 56.0
168.205856 80.0
168.233307 84.0
168.267807 60.0
168.296219 28.0
168.383942 140.0
168.454422 156.0
168.787155 52.0
168.867325 120.0
168.893936 84.0
168.999268 48.0
169.307312 120.0
169.379822 160.0
170.062607 196.0
170.10849 96.0
170.474716 176.0
171.065125 188.0
171.255203 100.0
171.463638 120.0
171.502731 36.0
171.53923 36.0
172.076248 1108.0
172.222885 200.0
172.444977 180.0
172.557388 116.0
172.635834 40.0
172.743073 68.0
172.847717 124.0
172.936691 44.0
172.957642 136.0
173.041412 96.0
173.084717 164.0
173.113495 248.0
173.188065 32.0
173.235214 80.0
173.366211 112.0
173.812012 76.0
173.848755 136.0
173.916992 104.0
173.95636 68.0
174.057419 140.0
174.091736 3212.0
174.237366 120.0
174.310928 48.0
174.526474 92.0
174.579071 36.0
174.62114 48.0
174.666733 72.0
174.692169 168.0
174.726364 56.0
175.096207 628.0
175.123856 244.0
175.189713 108.0
175.263474 116.0
175.511246 88.0
175.587723 68.0
175.624649 88.0
175.867401 100.0
176.081268 48.0
176.110321 72.0
176.26355 96.0
176.594009 172.0
177.022736 156.0
177.372467 68.0
177.414886 176.0
177.435944 228.0
177.648254 112.0
178.033112 160.0
178.242981 200.0
178.777481 144.0
178.798767 36.0
179.638092 192.0
179.744812 96.0
179.838211 88.0
180.950272 116.0
181.030411 160.0
183.066177 100.0
183.467636 144.0
183.559311 148.0
183.883041 96.0
184.102127 116.0
184.39621 168.0
184.561111 80.0
184.663864 236.0
184.782898 64.0
185.075211 180.0
185.123947 144.0
185.278336 44.0
185.587311 116.0
186.10556 64.0
186.553833 100.0
187.086014 632.0
187.4711 124.0
187.656448 52.0
187.820068 176.0
188.213074 108.0
188.50206 196.0
188.773239 152.0
188.890854 92.0
188.923676 64.0
188.986603 48.0
189.107925 216.0
189.589035 76.0
190.038742 176.0
190.101852 40.0
190.280273 64.0
190.354416 116.0
190.401093 160.0
190.563171 276.0
190.744553 164.0
190.77478 72.0
190.818771 56.0
190.912674 132.0
191.00853 172.0
191.041534 192.0
191.070908 124.0
191.11908 33740.0
191.181641 48.0
191.213104 184.0
191.253418 108.0
191.27269 72.0
191.293121 76.0
191.304352 32.0
191.311707 92.0
191.371063 120.0
191.512238 68.0
191.532745 108.0
191.572296 100.0
191.597641 88.0
191.616928 88.0
191.663773 40.0
191.764389 84.0
191.966095 124.0
192.038269 148.0
192.122238 4772.0
192.193176 60.0
192.358765 48.0
192.505096 88.0
192.706741 60.0
192.842148 68.0
192.886383 48.0
192.99144 40.0
193.027374 108.0
193.120697 380.0
193.501282 148.0
193.530975 124.0
193.601471 88.0
193.716537 88.0
193.766403 196.0
193.813507 40.0
193.957626 76.0
194.021378 96.0
194.467987 100.0
194.745636 104.0
194.942886 92.0
195.098541 148.0
195.198639 76.0
195.407257 60.0
196.011459 80.0
196.044907 32.0
197.194733 212.0
199.024689 124.0
199.088257 148.0
199.60939 44.0
200.090225 196.0
200.343124 128.0
200.408829 100.0
201.1073 184.0
201.211746 56.0
201.33316 56.0
201.858795 80.0
202.03952 192.0
203.258133 80.0
203.524963 48.0
204.044067 336.0
204.349228 68.0
205.055008 156.0
206.291397 144.0
206.720413 100.0
206.863525 148.0
207.210052 80.0
208.377762 92.0
209.136948 36.0
211.445938 68.0
213.427277 108.0
215.575623 108.0
216.045471 168.0
216.11586 328.0
217.098099 324.0
217.558563 96.0
217.972687 96.0
218.00502 76.0
218.09613 132.0
219.105484 128.0
220.850098 228.0
221.59314 68.0
223.561829 108.0
224.039276 372.0
224.073975 116.0
224.193161 52.0
224.309402 152.0
224.449524 132.0
224.920898 160.0
225.34198 112.0
226.068588 60.0
227.054214 148.0
231.063538 224.0
231.917511 164.0
232.393616 156.0
232.745712 148.0
232.994766 104.0
233.075409 6384.0
233.161896 132.0
233.322998 44.0
233.465912 160.0
233.803589 68.0
233.855331 84.0
234.077377 1364.0
234.232895 112.0
234.394379 72.0
235.070526 488.0
235.26973 96.0
235.462097 48.0
237.445312 76.0
237.63858 48.0
238.479996 160.0
239.088959 108.0
242.424255 60.0
243.89537 40.0
244.489426 40.0
245.882507 108.0
248.156677 52.0
251.081131 148.0
255.359955 36.0
255.468094 96.0
257.102661 180.0
258.54718 104.0
261.876556 100.0
261.995758 124.0
271.562683 80.0
272.655975 60.0
276.081512 204.0
281.14093 52.0
284.128967 144.0
284.575348 68.0
289.681366 92.0
290.071075 204.0
291.669861 52.0
293.126495 168.0
298.322083 60.0
309.630676 40.0
310.107147 164.0
310.135193 52.0
311.163025 52.0
314.860382 120.0
324.073883 140.0
325.379395 100.0
325.803192 80.0
328.85675 60.0
336.166107 44.0
337.320251 40.0
337.393372 40.0
339.110138 60.0
339.264099 84.0
343.777191 56.0
345.436127 40.0
346.287445 72.0
357.066467 172.0
364.814209 48.0
369.283203 108.0
377.204193 124.0
378.786865 88.0
389.44751 84.0
390.87851 52.0
397.119019 128.0
399.114075 100.0
404.872375 36.0
408.537018 60.0
409.060181 112.0
409.954315 124.0
412.978943 92.0
417.244202 136.0
420.560089 104.0
421.229767 76.0
423.532684 44.0
429.30719 60.0
431.446014 180.0
433.287659 64.0
444.982361 36.0
445.267914 160.0
448.962982 56.0
459.623413 120.0
468.063538 96.0
478.176392 116.0
497.669617 124.0
505.411316 52.0
510.574585 20.0
532.307068 72.0
545.544434 136.0
556.659851 44.0
563.196777 32.0
566.053284 100.0
567.617004 52.0
575.802307 52.0
578.144897 152.0
581.667664 108.0
606.744385 68.0
642.44519 60.0
699.051331 104.0
699.835632 112.0
719.98114 88.0
765.093872 72.0
766.746338 172.0
768.411621 68.0
778.180237 76.0
806.075439 60.0
815.94342 180.0
825.608337 96.0
832.973328 60.0
886.800964 120.0
889.992493 164.0
890.645752 72.0
900.15686 136.0
900.795898 52.0
901.997009 160.0
902.283936 32.0
913.714844 48.0
927.55603 140.0
929.132751 128.0
931.239075 36.0
943.908936 108.0
953.933167 48.0
962.787109 112.0
974.258362 236.0
975.370728 92.0
984.029907 136.0
998.637085 96.0
1001.198608 136.0
1007.910461 188.0
1015.272522 196.0
1022.861572 140.0
1024.488281 240.0
1027.281006 112.0
1030.377197 224.0
1032.665649 128.0
1033.567627 188.0
1035.167969 240.0
1038.115723 148.0
1040.656738 44.0
1044.937134 128.0
1051.303345 152.0
1053.130371 208.0
1057.119263 140.0
1058.498047 104.0
1062.088501 156.0
1063.126587 124.0
1065.067749 204.0
1071.735962 136.0
1079.464478 240.0
1082.147095 136.0
1092.753418 196.0
1093.391602 76.0
1093.94458 176.0
1100.411865 80.0
1101.039185 168.0
1101.197632 44.0
1116.853149 96.0
1117.518311 192.0
1118.410034 224.0
1122.840698 44.0
1123.401001 184.0
1132.92041 204.0
1142.271484 192.0
1145.421753 152.0
1148.232422 156.0
1150.573853 172.0
1153.33667 100.0
1155.547974 172.0
1164.686035 104.0
1169.282227 72.0
1174.037476 212.0
1174.917358 184.0
1175.572388 52.0
1176.091064 204.0
1177.224365 60.0
1178.81604 168.0
1184.432983 196.0
1185.344116 144.0
1185.41272 140.0
1186.337891 208.0
1186.790405 176.0
1189.555176 180.0
1189.960205 276.0
1193.842529 56.0
1199.233154 160.0
1200.074219 140.0
1204.635986 156.0
1204.69812 52.0
1206.30127 72.0
1209.365601 64.0
1210.577148 96.0
1215.02002 152.0
1217.407715 132.0
1225.37207 164.0
1228.927856 180.0
1230.044434 228.0
1235.236206 160.0
1235.851929 212.0
1236.579712 120.0
1240.705444 232.0
1241.245361 204.0
1243.630493 120.0
1246.200806 148.0
1250.349609 224.0
1250.840942 92.0
1250.990112 180.0
1255.830933 132.0
1260.949585 188.0
1262.144287 232.0
1264.004639 172.0
1265.342285 168.0
1266.085815 156.0
1266.227417 192.0
1267.679688 152.0
1268.572754 224.0
1270.040527 132.0
1273.809692 268.0
1275.842041 204.0
1278.160767 140.0
1278.71582 188.0
1281.100708 344.0
1283.923706 188.0
1284.109131 188.0
1286.792114 176.0
1288.113281 196.0
1289.978394 56.0
1290.028442 136.0
1290.636108 156.0
1291.193848 176.0
1296.448608 64.0
1296.620605 152.0
1296.921631 152.0
1299.625122 148.0
1301.857544 172.0
1303.200806 112.0
1303.258301 164.0
1304.099121 52.0
1305.69519 192.0
1308.976685 180.0
1310.835205 192.0
1311.483765 136.0
1312.990601 192.0
1313.416138 140.0
1313.466675 224.0
1314.029297 92.0
1314.570435 200.0
1322.158325 192.0
1323.193481 92.0
1323.331055 204.0
1323.649658 216.0
1324.301392 168.0
1324.388306 124.0
1329.615723 212.0
1330.029419 168.0
1331.408936 228.0
1331.757446 52.0
1331.873657 56.0
1333.552124 152.0
1335.027954 48.0
1335.26709 108.0
1337.647217 188.0
1338.127686 196.0
1338.979614 120.0
1339.941162 132.0
1340.057739 156.0
1340.36377 232.0
1340.917603 156.0
1341.223633 156.0
1341.325684 136.0
1342.65271 168.0
1344.965576 228.0
1345.118774 136.0
1347.316895 156.0
1347.806396 184.0
1347.916016 144.0
1349.487427 220.0
1349.65564 188.0
1350.189453 104.0
1352.61853 100.0
1353.09436 116.0
1353.795166 68.0
1356.259521 108.0
1358.451416 120.0
1360.403442 132.0
1362.591919 148.0
1363.598633 184.0
1363.650024 152.0
1365.44397 88.0
1371.098022 172.0
1371.540283 196.0
1372.874756 148.0
1374.807495 192.0
1376.35022 164.0
1381.4646 132.0
1384.003052 188.0
1384.779419 104.0
1385.632568 160.0
1386.440186 220.0
1389.413574 128.0
1389.665771 156.0
1390.170288 148.0
1393.771729 252.0
1394.433105 160.0
1395.176392 56.0
1396.024048 76.0
1396.113281 152.0
1398.211182 200.0
1398.821533 104.0
1399.022461 176.0
1399.357544 168.0
1399.744751 172.0
1400.884277 192.0
1401.174805 180.0
1401.763428 132.0
1404.044556 256.0
1405.984131 224.0
1407.21582 228.0
1407.984985 204.0
1409.419189 84.0
1410.06189 60.0
1410.91394 160.0
1411.145752 116.0
1414.38501 108.0
1415.54541 148.0
1416.062134 116.0
1422.120117 172.0
1425.484619 64.0
1426.025757 244.0
1426.288818 148.0
1426.739746 232.0
1430.297974 320.0
1431.028076 148.0
1431.811279 144.0
1432.044678 88.0
1433.091797 216.0
1433.543945 136.0
1435.496338 156.0
1439.797729 156.0
1440.160278 108.0
1440.779785 180.0
1442.328857 108.0
1442.404419 188.0
1442.986572 188.0
1443.334351 184.0
1445.119385 168.0
1445.414429 88.0
1445.497681 108.0
1447.132568 188.0
1448.276733 224.0
1448.874512 180.0
1449.018433 144.0
1449.177612 132.0
1452.551147 148.0
1453.14856 128.0
1453.636108 180.0
1453.954834 132.0
1454.076172 212.0
1455.461304 44.0
1455.594482 40.0
1456.209595 96.0
1456.718506 104.0
1457.28064 188.0
1460.762573 132.0
1461.074463 248.0
1463.001709 212.0
1463.563232 108.0
1464.103882 216.0
1464.416138 200.0
1464.949341 152.0
1465.360718 64.0
1465.680664 136.0
1465.894043 196.0
1466.640991 176.0
1468.669189 172.0
1469.439575 152.0
1470.294189 160.0
1471.866699 160.0
1472.385986 128.0
1472.691528 212.0
1473.348389 48.0
1473.447754 136.0
1474.731567 148.0
1474.785034 204.0
1476.75769 128.0
1477.744507 148.0
1480.415894 124.0
1483.036011 112.0
1483.994263 84.0
1484.346924 164.0
1487.553833 56.0
1489.012695 140.0
1489.355591 156.0
1489.857666 164.0
1490.67981 124.0
1490.741211 172.0
1490.93335 232.0
1491.302246 168.0
1492.839844 112.0
1493.955078 132.0
1494.847534 172.0
1495.925049 92.0
1497.026123 172.0
1497.51123 52.0
1498.466431 136.0
1499.869019 204.0
1500.030884 176.0
1500.292969 176.0
1500.431763 168.0
1501.588379 224.0
1501.78894 160.0
1503.447632 120.0
1503.879761 76.0
1504.080444 128.0
1504.304321 196.0
