>compound MLS002608023-01!
>formula C16H13N
>ionization [M+H]+
>parentmass 220.112183
#inchi InChI=1S/C16H13N/c1-2-8-15(9-3-1)17-16-11-10-13-6-4-5-7-14(13)12-16/h1-12,17H
#inchikey KEQFTVQCIQJIQW
#Ion_Source LC-ESI
#Instrument qTof
#Compound_Source NIH Natural Product Library
#PI Dorrestein
#Data_Collector VVP/LMS
#Scan -1
#Precursor_MZ 220.113
#ExactMass 219.105
#Charge 1
#CAS_Number N/A
#Pubmed_ID N/A
#Smiles N(c1ccccc1)c2ccc3ccccc3c2
#INCHI_AUX N/A
#Library_Class 1
#SpectrumID CCMSLIB00000080378
#IonMode Positive
#UpdateWorkflowName UPDATE-SINGLE-ANNOTATED-GOLD
#LibraryQualityString Gold
#TaskID b1d8e8f6646f4e71acdff9ca3d919d08
##Scan# 2653
#SpectrumFile p2-A08_GA8_01_17977.mzXML
#LibraryName NIH_Natural_Products_Library.mgf
#MQScore -1
#Organism NIH_Natural_Products_Library
#TIC_Query 0
#RT_Query -1
#MZErrorPPM -1
#SharedPeaks 0
#MassDiff 0
#LibMZ -1
#SpecMZ 220.113
#SpecCharge 0
#internalFilename spec-00000.mgf

>collision 10
94.962257 136.0
94.991348 156.0
95.011497 208.0
95.026268 132.0
95.053436 144.0
95.091095 128.0
95.141022 224.0
95.183357 132.0
95.204185 116.0
95.236778 256.0
95.257294 108.0
95.297661 232.0
95.354454 208.0
95.4011 176.0
95.435066 176.0
95.453598 136.0
95.467209 248.0
95.494354 184.0
95.520325 312.0
95.541122 164.0
95.675407 132.0
95.730072 196.0
95.757317 320.0
95.786407 104.0
95.805893 152.0
95.836464 156.0
95.840889 108.0
95.847374 152.0
95.867546 220.0
95.884308 124.0
95.923294 180.0
95.975037 204.0
95.998856 136.0
96.036179 176.0
96.061272 96.0
96.09169 128.0
96.10614 160.0
96.141266 252.0
96.156937 140.0
96.176399 152.0
96.195282 172.0
96.208595 228.0
96.246681 140.0
96.262306 172.0
96.287689 124.0
96.350418 108.0
96.370445 244.0
96.402954 204.0
96.435791 100.0
96.453773 100.0
96.477234 132.0
96.511909 184.0
96.540665 136.0
96.590652 132.0
96.623909 144.0
96.643005 228.0
96.682846 136.0
96.72567 156.0
96.762871 216.0
96.800934 184.0
96.815735 256.0
96.833366 192.0
96.85939 360.0
96.894089 156.0
96.907806 156.0
96.946999 212.0
96.962677 124.0
96.980316 156.0
97.024513 112.0
97.077896 140.0
97.082344 192.0
97.113152 144.0
97.148354 144.0
97.178513 196.0
97.213181 120.0
97.258842 108.0
97.272583 180.0
97.311852 132.0
97.35701 92.0
97.389603 236.0
97.428276 144.0
97.445404 184.0
97.506325 132.0
97.522049 124.0
97.56839 216.0
97.608551 168.0
97.637024 48.0
97.664299 220.0
97.730507 100.0
97.769859 172.0
97.823006 188.0
97.854507 156.0
97.870255 168.0
97.894356 152.0
97.933746 152.0
97.968735 36.0
98.023514 164.0
98.080963 168.0
98.102737 144.0
98.13105 156.0
98.177666 176.0
98.208092 188.0
98.254593 360.0
98.278275 164.0
98.29406 120.0
98.317741 164.0
98.369057 140.0
98.416443 208.0
98.44014 116.0
98.497414 132.0
98.530998 144.0
98.546799 148.0
98.597908 232.0
98.677254 220.0
98.701553 152.0
98.716797 152.0
98.736572 168.0
98.765228 180.0
98.778107 212.0
98.79538 148.0
98.819588 232.0
98.869125 196.0
98.926529 208.0
98.965309 224.0
98.987488 188.0
99.021576 148.0
99.082977 112.0
99.122612 100.0
99.152458 196.0
99.171074 176.0
99.193962 216.0
99.218773 124.0
99.260216 124.0
99.276855 168.0
99.302452 296.0
99.360542 160.0
99.393845 184.0
99.420494 188.0
99.489891 388.0
99.53521 176.0
99.610535 164.0
99.621536 284.0
99.689079 204.0
99.745903 204.0
99.79229 176.0
99.809425 124.0
99.865234 128.0
99.886993 172.0
99.954636 80.0
99.983528 116.0
99.991119 120.0
99.994896 156.0
100.012352 212.0
100.025856 168.0
100.045807 164.0
100.093979 120.0
100.115883 96.0
100.130722 160.0
100.176712 192.0
100.195557 168.0
100.237404 172.0
100.279861 184.0
100.378937 108.0
100.408844 120.0
100.468155 164.0
100.49662 52.0
100.516006 112.0
100.538528 168.0
100.562477 156.0
100.578445 164.0
100.610382 140.0
100.674278 156.0
100.746185 72.0
100.800797 216.0
100.877266 216.0
100.904068 168.0
100.996063 148.0
101.036232 280.0
101.087898 164.0
101.118111 132.0
101.149017 164.0
101.162148 156.0
101.180168 144.0
101.204193 100.0
101.226219 140.0
101.246246 80.0
101.292763 160.0
101.311508 180.0
101.328323 152.0
101.381325 308.0
101.394058 152.0
101.424568 176.0
101.451736 188.0
101.480698 160.0
101.506767 128.0
101.544807 132.0
101.580971 124.0
101.59903 144.0
101.615082 184.0
101.647835 160.0
101.661713 200.0
101.691338 168.0
101.713547 184.0
101.781677 164.0
101.802879 308.0
101.825859 188.0
101.84996 156.0
101.872055 224.0
101.908218 136.0
101.929565 180.0
101.958641 176.0
101.982574 56.0
102.027542 184.0
102.045311 1052.0
102.09919 124.0
102.114571 208.0
102.175621 104.0
102.207817 120.0
102.221901 152.0
102.235992 36.0
102.266823 184.0
102.286308 152.0
102.307602 200.0
102.312057 116.0
102.319206 176.0
102.367393 248.0
102.397049 176.0
102.411606 176.0
102.434341 156.0
102.452583 324.0
102.491882 164.0
102.511887 156.0
102.541695 172.0
102.614685 140.0
102.661064 196.0
102.688835 156.0
102.721138 80.0
102.739731 156.0
102.759903 172.0
102.774025 136.0
102.800262 92.0
102.828514 128.0
102.853523 164.0
102.919922 228.0
102.932571 140.0
102.955704 156.0
102.98996 172.0
103.011604 136.0
103.054085 3504.0
103.101166 136.0
103.148003 184.0
103.164566 120.0
103.182022 140.0
103.20224 148.0
103.231155 160.0
103.264931 128.0
103.301338 192.0
103.362038 76.0
103.428452 232.0
103.469307 136.0
103.489555 84.0
103.535706 228.0
103.582077 404.0
103.617157 144.0
103.657684 164.0
103.677368 196.0
103.714432 148.0
103.754974 172.0
103.798332 164.0
103.820801 200.0
103.844322 200.0
103.971497 136.0
104.003334 176.0
104.022758 348.0
104.049141 928.0
104.076561 344.0
104.106003 192.0
104.121475 188.0
104.144592 88.0
104.159943 172.0
104.179741 152.0
104.203506 208.0
104.236015 136.0
104.253609 140.0
104.282761 152.0
104.302086 140.0
104.31913 152.0
104.358727 184.0
104.374245 144.0
104.408813 128.0
104.430908 296.0
104.47776 116.0
104.495689 236.0
104.563438 148.0
104.61203 160.0
104.640991 80.0
104.677437 180.0
104.705948 140.0
104.741989 156.0
104.759697 104.0
104.772308 208.0
104.802811 284.0
104.841225 120.0
104.885002 324.0
104.927742 168.0
104.960213 156.0
104.993317 200.0
105.042892 156.0
105.078987 156.0
105.111633 196.0
105.16674 140.0
105.213753 248.0
105.25975 136.0
105.305992 372.0
105.323959 228.0
105.342346 216.0
105.409439 148.0
105.448601 196.0
105.481308 140.0
105.51606 172.0
105.566261 152.0
105.593559 196.0
105.642189 140.0
105.671501 508.0
105.702194 140.0
105.730843 148.0
105.753357 120.0
105.835007 176.0
105.855721 276.0
105.884758 156.0
105.912376 272.0
105.955589 164.0
106.003212 80.0
106.048302 100.0
106.074364 196.0
106.095444 116.0
106.115952 140.0
106.137718 188.0
106.176407 232.0
106.216438 148.0
106.241508 180.0
106.261574 192.0
106.339554 124.0
106.364182 188.0
106.388817 188.0
106.451408 204.0
106.487671 176.0
106.502426 220.0
106.540787 164.0
106.567497 172.0
106.587891 176.0
106.604836 164.0
106.627937 184.0
106.662033 140.0
106.7052 164.0
106.727821 124.0
106.781288 100.0
106.808029 196.0
106.826538 148.0
106.874199 320.0
106.912956 104.0
106.945892 172.0
106.972649 144.0
107.009705 228.0
107.049217 192.0
107.062813 172.0
107.090019 176.0
107.146172 108.0
107.161484 168.0
107.195091 180.0
107.211578 116.0
107.227486 228.0
107.263107 128.0
107.304337 112.0
107.318771 108.0
107.34404 140.0
107.357948 176.0
107.396233 156.0
107.446648 192.0
107.487045 124.0
107.508545 188.0
107.521942 128.0
107.555359 276.0
107.563965 132.0
107.62838 396.0
107.665443 140.0
107.715019 96.0
107.73774 180.0
107.772865 192.0
107.812592 232.0
107.830727 104.0
107.851395 224.0
107.867935 120.0
107.925018 236.0
107.973389 180.0
108.008545 108.0
108.025093 80.0
108.047852 172.0
108.080223 124.0
108.126488 196.0
108.171677 48.0
108.208527 208.0
108.220947 360.0
108.257309 188.0
108.312836 56.0
108.341835 88.0
108.377846 408.0
108.407303 188.0
108.447517 148.0
108.501411 164.0
108.52491 204.0
108.541512 176.0
108.558907 244.0
108.618858 144.0
108.641388 152.0
108.697662 148.0
108.723358 188.0
108.750343 204.0
108.786972 124.0
108.802238 140.0
108.848984 320.0
108.887375 144.0
108.923531 276.0
108.958 144.0
108.999687 192.0
109.02034 140.0
109.036964 236.0
109.05983 236.0
109.075531 140.0
109.108658 180.0
109.136749 156.0
109.155464 168.0
109.174179 148.0
109.201218 136.0
109.22419 176.0
109.246979 324.0
109.264214 168.0
109.310196 136.0
109.325638 276.0
109.353104 196.0
109.421799 200.0
109.442619 128.0
109.461357 292.0
109.479225 132.0
109.49884 148.0
109.517647 136.0
109.553001 228.0
109.567581 60.0
109.603226 172.0
109.631516 176.0
109.648849 344.0
109.684288 140.0
109.707214 156.0
109.74749 88.0
109.760971 128.0
109.782349 116.0
109.837387 180.0
109.869881 160.0
109.911613 148.0
109.939598 176.0
109.9617 96.0
109.978043 188.0
110.001205 216.0
110.027077 364.0
110.063812 140.0
110.08905 136.0
110.18573 196.0
110.218567 164.0
110.254089 168.0
110.336655 64.0
110.369064 180.0
110.412979 140.0
110.42762 204.0
110.447212 76.0
110.464607 176.0
110.48201 80.0
110.527031 108.0
110.546646 112.0
110.560242 296.0
110.592278 184.0
110.604706 76.0
110.618935 176.0
110.647339 148.0
110.674561 140.0
110.690552 268.0
110.712257 412.0
110.772995 120.0
110.793945 224.0
110.811714 164.0
110.848419 144.0
110.873573 124.0
110.89344 208.0
110.919678 108.0
110.93766 168.0
110.965805 168.0
110.98922 48.0
111.028709 100.0
111.043388 256.0
111.091637 144.0
111.118912 368.0
111.13208 156.0
111.158775 108.0
111.18396 160.0
111.200752 180.0
111.261627 72.0
111.282013 152.0
111.328056 144.0
111.358223 132.0
111.396027 104.0
111.418419 100.0
111.425613 48.0
111.430771 156.0
111.480751 112.0
111.545227 176.0
111.566254 192.0
111.591637 212.0
111.614609 124.0
111.648201 160.0
111.675377 152.0
111.702942 372.0
111.73568 200.0
111.775093 180.0
111.803612 132.0
111.850243 164.0
111.893929 176.0
111.999748 164.0
112.107193 152.0
112.121864 100.0
112.161949 188.0
112.187294 84.0
112.212593 144.0
112.237862 252.0
112.277962 120.0
112.31617 172.0
112.388885 240.0
112.429863 136.0
112.448853 72.0
112.465736 128.0
112.497406 232.0
112.518517 180.0
112.537071 132.0
112.609314 144.0
112.624992 220.0
112.645226 132.0
112.660011 40.0
112.676315 156.0
112.695099 204.0
112.750587 180.0
112.769897 48.0
112.839653 264.0
112.877098 220.0
112.922127 124.0
112.937988 116.0
112.954971 144.0
112.990372 92.0
113.005867 116.0
113.040596 128.0
113.063881 184.0
113.0821 164.0
113.106209 128.0
113.131615 228.0
113.146431 168.0
113.163368 220.0
113.178192 164.0
113.193115 168.0
113.223579 324.0
113.251076 164.0
113.279854 172.0
113.326263 176.0
113.359604 212.0
113.400627 132.0
113.460266 180.0
113.469627 168.0
113.474281 140.0
113.496796 120.0
113.538445 92.0
113.563889 148.0
113.589348 152.0
113.60791 208.0
113.615669 156.0
113.633499 512.0
113.665276 244.0
113.670677 192.0
113.679253 308.0
113.697556 180.0
113.718552 112.0
113.727272 144.0
113.732285 188.0
113.741806 212.0
113.784584 132.0
113.831467 100.0
113.853661 136.0
113.89312 188.0
113.91201 136.0
113.954498 184.0
114.011871 116.0
114.044792 352.0
114.059105 196.0
114.099152 332.0
114.169189 200.0
114.216347 188.0
114.271873 176.0
114.302597 220.0
114.352158 152.0
114.390076 172.0
114.433052 124.0
114.465538 256.0
114.496941 248.0
114.56163 344.0
114.603592 152.0
114.651443 176.0
114.688301 152.0
114.695091 64.0
114.702599 92.0
114.710999 172.0
114.734764 208.0
114.765442 152.0
114.785767 128.0
114.802139 192.0
114.820885 148.0
114.863945 200.0
114.89109 136.0
114.925949 248.0
114.956207 324.0
114.974342 136.0
114.995773 216.0
115.009315 332.0
115.054543 83976.0
115.127304 132.0
115.157562 192.0
115.191261 304.0
115.203911 216.0
115.237061 340.0
115.265083 64.0
115.286293 132.0
115.299927 72.0
115.339058 188.0
115.358559 108.0
115.385818 76.0
115.405037 632.0
115.423798 192.0
115.476685 156.0
115.560791 152.0
115.586487 156.0
115.616875 76.0
115.633881 168.0
115.666031 44.0
115.688011 128.0
115.695694 176.0
115.739799 160.0
115.756927 180.0
115.776199 148.0
115.795479 168.0
115.810471 52.0
115.846031 240.0
115.873306 144.0
115.901955 148.0
115.929672 196.0
115.94545 52.0
115.969185 108.0
115.981461 140.0
115.984482 380.0
116.00531 196.0
116.01889 320.0
116.061874 46808.0
116.120804 76.0
116.16201 220.0
116.193565 124.0
116.228271 184.0
116.240074 200.0
116.262962 164.0
116.287926 188.0
116.314949 148.0
116.343704 48.0
116.356812 140.0
116.38736 40.0
116.413223 324.0
116.447418 152.0
116.520142 128.0
116.560806 304.0
116.567932 164.0
116.604172 104.0
116.622208 292.0
116.649155 208.0
116.667519 112.0
116.691711 84.0
116.752785 384.0
116.777237 188.0
116.812904 120.0
116.846725 200.0
116.871857 100.0
116.898552 304.0
116.929611 260.0
116.957077 88.0
116.975243 112.0
117.005463 168.0
117.020164 224.0
117.063568 4776.0
117.112625 500.0
117.164513 232.0
117.204269 144.0
117.242218 144.0
117.267242 188.0
117.289597 108.0
117.313263 100.0
117.334068 40.0
117.351067 140.0
117.38176 268.0
117.398758 120.0
117.437431 148.0
117.466393 212.0
117.49366 296.0
117.528183 104.0
117.556236 104.0
117.571342 132.0
117.590179 192.0
117.640411 96.0
117.671181 112.0
117.69223 124.0
117.749191 112.0
117.776199 128.0
117.815338 44.0
117.841843 120.0
117.857468 160.0
117.884789 140.0
117.912819 188.0
117.936653 200.0
117.962158 120.0
117.988235 84.0
118.025818 260.0
118.061378 252.0
118.085541 132.0
118.100685 48.0
118.139412 124.0
118.161827 136.0
118.18026 88.0
118.202362 96.0
118.219154 232.0
118.223808 176.0
118.233421 216.0
118.269455 228.0
118.295433 60.0
118.315475 140.0
118.344292 132.0
118.366882 40.0
118.404572 148.0
118.430359 128.0
118.453514 76.0
118.469772 268.0
118.518509 128.0
118.546677 116.0
118.566185 104.0
118.633377 168.0
118.651115 220.0
118.743965 100.0
118.761314 160.0
118.826393 116.0
118.842377 160.0
118.909668 228.0
118.934479 184.0
118.962997 280.0
118.988976 132.0
119.017403 200.0
119.036301 216.0
119.04483 152.0
119.095276 172.0
119.121651 124.0
119.167755 216.0
119.26506 136.0
119.363319 240.0
119.398796 160.0
119.434669 288.0
119.478172 132.0
119.499931 240.0
119.541275 188.0
119.558685 204.0
119.602211 228.0
119.623985 196.0
119.682243 216.0
119.726318 160.0
119.744514 372.0
119.788177 160.0
119.811272 144.0
119.861382 180.0
119.887909 140.0
119.926765 144.0
119.963821 240.0
120.003166 172.0
120.045464 216.0
120.081566 80.0
120.137871 276.0
120.214645 140.0
120.232109 164.0
120.273575 176.0
120.31942 100.0
120.38929 80.0
120.404579 208.0
120.492889 140.0
120.609962 136.0
120.668991 164.0
120.806427 152.0
120.841774 156.0
120.916176 144.0
120.969002 180.0
120.986221 132.0
121.035698 208.0
121.0541 148.0
121.089523 344.0
121.117615 124.0
121.139519 156.0
121.206413 160.0
121.242447 156.0
121.277565 180.0
121.295433 188.0
121.428734 140.0
121.431511 132.0
121.440292 168.0
121.467812 184.0
121.514404 64.0
121.549515 124.0
121.571457 60.0
121.597794 156.0
121.622612 144.0
121.652672 148.0
121.672432 224.0
121.704269 176.0
121.76931 340.0
121.876694 176.0
121.980347 184.0
122.021759 36.0
122.037148 108.0
122.05674 132.0
122.180107 156.0
122.197708 108.0
122.265923 220.0
122.351768 136.0
122.449463 164.0
122.51915 160.0
122.554398 136.0
122.578636 224.0
122.61055 108.0
122.661133 248.0
122.708687 224.0
122.730736 184.0
122.763809 56.0
122.801308 204.0
122.823364 136.0
122.847626 208.0
122.898186 144.0
122.94471 164.0
123.015579 148.0
123.05172 344.0
123.087936 168.0
123.094528 148.0
123.123535 96.0
123.156296 144.0
123.176544 124.0
123.220726 204.0
123.284813 356.0
123.304703 148.0
123.320175 132.0
123.350327 168.0
123.373222 284.0
123.39312 164.0
123.413017 96.0
123.448402 224.0
123.490417 228.0
123.523598 92.0
123.660789 164.0
123.678497 140.0
123.7117 168.0
123.782547 52.0
123.813553 68.0
123.886177 316.0
123.90062 196.0
123.922096 100.0
123.938065 136.0
123.966415 232.0
123.990791 72.0
124.00631 196.0
124.043991 140.0
124.10537 132.0
124.122002 108.0
124.146858 292.0
124.180748 148.0
124.221237 56.0
124.252449 128.0
124.292931 180.0
124.390045 172.0
124.405579 244.0
124.42778 148.0
124.481583 376.0
124.521317 352.0
124.538818 108.0
124.563324 232.0
124.598793 156.0
124.614349 140.0
124.664421 120.0
124.685074 204.0
124.721237 292.0
124.743248 172.0
124.79216 76.0
124.81662 20.0
124.860466 256.0
124.903801 140.0
124.992348 264.0
125.042419 180.0
125.099182 128.0
125.162537 172.0
125.185715 60.0
125.231049 180.0
125.250565 148.0
125.284019 192.0
125.333038 108.0
125.355316 180.0
125.385124 196.0
125.421547 196.0
125.454758 176.0
125.484604 64.0
125.577408 136.0
125.595131 128.0
125.625107 156.0
125.654106 124.0
125.690895 156.0
125.696823 192.0
125.743324 220.0
125.792473 88.0
125.849464 144.0
125.871109 164.0
125.909264 196.0
125.944313 104.0
125.971123 160.0
126.011337 324.0
126.046165 6072.0
126.07341 164.0
126.094017 164.0
126.111893 188.0
126.12854 188.0
126.15213 160.0
126.197403 80.0
126.221443 164.0
126.243805 88.0
126.277351 112.0
126.296875 132.0
126.320625 212.0
126.366829 252.0
126.454109 68.0
126.501114 36.0
126.538422 156.0
126.559319 136.0
126.610077 108.0
126.623459 412.0
126.684311 192.0
126.720589 388.0
126.744362 164.0
126.789085 136.0
126.825912 40.0
126.864021 96.0
126.884583 212.0
126.950768 160.0
126.988503 172.0
127.010155 144.0
127.053825 8108.0
127.137672 48.0
127.17807 60.0
127.19957 88.0
127.231949 148.0
127.312782 136.0
127.328499 36.0
127.355156 208.0
127.400894 88.0
127.429588 172.0
127.48127 100.0
127.532959 72.0
127.555267 160.0
127.585915 144.0
127.621933 132.0
127.658867 72.0
127.676857 136.0
127.729233 160.0
127.787079 120.0
127.805077 68.0
127.823082 68.0
127.853996 148.0
127.862587 176.0
127.894035 144.0
127.948235 192.0
127.991119 160.0
128.021011 424.0
128.062057 39144.0
128.129303 72.0
128.137329 116.0
128.143478 124.0
128.173004 48.0
128.189804 188.0
128.21492 184.0
128.25 136.0
128.328064 200.0
128.347931 112.0
128.374176 56.0
128.382507 36.0
128.401367 236.0
128.467468 176.0
128.490021 120.0
128.537796 184.0
128.561432 56.0
128.598343 60.0
128.64653 264.0
128.73941 208.0
128.803818 160.0
128.828674 144.0
128.851822 240.0
128.877228 168.0
128.907745 60.0
128.995895 152.0
129.064865 2924.0
129.104431 168.0
129.136887 200.0
129.185852 212.0
129.271652 148.0
129.307938 164.0
129.375946 76.0
129.421234 116.0
129.482559 96.0
129.487946 148.0
129.534073 208.0
129.568451 108.0
129.638855 168.0
129.66362 44.0
129.69989 104.0
129.723938 256.0
129.745895 176.0
129.755692 52.0
129.760345 156.0
129.82283 284.0
129.84726 148.0
129.863144 132.0
129.879868 196.0
129.899429 216.0
129.915314 92.0
129.954758 248.0
129.992462 184.0
130.016647 352.0
130.037842 228.0
130.067505 312.0
130.093079 128.0
130.128647 148.0
130.155899 128.0
130.174072 32.0
130.219482 132.0
130.243607 368.0
130.278732 240.0
130.294205 184.0
130.334381 164.0
130.353531 184.0
130.387619 84.0
130.405792 148.0
130.437042 64.0
130.485825 136.0
130.507599 128.0
130.539932 104.0
130.603607 224.0
130.680954 152.0
130.719635 64.0
130.787918 120.0
130.83345 120.0
130.86496 104.0
130.897202 160.0
130.938477 128.0
130.963242 148.0
130.992447 132.0
131.024414 136.0
131.050797 548.0
131.100235 160.0
131.142181 164.0
131.15921 184.0
131.179001 140.0
131.204803 144.0
131.287384 180.0
131.337067 124.0
131.402603 436.0
131.447495 236.0
131.531021 140.0
131.571594 212.0
131.649734 84.0
131.672577 120.0
131.695419 184.0
131.731964 136.0
131.827927 32.0
131.869064 232.0
131.907669 144.0
131.91301 144.0
131.951355 104.0
131.973984 236.0
131.994812 120.0
132.054504 112.0
132.118317 216.0
132.166962 216.0
132.191254 128.0
132.262314 160.0
132.305984 144.0
132.331161 216.0
132.360931 124.0
132.388412 88.0
132.491486 128.0
132.567093 156.0
132.642731 232.0
132.709213 156.0
132.734436 188.0
132.771133 204.0
132.787186 200.0
132.807831 160.0
132.837646 132.0
132.917084 200.0
132.937744 200.0
132.966141 52.0
132.994797 132.0
133.025818 96.0
133.055664 84.0
133.104721 132.0
133.141632 164.0
133.168182 80.0
133.219711 132.0
133.300125 196.0
133.345108 164.0
133.445877 152.0
133.451202 128.0
133.458328 172.0
133.48764 52.0
133.508057 332.0
133.563538 180.0
133.595734 112.0
133.641754 148.0
133.67865 112.0
133.714752 136.0
133.729202 168.0
133.761429 196.0
133.865036 168.0
133.881149 92.0
133.924911 156.0
133.985336 176.0
134.02858 176.0
134.072372 224.0
134.120773 212.0
134.14151 64.0
134.157654 108.0
134.222214 132.0
134.247574 228.0
134.33522 376.0
134.400909 128.0
134.44136 220.0
134.518127 168.0
134.56601 64.0
134.586792 136.0
134.613281 152.0
134.706894 188.0
134.748474 180.0
134.785446 172.0
134.823868 224.0
134.898697 140.0
134.926437 196.0
135.009674 184.0
135.046204 192.0
135.079025 124.0
135.148758 164.0
135.17392 152.0
135.19397 200.0
135.213959 188.0
135.241043 144.0
135.273453 160.0
135.317429 176.0
135.333099 172.0
135.373581 176.0
135.427734 136.0
135.451752 128.0
135.491135 64.0
135.507355 180.0
135.535156 220.0
135.560654 112.0
135.580872 148.0
135.607422 132.0
135.634811 128.0
135.65448 156.0
135.695084 160.0
135.722916 184.0
135.769287 132.0
135.821671 172.0
135.950241 208.0
135.98732 168.0
136.040771 168.0
136.075592 228.0
136.107544 216.0
136.219574 120.0
136.23584 200.0
136.267609 220.0
136.296249 216.0
136.321808 124.0
136.389206 80.0
136.440353 100.0
136.456635 244.0
136.488174 204.0
136.53569 112.0
136.556625 84.0
136.600815 188.0
136.631058 144.0
136.738098 60.0
136.782272 176.0
136.814911 148.0
136.876755 320.0
136.936005 172.0
136.980255 152.0
137.012878 208.0
137.053802 140.0
137.0811 156.0
137.10141 132.0
137.134048 132.0
137.168655 188.0
137.201645 96.0
137.241287 196.0
137.27626 128.0
137.312424 228.0
137.350891 84.0
137.375946 136.0
137.448883 160.0
137.476883 108.0
137.581924 180.0
137.614609 96.0
137.649628 352.0
137.682327 100.0
137.712692 168.0
137.747726 136.0
137.786743 120.0
137.820145 196.0
137.932404 140.0
137.958466 200.0
137.98143 52.0
138.000122 96.0
138.030518 120.0
138.112381 280.0
138.241058 148.0
138.289368 188.0
138.308929 176.0
138.334686 176.0
138.360428 116.0
138.376816 208.0
138.447067 172.0
138.470581 192.0
138.503281 176.0
138.552475 168.0
138.585281 196.0
138.601685 48.0
138.633026 180.0
138.655273 180.0
138.681366 116.0
138.746994 148.0
138.826721 128.0
138.887695 92.0
138.965118 160.0
139.007355 60.0
139.054291 156.0
139.070724 244.0
139.087143 172.0
139.12236 88.0
139.18576 156.0
139.248352 220.0
139.26796 60.0
139.293793 108.0
139.321976 380.0
139.361923 224.0
139.381866 160.0
139.441635 196.0
139.467682 164.0
139.484131 84.0
139.51297 196.0
139.538193 120.0
139.589935 168.0
139.606384 256.0
139.626144 80.0
139.690796 108.0
139.721649 28.0
139.749649 208.0
139.83931 136.0
139.874619 240.0
139.942886 224.0
139.964081 188.0
139.994431 144.0
140.049026 840.0
140.084198 192.0
140.105392 84.0
140.126602 148.0
140.152512 308.0
140.187866 192.0
140.260925 164.0
140.277435 180.0
140.301819 212.0
140.31987 200.0
140.35051 116.0
140.42598 216.0
140.48967 164.0
140.53685 152.0
140.56517 92.0
140.633606 140.0
140.652496 152.0
140.676102 124.0
140.70607 288.0
140.787079 216.0
140.806961 224.0
140.856598 184.0
140.953751 108.0
140.960251 156.0
140.986252 248.0
141.029633 236.0
141.058014 624.0
141.099487 56.0
141.129715 188.0
141.165192 132.0
141.212601 172.0
141.2435 176.0
141.293304 220.0
141.374039 168.0
141.401764 156.0
141.425613 152.0
141.465683 76.0
141.49527 128.0
141.541443 300.0
141.564377 248.0
141.606354 548.0
141.672836 172.0
141.700134 64.0
141.747009 92.0
141.789246 112.0
141.844696 172.0
141.862991 192.0
141.928482 164.0
141.959595 204.0
141.986969 160.0
142.034622 176.0
142.06514 26528.0
142.1203 116.0
142.152908 212.0
142.174377 196.0
142.211304 152.0
142.2285 180.0
142.260742 84.0
142.291916 340.0
142.332397 140.0
142.356567 184.0
142.383591 132.0
142.427933 188.0
142.456238 180.0
142.492569 152.0
142.513062 148.0
142.5401 172.0
142.568069 140.0
142.587357 412.0
142.612198 332.0
142.619354 468.0
142.658936 180.0
142.684967 196.0
142.699997 148.0
142.705292 184.0
142.721741 172.0
142.741714 240.0
142.76265 224.0
142.799164 208.0
142.822693 240.0
142.844574 296.0
142.887329 520.0
142.926819 300.0
142.954529 260.0
142.979141 260.0
143.029144 652.0
143.074112 381688.0
143.160843 60.0
143.226395 148.0
143.230743 188.0
143.259262 276.0
143.266678 264.0
143.294128 576.0
143.332825 220.0
143.367462 372.0
143.383713 320.0
143.417984 296.0
143.438705 1088.0
143.466675 5836.0
143.502914 172.0
143.522812 200.0
143.527618 252.0
143.537231 332.0
143.540955 124.0
143.553467 140.0
143.591766 180.0
143.631577 152.0
143.648743 216.0
143.670151 88.0
143.708099 200.0
143.740479 96.0
143.7686 396.0
143.787598 156.0
143.819351 116.0
143.828217 136.0
143.864944 208.0
143.900177 268.0
143.927048 144.0
143.956055 152.0
143.984604 184.0
144.005066 172.0
144.04512 332.0
144.076462 58232.0
144.111618 200.0
144.190414 112.0
144.23204 204.0
144.249802 88.0
144.273041 60.0
144.306732 76.0
144.336365 160.0
144.368088 120.0
144.410934 104.0
144.439713 188.0
144.469742 152.0
144.518707 84.0
144.563431 84.0
144.584534 144.0
144.639755 172.0
144.672409 140.0
144.701797 72.0
144.742264 44.0
144.769379 88.0
144.779846 152.0
144.811157 236.0
144.832047 80.0
144.861679 196.0
144.892517 128.0
144.914993 116.0
144.940582 144.0
144.970718 80.0
145.02153 244.0
145.033218 224.0
145.079865 2520.0
145.132309 88.0
145.160965 340.0
145.184738 304.0
145.215347 176.0
145.222137 132.0
145.243835 216.0
145.26329 308.0
145.272919 140.0
145.314697 192.0
145.336288 112.0
145.375412 40.0
145.413254 60.0
145.438965 100.0
145.490417 92.0
145.510315 104.0
145.552322 44.0
145.578735 164.0
145.602753 96.0
145.655594 148.0
145.67482 76.0
145.70459 148.0
145.730072 128.0
145.774094 84.0
145.806976 80.0
145.842468 104.0
145.874268 64.0
145.899918 72.0
145.946396 28.0
145.984985 164.0
146.049118 124.0
146.067734 380.0
146.102737 60.0
146.147171 256.0
146.198975 160.0
146.232834 60.0
146.268784 72.0
146.319168 96.0
146.357864 132.0
146.407394 176.0
146.485504 128.0
146.502365 40.0
146.560196 92.0
146.620438 168.0
146.662079 72.0
146.680695 68.0
146.752014 128.0
146.801544 316.0
146.873596 128.0
146.93129 48.0
147.049744 28.0
147.066635 32.0
147.160782 40.0
147.213913 228.0
147.329849 44.0
147.361252 196.0
147.384384 224.0
147.460327 160.0
147.475662 116.0
147.511093 56.0
147.559448 116.0
147.617477 136.0
147.684616 116.0
147.873917 40.0
147.91507 84.0
147.96106 44.0
147.990112 72.0
148.028854 52.0
148.055496 116.0
148.120895 52.0
148.191147 56.0
148.494171 52.0
148.637299 88.0
148.707687 88.0
148.804779 68.0
148.90921 52.0
149.178467 212.0
149.497543 80.0
149.6436 144.0
149.684998 216.0
149.804337 232.0
149.857361 68.0
149.977341 64.0
150.045898 340.0
150.309021 32.0
150.438385 84.0
150.509186 76.0
150.528717 136.0
150.555588 152.0
150.677719 76.0
151.054306 144.0
151.085999 80.0
151.185715 108.0
151.254852 144.0
151.276886 104.0
151.43605 40.0
151.480148 76.0
151.502197 48.0
151.523651 84.0
151.573181 164.0
151.62471 108.0
151.690887 72.0
151.786728 88.0
151.815933 108.0
151.893997 144.0
152.062042 540.0
152.181549 156.0
152.246078 160.0
152.281281 200.0
152.351028 68.0
152.407364 180.0
152.541473 160.0
152.628754 100.0
152.778778 136.0
152.805847 164.0
152.891968 192.0
152.919052 84.0
152.968277 48.0
152.995361 164.0
153.012589 180.0
153.066238 312.0
153.138611 68.0
153.175125 48.0
153.249039 128.0
153.374725 64.0
153.527588 68.0
153.552246 172.0
153.580276 84.0
153.623779 64.0
153.715073 80.0
153.784164 88.0
153.818726 144.0
153.855759 96.0
154.028625 192.0
154.076553 160.0
154.103729 220.0
154.162033 188.0
154.220016 148.0
154.255966 140.0
154.292252 136.0
154.335083 76.0
154.4711 148.0
154.532944 52.0
154.66658 36.0
154.708664 64.0
154.763138 56.0
154.903351 52.0
154.934036 32.0
154.958817 72.0
154.988541 120.0
155.020752 88.0
155.058868 3236.0
155.128418 92.0
155.183044 40.0
155.22403 56.0
155.273621 140.0
155.298431 192.0
155.36293 44.0
155.484512 60.0
155.501892 72.0
155.556488 124.0
155.601181 116.0
155.678162 100.0
155.698029 92.0
155.73674 156.0
155.767563 100.0
155.814774 212.0
155.8918 116.0
155.925507 92.0
155.966354 156.0
156.062332 324.0
156.123001 184.0
156.142899 56.0
156.292145 88.0
156.42157 124.0
156.508713 156.0
156.580917 116.0
156.62204 100.0
156.727905 40.0
156.855011 132.0
156.894897 28.0
157.356445 108.0
157.673691 40.0
157.768677 184.0
157.953735 72.0
158.274078 44.0
158.35672 92.0
158.43103 60.0
158.664948 76.0
158.792831 136.0
158.973465 84.0
158.998566 100.0
159.201904 136.0
159.244598 176.0
159.498383 176.0
159.521011 120.0
159.82785 144.0
159.948639 172.0
159.993958 124.0
160.074036 304.0
160.107269 32.0
160.170242 96.0
160.218094 192.0
160.276047 72.0
160.528122 76.0
160.568481 120.0
160.601929 152.0
160.765259 156.0
160.815735 180.0
160.846024 36.0
160.944489 132.0
160.979843 64.0
160.997513 112.0
161.037933 160.0
161.090973 40.0
161.144028 144.0
161.349365 172.0
161.371506 172.0
161.437241 128.0
161.656097 148.0
161.857315 76.0
161.982864 272.0
162.039673 148.0
162.229752 156.0
162.260178 128.0
162.425018 84.0
162.765106 108.0
162.854355 168.0
163.075043 132.0
163.237747 140.0
163.255554 128.0
163.375092 48.0
163.405624 64.0
163.90213 120.0
163.965836 192.0
164.06041 160.0
164.197845 128.0
164.298508 164.0
164.339218 188.0
164.473404 216.0
164.685333 140.0
164.779861 80.0
164.846298 172.0
164.984314 60.0
165.070724 1464.0
165.503693 28.0
165.818802 56.0
165.857986 152.0
166.071457 292.0
166.172668 212.0
166.501251 236.0
166.531586 128.0
166.616837 108.0
166.873856 68.0
166.992142 80.0
167.028152 48.0
167.082947 276.0
167.303497 124.0
167.626617 116.0
167.919357 28.0
168.059952 132.0
168.08963 132.0
168.156723 184.0
168.241913 68.0
168.342606 176.0
168.394257 100.0
168.616455 108.0
168.737946 164.0
168.882767 124.0
169.009521 148.0
169.043167 112.0
169.06929 184.0
169.682953 212.0
169.976044 60.0
170.046112 140.0
170.098038 176.0
170.147354 92.0
170.170715 72.0
170.490234 128.0
170.513611 224.0
170.555206 180.0
170.610733 140.0
170.654251 164.0
171.010391 92.0
171.054642 60.0
171.127533 152.0
171.15097 124.0
171.169189 160.0
171.458359 176.0
171.797333 116.0
171.839081 188.0
171.865173 52.0
172.126205 132.0
172.201935 48.0
172.293365 128.0
172.311646 84.0
172.358673 136.0
172.434464 188.0
172.596542 172.0
172.62793 104.0
172.70639 52.0
172.813644 148.0
172.939255 92.0
173.181015 132.0
173.326859 124.0
173.379272 180.0
173.465759 196.0
173.711517 156.0
173.998322 136.0
174.048203 144.0
174.174271 168.0
174.226807 128.0
174.352936 128.0
174.431778 128.0
174.513275 44.0
174.542206 144.0
174.655289 44.0
174.755264 164.0
174.947388 184.0
175.021103 68.0
175.310867 136.0
175.429474 144.0
175.788193 168.0
175.909592 128.0
176.061264 476.0
176.104385 188.0
176.136688 128.0
176.18689 132.0
176.208023 92.0
176.282013 112.0
177.046478 152.0
177.068604 1020.0
177.205475 168.0
177.385696 248.0
177.52092 168.0
177.799469 324.0
177.93219 148.0
178.014511 124.0
178.076355 5212.0
178.108521 80.0
178.144653 40.0
178.213516 140.0
178.238678 216.0
178.596542 84.0
178.804077 164.0
178.841339 172.0
178.883926 116.0
179.082474 1268.0
179.1362 164.0
179.267471 112.0
179.387405 76.0
179.548904 92.0
179.686096 72.0
179.72879 136.0
179.943054 144.0
180.01442 124.0
180.084518 432.0
180.174667 72.0
180.335007 64.0
180.35907 160.0
180.5168 32.0
180.538193 84.0
180.618439 76.0
180.819107 184.0
181.014542 32.0
181.064087 140.0
181.097565 108.0
181.16185 40.0
181.218109 108.0
181.711441 104.0
181.740967 112.0
181.791946 148.0
182.088821 56.0
182.487656 140.0
182.643631 128.0
182.700134 180.0
182.788925 136.0
182.834671 60.0
182.926178 152.0
182.966568 60.0
183.031189 88.0
183.190094 156.0
183.427231 128.0
183.448792 152.0
183.521591 128.0
183.696884 148.0
183.76973 128.0
184.095886 116.0
184.207092 176.0
184.247604 84.0
184.366501 120.0
184.458405 124.0
184.520584 72.0
184.539505 204.0
184.885757 136.0
185.229614 124.0
185.352341 152.0
185.419281 164.0
185.489746 68.0
185.684982 68.0
185.758209 160.0
186.06488 168.0
186.296936 196.0
186.619141 104.0
187.021759 88.0
187.084366 172.0
187.351257 156.0
187.45752 196.0
187.629242 224.0
187.806488 160.0
187.94458 104.0
188.027496 144.0
188.057007 108.0
188.082077 96.0
188.341476 144.0
188.363342 160.0
188.464417 164.0
188.549133 168.0
188.683075 120.0
188.778778 132.0
189.014023 48.0
189.071289 1172.0
189.249435 120.0
189.376358 160.0
189.580887 128.0
189.791962 188.0
189.97023 56.0
190.00589 56.0
190.075317 484.0
190.217209 132.0
190.28035 128.0
190.736374 60.0
190.761108 64.0
190.893829 60.0
190.972839 128.0
191.036118 212.0
191.081406 1112.0
191.159927 188.0
191.267258 120.0
191.373642 144.0
191.493042 148.0
191.556396 168.0
191.575684 188.0
191.622513 180.0
191.674866 72.0
191.763062 124.0
191.983612 40.0
192.088547 916.0
192.331253 112.0
192.557663 220.0
192.58252 104.0
192.601852 64.0
192.646057 236.0
192.845001 44.0
192.938995 40.0
193.044067 132.0
193.099472 1644.0
193.245987 152.0
193.331772 52.0
193.456329 56.0
193.500626 52.0
193.550461 108.0
193.86348 92.0
193.999298 148.0
194.095062 216.0
194.132385 148.0
194.337662 116.0
194.362625 48.0
194.742966 116.0
194.89299 128.0
195.081009 392.0
195.105133 120.0
195.189697 172.0
195.624435 72.0
195.671768 80.0
195.691254 44.0
196.071335 136.0
196.217834 116.0
196.993683 236.0
197.055145 48.0
197.180893 60.0
197.563965 120.0
197.617126 88.0
197.664688 84.0
198.042648 220.0
198.123886 40.0
198.216339 184.0
198.294815 56.0
198.460205 100.0
198.701416 64.0
198.822067 176.0
199.069122 84.0
199.262939 128.0
199.403442 108.0
199.859009 176.0
199.912476 176.0
199.968765 132.0
200.063675 1528.0
200.143295 212.0
200.233414 176.0
200.424973 136.0
200.458786 96.0
200.560257 148.0
200.636368 164.0
200.667374 44.0
200.701218 68.0
200.72377 128.0
200.932495 156.0
200.997391 52.0
201.069138 1332.0
201.20343 200.0
201.267303 180.0
201.296616 108.0
201.45195 64.0
201.499985 128.0
201.567795 148.0
201.678009 236.0
201.720413 132.0
201.751511 112.0
201.841934 196.0
201.956909 164.0
201.983398 332.0
202.077835 28492.0
202.153931 44.0
202.183044 100.0
202.241776 64.0
202.290039 132.0
202.331528 200.0
202.374557 116.0
202.396591 48.0
202.460632 176.0
202.49855 96.0
202.52121 48.0
202.568237 244.0
202.636658 164.0
202.722351 44.0
202.745026 60.0
202.815887 196.0
202.858414 148.0
203.046356 376.0
203.084763 14240.0
203.187378 52.0
203.290237 48.0
203.33493 56.0
203.363312 68.0
203.394547 88.0
203.466232 140.0
203.485382 104.0
203.543854 176.0
203.579086 120.0
203.613159 56.0
203.69838 88.0
203.803497 40.0
203.837601 92.0
203.900833 96.0
203.922852 40.0
203.955536 168.0
203.988235 100.0
204.013809 52.0
204.047928 148.0
204.083069 8264.0
204.141769 52.0
204.266907 88.0
204.294769 136.0
204.352249 40.0
204.386398 92.0
204.419388 104.0
204.468933 84.0
204.529785 136.0
204.565704 64.0
204.631241 180.0
204.733688 44.0
204.856171 148.0
205.08876 4684.0
205.124817 204.0
205.168106 96.0
205.174316 44.0
205.188614 80.0
205.335037 72.0
205.451996 80.0
205.485352 164.0
205.548996 88.0
205.703125 52.0
205.768784 68.0
205.86586 40.0
205.922989 216.0
205.96582 56.0
206.090393 1084.0
206.131531 132.0
206.391663 76.0
206.423111 196.0
206.528931 88.0
206.589005 108.0
206.660522 92.0
206.683411 80.0
207.012604 108.0
207.058426 84.0
207.106461 104.0
207.224579 164.0
207.281891 64.0
207.327744 156.0
207.5112 56.0
207.581207 68.0
207.694733 56.0
207.915649 76.0
208.122345 88.0
208.176895 52.0
208.263062 48.0
208.415329 40.0
208.783279 100.0
209.125656 96.0
209.681519 84.0
209.799713 116.0
210.039062 128.0
210.373795 52.0
210.720352 136.0
211.064316 184.0
211.275452 64.0
212.013824 144.0
212.100769 172.0
212.671173 136.0
212.727341 64.0
212.760529 84.0
213.090363 96.0
214.003647 212.0
214.067703 104.0
214.318222 124.0
214.393982 140.0
214.732178 124.0
214.831345 136.0
214.991837 116.0
215.23996 72.0
215.777588 152.0
215.827286 180.0
215.932571 68.0
216.032013 144.0
216.078552 380.0
216.497406 164.0
216.523773 44.0
216.658508 52.0
216.769852 216.0
216.910538 128.0
216.969162 208.0
217.001419 104.0
217.088058 5952.0
217.133377 124.0
217.159775 136.0
217.241898 108.0
217.514816 176.0
217.59407 188.0
217.617569 36.0
217.680817 148.0
217.805511 32.0
218.011185 88.0
218.09613 8456.0
218.142487 212.0
218.258102 104.0
218.365738 140.0
218.419861 172.0
218.468826 112.0
218.511063 52.0
218.551666 100.0
218.702347 32.0
218.75827 100.0
218.835892 132.0
218.893707 80.0
218.949661 64.0
218.976166 56.0
219.023285 52.0
219.103851 10376.0
219.200058 40.0
219.324707 68.0
219.343552 64.0
219.388702 60.0
219.421127 44.0
219.456512 144.0
219.562668 124.0
219.584854 84.0
219.713104 156.0
219.740173 204.0
219.829056 188.0
219.885834 104.0
219.958771 160.0
219.980499 224.0
220.070694 268.0
220.112183 43264.0
220.190521 192.0
220.233627 80.0
220.364441 124.0
220.398682 84.0
220.444687 172.0
220.490311 96.0
220.518631 76.0
220.537979 88.0
220.566544 76.0
220.601746 116.0
220.681625 56.0
220.717331 56.0
220.742737 64.0
220.788879 244.0
220.841751 112.0
220.874069 64.0
220.90834 116.0
220.944641 112.0
221.069336 164.0
221.113998 4532.0
221.288391 64.0
221.380173 52.0
221.498657 28.0
221.540833 88.0
221.601883 52.0
221.758057 48.0
221.780151 100.0
221.803864 40.0
221.949127 116.0
222.067749 76.0
222.115585 520.0
222.189377 64.0
222.281357 56.0
222.322906 76.0
222.378876 128.0
222.451233 104.0
222.492096 100.0
222.535645 108.0
222.590073 164.0
222.664169 88.0
222.750458 40.0
222.771255 268.0
222.815811 76.0
222.857407 96.0
222.884155 80.0
222.906799 112.0
223.008972 48.0
223.064728 100.0
223.121933 164.0
223.228973 100.0
223.350906 80.0
223.395538 120.0
223.815186 60.0
223.877716 132.0
224.780975 92.0
225.437943 164.0
226.104858 76.0
226.329376 76.0
227.006592 64.0
228.07843 32.0
228.475372 32.0
229.075989 680.0
229.417999 68.0
230.293091 68.0
230.655685 164.0
230.764511 96.0
231.054855 136.0
231.087189 480.0
231.245499 92.0
231.64743 76.0
231.68457 36.0
232.108902 148.0
232.888855 132.0
233.063644 168.0
233.241333 76.0
233.667084 112.0
234.007965 108.0
235.3526 88.0
235.890305 52.0
237.91832 112.0
238.099487 116.0
238.671066 132.0
239.024811 56.0
239.93959 48.0
240.118439 84.0
240.251083 80.0
241.919876 36.0
242.118042 72.0
242.387558 76.0
242.520828 80.0
243.272614 56.0
243.292191 60.0
244.826157 64.0
244.919601 100.0
245.761322 108.0
246.101547 88.0
246.710785 88.0
247.339554 92.0
248.26384 32.0
248.605789 72.0
248.68425 92.0
248.706207 100.0
248.888306 76.0
249.66449 52.0
251.5392 96.0
251.937103 68.0
252.0224 120.0
252.151962 108.0
252.493423 60.0
252.98703 68.0
253.272034 48.0
253.37973 28.0
253.496979 40.0
255.484604 88.0
257.045837 64.0
257.173492 44.0
258.509399 100.0
262.792755 36.0
263.97937 124.0
264.026733 36.0
264.521759 60.0
268.544495 52.0
268.903381 84.0
269.409515 64.0
270.279205 44.0
272.896698 76.0
274.975342 52.0
275.599457 52.0
276.505554 56.0
276.952545 84.0
277.07843 148.0
277.167877 52.0
278.308929 64.0
284.287537 44.0
284.824707 72.0
285.258209 60.0
288.217316 84.0
290.22113 60.0
291.157745 104.0
292.17749 68.0
293.403534 108.0
294.307678 28.0
298.67038 100.0
300.927643 100.0
301.155548 104.0
303.401367 72.0
307.670105 76.0
309.365631 80.0
310.634216 116.0
311.097443 64.0
311.610168 128.0
312.633423 76.0
315.472809 80.0
316.194397 52.0
316.622772 56.0
318.11908 28.0
318.154572 84.0
318.928986 76.0
320.833435 84.0
325.491943 88.0
328.502136 96.0
328.720886 56.0
328.995209 108.0
330.954773 36.0
331.193817 80.0
332.597046 88.0
333.185364 40.0
333.537842 56.0
337.804291 56.0
342.211975 60.0
342.521332 68.0
343.000366 40.0
343.756439 64.0
344.369293 64.0
347.849945 36.0
348.912415 96.0
350.132904 72.0
350.158966 108.0
351.61673 76.0
355.471375 80.0
355.861725 72.0
356.958923 80.0
360.525146 48.0
362.102753 72.0
369.200714 28.0
370.693726 52.0
373.411774 76.0
373.538727 44.0
374.867004 52.0
375.483856 68.0
375.595703 80.0
380.207703 40.0
381.388397 72.0
390.207764 100.0
392.026306 56.0
403.885803 124.0
405.154755 96.0
405.435242 88.0
405.787994 84.0
408.699982 36.0
411.868744 72.0
413.741058 52.0
414.085236 76.0
415.134888 100.0
415.731232 80.0
416.035645 40.0
417.388611 36.0
418.08017 52.0
422.351929 116.0
423.70282 112.0
424.657928 112.0
425.577179 44.0
425.860535 48.0
427.286957 44.0
427.793152 92.0
432.453461 88.0
432.792938 44.0
433.741638 84.0
438.784271 52.0
441.122131 100.0
449.631989 36.0
452.392151 68.0
452.815582 44.0
456.937408 96.0
457.780182 84.0
467.549561 40.0
471.23645 96.0
474.703613 76.0
479.546722 40.0
484.979645 48.0
487.538391 40.0
490.015747 100.0
490.67157 80.0
491.788513 116.0
491.841461 112.0
493.935944 84.0
497.639008 48.0
498.027222 80.0
501.537903 120.0
503.925415 60.0
506.605255 104.0
513.635925 100.0
516.721375 128.0
519.144714 52.0
524.38208 48.0
528.524048 72.0
532.048645 116.0
538.961914 56.0
554.763184 108.0
562.416565 88.0
563.890198 96.0
572.577271 68.0
575.810852 92.0
575.997131 88.0
588.734741 72.0
589.203247 108.0
591.432556 72.0
593.97644 68.0
594.015259 80.0
594.175354 216.0
598.2771 56.0
599.850586 48.0
603.820251 100.0
607.719604 32.0
619.230347 68.0
623.631226 60.0
625.72052 80.0
632.35968 64.0
635.160583 48.0
639.411255 176.0
640.503906 184.0
644.070068 116.0
648.649475 48.0
656.968994 52.0
662.121338 100.0
671.939392 76.0
674.012451 20.0
677.345825 104.0
683.285645 96.0
684.842163 68.0
689.192993 144.0
690.144287 116.0
691.221802 80.0
698.493408 132.0
702.554932 88.0
703.547119 148.0
707.522644 84.0
710.097961 88.0
717.307983 36.0
718.054504 212.0
720.371033 128.0
720.632812 80.0
722.455872 176.0
724.013489 60.0
729.561584 196.0
730.443542 68.0
735.762451 72.0
737.134338 160.0
737.361328 36.0
738.772583 220.0
746.197083 60.0
746.305847 76.0
747.388245 36.0
749.391968 180.0
750.656555 248.0
752.801147 164.0
753.888245 100.0
755.091003 56.0
755.189453 68.0
759.275208 80.0
760.141968 32.0
762.316528 96.0
763.476501 156.0
763.966003 144.0
764.180603 144.0
765.259338 216.0
766.316833 236.0
766.658508 180.0
767.639771 180.0
772.660522 160.0
772.854187 72.0
774.089172 192.0
774.947144 112.0
776.898682 148.0
780.141846 176.0
780.286377 76.0
780.325317 80.0
781.560059 156.0
782.534119 236.0
782.818054 192.0
782.962891 64.0
783.32489 132.0
783.870911 216.0
785.164246 176.0
785.543518 156.0
787.63678 152.0
790.924683 204.0
792.588013 84.0
794.376465 140.0
795.122742 136.0
797.700867 188.0
798.133728 204.0
798.802979 128.0
799.478149 52.0
800.682922 44.0
802.333923 164.0
804.138977 96.0
804.73175 152.0
806.177795 200.0
806.449036 68.0
806.488586 80.0
806.759949 168.0
807.743896 60.0
809.356873 188.0
809.849548 44.0
810.99408 176.0
811.084778 140.0
811.288818 116.0
812.825867 176.0
813.296936 236.0
814.977905 76.0
815.244995 168.0
815.91571 180.0
820.778076 188.0
822.403931 208.0
822.474121 68.0
825.323181 164.0
825.946533 116.0
826.953613 128.0
828.350708 192.0
828.436646 156.0
828.492981 168.0
828.774658 120.0
829.227356 148.0
830.052917 152.0
830.65509 116.0
831.607605 144.0
832.35968 136.0
833.203979 124.0
833.916504 196.0
837.380127 44.0
837.501099 116.0
838.042603 204.0
838.613098 160.0
839.310669 184.0
839.51825 116.0
840.112366 144.0
842.883667 128.0
842.993469 96.0
843.091736 212.0
845.833252 200.0
846.539551 168.0
848.086426 176.0
852.177673 120.0
855.265625 116.0
855.329651 144.0
855.481018 168.0
855.52179 148.0
856.768066 132.0
856.995239 156.0
858.184265 80.0
859.677551 136.0
861.680359 152.0
862.206238 72.0
862.3927 196.0
862.691406 184.0
862.779114 112.0
863.428162 192.0
863.931152 180.0
864.48114 124.0
866.302063 204.0
867.239624 120.0
867.333374 68.0
868.500244 124.0
869.280518 144.0
869.36853 192.0
869.433105 56.0
871.776306 188.0
872.174255 156.0
872.405212 160.0
872.528625 168.0
872.599182 152.0
872.916687 92.0
873.104919 184.0
874.075562 224.0
874.703857 200.0
875.13501 164.0
875.245972 128.0
876.548706 176.0
876.754944 188.0
876.929138 152.0
878.169922 52.0
878.535645 196.0
879.733582 112.0
881.771423 204.0
881.984192 240.0
882.267944 168.0
882.403931 160.0
883.042603 176.0
883.462524 96.0
884.213989 100.0
884.350159 132.0
884.480347 184.0
885.38031 152.0
885.830444 168.0
885.907471 40.0
886.950378 192.0
888.687988 212.0
889.60791 120.0
891.056946 224.0
891.39563 88.0
891.787903 180.0
892.994873 108.0
894.559753 116.0
894.875305 116.0
895.578003 120.0
896.155823 140.0
897.02594 148.0
898.666016 124.0
900.022461 168.0
900.683777 136.0
901.980469 176.0
902.506531 64.0
903.283997 172.0
904.672363 188.0
905.031555 200.0
905.901489 248.0
906.049744 172.0
907.488159 120.0
907.614075 144.0
907.697998 148.0
908.945679 92.0
909.0177 152.0
909.131714 92.0
909.401794 172.0
909.599854 100.0
910.068115 204.0
910.842834 204.0
911.455627 132.0
911.569824 220.0
911.768127 76.0
915.507935 216.0
918.523621 120.0
919.374329 20.0
919.754578 108.0
920.64209 124.0
921.342773 156.0
921.53009 244.0
922.164551 116.0
923.573364 76.0
923.627808 140.0
923.785095 216.0
923.827454 28.0
924.093628 232.0
924.281189 188.0
924.426392 180.0
924.713684 132.0
925.001404 140.0
925.231445 212.0
925.394897 168.0
925.843018 172.0
926.460815 108.0
926.539551 148.0
927.169739 132.0
927.721313 228.0
927.781921 112.0
928.157837 176.0
928.200317 144.0
928.442871 196.0
928.970581 180.0
929.195007 204.0
929.298157 84.0
931.447266 176.0
932.237061 132.0
932.49231 128.0
933.009033 232.0
934.140137 204.0
934.346985 204.0
934.730286 192.0
937.275574 164.0
937.970337 124.0
938.421448 168.0
938.775146 152.0
939.671753 148.0
941.869446 196.0
943.452148 200.0
943.507202 116.0
944.583496 64.0
944.83429 136.0
945.709534 228.0
947.111511 116.0
947.381042 204.0
947.748596 68.0
949.158447 128.0
949.391418 180.0
949.642883 200.0
949.992554 140.0
951.87677 168.0
952.042542 60.0
952.441772 244.0
952.558472 124.0
952.908691 228.0
953.486267 148.0
953.855042 64.0
954.131714 184.0
954.359192 52.0
954.869568 156.0
955.238647 44.0
956.001587 152.0
956.080872 180.0
956.72168 136.0
956.894104 204.0
958.132019 188.0
958.261353 168.0
958.920715 92.0
961.221008 168.0
961.943115 48.0
962.257996 152.0
962.566711 196.0
962.887817 68.0
963.412842 144.0
963.524048 180.0
963.684692 132.0
966.033997 232.0
967.407776 40.0
967.884521 108.0
968.132202 116.0
969.030396 112.0
969.3526 100.0
969.761597 120.0
970.16748 116.0
970.288513 124.0
970.440613 216.0
970.548889 112.0
970.933411 176.0
970.976807 176.0
971.082214 176.0
971.597107 148.0
971.659119 56.0
972.09967 188.0
972.180359 192.0
972.409973 212.0
972.887939 156.0
973.316345 132.0
973.924927 172.0
974.011902 164.0
974.583435 212.0
974.645569 28.0
975.975769 168.0
976.510559 76.0
976.796692 160.0
977.3797 168.0
977.462402 132.0
977.558655 240.0
977.756958 176.0
978.962585 52.0
979.205505 216.0
979.280212 148.0
980.102539 172.0
981.268066 244.0
981.648438 144.0
981.823059 120.0
982.690125 124.0
982.73999 128.0
983.101929 148.0
983.345337 64.0
983.484558 156.0
984.458313 104.0
985.618469 108.0
985.88092 156.0
985.930908 60.0
986.030884 208.0
986.649719 140.0
987.318787 184.0
988.232056 156.0
988.488586 192.0
989.05188 108.0
989.270935 148.0
989.702942 212.0
990.485779 184.0
991.156128 172.0
991.594788 168.0
992.164673 176.0
992.32196 144.0
992.597839 152.0
992.742065 156.0
992.961548 192.0
994.216309 124.0
994.473633 136.0
994.54895 84.0
994.636841 36.0
995.032288 64.0
995.383911 168.0
996.068481 188.0
996.370056 160.0
996.48938 140.0
996.803589 112.0
997.344055 52.0
998.035583 152.0
998.136841 184.0
998.280823 108.0
998.620422 68.0
998.959229 120.0
999.035583 140.0
999.111084 132.0
999.312378 148.0
999.419373 192.0
1000.268982 184.0
1000.545959 156.0
1001.087463 168.0
1001.244873 156.0
1002.296936 228.0
1002.422913 188.0
1002.485962 92.0
1002.807373 180.0
1003.17926 132.0
1003.73407 104.0
1003.828674 180.0
1004.068298 124.0
1004.516113 208.0
1004.623047 228.0
1005.954895 196.0
1006.870972 224.0
1007.224121 220.0
1007.577881 208.0
1008.178162 164.0
1008.241394 168.0
1008.970398 96.0
1009.151611 160.0
1010.036987 116.0
1010.220459 124.0
1010.675964 208.0
1010.99707 188.0
1011.486023 136.0
1011.777222 168.0
1012.1698 204.0
1013.759766 112.0
1014.65979 156.0
1014.856384 144.0
1015.002197 156.0
1015.864746 148.0
1015.985291 52.0
1016.213684 168.0
1016.397705 188.0
1016.78479 56.0
1016.860962 184.0
1017.470337 120.0
1017.527466 188.0
1017.895752 160.0
1019.153381 156.0
1019.757141 168.0
1020.081299 136.0
1020.278381 140.0
1020.45282 160.0
1020.843994 176.0
1022.574646 192.0
1023.53595 192.0
1024.300171 160.0
1024.46582 112.0
1024.599609 136.0
1025.05835 156.0
1025.440674 52.0
1026.020752 104.0
1026.460083 208.0
1027.519531 196.0
1027.742798 188.0
1027.927246 120.0
1028.112915 152.0
1028.61084 168.0
1029.862305 148.0
1030.085815 124.0
1030.156128 164.0
1030.526611 164.0
1030.888062 156.0
1031.057007 116.0
1031.325439 168.0
1031.540894 224.0
1031.734619 144.0
1031.824097 180.0
1032.406006 124.0
1032.860107 100.0
1032.924072 136.0
1033.05835 256.0
1033.844238 156.0
1034.27417 184.0
1034.427856 152.0
1034.600586 156.0
1035.343384 168.0
1035.567505 116.0
1035.753296 172.0
1036.336304 100.0
1037.560425 216.0
1038.439087 168.0
1038.547974 176.0
1038.656982 160.0
1039.599243 124.0
1040.209839 204.0
1041.198608 220.0
1041.416992 236.0
1041.802368 172.0
1042.14563 152.0
1043.248413 188.0
1043.447632 164.0
1043.53125 132.0
1043.589111 168.0
1043.704834 252.0
1043.762695 204.0
1043.878418 224.0
1044.823975 164.0
1045.209961 188.0
1045.338623 172.0
1045.390137 140.0
1045.557373 196.0
1045.67981 136.0
1045.834229 168.0
1046.040161 140.0
1046.128906 184.0
1046.375 144.0
1046.613159 132.0
1047.237915 148.0
1047.514893 196.0
1047.759644 216.0
1047.909302 172.0
1048.114502 160.0
1048.249268 164.0
1048.313721 100.0
1048.391113 152.0
1048.594604 308.0
1048.784302 188.0
1048.842285 268.0
1049.448242 100.0
1049.712646 148.0
1049.919922 208.0
1050.022217 120.0
1050.067261 188.0
1050.983398 160.0
1051.254395 148.0
1052.41626 140.0
1052.571167 124.0
1052.661621 128.0
1053.145996 148.0
1053.204102 172.0
1053.688599 64.0
1054.283081 40.0
1054.412354 128.0
1054.677368 220.0
1054.793701 120.0
1054.864746 172.0
1055.291504 180.0
1055.95105 128.0
1056.106323 140.0
1057.090942 180.0
1057.503906 264.0
1057.801636 140.0
1057.98938 128.0
1058.086426 152.0
1058.160156 212.0
1058.410156 200.0
1058.487915 180.0
1058.708008 140.0
1058.999512 124.0
1059.225342 144.0
1059.297485 304.0
1059.362183 188.0
1059.519775 176.0
1059.686157 244.0
1060.484863 184.0
1060.865601 112.0
1060.930542 156.0
1061.098999 76.0
1061.18335 200.0
1061.267578 188.0
1061.377808 188.0
1061.475342 128.0
1061.637207 172.0
1061.870728 128.0
1063.291504 36.0
1063.427856 236.0
1063.843262 108.0
1063.979614 224.0
1064.200317 224.0
1064.492554 164.0
1065.064087 204.0
1065.174438 144.0
1066.092651 220.0
1066.324585 44.0
1066.376587 92.0
1066.851074 200.0
1067.065552 228.0
1067.709351 136.0
1068.184204 172.0
1068.327271 132.0
1068.613525 136.0
1069.270752 252.0
1069.661255 136.0
1069.954224 112.0
1070.312378 152.0
1070.455566 176.0
1071.276245 268.0
1071.360962 200.0
1071.751831 184.0
1072.079956 192.0
1072.566406 172.0
1072.977173 108.0
1073.342285 100.0
1073.459595 200.0
1074.333618 196.0
1074.457642 176.0
1074.503296 152.0
1074.562012 96.0
1074.796875 140.0
1074.946899 108.0
1075.064453 212.0
1075.59375 188.0
1076.050049 268.0
1076.376465 240.0
1076.533203 120.0
1076.905518 300.0
1077.238647 160.0
1077.290894 116.0
1077.349609 132.0
1077.570801 212.0
1078.016113 148.0
1078.199097 160.0
1078.453979 148.0
1078.643555 108.0
1078.741577 112.0
1078.793945 128.0
1078.943848 184.0
1079.03064 136.0
1079.702759 132.0
1079.833496 180.0
1079.918579 168.0
1080.566162 152.0
1080.657837 176.0
1080.847534 148.0
1081.253296 48.0
1081.875122 136.0
1081.947144 164.0
1082.05188 204.0
1082.359619 112.0
1082.569092 140.0
1082.765625 124.0
1082.863892 136.0
1083.072266 112.0
1083.309204 188.0
1083.361694 96.0
1083.433716 196.0
1083.509888 148.0
1083.866089 164.0
1084.868896 208.0
1085.70813 124.0
1085.76062 136.0
1085.845947 220.0
1087.164551 200.0
1087.36145 192.0
1088.037598 100.0
1088.549683 192.0
1088.884644 84.0
1089.213013 76.0
1089.42981 160.0
1089.89624 204.0
1090.178833 180.0
1090.599487 248.0
1090.678345 160.0
1090.737427 140.0
1091.046387 164.0
1091.112183 232.0
1091.228394 132.0
1091.697388 204.0
1091.769775 60.0
1091.855225 140.0
1091.907837 160.0
1091.960449 176.0
1092.059082 196.0
1092.453735 116.0
1092.512939 132.0
1092.730103 152.0
1092.782715 120.0
1093.190674 128.0
1093.249878 164.0
1093.414429 140.0
1093.460449 96.0
1093.86853 156.0
1094.086426 224.0
1094.701172 200.0
1094.786987 188.0
1096.173706 144.0
1096.292358 168.0
1096.338501 160.0
1096.503296 140.0
1097.300903 160.0
1097.480103 132.0
1097.850708 156.0
1098.059204 148.0
1098.205933 188.0
1098.397339 188.0
1098.547241 132.0
1098.606689 144.0
1098.877197 124.0
1099.282593 176.0
1099.451172 204.0
1099.702026 172.0
1100.05188 160.0
1100.38855 232.0
1100.461182 128.0
1100.573364 184.0
1100.797974 140.0
1101.372559 136.0
1101.854736 156.0
1102.231323 124.0
1102.323853 108.0
1102.489014 164.0
1102.984741 192.0
1103.645874 144.0
1103.712036 136.0
1103.800415 176.0
1104.204224 184.0
1104.968628 172.0
1105.160522 36.0
1105.478149 52.0
1105.994385 156.0
1106.040771 176.0
1106.85498 160.0
1107.007324 212.0
1107.265625 132.0
1107.391479 80.0
1108.020752 140.0
1108.113525 172.0
1108.371948 268.0
1108.5177 80.0
1109.266602 144.0
1109.657715 188.0
1109.710815 376.0
1109.945923 156.0
1110.009155 132.0
1110.228027 172.0
1110.52124 92.0
1110.805054 100.0
1110.886841 200.0
1112.078979 132.0
1112.424194 152.0
1112.676514 188.0
1112.94873 172.0
1113.008423 136.0
1113.426758 76.0
1113.57959 144.0
1114.463135 56.0
1114.735474 108.0
1115.007935 112.0
1115.174194 176.0
1115.626099 156.0
1115.958496 132.0
1116.463867 260.0
1116.623535 200.0
1116.703369 180.0
1116.942749 112.0
1117.381836 168.0
1117.514893 136.0
1117.877563 180.0
1118.18042 104.0
1118.27356 312.0
1118.333496 184.0
1118.386719 176.0
1118.433228 252.0
1118.692871 104.0
1118.972534 116.0
1119.065674 92.0
1119.270386 152.0
1119.71167 52.0
1119.777588 176.0
1119.864868 200.0
1120.082764 88.0
1120.14209 168.0
1120.537598 168.0
1120.710815 100.0
1120.770874 172.0
1120.957397 140.0
1121.050659 132.0
1121.277222 144.0
1121.330566 136.0
1121.677246 152.0
1121.937134 52.0
1122.255493 192.0
1122.343872 120.0
1122.537231 64.0
1123.295166 164.0
1123.53772 140.0
1123.624512 172.0
1123.684448 188.0
1124.004761 212.0
1124.079712 172.0
1124.291748 148.0
1124.438477 108.0
1124.678833 156.0
1125.071045 144.0
1125.139404 56.0
1125.526611 56.0
1126.007446 140.0
1126.241211 328.0
1126.421631 144.0
1126.508423 148.0
1126.695435 160.0
1126.875854 168.0
1127.223267 172.0
1127.847778 236.0
1128.148071 176.0
1128.540161 176.0
1128.727295 284.0
1128.887817 144.0
1128.974731 148.0
1129.275757 120.0
1130.259155 196.0
1131.162598 156.0
1131.323242 100.0
1131.383545 164.0
1131.577637 140.0
1131.637939 144.0
1131.892334 68.0
1132.220459 140.0
1132.320923 68.0
1132.473022 68.0
1132.803223 144.0
1132.91333 176.0
1133.091309 120.0
1133.379395 156.0
1133.439697 120.0
1133.861938 156.0
1133.988037 160.0
1134.498657 64.0
1134.599243 152.0
1135.128906 84.0
1135.356934 164.0
1135.450073 176.0
1135.846558 232.0
1135.963501 144.0
1136.235596 172.0
1136.32959 52.0
1136.392578 176.0
1136.537598 160.0
1136.765625 212.0
1136.859619 136.0
1137.007324 388.0
1137.342896 192.0
1137.671753 144.0
1137.772461 168.0
1138.007446 152.0
1138.067871 268.0
1138.242432 168.0
1138.490967 220.0
1138.551392 116.0
1138.907349 140.0
1138.96106 124.0
1139.142456 144.0
1139.202881 192.0
1139.27832 400.0
1139.330566 216.0
1139.478394 112.0
1139.585815 208.0
1139.877319 284.0
1140.009155 124.0
1140.755249 224.0
1140.882935 112.0
1141.454468 140.0
1142.093384 224.0
1142.248047 176.0
1142.395996 160.0
1142.571167 172.0
1143.102783 92.0
1143.237061 172.0
1143.39856 140.0
1143.526489 188.0
1143.739502 184.0
1143.842773 320.0
1143.923584 160.0
1144.004883 176.0
1144.139038 128.0
1144.266968 132.0
1144.489136 184.0
1145.068237 176.0
1145.256836 164.0
1146.388672 220.0
1146.435913 188.0
1146.584106 152.0
1147.001221 164.0
1147.177246 96.0
1147.352539 84.0
1147.403442 180.0
1147.736816 124.0
1147.831299 32.0
1148.040283 184.0
1148.34375 132.0
1148.647339 116.0
1148.951782 120.0
1149.005981 172.0
1149.099365 196.0
1149.180298 168.0
1149.247803 120.0
1149.814575 172.0
1150.098022 172.0
1150.570557 176.0
1150.935913 156.0
1150.995972 108.0
1151.09729 152.0
1151.178223 152.0
1151.299805 200.0
1151.437622 128.0
1152.06311 140.0
1152.157593 140.0
1152.443726 176.0
1152.562988 176.0
1153.002319 180.0
1153.110352 148.0
1153.164429 196.0
1153.225342 96.0
1153.374023 212.0
1153.509155 240.0
1153.625366 180.0
1153.7052 148.0
1154.027466 216.0
1154.12439 208.0
1154.171753 160.0
1154.557251 140.0
1154.746582 136.0
1154.871216 140.0
1155.091553 112.0
1155.348633 160.0
1155.436523 176.0
1155.565063 212.0
1155.740967 180.0
1155.871704 152.0
1156.007446 196.0
1156.207153 152.0
1156.959595 220.0
1157.199463 132.0
1157.433228 160.0
1157.697266 136.0
1157.784546 188.0
1157.859253 176.0
1158.028076 112.0
1158.24585 220.0
1158.374634 204.0
1158.51001 120.0
1158.733643 192.0
1158.801392 128.0
1158.855591 168.0
1159.072388 120.0
1159.621338 168.0
1159.695923 192.0
1160.143311 80.0
1160.387329 160.0
1160.712769 92.0
1160.933472 104.0
1161.085693 172.0
1161.2146 140.0
1161.324219 132.0
1161.456665 156.0
1161.560547 152.0
1161.825073 84.0
1161.953979 92.0
1162.076172 160.0
1162.452759 136.0
1162.645508 224.0
1162.924316 100.0
1163.145508 276.0
1163.304443 100.0
1163.705078 56.0
1163.779785 132.0
1163.998413 180.0
1164.229248 124.0
1164.42334 168.0
1165.022583 164.0
1165.307983 156.0
1165.450562 200.0
1165.600098 152.0
1165.892334 128.0
1166.625 164.0
1166.694336 160.0
1166.761108 168.0
1166.918701 148.0
1166.993042 292.0
1167.496704 204.0
1167.802734 144.0
1167.850342 140.0
1168.135986 148.0
1168.299316 100.0
1168.346924 164.0
1168.903687 136.0
1168.946533 372.0
1169.19751 92.0
1169.415283 204.0
1169.680664 164.0
1169.735107 128.0
1169.782837 164.0
1169.830444 80.0
1170.643188 120.0
1170.838135 104.0
1170.970337 184.0
1171.110596 120.0
1171.379639 128.0
1171.465454 172.0
1171.590332 192.0
1171.757812 92.0
1172.009888 148.0
1172.064331 68.0
1172.391479 112.0
1172.57019 208.0
1172.950317 148.0
1173.311646 144.0
1173.638916 168.0
1173.768433 140.0
1174.348145 192.0
1174.423096 172.0
1174.6073 176.0
1174.92395 116.0
1175.71167 152.0
1175.849121 96.0
1175.903687 148.0
1175.971924 204.0
1176.033447 152.0
1176.115356 92.0
1176.374634 56.0
1176.463379 208.0
1176.907227 168.0
1177.766113 124.0
1177.972656 96.0
1178.359009 176.0
1178.484131 180.0
1178.689941 128.0
1178.970215 116.0
1179.236694 204.0
1179.346069 128.0
1179.779297 188.0
1179.981812 300.0
1180.11853 292.0
1180.255249 140.0
1180.57666 200.0
1181.000732 112.0
1181.116943 164.0
1181.378906 240.0
1181.453491 212.0
1181.787476 148.0
1181.924316 156.0
1182.273315 184.0
1182.553833 132.0
1182.950806 196.0
1183.080933 88.0
1183.286255 192.0
1183.443848 164.0
1183.546509 136.0
1183.758789 136.0
1183.895752 100.0
1184.07373 196.0
1184.317871 208.0
1184.591797 216.0
1184.847778 148.0
1185.050415 172.0
1185.567261 84.0
1185.649536 184.0
1185.786621 156.0
1185.95105 112.0
1186.053833 164.0
1186.142944 132.0
1186.321289 84.0
1186.567993 160.0
1186.673218 232.0
1187.603516 136.0
1187.678955 156.0
1188.028809 148.0
1188.248779 160.0
1188.598267 92.0
1188.6875 144.0
1188.941406 164.0
1189.401245 60.0
1189.607178 136.0
1190.035522 244.0
1190.087769 148.0
1190.286865 168.0
1190.424194 208.0
1190.520264 208.0
1190.618774 220.0
1190.740112 128.0
1190.898071 156.0
1191.028564 188.0
1191.186523 176.0
1191.248413 56.0
1191.378906 136.0
1191.818604 112.0
1191.921631 176.0
1192.147705 196.0
1192.4646 148.0
1192.515381 164.0
1192.541504 64.0
1192.565186 176.0
1192.986938 156.0
1193.330688 160.0
1193.541504 176.0
1194.078003 188.0
1194.135254 208.0
1194.197144 132.0
1194.369141 168.0
1194.417236 104.0
1194.616821 164.0
1194.699341 84.0
1195.072021 180.0
1195.274414 176.0
1195.387329 168.0
1195.57312 164.0
1195.731445 188.0
1196.068726 164.0
1196.942993 220.0
1197.135864 72.0
1197.448608 152.0
1197.542236 168.0
1198.334351 156.0
1198.585327 192.0
1198.747803 228.0
1199.088745 164.0
1199.182251 176.0
1199.344238 200.0
1199.630005 160.0
1199.711182 164.0
1199.885132 204.0
1200.209106 212.0
1200.322754 136.0
1200.484985 172.0
1200.677612 188.0
1200.781494 108.0
1200.908936 144.0
1201.705933 140.0
1201.857666 192.0
1202.250977 196.0
1202.363281 224.0
1202.713379 268.0
1202.844604 132.0
1202.989502 56.0
1203.099976 64.0
1203.186523 164.0
1203.265625 104.0
1203.389893 180.0
1203.717896 136.0
1203.997559 208.0
1204.1427 128.0
1204.197876 220.0
1204.315308 112.0
1204.529419 204.0
1204.937012 140.0
1205.054443 56.0
1205.254883 44.0
1205.463623 224.0
1205.726807 172.0
1205.807739 168.0
1206.180908 304.0
1206.367554 172.0
1206.734009 108.0
1206.816895 148.0
1206.941406 120.0
1207.079712 92.0
1207.259521 156.0
1207.736694 176.0
1207.861206 108.0
1208.481567 172.0
1208.670654 160.0
1208.732422 152.0
1208.885132 156.0
1208.947876 176.0
1209.155029 144.0
1209.452637 108.0
1210.179565 104.0
1210.345703 204.0
1210.449585 76.0
1210.516602 216.0
1210.629639 208.0
1210.84436 88.0
1210.892822 48.0
1211.079834 96.0
1211.359863 132.0
1211.509277 136.0
1211.620117 100.0
1211.730957 32.0
1211.843872 228.0
1211.904175 32.0
1212.098267 212.0
1212.680298 112.0
1212.79126 128.0
1213.137817 56.0
1213.193237 160.0
1213.900513 156.0
1214.039185 80.0
1214.330444 144.0
1214.382202 200.0
1214.43457 148.0
1214.5177 240.0
1214.621826 120.0
1214.692627 136.0
1214.899292 208.0
1215.157593 136.0
1215.278809 164.0
1215.71106 132.0
1215.940063 60.0
1215.995605 160.0
1216.065063 112.0
1216.134399 164.0
1216.590454 232.0
1217.016113 164.0
1217.085449 208.0
1217.527954 172.0
1217.682739 128.0
1217.807007 144.0
1217.925781 144.0
1218.077637 188.0
1218.492798 120.0
1218.556396 208.0
1218.745605 148.0
1218.86731 148.0
1218.940063 172.0
1219.004883 76.0
1219.127686 136.0
1219.211182 172.0
1219.308472 224.0
1219.5448 136.0
1219.760254 132.0
1220.00354 160.0
1220.212036 320.0
1220.323364 164.0
1220.394531 180.0
1220.50415 160.0
1220.657104 108.0
1220.705811 160.0
1220.773071 152.0
1221.011719 132.0
1221.074341 144.0
1221.171753 60.0
1221.525391 180.0
1222.07605 124.0
1222.166504 136.0
1222.305786 196.0
1222.486572 168.0
1223.231323 128.0
1223.42627 148.0
1223.906616 148.0
1224.261719 132.0
1224.456787 152.0
1224.552368 196.0
1224.665649 128.0
1224.826904 160.0
1224.895508 64.0
1225.157227 136.0
1225.215942 56.0
1225.278687 236.0
1225.404053 136.0
1225.494629 196.0
1225.647949 168.0
1225.731567 148.0
1226.198486 148.0
1226.372803 184.0
1226.442383 92.0
1226.651611 140.0
1226.77002 100.0
1226.916504 96.0
1227.286011 168.0
1227.336304 148.0
1227.383545 240.0
1227.446411 160.0
1227.536987 116.0
1227.92749 200.0
1228.285889 240.0
1228.534424 152.0
1228.818726 204.0
1229.211182 132.0
1229.434448 176.0
1229.560059 180.0
1229.839233 64.0
1230.020752 136.0
1230.097534 144.0
1230.411499 156.0
1230.558228 124.0
1230.787109 108.0
1230.933472 180.0
1231.172729 168.0
1231.437134 152.0
1231.619751 148.0
1231.717529 176.0
1232.695679 312.0
1232.877319 172.0
1232.947266 48.0
1233.450439 136.0
1233.49939 88.0
1233.569336 168.0
1234.107666 156.0
1234.22644 164.0
1234.387329 212.0
1234.478271 104.0
1234.577271 148.0
1234.68103 200.0
1235.08667 160.0
1235.142578 128.0
1235.275513 116.0
1235.359497 112.0
1235.419189 224.0
1235.730225 108.0
1235.989136 88.0
1236.801025 148.0
1237.050293 148.0
1237.157959 128.0
1237.304932 136.0
1237.416992 192.0
1237.585083 100.0
1237.634033 152.0
1237.788086 212.0
1237.844116 96.0
1237.935181 116.0
1238.082275 136.0
1238.180298 144.0
1238.299316 160.0
1238.733643 144.0
1238.845703 152.0
1239.056519 180.0
1239.223999 172.0
1239.315063 168.0
1239.378174 232.0
1239.623413 136.0
1239.753052 176.0
1239.896729 216.0
1239.945801 156.0
1240.021973 188.0
1240.242554 148.0
1240.376831 136.0
1240.646729 104.0
1240.715454 164.0
1240.886597 164.0
1241.035767 200.0
1241.130493 152.0
1241.361816 160.0
1241.467041 128.0
1242.077271 132.0
1242.231567 96.0
1242.399902 92.0
1242.617432 136.0
1242.680542 204.0
1243.418335 144.0
1243.606812 208.0
1243.726196 112.0
1243.775269 184.0
1244.07019 168.0
1244.231567 128.0
1244.486572 180.0
1244.929932 168.0
1245.025024 84.0
1245.074219 272.0
1245.165527 184.0
1245.467529 140.0
1245.579956 92.0
1245.804688 116.0
1245.86792 64.0
1245.973267 184.0
1246.036499 180.0
1246.162964 196.0
1246.222168 48.0
1246.345703 176.0
1246.55603 136.0
1246.774292 176.0
1246.820679 76.0
1247.041382 172.0
1247.589722 192.0
1247.88623 108.0
1247.983398 148.0
1248.081787 156.0
1248.162964 208.0
1248.356079 72.0
1248.43689 148.0
1248.521973 424.0
1248.630371 148.0
1249.03125 120.0
1249.214111 168.0
1249.375977 52.0
1249.52063 152.0
1249.627075 224.0
1249.727661 204.0
1250.045898 228.0
1250.572144 132.0
1250.719971 68.0
1250.8396 104.0
1251.128296 112.0
1251.226807 160.0
1251.384644 172.0
1251.578857 156.0
1251.719727 192.0
1251.90979 220.0
1251.973145 120.0
1252.184448 196.0
1252.30896 204.0
1252.42395 140.0
1252.53772 160.0
1252.783203 156.0
1252.858643 148.0
1253.10022 164.0
1253.269287 132.0
1253.452515 144.0
1253.607544 168.0
1253.804932 176.0
1253.875366 112.0
1253.94397 232.0
1254.129028 168.0
1254.185425 100.0
1254.488525 136.0
1254.692993 228.0
1255.151367 176.0
1255.320557 168.0
1255.828369 132.0
1255.957275 168.0
1256.250244 124.0
1256.442017 124.0
1256.57605 176.0
1256.667847 100.0
1257.119385 236.0
1257.458862 164.0
1257.766235 176.0
1257.902832 116.0
1258.121704 176.0
1258.206421 140.0
1258.382812 180.0
1258.481689 132.0
1258.658203 224.0
1258.968994 168.0
1259.088989 88.0
1259.322021 124.0
1259.618774 156.0
1259.703491 116.0
1259.838745 156.0
1259.940186 176.0
1260.226318 112.0
1260.275757 136.0
1260.374634 180.0
1260.487671 124.0
1260.826904 180.0
1260.883423 40.0
1260.957642 164.0
1261.148438 172.0
1261.250977 156.0
1262.042725 220.0
1262.141724 88.0
1262.257935 212.0
1262.438721 144.0
1262.59436 32.0
1262.884277 148.0
1263.006348 180.0
1263.061157 104.0
1263.15686 352.0
1263.315796 120.0
1263.473022 204.0
1263.643066 112.0
1263.704346 160.0
1263.782227 216.0
1263.853516 156.0
1263.952515 184.0
1264.023315 188.0
1264.164795 172.0
1264.358032 132.0
1264.568237 160.0
1265.368164 184.0
1265.502686 128.0
1266.005371 160.0
1266.083374 108.0
1266.232056 180.0
1266.316528 176.0
1266.430298 248.0
1266.692383 164.0
1266.770386 180.0
1266.925415 228.0
1267.103271 228.0
1267.542847 168.0
1268.109497 84.0
1268.16626 136.0
1268.463989 212.0
1269.066528 196.0
1269.198608 180.0
1269.34314 52.0
1269.421143 192.0
1269.591309 128.0
1269.683472 52.0
1270.165771 108.0
1270.52771 140.0
1270.669434 140.0
1270.953247 132.0
1271.080933 156.0
1271.244141 196.0
1271.606079 120.0
1271.769409 108.0
1271.916382 196.0
1272.046265 120.0
1272.395386 176.0
1272.458008 148.0
1272.990479 132.0
1273.047241 156.0
1273.246094 144.0
1273.452148 100.0
1273.642822 164.0
1273.736206 112.0
1274.119873 44.0
1274.247681 164.0
1274.574585 76.0
1274.730835 156.0
1274.922729 224.0
1274.972534 152.0
1275.036499 64.0
1275.192871 44.0
1275.334961 152.0
1275.384766 116.0
1275.573486 204.0
1275.683228 80.0
1275.740112 148.0
1275.889404 160.0
1275.999878 172.0
1276.223633 128.0
1276.407715 208.0
1276.664429 176.0
1276.870728 112.0
1277.02002 212.0
1277.098267 192.0
1277.219238 136.0
1277.269043 288.0
1277.340454 164.0
1277.53894 220.0
1277.660278 128.0
1277.78833 136.0
1277.873657 204.0
1278.046509 196.0
1278.178833 124.0
1278.349121 176.0
1278.688599 300.0
1278.741821 156.0
1279.055054 188.0
1279.113892 192.0
1279.190308 204.0
1279.745605 120.0
1279.916504 120.0
1280.101562 144.0
1280.188965 176.0
1280.35791 156.0
1280.436279 140.0
1280.607178 124.0
1280.701294 208.0
1280.842285 324.0
1281.05603 88.0
1281.198486 164.0
1281.274048 144.0
1281.561768 100.0
1281.925171 172.0
1282.146118 136.0
1282.359985 164.0
1282.423462 168.0
1282.616577 260.0
1282.773315 168.0
1282.897461 188.0
1283.18689 168.0
1283.408569 176.0
1283.671753 192.0
1283.800049 120.0
1283.906982 136.0
1284.213867 152.0
1284.473755 164.0
1284.563232 168.0
1284.684448 92.0
1284.91272 144.0
1285.069702 152.0
1285.169678 208.0
1285.269531 84.0
1285.319458 80.0
1285.526367 176.0
1285.704834 168.0
1285.897461 128.0
1286.08313 136.0
1286.21106 168.0
1286.338379 232.0
1286.475708 184.0
1286.732544 192.0
1287.261108 108.0
1287.411011 204.0
1287.832397 184.0
1288.032349 96.0
1288.322632 204.0
1288.389526 132.0
1288.503906 100.0
1288.567993 156.0
1288.59436 152.0
1289.271118 228.0
1289.325562 56.0
1289.625732 188.0
1289.933105 92.0
1290.018921 156.0
1290.197632 128.0
1290.376343 148.0
1290.833618 156.0
1290.934082 216.0
1291.045166 160.0
1291.350342 132.0
1291.413208 180.0
1291.656494 132.0
1291.824219 160.0
1292.078491 116.0
1292.192993 152.0
1292.271729 148.0
1292.339844 160.0
1292.436279 176.0
1292.586548 116.0
1292.693848 188.0
1292.763062 192.0
1292.858398 140.0
1293.27356 160.0
1293.423828 180.0
1293.667236 108.0
1293.760254 152.0
1293.867676 160.0
1294.311646 132.0
1294.442261 132.0
1294.527222 68.0
1294.598022 204.0
1294.699951 156.0
1294.820068 164.0
1295.082886 148.0
1295.521973 184.0
1295.599976 236.0
1296.152466 196.0
1296.21936 132.0
1296.274292 180.0
1296.460571 152.0
1296.604004 184.0
1297.026855 184.0
1297.195312 160.0
1297.327881 132.0
1297.471436 144.0
1297.571655 60.0
1297.656616 160.0
1297.785767 144.0
1298.001831 128.0
1298.138062 144.0
1298.195435 92.0
1298.273438 184.0
1298.381958 184.0
1298.549561 204.0
1298.740479 180.0
1298.874146 172.0
1299.070435 192.0
1299.185303 188.0
1299.378906 60.0
1299.429199 284.0
1299.608521 84.0
1299.866821 96.0
1299.953003 64.0
1300.03186 144.0
1300.168213 172.0
1300.238159 144.0
1300.756836 164.0
1301.013916 152.0
1301.072632 196.0
1301.323975 168.0
1301.460327 104.0
1301.560425 176.0
1301.680664 308.0
1302.034912 168.0
1302.177734 172.0
1302.263794 344.0
1302.565308 144.0
1302.85376 116.0
1303.011719 96.0
1303.186035 144.0
1303.327881 180.0
1303.608154 156.0
1303.838135 148.0
1303.953125 172.0
1304.060913 40.0
1304.190308 92.0
1304.262085 252.0
1304.326782 140.0
1304.529663 144.0
1304.643188 208.0
1304.772583 48.0
1304.83728 140.0
1304.894775 140.0
1305.081665 208.0
1305.275879 320.0
1305.398071 120.0
1305.51062 208.0
1305.585083 164.0
1305.692871 188.0
1306.05249 188.0
1306.145996 168.0
1306.313965 152.0
1306.62085 148.0
1306.721558 112.0
1306.858276 160.0
1307.084473 120.0
1307.207886 372.0
1307.508911 104.0
1307.765015 196.0
1307.829712 156.0
1307.980957 144.0
1308.060059 76.0
1308.153687 60.0
1308.261719 112.0
1308.362427 80.0
1308.470459 184.0
1308.657593 168.0
1309.079712 212.0
1309.305664 176.0
1309.363281 160.0
1309.485718 316.0
1309.673096 424.0
1309.781128 68.0
1309.910767 36.0
1310.162842 184.0
1310.210938 164.0
1310.270874 172.0
1310.458252 136.0
1310.537476 116.0
1310.660034 248.0
1310.955444 204.0
1311.216675 168.0
1311.453369 96.0
1311.697754 184.0
1311.931763 80.0
1312.051025 92.0
1312.167114 152.0
1312.296143 136.0
1312.353882 144.0
1312.797485 176.0
1312.909058 160.0
1313.151611 164.0
1313.22644 180.0
1313.37793 128.0
1313.457275 116.0
1313.638428 208.0
1313.738525 156.0
1313.854004 44.0
1314.019897 168.0
1314.422852 212.0
1314.503296 200.0
1314.589966 152.0
1314.647705 108.0
1314.763184 144.0
1314.963135 180.0
1315.188965 128.0
1316.10083 196.0
1316.264648 156.0
1316.437988 192.0
1316.596802 200.0
1316.813477 308.0
1317.314941 140.0
1317.51416 200.0
1317.67334 212.0
1317.832031 220.0
1317.954834 180.0
1318.070435 36.0
1318.144531 204.0
1318.337891 176.0
1318.518555 112.0
1318.677368 132.0
1318.94751 212.0
1319.183472 100.0
1319.313599 176.0
1319.414795 140.0
1319.602783 140.0
1319.703979 124.0
1319.858276 172.0
1320.000488 132.0
1320.282471 156.0
1320.571777 176.0
1320.738159 200.0
1321.027466 176.0
1321.11438 132.0
1321.196045 176.0
1321.305664 164.0
1321.374756 32.0
1321.497803 148.0
1321.685913 112.0
1321.825806 144.0
1322.054932 148.0
1322.301025 176.0
1322.424072 92.0
1322.626709 152.0
1322.952393 176.0
1323.531616 116.0
1323.625732 164.0
1323.966064 112.0
1324.153564 304.0
1324.263062 172.0
1324.335449 124.0
1324.422363 120.0
1324.512817 152.0
1324.646973 152.0
1324.762817 164.0
1324.878784 108.0
1324.951172 124.0
1325.009155 172.0
1325.148071 140.0
1325.306396 164.0
1325.378662 88.0
1325.567139 100.0
1325.675781 152.0
1325.837524 112.0
1326.001953 152.0
1326.125122 160.0
1326.209473 188.0
1326.283936 140.0
1326.30542 128.0
1326.337646 124.0
1326.351685 168.0
1326.581787 116.0
1326.777466 252.0
1327.234253 188.0
1327.343018 120.0
1327.415527 156.0
1327.546021 144.0
1327.633057 120.0
1327.734619 164.0
1327.979004 172.0
1328.062866 308.0
1328.162598 112.0
1328.641357 136.0
1329.083862 156.0
1329.191772 156.0
1329.381348 112.0
1329.584595 104.0
1329.713379 144.0
1329.731689 108.0
1329.754272 172.0
1329.962036 116.0
1330.45105 216.0
1330.592773 196.0
1330.862183 48.0
1331.08728 160.0
1331.159912 108.0
1331.22522 192.0
1331.309814 264.0
1331.392334 152.0
1331.795776 212.0
1331.893433 144.0
1332.003906 148.0
1332.118652 256.0
1332.412598 264.0
1332.481201 176.0
1332.727417 156.0
1333.018433 184.0
1333.231445 196.0
1333.317505 48.0
1333.433716 196.0
1333.508911 272.0
1333.78479 160.0
1333.862549 212.0
1333.943481 160.0
1334.211548 168.0
1334.491211 232.0
1334.582275 100.0
1334.899658 184.0
1334.953125 112.0
1335.066284 124.0
1335.120483 228.0
1335.273193 48.0
1335.389526 224.0
1335.475952 200.0
1335.549561 152.0
1335.716797 152.0
1335.855103 152.0
1335.935059 40.0
1335.993286 148.0
1336.124268 120.0
1336.182373 108.0
1336.307617 176.0
1336.575317 136.0
1336.750977 192.0
1336.905884 188.0
1337.040283 180.0
1337.150635 128.0
1337.266602 160.0
1337.528931 124.0
1337.608765 76.0
1337.674316 80.0
1337.783447 84.0
1338.111084 124.0
1338.278564 116.0
1338.465942 120.0
1338.635376 188.0
1339.035889 156.0
1339.640381 188.0
1339.727783 204.0
1339.807983 128.0
1339.975586 64.0
1340.05835 156.0
1340.215942 152.0
1340.402588 172.0
1340.521606 188.0
1340.784424 176.0
1340.92627 156.0
1341.032104 128.0
1341.177979 180.0
1341.229004 224.0
1341.309082 80.0
1341.442749 156.0
1341.673584 304.0
1341.79187 256.0
1341.998657 192.0
1342.329834 196.0
1342.476929 208.0
1342.628784 96.0
1342.767334 168.0
1342.825684 176.0
1343.029907 588.0
1343.088257 196.0
1343.248779 116.0
1343.416504 200.0
1343.540527 160.0
1343.594727 208.0
1343.645508 196.0
1343.828125 204.0
1344.080444 148.0
1344.182617 176.0
1344.233765 256.0
1344.423462 232.0
1345.014648 52.0
1345.072998 192.0
1345.175171 204.0
1345.386963 208.0
1345.489136 72.0
1345.605957 84.0
1345.679321 168.0
1345.854248 120.0
1346.175537 312.0
1346.416504 156.0
1346.566406 208.0
1346.883911 196.0
1347.037354 136.0
1347.095703 160.0
1347.212646 192.0
1347.271118 148.0
1347.336792 180.0
1347.504883 136.0
1347.614502 96.0
1347.672852 292.0
1347.731323 160.0
1347.852905 168.0
1348.005859 148.0
1348.312866 180.0
1348.600952 124.0
1349.054199 116.0
1349.105347 72.0
1349.388672 208.0
1349.580566 72.0
1349.631714 116.0
1349.814575 100.0
1350.151001 108.0
1350.355713 124.0
1350.662964 156.0
1350.845825 96.0
1350.933594 120.0
1351.065308 176.0
1351.166382 172.0
1351.226196 148.0
1351.445679 200.0
1351.533447 208.0
1351.665161 180.0
1351.723755 208.0
1351.89209 232.0
1352.060425 140.0
1352.302124 140.0
1352.476929 192.0
1352.580078 164.0
1352.968018 168.0
1353.260864 184.0
1353.583008 200.0
1353.663574 136.0
1353.758789 256.0
1354.54248 192.0
1354.719482 252.0
1354.820801 84.0
1355.018677 136.0
1355.084595 84.0
1355.187134 220.0
1355.348389 148.0
1355.436279 184.0
1355.604858 220.0
1355.692749 136.0
1355.875977 108.0
1356.05188 164.0
1356.264404 168.0
1356.447632 152.0
1356.557617 116.0
1356.790771 204.0
1356.985718 204.0
1357.184937 152.0
1357.437378 100.0
1357.48877 212.0
1357.539185 136.0
1357.585693 132.0
1357.615601 136.0
1357.636963 172.0
1358.058105 96.0
1358.181519 168.0
1358.251465 128.0
1358.310181 100.0
1358.368896 228.0
1358.420166 72.0
1358.574219 208.0
1358.698975 268.0
1358.856445 196.0
1359.043823 112.0
1359.175903 40.0
1359.286011 212.0
1359.476196 164.0
1359.660156 160.0
1359.875488 328.0
1359.968506 144.0
1360.093262 104.0
1360.408936 64.0
1360.646606 212.0
1360.790649 104.0
1360.900757 136.0
1360.981567 152.0
1361.062256 212.0
1361.121094 168.0
1361.312012 80.0
1361.385376 168.0
1361.620361 264.0
1361.686523 112.0
1361.767334 112.0
1361.833374 124.0
1361.965576 176.0
1362.112549 252.0
1362.200684 72.0
1362.259399 168.0
1362.310913 176.0
1362.479858 180.0
1362.564209 212.0
1362.624268 168.0
1362.935303 172.0
1362.994141 200.0
1363.185181 120.0
1363.354248 168.0
1363.526978 184.0
1363.809937 124.0
1363.866455 168.0
1363.971558 88.0
1364.280273 128.0
1364.478882 136.0
1364.541626 192.0
1364.647949 128.0
1364.72876 156.0
1364.817017 116.0
1364.944702 180.0
1365.24353 88.0
1365.730957 132.0
1365.759766 164.0
1365.916382 160.0
1366.008423 148.0
1366.221802 184.0
1366.378296 164.0
1366.494019 136.0
1366.552856 160.0
1366.758911 128.0
1366.854492 84.0
1366.937988 168.0
1367.089966 120.0
1367.181885 164.0
1367.369629 172.0
1367.553711 172.0
1367.693481 192.0
1367.841675 184.0
1368.008789 136.0
1368.105713 156.0
1368.245605 156.0
1368.403564 124.0
1368.657959 124.0
1368.716797 84.0
1368.849609 132.0
1368.952515 180.0
1369.12915 168.0
1369.384277 172.0
1369.468018 92.0
1369.627563 140.0
1369.654541 132.0
1369.787964 228.0
1370.293091 132.0
1370.344604 148.0
1370.403564 312.0
1370.462524 220.0
1370.558228 160.0
1370.808838 156.0
1370.911987 124.0
1371.110596 176.0
1371.387573 164.0
1371.656372 156.0
1371.724365 176.0
1371.811157 60.0
1371.929077 132.0
1372.106079 52.0
1372.231445 116.0
1372.282959 188.0
1372.37146 208.0
1372.459961 44.0
1372.518921 140.0
1372.866821 176.0
1372.953979 92.0
1373.160889 140.0
1373.307983 188.0
1373.570923 176.0
1373.883423 188.0
1373.942383 156.0
1374.104736 180.0
1374.385132 80.0
1374.62854 256.0
1375.174683 176.0
1375.241943 144.0
1375.307617 44.0
1375.492065 176.0
1375.957153 116.0
1376.134399 104.0
1376.282104 88.0
1376.50354 184.0
1376.710327 100.0
1376.843262 204.0
1376.933228 156.0
1377.005737 132.0
1377.116577 160.0
1377.182983 84.0
1377.330688 128.0
1377.670532 176.0
1377.945557 176.0
1378.032471 160.0
1378.291138 360.0
1378.364868 148.0
1378.864746 104.0
1378.941406 136.0
1379.04187 216.0
1379.274048 128.0
1379.658447 168.0
1379.849121 172.0
1379.939331 220.0
1380.050293 148.0
1380.102051 164.0
1380.264771 152.0
1380.367432 172.0
1380.434814 76.0
1380.796265 140.0
1380.900757 184.0
1381.356812 164.0
1381.403687 312.0
1381.529419 140.0
1381.665527 188.0
1382.030273 200.0
1382.128662 112.0
1382.180542 144.0
1382.411499 208.0
1382.478882 356.0
1382.639282 144.0
1382.912476 120.0
1383.105591 176.0
1383.253662 144.0
1383.564575 152.0
1383.697876 172.0
1383.749634 104.0
1384.149536 68.0
1384.253174 156.0
1384.319824 124.0
1384.460449 176.0
1384.904907 164.0
1385.223389 128.0
1385.430786 196.0
1385.534546 104.0
1385.942017 132.0
1385.993896 140.0
1386.206665 144.0
1386.305054 124.0
1386.55481 168.0
1386.846069 128.0
1386.897949 204.0
1386.994629 124.0
1387.127808 128.0
1387.276611 196.0
1387.343384 144.0
1387.428345 148.0
1387.688354 168.0
1388.195435 188.0
1388.336304 104.0
1388.558838 144.0
1388.711182 160.0
1388.833252 100.0
1389.078003 264.0
1389.151489 120.0
1389.419312 176.0
1389.515747 212.0
1389.625 152.0
1389.745728 56.0
1389.803223 132.0
1389.919067 184.0
1390.07959 156.0
1390.439575 280.0
1390.50647 224.0
1390.665894 192.0
1390.759399 148.0
1390.85144 148.0
1390.970215 124.0
1391.036987 188.0
1391.155762 156.0
1391.281982 148.0
1391.37854 108.0
1391.452759 160.0
1391.571533 228.0
1391.842407 160.0
1392.009644 200.0
1392.514648 120.0
1392.629028 160.0
1392.707764 192.0
1392.759766 208.0
1392.848877 76.0
1393.041992 208.0
1393.175659 140.0
1393.227661 116.0
1393.376343 52.0
1394.048462 192.0
1394.111938 144.0
1394.282837 160.0
1394.37207 168.0
1394.594971 228.0
1394.654419 124.0
1394.788208 196.0
1394.869995 120.0
1394.921997 132.0
1395.01123 116.0
1395.211914 120.0
1395.360596 60.0
1395.546509 236.0
1395.598511 140.0
1395.893555 172.0
1395.951782 236.0
1396.050415 176.0
1396.211548 260.0
1396.327271 360.0
1396.416626 132.0
1396.519531 176.0
1396.840576 120.0
1396.900024 136.0
1397.014771 168.0
1397.190186 148.0
1397.309204 160.0
1397.733276 68.0
1397.792847 64.0
1397.889526 172.0
1397.959961 188.0
1398.016113 208.0
1398.194702 88.0
1398.276611 184.0
1398.59729 136.0
1398.656128 164.0
1398.75293 144.0
1398.8125 124.0
1398.927002 184.0
1399.117676 184.0
1399.1698 132.0
1399.274048 136.0
1399.337158 140.0
1399.582397 116.0
1399.736328 140.0
1399.899536 220.0
1400.167603 208.0
1400.442017 252.0
1400.621948 128.0
1400.674072 124.0
1400.755981 184.0
1401.091187 72.0
1401.623169 172.0
1401.727173 152.0
1401.873535 108.0
1401.985352 120.0
1402.141846 188.0
1402.283447 36.0
1402.544312 168.0
1402.604004 140.0
1402.780884 200.0
1403.125732 124.0
1403.190308 240.0
1403.334595 176.0
1403.588013 136.0
1403.662598 104.0
1403.856201 212.0
1404.039673 184.0
1404.221924 140.0
1404.311401 200.0
1404.475464 152.0
1404.838623 224.0
1404.990234 100.0
1405.049927 232.0
1405.102173 224.0
1405.186279 204.0
1405.355835 168.0
1405.437866 144.0
1405.497559 228.0
1405.661743 164.0
1405.736328 160.0
1405.788574 108.0
1405.848267 144.0
1406.184082 176.0
1406.390015 248.0
1406.431641 172.0
1406.636108 164.0
1406.790527 168.0
1406.899658 144.0
1407.109741 176.0
1407.281494 140.0
1407.480225 240.0
1407.550293 184.0
1407.774292 144.0
1408.199951 336.0
1408.341919 108.0
1408.536133 176.0
1408.634399 232.0
1408.700439 44.0
1408.7677 136.0
1408.924561 276.0
1408.976807 144.0
1409.220825 184.0
1409.387817 152.0
1409.651001 204.0
1409.723999 240.0
1409.83606 160.0
1409.895874 120.0
1410.287842 188.0
1410.413452 164.0
1410.488403 88.0
1410.653564 152.0
1410.837646 112.0
1410.991089 152.0
1411.046997 164.0
1411.15918 156.0
1411.271362 152.0
1411.351074 176.0
1411.533081 112.0
1411.660156 132.0
1411.734985 224.0
1411.914429 108.0
1411.981689 172.0
1412.034058 168.0
1412.108887 196.0
1412.196777 196.0
1412.430542 104.0
1412.542725 164.0
1412.677368 128.0
1412.737183 64.0
1412.856934 164.0
1412.924194 236.0
1413.014038 184.0
1413.141235 180.0
1413.193604 128.0
1413.328125 208.0
1413.466309 184.0
1413.781982 272.0
1414.016724 104.0
1414.155151 96.0
1414.293579 112.0
1415.07959 176.0
1415.147339 148.0
1415.274292 172.0
1415.37915 152.0
1415.47644 164.0
1415.578247 168.0
1415.865845 124.0
1415.963257 108.0
1416.179932 172.0
1416.322754 248.0
1416.461914 180.0
1416.689819 100.0
1417.011963 180.0
1417.206787 116.0
1417.289185 244.0
1417.364136 184.0
1417.551392 124.0
1417.816772 160.0
1417.911133 220.0
1417.963623 176.0
1418.113525 88.0
1418.214111 188.0
1418.549561 132.0
1418.705688 220.0
1418.772583 232.0
1419.020508 160.0
1419.103027 132.0
1419.530396 200.0
1419.665405 168.0
1419.755371 188.0
1419.852905 92.0
1420.017944 160.0
1420.197876 120.0
1420.274048 160.0
1420.369873 184.0
1420.445435 112.0
1420.888062 132.0
1421.120605 108.0
1421.345703 72.0
1421.54834 220.0
1421.803467 156.0
1421.96106 128.0
1422.105103 172.0
1422.182739 148.0
1422.29126 124.0
1422.403931 132.0
1422.463989 184.0
1422.644165 128.0
1422.96875 168.0
1423.162109 180.0
1423.237183 44.0
1423.295654 232.0
1423.42334 148.0
1423.446655 116.0
1423.466553 252.0
1423.710327 288.0
1423.770386 156.0
1424.138428 156.0
1424.296143 156.0
1424.536499 56.0
1424.626709 148.0
1424.784424 56.0
1424.897095 164.0
1425.032349 176.0
1425.14502 116.0
1425.220215 88.0
1425.298706 196.0
1425.355469 52.0
1425.678589 188.0
1425.874023 120.0
1426.070557 228.0
1426.216919 152.0
1426.311768 148.0
1426.595581 268.0
1426.760986 224.0
1427.057617 168.0
1427.121826 172.0
1427.301147 188.0
1427.422852 224.0
1427.478271 220.0
1427.728271 176.0
1427.875 128.0
1428.277954 168.0
1428.453003 224.0
1428.580811 180.0
1428.663574 176.0
1428.911865 172.0
1428.987061 136.0
1429.05481 152.0
1429.292969 212.0
1429.3927 324.0
1429.468628 40.0
1429.694458 172.0
1429.837402 212.0
1429.998169 152.0
1430.069946 240.0
1430.148926 124.0
1430.247925 116.0
1430.371826 200.0
1430.469604 120.0
1430.659058 168.0
1430.793335 80.0
1430.93811 224.0
1431.034302 184.0
1431.192383 180.0
1431.37915 124.0
1431.440918 156.0
1431.509521 164.0
1431.576416 192.0
1431.878418 244.0
1431.953003 140.0
1432.141235 48.0
1432.224121 160.0
1432.374756 108.0
1432.462646 180.0
1432.541016 204.0
1432.80896 364.0
1432.924683 188.0
1433.150757 180.0
1433.331543 172.0
1433.391968 208.0
1433.467163 172.0
1433.707153 124.0
1433.768677 216.0
1433.851562 176.0
1434.120117 216.0
1434.303711 88.0
1434.703247 176.0
1434.918823 240.0
1434.968384 172.0
1435.056152 184.0
1435.332642 176.0
1435.470215 156.0
1435.638306 40.0
1435.781372 156.0
1435.894653 128.0
1436.204346 168.0
1436.353638 180.0
1436.46582 156.0
1437.109131 152.0
1437.199707 228.0
1437.252563 124.0
1437.396851 124.0
1437.56189 208.0
1437.738892 152.0
1438.011475 136.0
1438.241089 212.0
1438.369507 248.0
1438.460083 84.0
1438.595947 128.0
1438.769531 80.0
1438.935669 144.0
1439.08667 116.0
1439.267822 216.0
1439.358521 84.0
1439.479248 212.0
1439.615234 196.0
1439.667847 144.0
1439.683228 140.0
1440.015503 132.0
1440.075928 160.0
1440.21936 60.0
1440.649536 144.0
1440.770264 152.0
1440.787476 140.0
1441.140991 168.0
1441.214722 144.0
1441.345093 108.0
1441.624634 136.0
1442.025146 124.0
1442.387939 140.0
1442.508911 176.0
1442.64856 188.0
1443.060791 92.0
1443.196899 236.0
1443.491821 180.0
1443.639404 160.0
1443.75647 180.0
1443.824585 180.0
1443.998535 72.0
1444.127075 156.0
1444.266479 184.0
1444.338867 180.0
1444.452271 104.0
1444.612427 232.0
1444.777588 192.0
1444.830566 128.0
1444.984863 164.0
1445.092529 96.0
1445.171021 116.0
1445.73938 140.0
1445.917725 148.0
1446.081055 156.0
1446.15271 148.0
1446.260742 132.0
1446.359131 216.0
1446.50293 160.0
1446.692261 92.0
1446.886475 156.0
1446.998291 116.0
1447.30542 208.0
1447.403931 132.0
1447.479614 108.0
1447.661377 144.0
1447.790161 112.0
1448.071533 180.0
1448.138428 152.0
1448.233765 200.0
1448.310791 228.0
1448.413208 164.0
1448.563721 252.0
1448.673218 224.0
1448.702515 132.0
1448.93103 232.0
1449.17627 104.0
1449.22937 192.0
1449.347778 228.0
1449.471802 228.0
1449.554199 248.0
1449.674438 196.0
1449.774902 136.0
1449.889404 216.0
1450.078125 144.0
1450.373657 180.0
1450.434326 272.0
1450.730469 148.0
1450.823975 140.0
1450.910034 168.0
1450.957397 344.0
1451.139038 152.0
1451.214966 188.0
1451.349365 200.0
1451.594238 200.0
1451.765991 236.0
1452.047729 76.0
1452.092041 168.0
1452.261597 184.0
1452.405762 212.0
1452.511963 208.0
1452.625732 148.0
1452.762329 180.0
1452.822998 120.0
1452.989868 76.0
1453.103638 124.0
1453.414795 112.0
1453.657593 120.0
1453.781738 180.0
1453.839722 164.0
1454.021851 272.0
1454.1698 164.0
1454.185791 80.0
1454.223511 132.0
1454.401367 100.0
1454.644287 192.0
1454.977173 136.0
1455.084595 208.0
1455.221191 44.0
1455.281982 140.0
1455.373047 208.0
1455.461548 140.0
1455.60083 180.0
1455.661621 112.0
1456.17041 252.0
1456.223633 88.0
1456.623047 108.0
1456.709717 120.0
1456.869263 208.0
1456.968018 128.0
1457.1427 216.0
1457.507202 168.0
1457.659424 156.0
1457.720215 304.0
1457.872192 64.0
1457.970947 240.0
1458.115356 160.0
1458.206543 188.0
1458.350952 260.0
1458.525757 104.0
1458.609375 128.0
1459.088379 88.0
1459.377197 144.0
1459.476074 200.0
1459.673828 172.0
1459.855835 240.0
1459.939941 136.0
1460.092041 52.0
1460.365845 144.0
1460.495117 124.0
1460.670044 52.0
1460.78418 168.0
1461.018921 176.0
1461.126465 212.0
1461.192871 44.0
1461.216309 168.0
1461.244263 316.0
1461.354736 216.0
1461.468872 32.0
1461.643921 116.0
1461.856934 160.0
1461.963501 152.0
1462.077637 140.0
1462.13855 168.0
1462.29834 216.0
1462.579956 168.0
1462.648438 36.0
1462.709351 184.0
1462.831909 180.0
1462.960571 112.0
1463.197632 172.0
1463.387085 196.0
1463.744751 180.0
1463.828613 128.0
1463.889526 100.0
1463.988647 164.0
1464.326416 200.0
1464.407349 128.0
1464.727295 100.0
1464.831299 144.0
1464.993896 148.0
1465.256226 168.0
1465.507812 124.0
1465.596436 180.0
1465.710083 136.0
1465.816284 128.0
1466.052979 156.0
1466.182495 116.0
1466.249268 172.0
1466.277466 132.0
1466.300049 232.0
1466.430786 96.0
1466.517822 204.0
1466.596558 172.0
1466.670288 176.0
1466.821045 232.0
1466.949585 192.0
1467.043823 176.0
1467.142944 128.0
1467.379272 140.0
1467.611938 160.0
1467.737549 120.0
1468.004517 148.0
1468.126465 152.0
1468.225586 196.0
1468.30957 228.0
1468.675659 72.0
1468.821899 200.0
1468.88916 112.0
1468.9823 156.0
1469.07605 180.0
1469.240112 164.0
1469.354492 156.0
1469.407959 28.0
1469.621582 44.0
1469.736084 164.0
1469.842896 108.0
1469.916992 164.0
1469.980225 96.0
1470.039551 156.0
1470.09375 144.0
1470.247314 184.0
1470.392334 236.0
1470.506836 108.0
1470.613647 200.0
1470.947021 176.0
1471.048706 180.0
1471.292969 188.0
1471.415161 180.0
1471.468628 200.0
1471.544922 152.0
1471.640625 184.0
1471.860229 148.0
1471.926758 124.0
1472.036255 180.0
1472.087036 184.0
1472.163452 180.0
1472.262695 160.0
1472.438354 124.0
1472.598511 124.0
1472.6875 224.0
1472.751465 152.0
1472.934814 68.0
1473.049438 248.0
1473.098999 156.0
1473.164062 100.0
1473.232788 172.0
1473.353638 132.0
1473.450928 116.0
1473.874512 44.0
1474.004395 212.0
1474.073242 68.0
1474.233643 140.0
1474.563232 164.0
1474.730469 172.0
1474.791626 152.0
1474.974976 140.0
1475.036133 60.0
1475.192749 184.0
1475.32666 116.0
1475.403076 156.0
1475.913574 116.0
1475.998169 208.0
1476.198242 156.0
1476.351196 204.0
1476.516602 348.0
1476.588379 144.0
1476.641846 116.0
1476.723755 312.0
1476.825439 192.0
1477.039551 144.0
1477.16394 236.0
1477.289185 176.0
1477.619019 200.0
1477.728394 236.0
1477.810791 148.0
1477.942383 112.0
1478.073975 132.0
1478.132324 124.0
1478.34021 132.0
1478.439697 132.0
1478.500977 76.0
1478.661621 76.0
1478.846313 184.0
1478.911621 200.0
1479.134155 168.0
1479.281616 188.0
1479.37561 152.0
1479.450073 172.0
1479.518921 68.0
1479.614258 188.0
1479.725708 36.0
1479.955322 116.0
1480.269287 248.0
1480.442749 152.0
1480.713501 108.0
1480.874268 352.0
1481.180664 156.0
1481.320801 176.0
1481.420654 200.0
1481.497437 208.0
1481.567017 188.0
1481.678589 92.0
1481.81189 120.0
1481.900757 220.0
1481.969727 88.0
1482.054077 144.0
1482.192017 200.0
1482.429443 160.0
1482.526855 136.0
1482.69751 144.0
1482.72229 136.0
1482.872314 180.0
1482.900391 320.0
1483.180542 164.0
1483.356934 100.0
1483.601074 136.0
1483.94043 180.0
1484.138916 156.0
1484.297363 184.0
1484.437866 144.0
1484.606567 184.0
1484.660278 56.0
1484.721069 196.0
1484.821411 144.0
1485.020752 220.0
1485.128174 196.0
1485.235474 28.0
1485.312256 140.0
1485.443115 176.0
1485.56543 148.0
1485.695801 196.0
1485.772461 124.0
1485.918213 152.0
1486.033325 164.0
1486.115601 176.0
1486.332642 176.0
1486.467529 240.0
1486.662598 136.0
1486.77771 136.0
1486.938843 96.0
1487.047974 148.0
1487.115967 216.0
1487.201538 188.0
1487.290527 152.0
1487.338257 100.0
1487.499146 204.0
1487.568237 44.0
1487.621948 124.0
1487.693359 156.0
1487.806152 52.0
1487.952026 136.0
1488.105591 308.0
1488.183716 220.0
1488.589355 60.0
1488.681519 164.0
1488.907715 232.0
1489.048218 124.0
1489.111572 148.0
1489.165283 212.0
1489.394897 176.0
1489.472534 188.0
1489.587769 68.0
1489.887451 188.0
1489.967285 80.0
1490.134644 176.0
1490.648071 88.0
1490.901611 32.0
1491.055298 260.0
1491.247437 132.0
1491.31665 200.0
1491.478027 160.0
1491.604858 204.0
1491.934692 152.0
1492.008423 132.0
1492.100708 64.0
1492.469849 228.0
1492.589355 188.0
1492.700439 136.0
1492.815796 192.0
1492.915771 208.0
1492.992676 164.0
1493.264282 204.0
1493.323364 164.0
1493.377197 144.0
1493.561768 132.0
1493.721802 180.0
1493.831055 116.0
1494.023315 104.0
1494.538818 132.0
1494.742798 128.0
1494.813354 176.0
1495.054443 168.0
1495.1698 160.0
1495.331421 80.0
1495.539307 100.0
1495.619751 132.0
1495.724365 176.0
1495.978271 120.0
1496.081665 172.0
1496.185913 108.0
1496.303589 152.0
1496.40918 228.0
1496.601685 48.0
1496.789185 176.0
1496.869385 208.0
1496.901001 160.0
1496.918457 188.0
1496.989868 104.0
1497.179199 92.0
1497.325439 156.0
1497.6875 116.0
1498.083862 124.0
1498.234375 128.0
1498.349976 280.0
1498.466675 156.0
1498.551392 144.0
1498.636963 164.0
1498.74292 180.0
1498.866211 352.0
1498.93042 192.0
1498.993042 112.0
1499.30542 232.0
1499.482666 152.0
1499.582886 76.0
1499.667725 224.0
1499.72168 160.0
1499.878784 208.0
1499.99939 196.0
1500.076172 68.0
1500.137817 80.0
1500.446289 116.0
1500.6604 212.0
1500.675049 164.0
1500.947388 132.0
1501.029663 120.0
1501.140015 192.0
1501.154175 188.0
1501.291504 132.0
1501.386963 192.0
1501.572021 124.0
1501.710815 144.0
1501.818848 208.0
1502.525757 232.0
1502.628784 128.0
1502.702148 96.0
1502.769165 104.0
1502.883423 176.0
1502.94519 140.0
1503.006836 136.0
1503.130371 180.0
1503.184326 64.0
1503.284668 192.0
1503.462158 108.0
1503.593384 144.0
1503.655151 148.0
1503.948364 76.0
1504.030029 216.0
1504.262085 132.0
1504.307007 156.0
