>compound MLS001141063-01!1-[(2S)-2-amino-4-methylpentanoyl]-N-[(2S)-3-methyl-1-[(4-methylphenyl)methylamino]-1-oxobutan-2-yl]piperidine-4-carboxamide
>formula C25H40N4O3
>ionization [M+H]+
>parentmass 445.3173175920905
#inchi InChI=1S/C25H40N4O3/c1-16(2)14-21(26)25(32)29-12-10-20(11-13-29)23(30)28-22(17(3)4)24(31)27-15-19-8-6-18(5)7-9-19/h6-9,16-17,20-22H,10-15,26H2,1-5H3,(H,27,31)(H,28,30)/t21-,22-/m0/s1
#inchikey YWWGOYDNOAIZDC
#Ion_Source LC-ESI
#Instrument qTof
#Compound_Source NIH Natural Product Library
#PI Dorrestein
#Data_Collector VVP/LMS
#Scan -1
#Precursor_MZ 445.318
#ExactMass 444.31
#Charge 1
#CAS_Number N/A
#Pubmed_ID N/A
#Smiles CC(C)C[C@H](N)C(=O)N1CCC(CC1)C(=O)N[C@@H](C(C)C)C(=O)NCc2ccc(C)cc2
#INCHI_AUX N/A
#Library_Class 1
#SpectrumID CCMSLIB00000080590
#IonMode Positive
#UpdateWorkflowName UPDATE-SINGLE-ANNOTATED-GOLD
#LibraryQualityString Gold
#TaskID b1d8e8f6646f4e71acdff9ca3d919d08
##Scan# 1706
#SpectrumFile p2-B11_GB11_01_17999.mzXML
#LibraryName NIH_Natural_Products_Library.mgf
#MQScore -1
#Organism NIH_Natural_Products_Library
#TIC_Query 0
#RT_Query -1
#MZErrorPPM -1
#SharedPeaks 0
#MassDiff 0
#LibMZ -1
#SpecMZ 445.318
#SpecCharge 0
#internalFilename spec-00000.mgf

>collision 10
94.975845 252.0
95.003304 188.0
95.034523 144.0
95.134193 196.0
95.165253 228.0
95.190498 172.0
95.252647 228.0
95.310928 88.0
95.354103 204.0
95.396446 204.0
95.464493 144.0
95.505333 124.0
95.540352 160.0
95.573425 120.0
95.608452 28.0
95.625969 72.0
95.684364 244.0
95.768097 108.0
95.80471 200.0
95.923981 144.0
95.961021 164.0
95.996117 72.0
96.069458 80.0
96.14048 204.0
96.204887 176.0
96.234169 192.0
96.300072 240.0
96.507713 164.0
96.546822 184.0
96.597672 68.0
96.637642 176.0
96.675934 36.0
96.71508 176.0
96.744438 136.0
96.771851 180.0
96.810753 152.0
96.84626 128.0
96.907845 212.0
96.9599 160.0
97.00106 132.0
97.036346 192.0
97.061272 152.0
97.10498 156.0
97.118706 228.0
97.292313 196.0
97.383682 148.0
97.415108 204.0
97.478088 148.0
97.511391 180.0
97.575394 144.0
97.62738 156.0
97.653496 144.0
97.690323 136.0
97.790672 100.0
97.83004 144.0
97.847755 268.0
97.868195 200.0
97.953026 228.0
97.98365 112.0
98.025444 152.0
98.047653 216.0
98.094574 208.0
98.169334 136.0
98.247826 184.0
98.263611 204.0
98.287285 136.0
98.337677 148.0
98.350433 316.0
98.393867 128.0
98.464951 164.0
98.519989 204.0
98.563721 104.0
98.611153 184.0
98.706047 164.0
98.730652 156.0
98.770668 148.0
98.814827 112.0
98.9217 148.0
98.937531 144.0
98.987267 200.0
99.058334 160.0
99.080124 92.0
99.113808 152.0
99.137581 172.0
99.165329 68.0
99.210922 128.0
99.230743 208.0
99.270401 164.0
99.349739 180.0
99.371185 188.0
99.434746 200.0
99.538292 200.0
99.609787 176.0
99.641571 196.0
99.683304 148.0
99.697212 212.0
99.730995 56.0
99.756126 236.0
99.794609 204.0
99.866203 136.0
99.947769 132.0
99.971642 168.0
99.993538 40.0
100.029366 112.0
100.09623 164.0
100.250443 148.0
100.294289 72.0
100.324188 164.0
100.342133 132.0
100.380013 248.0
100.423889 152.0
100.453812 212.0
100.471764 492.0
100.495705 172.0
100.583511 196.0
100.719292 116.0
100.809196 60.0
100.891144 132.0
100.96125 196.0
100.981125 236.0
101.003128 180.0
101.115173 56.0
101.139191 64.0
101.20723 284.0
101.213806 152.0
101.237907 208.0
101.275345 120.0
101.399567 180.0
101.471733 108.0
101.56398 184.0
101.592926 176.0
101.616135 200.0
101.644226 160.0
101.696404 216.0
101.71447 72.0
101.826447 140.0
101.874634 184.0
101.927353 48.0
101.985634 200.0
102.053986 48.0
102.072083 180.0
102.126892 236.0
102.214897 204.0
102.309494 124.0
102.359833 124.0
102.383995 88.0
102.405685 156.0
102.488747 140.0
102.571373 148.0
102.589516 208.0
102.644592 240.0
102.698402 80.0
102.720589 164.0
102.781113 144.0
102.809326 212.0
102.839638 148.0
102.877861 128.0
102.91433 164.0
102.942596 160.0
102.958755 124.0
102.974915 208.0
103.023392 176.0
103.054314 1060.0
103.103569 288.0
103.120384 44.0
103.158783 224.0
103.178101 160.0
103.231575 128.0
103.272018 44.0
103.350914 36.0
103.403534 40.0
103.476402 152.0
103.508797 188.0
103.54525 160.0
103.599945 132.0
103.630333 44.0
103.711388 56.0
103.733688 156.0
103.854416 52.0
103.922295 104.0
103.975052 152.0
104.054222 128.0
104.098892 132.0
104.190292 196.0
104.35656 168.0
104.413879 144.0
104.434219 152.0
104.448456 116.0
104.515594 212.0
104.541641 180.0
104.565331 164.0
104.604057 180.0
104.63385 160.0
104.658073 216.0
104.716743 188.0
104.758926 120.0
104.782318 112.0
104.796577 84.0
104.82103 132.0
104.880127 44.0
104.918861 72.0
104.933136 168.0
104.951057 116.0
104.989624 204.0
105.008392 260.0
105.026131 252.0
105.031868 156.0
105.037933 216.0
105.07103 45628.0
105.115005 72.0
105.132294 188.0
105.171806 32.0
105.211174 112.0
105.248535 144.0
105.28614 84.0
105.32505 80.0
105.373802 132.0
105.407379 188.0
105.441406 76.0
105.460777 92.0
105.475937 80.0
105.492508 72.0
105.541573 72.0
105.583809 256.0
105.640182 136.0
105.670433 152.0
105.722099 192.0
105.78299 236.0
105.825981 184.0
105.880547 328.0
105.917137 172.0
105.94886 132.0
105.993935 176.0
106.012383 164.0
106.073906 5604.0
106.098465 144.0
106.123505 168.0
106.154282 144.0
106.180489 204.0
106.194839 152.0
106.213303 68.0
106.237915 176.0
106.340866 232.0
106.369545 84.0
106.395935 124.0
106.412361 136.0
106.463699 32.0
106.515045 188.0
106.537636 116.0
106.552017 160.0
106.62188 132.0
106.662987 104.0
106.723831 212.0
106.755508 112.0
106.804993 236.0
106.827499 104.0
106.868645 64.0
106.945488 140.0
106.988014 68.0
107.036774 112.0
107.076645 348.0
107.121864 164.0
107.167191 152.0
107.251686 168.0
107.332085 88.0
107.350647 100.0
107.388519 164.0
107.459969 60.0
107.515678 156.0
107.539413 160.0
107.563148 116.0
107.66243 140.0
107.694031 124.0
107.71949 188.0
107.742813 52.0
107.833733 52.0
107.869675 144.0
107.922623 92.0
107.953331 216.0
107.980522 116.0
108.10672 184.0
108.125343 176.0
108.143967 40.0
108.239197 148.0
108.317902 232.0
108.380051 212.0
108.40699 80.0
108.450508 160.0
108.520996 84.0
108.606018 84.0
108.639206 160.0
108.718056 96.0
108.776169 36.0
108.800163 236.0
108.823914 140.0
108.871674 220.0
108.959358 132.0
109.01709 144.0
109.117905 120.0
109.162605 116.0
109.297813 128.0
109.329262 144.0
109.34568 192.0
109.395638 160.0
109.432487 148.0
109.468506 136.0
109.485168 112.0
109.518486 188.0
109.551819 88.0
109.573997 176.0
109.764816 164.0
109.783173 172.0
109.814911 220.0
109.837402 132.0
109.852005 180.0
109.869637 124.0
109.89373 144.0
109.912506 112.0
109.927109 152.0
109.941719 92.0
109.968849 156.0
109.98555 100.0
110.01384 172.0
110.062286 208.0
110.086403 248.0
110.139938 136.0
110.14679 128.0
110.18602 192.0
110.220436 180.0
110.245964 176.0
110.263336 108.0
110.307472 172.0
110.399223 56.0
110.415955 36.0
110.489166 48.0
110.767586 100.0
110.790627 140.0
110.817863 256.0
110.920555 180.0
110.947807 144.0
110.964577 144.0
111.063309 144.0
111.095192 156.0
111.119774 196.0
111.170135 156.0
111.18483 144.0
111.249992 176.0
111.272926 216.0
111.28373 212.0
111.29818 228.0
111.344383 144.0
111.367485 176.0
111.409363 188.0
111.449417 124.0
111.483032 132.0
111.533478 140.0
111.583931 128.0
111.619675 136.0
111.644905 144.0
111.65963 172.0
111.693283 172.0
111.71817 144.0
111.751183 164.0
111.774635 412.0
111.816208 236.0
111.839539 180.0
111.870598 152.0
111.896027 268.0
111.915764 212.0
111.942482 420.0
111.957054 204.0
111.973412 172.0
111.995575 176.0
112.026459 504.0
112.050148 492.0
112.0774 143312.0
112.159225 60.0
112.191299 112.0
112.198044 108.0
112.212791 92.0
112.247993 72.0
112.267609 104.0
112.301086 128.0
112.333 64.0
112.349693 244.0
112.37851 180.0
112.396484 56.0
112.423462 1988.0
112.453003 276.0
112.469933 68.0
112.489799 76.0
112.504578 44.0
112.557976 96.0
112.580063 160.0
112.604874 96.0
112.639725 52.0
112.658203 220.0
112.689194 44.0
112.737801 76.0
112.768013 112.0
112.785675 56.0
112.802437 56.0
112.833801 204.0
112.862427 192.0
112.918022 204.0
112.941017 52.0
112.975838 88.0
113.011147 180.0
113.026619 128.0
113.049614 184.0
113.053093 116.0
113.080009 17524.0
113.108162 220.0
113.116287 140.0
113.159958 180.0
113.183441 88.0
113.225121 176.0
113.267967 76.0
113.305389 192.0
113.320923 60.0
113.365425 28.0
113.41629 84.0
113.452324 84.0
113.498505 256.0
113.530777 52.0
113.55835 96.0
113.58168 156.0
113.635422 116.0
113.677147 128.0
113.696251 96.0
113.715347 128.0
113.742104 164.0
113.776993 192.0
113.798141 196.0
113.825745 136.0
113.85231 156.0
113.858871 228.0
113.8937 92.0
113.915771 288.0
113.937088 148.0
113.962677 136.0
114.000992 192.0
114.025429 104.0
114.059853 224.0
114.081123 548.0
114.10833 232.0
114.127068 64.0
114.157234 40.0
114.196228 132.0
114.25721 92.0
114.312531 84.0
114.495605 28.0
114.523293 100.0
114.631332 56.0
114.656921 228.0
114.721458 76.0
114.736382 56.0
114.803497 84.0
114.838737 128.0
114.875 100.0
114.916473 200.0
114.939003 80.0
115.013702 220.0
115.080269 144.0
115.099312 148.0
115.156754 100.0
115.25502 52.0
115.308449 56.0
115.347649 236.0
115.40892 100.0
115.595009 156.0
115.791962 40.0
115.862648 56.0
115.916214 40.0
115.999802 140.0
116.094368 76.0
116.134094 172.0
116.237862 184.0
116.277069 60.0
116.302246 148.0
116.366646 240.0
116.441048 216.0
116.499802 144.0
116.544922 128.0
116.566406 144.0
116.596489 84.0
116.643776 72.0
116.687538 124.0
116.733826 204.0
116.766335 96.0
116.990112 84.0
117.046089 60.0
117.063316 144.0
117.103271 324.0
117.175323 76.0
117.207642 212.0
117.308937 52.0
117.427528 108.0
117.550499 112.0
117.606606 76.0
117.844154 96.0
117.872246 48.0
118.023552 148.0
118.155479 64.0
118.484413 188.0
118.564728 160.0
118.58857 120.0
118.647095 156.0
118.726158 216.0
118.785881 64.0
118.83847 216.0
118.861816 140.0
118.965553 140.0
118.994217 200.0
119.01593 132.0
119.304886 120.0
119.352722 176.0
119.508972 196.0
119.559372 96.0
119.682037 172.0
119.729927 164.0
119.78363 176.0
119.899109 108.0
120.012466 64.0
120.104416 204.0
120.158592 104.0
120.195686 132.0
120.217506 120.0
120.254608 108.0
120.30481 180.0
120.333191 124.0
120.525398 196.0
120.617188 352.0
120.65654 72.0
120.698082 132.0
120.810646 196.0
120.842438 112.0
120.909622 176.0
120.92997 52.0
120.960609 132.0
121.03067 76.0
121.243156 104.0
121.368103 112.0
121.420731 52.0
121.453629 184.0
121.629173 104.0
121.653313 60.0
121.741142 96.0
121.828995 168.0
121.989418 160.0
122.097206 5356.0
122.132347 180.0
122.185143 164.0
122.218147 144.0
122.245651 40.0
122.27536 152.0
122.332588 104.0
122.416252 104.0
122.45369 216.0
122.484886 124.0
122.519775 124.0
122.561638 108.0
122.647583 204.0
122.682854 144.0
122.755615 208.0
122.883545 132.0
122.971031 184.0
122.989471 36.0
123.09938 360.0
123.125183 400.0
123.203667 172.0
123.292877 188.0
123.314148 400.0
123.334404 196.0
123.40036 152.0
123.506508 140.0
123.533051 116.0
123.65918 48.0
123.926682 60.0
123.94928 40.0
123.991386 156.0
124.108871 140.0
124.190926 160.0
124.426147 48.0
124.49276 156.0
124.614929 64.0
124.703812 92.0
124.746048 72.0
124.875015 56.0
124.935074 76.0
125.135368 132.0
125.231125 176.0
125.371483 240.0
125.404915 32.0
125.538673 184.0
125.681435 120.0
125.76178 128.0
125.777397 148.0
125.844376 104.0
125.909134 184.0
126.097519 124.0
126.215279 160.0
126.273422 124.0
126.304306 168.0
126.396461 148.0
126.503891 88.0
126.54866 68.0
126.588966 144.0
126.824203 88.0
126.90715 148.0
127.088341 676.0
127.203285 116.0
127.241447 112.0
127.387421 268.0
127.430107 180.0
127.59642 140.0
127.686363 40.0
127.924866 152.0
128.057724 156.0
128.084747 204.0
128.240219 132.0
128.337158 72.0
128.504059 48.0
128.551437 136.0
128.668808 96.0
128.756866 224.0
128.849487 176.0
128.89241 104.0
129.051239 240.0
129.102722 804.0
129.16597 172.0
129.289703 152.0
129.478317 116.0
129.573456 156.0
129.745697 172.0
129.77063 112.0
129.904434 212.0
129.941376 220.0
130.049652 204.0
130.085358 780.0
130.138184 128.0
130.189072 196.0
130.388062 48.0
130.565399 132.0
130.761047 124.0
130.806564 80.0
130.83844 68.0
130.92041 156.0
130.954575 120.0
130.988739 132.0
131.004684 204.0
131.075317 36.0
131.096344 192.0
131.130005 32.0
131.166473 104.0
131.255386 76.0
131.659302 196.0
131.741531 28.0
131.867203 124.0
131.903763 124.0
132.187363 152.0
132.256027 156.0
132.316284 136.0
132.384232 176.0
132.462112 44.0
132.633957 140.0
132.662674 140.0
132.866714 192.0
132.941284 52.0
133.157089 124.0
133.71347 196.0
133.777908 140.0
134.093475 124.0
134.134964 148.0
134.504028 152.0
134.605621 88.0
134.855118 188.0
134.947586 168.0
135.007706 56.0
135.438187 156.0
135.999313 160.0
136.076996 272.0
136.120026 176.0
136.150223 96.0
136.203384 136.0
136.289597 128.0
136.466232 256.0
136.659286 192.0
136.733749 112.0
136.79892 192.0
136.861786 148.0
136.88623 176.0
137.00618 116.0
137.064941 92.0
137.090057 88.0
137.141327 172.0
137.477173 120.0
137.523849 204.0
137.57634 152.0
137.593872 148.0
137.731659 116.0
137.925598 136.0
138.056519 160.0
138.09285 328.0
138.22963 196.0
138.253036 176.0
138.395813 192.0
138.578506 148.0
138.716782 260.0
138.864502 100.0
138.99353 120.0
139.073318 224.0
139.088486 148.0
139.139038 128.0
139.244705 188.0
139.409164 152.0
139.841888 236.0
139.954361 124.0
140.078644 388.0
140.143967 3956.0
140.20929 60.0
140.261154 136.0
140.320084 156.0
140.356827 96.0
140.452148 140.0
140.508759 96.0
140.643265 140.0
140.829025 148.0
140.999908 156.0
141.108643 160.0
141.146423 624.0
141.17485 80.0
141.203232 148.0
141.222153 136.0
141.401962 176.0
141.439835 148.0
141.461136 96.0
141.506119 152.0
141.638733 100.0
141.662415 164.0
142.07254 168.0
142.089142 160.0
142.15686 600.0
142.281372 204.0
142.400101 40.0
142.440475 252.0
142.495117 144.0
142.580658 176.0
142.647766 244.0
142.70665 44.0
142.737564 144.0
142.835068 40.0
142.975449 156.0
143.125412 144.0
143.163513 324.0
143.242111 200.0
143.304047 264.0
143.365891 164.0
143.387451 104.0
143.571243 224.0
143.671204 176.0
143.704605 84.0
143.742783 212.0
143.859726 212.0
143.950455 88.0
144.113983 208.0
144.160675 160.0
144.296921 152.0
144.367905 216.0
144.414093 164.0
144.533707 188.0
144.564819 124.0
144.737167 164.0
145.024643 228.0
145.427963 76.0
145.470795 208.0
145.730164 108.0
145.811874 80.0
145.905609 136.0
146.064331 128.0
146.15094 168.0
146.283295 144.0
146.731384 188.0
146.791672 192.0
147.118042 360.0
147.426544 52.0
147.673325 248.0
147.827972 48.0
147.961105 124.0
148.137878 316.0
148.416595 156.0
148.455399 148.0
148.763535 80.0
148.978607 120.0
149.028244 208.0
149.208099 128.0
149.473221 132.0
149.555954 148.0
149.616821 112.0
149.94809 60.0
150.130936 216.0
150.16507 160.0
150.216293 220.0
150.284607 124.0
150.455444 92.0
151.357635 60.0
151.462952 136.0
151.487442 160.0
151.507034 120.0
151.538895 60.0
151.739868 144.0
152.009674 208.0
152.105392 324.0
152.142212 168.0
152.159393 108.0
152.326385 128.0
152.554916 180.0
153.017426 48.0
153.152863 172.0
153.175034 172.0
153.207062 68.0
153.256332 80.0
153.308075 152.0
153.589966 156.0
153.717438 136.0
153.919846 172.0
154.690216 220.0
154.785294 128.0
154.859589 172.0
155.107361 152.0
155.164383 136.0
155.23877 116.0
155.40744 116.0
155.434738 188.0
155.583649 128.0
155.742569 192.0
155.76741 108.0
155.851883 136.0
155.901581 128.0
156.060669 152.0
156.242218 216.0
156.291977 100.0
156.608139 96.0
156.760117 184.0
156.799927 148.0
156.824905 184.0
156.862305 160.0
156.994751 164.0
157.164062 52.0
157.326294 164.0
157.386215 64.0
157.476181 164.0
157.511078 88.0
157.538559 176.0
157.683487 84.0
157.770966 164.0
157.913498 168.0
157.971024 144.0
158.01857 128.0
158.426636 128.0
158.471725 116.0
158.506805 164.0
158.749969 176.0
158.767517 252.0
158.804825 160.0
158.90799 152.0
158.998322 52.0
159.47049 76.0
159.666595 144.0
159.77475 140.0
159.842682 136.0
159.870361 164.0
159.895538 180.0
160.117081 184.0
160.235474 44.0
160.28334 96.0
160.961884 100.0
161.007339 172.0
161.047745 144.0
161.136154 152.0
161.176575 88.0
161.301468 144.0
161.316711 108.0
161.381317 144.0
161.530533 104.0
161.593277 184.0
161.75827 96.0
161.894989 164.0
162.044434 132.0
162.100174 212.0
162.122986 36.0
162.285217 124.0
162.404404 176.0
162.439911 148.0
162.467819 124.0
162.833328 132.0
163.059448 132.0
163.121613 176.0
163.140793 152.0
163.326416 148.0
163.364578 136.0
163.440903 164.0
163.585968 168.0
163.629242 232.0
163.664886 124.0
163.776947 188.0
163.8228 84.0
163.878845 88.0
164.067444 140.0
164.107086 452.0
164.143921 48.0
164.238281 112.0
164.508774 204.0
164.732971 196.0
164.797363 44.0
165.081085 104.0
165.135941 356.0
165.275497 144.0
165.31131 172.0
165.352264 156.0
165.401962 164.0
165.47258 108.0
165.5289 188.0
165.572433 160.0
165.695389 44.0
165.879898 104.0
166.092285 304.0
166.140884 208.0
166.259506 180.0
166.3134 180.0
166.451614 124.0
166.552185 252.0
166.675507 84.0
166.798859 88.0
166.922272 160.0
167.122894 176.0
167.151886 136.0
167.261871 344.0
167.377716 152.0
167.416351 128.0
168.055618 184.0
168.09848 160.0
168.246597 212.0
168.639236 228.0
168.882278 208.0
168.975403 140.0
169.133255 224.0
169.166901 148.0
169.744675 140.0
169.978134 180.0
170.071548 88.0
170.271072 156.0
170.307831 168.0
170.393555 192.0
170.523483 52.0
170.541672 216.0
170.578064 168.0
170.692459 132.0
171.015045 156.0
171.228546 212.0
171.275421 140.0
171.364914 68.0
171.575394 144.0
172.115189 116.0
172.149124 52.0
172.219635 156.0
172.452179 184.0
172.54628 168.0
172.58812 160.0
172.629959 100.0
172.70842 108.0
172.81044 48.0
172.85231 140.0
173.703781 128.0
173.724762 88.0
173.803467 36.0
174.074829 192.0
174.097473 124.0
174.436401 212.0
174.526703 208.0
174.584076 120.0
174.725677 200.0
174.777679 152.0
174.81514 76.0
174.833557 52.0
174.875671 140.0
174.957275 188.0
175.057327 172.0
175.146866 176.0
175.431458 216.0
175.489456 80.0
175.558914 164.0
175.687256 212.0
175.758499 88.0
175.80072 140.0
175.84137 208.0
175.948532 112.0
175.96701 112.0
176.1436 4512.0
176.204697 52.0
176.295685 120.0
176.373825 180.0
176.431976 156.0
176.559219 168.0
176.581879 64.0
176.913452 108.0
176.942581 200.0
177.080276 108.0
177.1492 760.0
177.170334 116.0
177.263077 196.0
177.292221 44.0
177.355835 160.0
177.390289 36.0
177.599762 56.0
177.774872 64.0
177.822632 44.0
177.847092 132.0
177.865097 120.0
177.886337 204.0
178.106735 116.0
178.12532 164.0
178.159866 92.0
178.923111 144.0
178.971039 132.0
179.002991 100.0
179.040268 156.0
179.15155 568.0
179.240067 56.0
179.344803 184.0
179.360962 88.0
179.583969 104.0
179.714676 204.0
179.816086 132.0
179.880142 172.0
180.053696 224.0
180.139938 440.0
180.243362 188.0
180.373337 176.0
180.433121 120.0
180.657761 236.0
180.729996 216.0
180.831696 204.0
180.879868 116.0
181.084702 200.0
181.133133 1376.0
181.265533 76.0
181.292328 184.0
181.404892 72.0
181.625565 136.0
181.758911 164.0
181.860901 188.0
181.989746 392.0
182.113281 120.0
182.139236 236.0
182.186905 184.0
182.321411 172.0
182.400787 132.0
182.441101 196.0
182.48143 104.0
182.559418 144.0
182.610504 84.0
182.713501 240.0
182.750397 44.0
182.793442 120.0
182.847275 80.0
182.878296 296.0
182.898407 80.0
182.917252 200.0
182.954941 232.0
183.000702 172.0
183.027634 164.0
183.092987 164.0
183.115601 316.0
183.150574 58020.0
183.267502 68.0
183.288788 148.0
183.356934 116.0
183.385925 68.0
183.426773 180.0
183.462021 68.0
183.51712 48.0
183.543488 84.0
183.563858 92.0
183.665192 104.0
183.759552 260.0
183.8069 192.0
183.839005 88.0
183.871994 108.0
183.904114 64.0
183.939316 48.0
183.990158 44.0
184.06575 144.0
184.152664 5884.0
184.191635 100.0
184.229568 104.0
184.272552 128.0
184.3125 116.0
184.349396 84.0
184.392624 84.0
184.413406 76.0
184.4617 232.0
184.552124 40.0
184.579163 56.0
184.676514 88.0
184.773895 48.0
184.803665 36.0
184.830078 84.0
184.947083 76.0
184.97049 68.0
184.98613 76.0
185.039124 76.0
185.058075 56.0
185.112228 244.0
185.156693 480.0
185.186142 116.0
185.234116 184.0
185.265305 140.0
185.353317 128.0
185.407516 120.0
185.43364 156.0
185.443619 100.0
185.454941 88.0
185.468109 144.0
185.494247 48.0
185.567352 128.0
185.5867 80.0
185.628387 224.0
185.694901 140.0
185.713882 68.0
185.75264 208.0
185.822388 112.0
185.865799 196.0
185.898361 108.0
185.920074 32.0
186.025925 84.0
186.158966 144.0
186.262177 76.0
186.381714 248.0
186.408875 144.0
186.493134 120.0
186.960922 164.0
187.102463 192.0
187.203201 168.0
187.238602 128.0
187.279449 160.0
187.426559 100.0
187.500137 136.0
187.576462 164.0
187.783676 184.0
187.838226 60.0
188.067444 40.0
188.105652 68.0
188.149323 176.0
188.283127 184.0
188.324097 204.0
188.345947 132.0
188.463409 124.0
188.673859 136.0
188.840668 108.0
188.934189 104.0
188.987747 172.0
189.075562 124.0
189.138901 164.0
189.259354 112.0
189.514084 124.0
189.585327 28.0
189.840271 100.0
189.966125 172.0
190.115692 200.0
190.159271 1988.0
190.217758 116.0
190.350677 96.0
190.369904 144.0
190.449539 180.0
190.567673 216.0
190.680344 148.0
190.702316 64.0
190.835617 140.0
191.002029 156.0
191.073547 132.0
191.106567 172.0
191.162323 196.0
191.235901 172.0
191.456161 160.0
191.519501 132.0
191.555313 108.0
191.593872 168.0
192.352219 152.0
192.390869 136.0
192.437805 112.0
192.551025 132.0
193.132538 420.0
193.64624 172.0
193.723801 80.0
194.1035 124.0
194.219986 32.0
194.278229 56.0
194.830673 156.0
195.039093 208.0
195.125259 148.0
195.15062 168.0
195.214249 228.0
195.255951 144.0
195.612106 64.0
195.759659 96.0
195.809799 144.0
195.854355 80.0
196.054947 52.0
196.255661 108.0
196.442505 120.0
196.498306 140.0
197.162979 216.0
197.39769 84.0
197.81456 152.0
197.946152 196.0
198.100189 176.0
198.481354 148.0
198.550919 124.0
198.73941 116.0
198.789917 204.0
198.832016 136.0
199.095901 236.0
199.216675 136.0
199.500504 108.0
199.826736 40.0
199.871765 196.0
199.911148 184.0
199.959 116.0
200.02655 132.0
200.19548 172.0
200.339127 132.0
200.465912 216.0
200.826767 100.0
200.883194 176.0
201.103271 284.0
201.320663 104.0
201.642731 100.0
201.741653 172.0
201.849091 116.0
201.902832 32.0
201.942413 180.0
202.126297 164.0
202.154602 152.0
202.194214 216.0
202.256485 180.0
202.39238 152.0
202.488113 124.0
202.78331 188.0
202.82016 164.0
203.134903 176.0
203.157593 88.0
203.310822 124.0
203.682755 152.0
203.702637 112.0
203.745239 148.0
203.87027 140.0
203.955521 88.0
204.135742 752.0
204.299606 212.0
204.347961 152.0
204.376419 112.0
204.433334 104.0
204.612656 168.0
205.096924 216.0
205.13858 196.0
205.182434 124.0
205.402023 132.0
205.895798 112.0
205.941483 108.0
206.072891 156.0
206.138611 144.0
206.321533 168.0
206.793518 148.0
206.850769 200.0
207.071228 136.0
207.144058 188.0
207.225922 140.0
207.2603 208.0
207.297546 80.0
207.56987 116.0
207.759171 124.0
207.790726 152.0
208.040405 28.0
208.136124 1076.0
208.212677 156.0
208.264374 120.0
208.422379 212.0
208.753494 168.0
208.798965 176.0
208.927536 172.0
208.960052 120.0
209.080902 140.0
209.127716 956.0
209.437912 120.0
209.570435 236.0
209.599243 92.0
209.630936 216.0
209.665527 28.0
209.824051 188.0
209.87883 108.0
209.939392 120.0
210.005722 76.0
210.046112 176.0
210.080719 148.0
210.130142 332.0
210.193237 84.0
210.223587 148.0
210.248077 156.0
210.288467 32.0
210.334656 164.0
210.357742 36.0
210.412598 120.0
210.443359 76.0
210.492126 172.0
210.522324 112.0
210.634964 148.0
210.669617 220.0
210.699707 224.0
210.735443 92.0
210.757385 244.0
210.830597 180.0
210.860321 164.0
210.879013 148.0
210.900787 284.0
210.943115 224.0
211.027405 140.0
211.046631 152.0
211.077301 160.0
211.146072 69436.0
211.237335 76.0
211.272446 84.0
211.32814 72.0
211.337051 56.0
211.347687 120.0
211.377121 120.0
211.401123 40.0
211.437302 80.0
211.458923 80.0
211.490845 84.0
211.516891 44.0
211.541016 96.0
211.578537 88.0
211.621338 88.0
211.676132 148.0
211.710876 112.0
211.752808 52.0
211.780273 104.0
211.820938 112.0
211.873077 68.0
211.919434 64.0
211.947891 92.0
211.976379 116.0
212.0 164.0
212.038239 100.0
212.058823 64.0
212.109299 124.0
212.14859 9952.0
212.232468 80.0
212.273056 68.0
212.368759 68.0
212.406464 76.0
212.458038 144.0
212.48497 64.0
212.542816 88.0
212.568939 76.0
212.597961 32.0
212.664703 176.0
212.71405 52.0
212.804047 64.0
212.986633 64.0
213.075836 116.0
213.151321 600.0
213.176971 124.0
213.214752 72.0
213.236481 88.0
213.393845 56.0
213.444321 108.0
213.472351 76.0
213.545105 304.0
213.613297 80.0
213.71022 88.0
213.732742 108.0
213.779785 76.0
213.841827 68.0
213.869308 108.0
214.028137 40.0
214.083466 76.0
214.121323 136.0
214.157761 168.0
214.412659 84.0
214.610886 96.0
214.645874 184.0
214.675034 76.0
214.756683 36.0
214.780029 96.0
214.819946 128.0
214.870453 176.0
214.920059 124.0
215.030945 232.0
215.095154 84.0
215.217773 96.0
215.264496 48.0
215.45726 96.0
215.636047 196.0
215.708588 136.0
216.141113 1092.0
216.176544 136.0
216.28775 44.0
216.36972 40.0
216.451691 56.0
216.55127 180.0
216.627426 160.0
216.814941 80.0
217.14595 124.0
217.627487 64.0
218.150436 160.0
218.194534 96.0
218.440384 100.0
218.473907 100.0
218.55629 116.0
218.92424 40.0
219.301346 88.0
219.433075 140.0
219.808594 116.0
219.864655 164.0
219.89122 148.0
219.959106 60.0
219.991577 60.0
220.074234 96.0
220.543945 148.0
220.567596 396.0
220.706543 120.0
220.820404 112.0
220.860321 176.0
220.881027 180.0
220.901733 124.0
220.92244 108.0
220.994644 140.0
221.043747 104.0
221.09288 292.0
221.166397 43152.0
221.223892 88.0
221.258789 316.0
221.326736 72.0
221.364441 84.0
221.390091 116.0
221.440445 40.0
221.471252 84.0
221.513016 184.0
221.549637 88.0
221.582626 60.0
221.618515 72.0
221.646881 140.0
221.708069 132.0
221.733749 120.0
221.804886 48.0
221.84552 68.0
221.85701 48.0
221.867142 48.0
221.878998 48.0
221.901291 100.0
221.941254 76.0
221.967941 92.0
221.991669 76.0
222.056915 168.0
222.10112 84.0
222.108871 124.0
222.117844 148.0
222.169556 8800.0
222.234894 32.0
222.357254 52.0
222.377335 148.0
222.436157 72.0
222.472931 216.0
222.50795 128.0
222.537643 156.0
222.599991 68.0
222.656418 44.0
222.684753 84.0
222.798996 60.0
222.835617 160.0
222.857483 64.0
222.862381 96.0
222.897034 204.0
222.923782 68.0
222.980255 40.0
223.069717 80.0
223.140762 172.0
223.174789 848.0
223.241257 108.0
223.345963 72.0
223.369751 76.0
223.542313 76.0
223.640518 132.0
223.694519 112.0
223.744873 152.0
223.7715 120.0
223.842957 176.0
223.8638 172.0
223.893585 116.0
223.920395 112.0
223.968048 72.0
224.000809 108.0
224.045502 128.0
224.178299 1776.0
224.504517 200.0
224.540298 72.0
224.764038 72.0
224.793869 116.0
225.021378 144.0
225.165222 528.0
225.343277 128.0
225.839508 160.0
226.027985 120.0
226.157593 612.0
226.2285 64.0
226.394577 180.0
226.613388 156.0
226.866592 148.0
226.887573 140.0
227.020691 152.0
227.172211 372.0
227.754807 64.0
227.868958 184.0
228.17366 824.0
228.208572 188.0
228.298782 192.0
228.452179 52.0
228.804291 200.0
228.963867 196.0
229.051224 48.0
229.17775 132.0
229.687225 136.0
229.756607 276.0
230.287888 116.0
230.762314 48.0
230.874191 148.0
231.19487 128.0
231.415833 84.0
231.715668 48.0
232.140015 160.0
232.273468 120.0
232.561722 120.0
232.616364 88.0
233.160034 148.0
233.254257 196.0
233.354584 168.0
233.384979 128.0
233.610046 128.0
233.704346 112.0
235.625137 160.0
235.735138 140.0
236.729324 136.0
237.029999 128.0
237.126648 156.0
237.158371 392.0
237.736038 120.0
237.866791 104.0
238.115494 140.0
238.179993 212.0
238.939285 84.0
239.148544 152.0
239.207016 168.0
239.616608 144.0
239.638168 128.0
239.7491 200.0
240.173019 280.0
240.727005 164.0
241.171875 164.0
241.233704 136.0
241.375916 136.0
241.846161 144.0
242.502777 124.0
242.670181 176.0
242.766296 92.0
243.138565 84.0
243.175415 772.0
243.278244 52.0
243.299973 140.0
243.430389 200.0
243.607422 148.0
243.741013 176.0
244.163788 180.0
244.322418 140.0
244.639847 156.0
245.272186 72.0
245.652618 156.0
245.842941 136.0
245.930328 208.0
246.523712 136.0
246.820679 128.0
247.057236 244.0
247.753357 88.0
248.035385 68.0
248.970352 212.0
249.501373 88.0
249.683746 164.0
249.80011 68.0
250.149414 144.0
251.208801 128.0
251.56163 180.0
252.52536 80.0
252.886047 172.0
253.075989 228.0
253.148819 176.0
253.193146 172.0
254.004547 104.0
254.45517 120.0
254.852173 176.0
255.014252 116.0
255.122314 80.0
255.363983 164.0
255.975006 104.0
256.290344 144.0
256.781281 92.0
257.508942 264.0
257.79007 52.0
257.969055 132.0
258.026611 112.0
258.506378 108.0
258.547974 148.0
259.428802 104.0
260.112091 116.0
260.216919 188.0
260.645203 128.0
260.709473 168.0
260.744812 196.0
261.194946 124.0
261.800018 244.0
262.199493 160.0
262.305847 64.0
262.444489 196.0
262.715393 48.0
262.792816 72.0
262.944489 72.0
263.955627 80.0
264.029999 200.0
264.531525 212.0
264.716064 112.0
265.176086 176.0
265.55542 192.0
266.05188 168.0
266.165527 100.0
266.415619 124.0
266.451324 116.0
266.509827 104.0
266.756805 80.0
267.218597 152.0
267.723145 144.0
268.34549 232.0
268.557465 116.0
268.606384 120.0
268.720581 148.0
269.527039 144.0
269.808136 188.0
269.922546 108.0
269.981415 132.0
270.079529 32.0
270.347534 224.0
270.542664 188.0
270.642426 104.0
270.724274 120.0
270.760315 140.0
270.842194 212.0
271.068237 164.0
271.175049 192.0
272.048889 136.0
272.196655 160.0
272.686127 156.0
273.187469 140.0
273.406372 112.0
273.98587 88.0
274.262695 144.0
274.466705 144.0
274.81012 108.0
274.971802 192.0
275.051025 56.0
275.092133 160.0
275.691742 116.0
276.227356 124.0
276.379547 156.0
276.686493 228.0
276.730377 36.0
276.756866 88.0
276.876099 64.0
276.958893 116.0
277.147705 196.0
277.184174 160.0
277.333313 112.0
278.122711 120.0
278.22229 40.0
278.316467 152.0
278.866699 172.0
278.969757 152.0
279.076141 108.0
279.101288 100.0
279.139313 88.0
279.208496 4176.0
279.285645 72.0
279.423523 108.0
279.50119 76.0
279.513641 60.0
279.519989 108.0
279.758972 96.0
279.927948 56.0
279.951263 56.0
280.209503 1184.0
280.504333 76.0
280.564331 84.0
280.647675 160.0
280.737732 104.0
280.911163 88.0
281.001221 164.0
281.128021 68.0
281.220856 160.0
281.461823 48.0
281.535309 28.0
281.876038 72.0
282.029755 60.0
282.203583 124.0
282.22699 64.0
282.354065 48.0
283.14389 140.0
283.509064 100.0
283.804047 76.0
284.089111 92.0
284.186401 44.0
284.280365 76.0
284.649597 148.0
284.699982 160.0
284.790649 148.0
284.861206 80.0
285.059418 100.0
285.119904 164.0
286.755554 124.0
286.860046 144.0
287.20285 280.0
287.232483 132.0
288.223511 212.0
288.591919 176.0
288.869263 96.0
289.373505 116.0
289.607147 160.0
289.634247 152.0
290.783661 200.0
291.512482 156.0
291.581757 48.0
291.806122 52.0
292.340149 144.0
292.626068 144.0
292.918915 84.0
293.358521 104.0
293.634705 148.0
293.917847 40.0
294.030457 160.0
294.146698 144.0
294.487946 88.0
294.723663 136.0
294.798828 152.0
294.973145 172.0
295.137238 112.0
295.506622 124.0
295.681152 116.0
295.845459 184.0
295.910492 72.0
295.985809 64.0
296.085114 164.0
296.115936 88.0
296.143341 184.0
296.174164 176.0
296.235352 11284.0
296.306335 228.0
296.336456 124.0
296.396851 72.0
296.445526 120.0
296.609344 112.0
296.6539 52.0
296.684753 72.0
296.712189 32.0
296.749878 84.0
296.773895 52.0
296.935059 88.0
296.96936 76.0
297.089417 104.0
297.116852 68.0
297.185486 180.0
297.236694 1980.0
297.343323 68.0
297.431763 120.0
297.602722 64.0
297.707245 124.0
297.8927 48.0
298.064484 100.0
298.240021 520.0
298.800262 84.0
298.941345 100.0
298.965424 36.0
299.1203 88.0
299.254578 176.0
299.337219 48.0
299.481842 204.0
299.564514 36.0
299.898743 96.0
299.988373 156.0
300.053864 44.0
300.188354 104.0
300.329742 124.0
301.189209 48.0
302.170959 92.0
302.582825 40.0
302.952667 136.0
303.164734 80.0
303.306824 52.0
303.955353 192.0
304.194824 44.0
305.334473 216.0
305.459686 120.0
305.602325 200.0
305.703247 124.0
305.939911 148.0
306.220367 308.0
306.322968 200.0
306.925903 40.0
307.200378 348.0
307.250244 156.0
308.038269 104.0
308.207489 144.0
308.322205 68.0
308.84317 140.0
309.203522 120.0
309.595612 116.0
309.770752 60.0
309.882843 128.0
311.110321 172.0
311.159485 76.0
312.055359 112.0
312.083496 188.0
312.199524 56.0
312.868073 68.0
312.994812 116.0
313.230774 64.0
314.219604 384.0
314.457794 72.0
314.507202 88.0
314.676666 64.0
315.215668 152.0
315.230896 92.0
315.236023 144.0
315.31601 64.0
315.524567 80.0
315.605896 128.0
316.532928 64.0
316.752533 124.0
317.33725 100.0
317.982849 132.0
318.455078 116.0
319.318726 184.0
320.06958 164.0
320.208466 136.0
320.343842 196.0
320.575409 164.0
320.889069 180.0
321.295654 92.0
321.791718 44.0
321.87027 200.0
321.898834 228.0
322.05957 92.0
322.42041 56.0
322.831512 88.0
323.758392 200.0
324.228943 8532.0
324.49295 120.0
324.62561 48.0
324.746063 68.0
324.781769 88.0
325.070404 156.0
325.231812 1984.0
325.350372 56.0
325.468842 36.0
325.759766 32.0
325.795685 196.0
325.896271 72.0
326.232727 692.0
326.3815 56.0
326.507385 60.0
326.543335 80.0
326.748383 32.0
326.798737 48.0
326.856323 44.0
327.000244 52.0
327.075836 112.0
327.165833 108.0
327.266632 128.0
327.457489 88.0
327.54129 168.0
327.698853 60.0
328.38736 88.0
328.776825 152.0
329.488312 104.0
329.654541 228.0
329.867767 68.0
329.961761 112.0
330.081085 144.0
330.163055 248.0
330.200409 100.0
330.236572 84.0
330.388245 84.0
330.475342 80.0
330.522369 184.0
330.598358 160.0
330.732269 156.0
330.898804 156.0
330.953094 168.0
331.072601 136.0
331.218414 180.0
331.242828 124.0
331.308044 144.0
331.337006 188.0
331.429962 140.0
331.471069 100.0
331.52597 108.0
331.599152 152.0
331.771912 108.0
331.819031 120.0
331.867218 288.0
331.89621 140.0
331.918915 88.0
331.960449 60.0
332.007568 52.0
332.050354 116.0
332.110565 172.0
332.175507 108.0
332.235474 53112.0
332.375519 84.0
332.401794 60.0
332.430115 84.0
332.464569 116.0
332.51004 104.0
332.565521 188.0
332.6026 52.0
332.62912 116.0
332.724487 104.0
332.764771 136.0
332.79837 56.0
332.824524 92.0
332.886658 200.0
332.936035 76.0
332.941223 104.0
332.974823 84.0
333.040619 228.0
333.099792 56.0
333.120239 116.0
333.152924 216.0
333.237854 12148.0
333.310791 172.0
333.358002 72.0
333.39798 36.0
333.460724 148.0
333.500031 52.0
333.535278 84.0
333.564606 76.0
333.615204 96.0
333.66449 88.0
333.706055 64.0
333.830597 72.0
333.894226 44.0
333.944977 68.0
333.986969 56.0
334.012421 76.0
334.042755 36.0
334.065002 80.0
334.15976 48.0
334.238678 1512.0
334.328979 72.0
334.536438 44.0
334.674072 104.0
334.759125 104.0
334.859589 112.0
335.020752 52.0
335.095032 64.0
335.170135 68.0
335.210052 92.0
335.2547 180.0
335.304962 128.0
335.330475 108.0
335.388489 128.0
335.436188 84.0
335.549469 56.0
335.59021 144.0
335.622131 40.0
335.658569 120.0
335.702332 92.0
335.851868 148.0
336.048859 132.0
336.088989 76.0
336.165222 72.0
336.300659 52.0
336.384613 160.0
336.505066 68.0
336.640167 48.0
336.716858 88.0
336.892181 116.0
336.921417 56.0
337.579315 40.0
337.853638 68.0
338.424591 56.0
340.114594 140.0
340.338531 96.0
340.55368 184.0
341.087982 76.0
341.253387 140.0
342.489868 108.0
343.440826 60.0
344.666473 144.0
344.821686 68.0
345.361481 64.0
345.498352 48.0
346.168274 44.0
346.331238 60.0
346.401611 60.0
346.620209 44.0
347.966583 56.0
348.018555 56.0
348.688599 172.0
350.041321 136.0
350.119537 40.0
352.271637 112.0
352.963043 88.0
353.224854 76.0
355.881897 128.0
357.18219 52.0
357.246155 148.0
358.213593 116.0
361.123779 100.0
361.944977 100.0
363.950775 48.0
365.018524 96.0
366.754517 36.0
370.108704 88.0
370.177643 32.0
372.263702 140.0
372.490295 80.0
373.02829 72.0
375.870544 120.0
379.843811 208.0
382.419922 68.0
383.190948 156.0
383.271362 148.0
384.485535 36.0
384.895416 72.0
387.87262 76.0
389.834961 160.0
389.937134 100.0
390.692108 112.0
396.084412 172.0
396.56778 76.0
399.084595 112.0
400.296234 244.0
400.907684 84.0
402.351593 176.0
402.850769 36.0
403.146423 104.0
403.651367 156.0
404.894653 192.0
406.751007 220.0
407.361389 108.0
407.493958 132.0
408.120941 168.0
408.615662 56.0
410.291351 100.0
410.85965 136.0
411.081573 144.0
412.248596 64.0
413.46991 72.0
414.141968 68.0
415.938202 64.0
417.014557 40.0
419.448578 40.0
421.0112 48.0
422.139099 68.0
422.777252 96.0
424.924347 136.0
425.827423 180.0
426.81781 224.0
427.130341 152.0
427.303009 364.0
427.780518 224.0
428.29245 1124.0
428.49707 64.0
428.731934 40.0
429.297943 304.0
429.886597 92.0
430.522339 92.0
430.581848 64.0
431.873779 72.0
432.101318 88.0
437.313263 60.0
438.804535 88.0
440.590759 56.0
441.455963 80.0
442.468536 60.0
442.832825 52.0
443.603821 84.0
444.249603 88.0
444.618835 32.0
444.81189 92.0
444.870667 68.0
445.051208 180.0
445.319916 6072.0
445.39975 72.0
445.693848 80.0
446.059448 124.0
446.322296 1768.0
446.392975 160.0
446.467285 32.0
446.803802 108.0
446.854279 48.0
446.934204 48.0
447.022583 44.0
447.092804 76.0
447.326294 636.0
447.464539 52.0
447.641388 64.0
448.210022 164.0
448.2901 80.0
448.328033 152.0
448.825439 116.0
448.956146 48.0
449.27356 112.0
449.799988 104.0
450.695282 84.0
455.227661 64.0
458.205048 88.0
460.927185 116.0
461.546967 88.0
462.500977 76.0
462.685059 72.0
466.275269 96.0
466.773956 88.0
467.302979 176.0
471.866028 96.0
472.761414 76.0
474.88858 56.0
475.426544 68.0
475.713013 112.0
477.22052 84.0
482.662048 68.0
484.132324 40.0
485.065552 40.0
485.324219 92.0
486.394653 148.0
489.335602 108.0
494.743744 60.0
495.549774 36.0
497.763092 104.0
499.362915 100.0
501.063324 168.0
504.343201 124.0
504.674011 108.0
505.018341 76.0
512.781189 104.0
520.625977 96.0
520.662292 108.0
523.805176 68.0
526.002991 104.0
532.656372 48.0
536.429626 64.0
536.747742 128.0
539.99884 40.0
540.276367 64.0
547.52655 68.0
548.631775 104.0
549.941589 144.0
550.352417 48.0
551.155823 100.0
551.973816 84.0
553.074219 36.0
553.316589 64.0
553.569458 72.0
555.106445 56.0
566.971985 32.0
572.958923 64.0
577.689819 88.0
580.64032 84.0
581.945496 48.0
596.768921 76.0
601.328491 84.0
602.759338 56.0
612.30072 44.0
612.482971 92.0
624.704651 80.0
642.388062 116.0
655.330994 96.0
656.380981 152.0
666.464539 52.0
669.406799 72.0
671.395935 76.0
676.091858 52.0
684.839966 56.0
686.445068 96.0
687.644958 52.0
692.915833 84.0
696.451477 72.0
701.386902 116.0
705.742249 92.0
713.642273 52.0
714.503906 76.0
714.865662 48.0
718.163391 56.0
726.631409 100.0
727.409485 96.0
728.096741 144.0
731.301025 40.0
733.358459 156.0
741.405823 32.0
742.343628 32.0
759.435547 112.0
759.556213 72.0
765.816711 64.0
778.847961 92.0
782.373413 104.0
792.515686 88.0
795.241028 36.0
795.476807 80.0
796.285339 92.0
798.128479 80.0
803.388794 60.0
804.73761 80.0
806.313599 80.0
811.311584 112.0
818.288025 48.0
823.414307 76.0
824.482605 56.0
824.934143 144.0
827.279541 168.0
830.13855 40.0
833.002441 188.0
837.264404 36.0
856.283508 76.0
858.352295 152.0
859.122131 112.0
859.874878 28.0
867.894836 76.0
868.170471 144.0
872.109863 80.0
873.068115 176.0
876.205383 176.0
877.997314 188.0
891.423401 84.0
891.964233 80.0
894.944702 72.0
896.852905 64.0
897.238464 92.0
900.789124 148.0
902.797363 176.0
903.521057 64.0
905.232849 180.0
906.538757 176.0
907.305908 112.0
909.801575 200.0
910.89447 48.0
920.723999 200.0
923.098877 60.0
924.048523 220.0
924.139221 168.0
924.441772 160.0
926.130859 144.0
927.069946 192.0
928.955505 76.0
929.252808 172.0
931.013062 64.0
932.720276 44.0
933.425537 104.0
934.569031 68.0
938.229309 164.0
940.724365 144.0
941.976135 224.0
942.32959 224.0
943.020996 56.0
946.599792 140.0
947.898438 164.0
949.547485 148.0
949.749878 184.0
949.848022 184.0
950.301941 164.0
950.608765 140.0
951.541687 172.0
959.305359 188.0
959.977417 104.0
960.057556 212.0
960.520142 156.0
960.927307 152.0
961.14325 228.0
961.760376 152.0
962.482666 52.0
962.624695 180.0
964.879883 144.0
965.522949 84.0
969.385803 152.0
969.819641 156.0
970.055176 176.0
970.141968 104.0
972.101868 32.0
972.263184 120.0
973.119751 164.0
974.479919 172.0
975.430725 208.0
978.055664 180.0
978.528748 164.0
980.322632 188.0
980.497131 176.0
982.292786 104.0
985.970276 132.0
986.732849 88.0
987.032959 60.0
987.495728 80.0
987.952332 36.0
988.083679 116.0
991.314514 112.0
992.091675 88.0
992.605774 164.0
993.063599 164.0
993.854004 128.0
995.165771 228.0
995.216003 144.0
995.322754 192.0
996.98114 232.0
997.603333 152.0
998.194336 216.0
1001.14563 128.0
1001.510925 76.0
1001.825867 100.0
1001.945557 184.0
1002.506287 108.0
1002.972717 52.0
1004.07605 164.0
1004.290466 124.0
1005.072693 200.0
1005.691162 176.0
1008.091003 132.0
1008.223755 152.0
1008.470215 132.0
1009.337036 164.0
1009.753662 168.0
1012.493958 204.0
1013.019653 76.0
1013.558167 156.0
1013.627869 128.0
1014.0271 176.0
1014.489807 184.0
1015.016052 188.0
1016.843018 248.0
1017.325439 76.0
1018.107361 132.0
1019.569031 180.0
1019.643738 116.0
1019.732727 144.0
1019.948853 144.0
1020.234863 188.0
1020.285767 168.0
1020.622742 144.0
1020.83252 172.0
1021.309509 188.0
1021.411316 164.0
1022.435669 172.0
1022.734741 220.0
1023.855286 200.0
1025.37854 172.0
1026.748535 188.0
1027.526733 160.0
1029.454346 220.0
1030.552979 48.0
1031.179199 148.0
1032.291626 104.0
1033.0271 92.0
1035.145508 196.0
1035.523438 20.0
1036.157837 196.0
1037.054688 180.0
1038.631958 132.0
1040.910156 140.0
1041.802979 200.0
1041.85437 136.0
1043.846802 220.0
1043.988281 172.0
1044.219727 180.0
1044.586426 156.0
1044.708618 100.0
1046.613647 192.0
1048.668579 152.0
1049.119751 48.0
1050.828735 192.0
1051.248169 140.0
1052.356323 244.0
1053.740479 136.0
1055.81543 232.0
1056.041748 128.0
1056.740356 192.0
1056.824463 240.0
1058.513916 88.0
1059.161499 140.0
1059.705688 280.0
1061.663208 184.0
1061.916138 176.0
1062.006958 56.0
1062.84375 220.0
1062.980103 252.0
1063.116333 176.0
1063.336914 160.0
1063.680908 168.0
1068.353149 144.0
1068.645874 200.0
1068.854126 232.0
1068.964722 180.0
1069.212036 180.0
1069.849854 144.0
1071.230469 56.0
1071.673462 188.0
1072.677002 48.0
1072.944336 140.0
1073.505005 164.0
1075.227295 60.0
1076.337036 132.0
1078.107178 132.0
1078.231445 216.0
1079.386963 136.0
1079.401489 104.0
1079.422729 136.0
1080.094727 200.0
1080.591919 116.0
1081.999023 144.0
1082.156128 140.0
1082.568604 100.0
1082.883057 132.0
1082.96814 160.0
1083.020508 208.0
1083.230103 128.0
1084.383301 156.0
1085.097778 196.0
1085.786377 176.0
1086.724365 168.0
1087.150879 176.0
1087.616821 56.0
1088.227295 136.0
1088.371826 116.0
1089.245239 120.0
1089.507935 184.0
1089.685303 180.0
1090.546143 112.0
1092.22937 188.0
1092.762207 64.0
1093.097778 184.0
1093.314941 32.0
1094.744019 160.0
1095.05957 144.0
1096.324463 124.0
1096.68042 212.0
1097.042847 36.0
1097.913208 104.0
1098.031982 188.0
1099.932129 200.0
1100.301758 112.0
1100.744141 136.0
1102.104858 112.0
1102.725952 208.0
1103.195312 172.0
1104.147461 92.0
1105.073486 88.0
1105.119751 124.0
1105.774902 180.0
1106.013184 160.0
1106.569214 184.0
1106.913574 180.0
1107.21814 168.0
1107.443359 228.0
1108.649048 136.0
1108.887695 184.0
1109.040161 216.0
1109.113037 200.0
1109.444458 164.0
1110.352905 140.0
1110.604858 128.0
1110.883423 128.0
1112.993896 136.0
1113.046997 88.0
1113.737671 64.0
1114.601318 108.0
1114.694336 164.0
1114.740845 180.0
1114.820679 148.0
1114.899658 172.0
1115.551758 164.0
1115.950562 112.0
1116.203247 124.0
1116.535767 136.0
1116.595581 148.0
1117.679932 196.0
1119.230835 148.0
1119.570435 224.0
1119.910034 104.0
1120.243042 164.0
1120.356323 168.0
1120.536255 184.0
1120.702759 184.0
1121.131226 208.0
1121.18042 160.0
1121.649048 60.0
1123.202637 172.0
1123.829834 152.0
1124.764038 132.0
1124.937622 184.0
1125.712036 144.0
1126.747314 224.0
1127.549194 52.0
1128.023682 176.0
1128.09729 204.0
1128.230957 180.0
1128.411499 176.0
1128.502808 168.0
1128.999878 28.0
1129.641968 228.0
1129.849365 180.0
1130.424683 144.0
1130.585327 224.0
1131.91748 212.0
1132.037964 176.0
1132.379517 180.0
1132.513428 168.0
1132.567017 120.0
1132.620605 176.0
1132.768066 148.0
1132.948853 128.0
1136.549194 180.0
1136.830933 120.0
1137.005493 120.0
1137.401367 208.0
1137.790771 176.0
1138.36145 240.0
1139.469727 176.0
1140.518066 112.0
1140.874268 220.0
1141.365112 176.0
1141.465942 92.0
1142.710205 176.0
1143.060181 140.0
1144.736206 204.0
1145.059448 116.0
1145.1875 168.0
1145.726318 160.0
1146.534912 80.0
1146.804443 108.0
1147.094238 32.0
1147.862915 176.0
1148.849976 204.0
1148.989258 156.0
1149.124146 180.0
1149.960938 204.0
1151.243652 48.0
1151.439453 116.0
1152.141968 196.0
1152.189209 124.0
1152.344604 48.0
1153.033813 200.0
1153.304199 204.0
1153.628662 172.0
1154.392578 192.0
1154.710449 184.0
1155.021606 156.0
1157.051636 132.0
1157.661011 168.0
1158.864502 172.0
1159.483398 224.0
1159.639282 172.0
1160.106934 220.0
1160.452637 44.0
1160.771362 168.0
1161.056152 92.0
1161.205322 100.0
1163.003296 156.0
1163.322388 160.0
1164.157471 92.0
1164.225342 160.0
1164.843384 136.0
1164.931763 140.0
1165.563599 108.0
1165.672241 156.0
1166.800537 132.0
1166.85498 184.0
1166.922974 76.0
1167.269653 88.0
1168.453125 128.0
1168.891602 380.0
1168.970215 216.0
1169.507935 164.0
1170.175049 124.0
1170.26355 144.0
1170.365601 232.0
1171.114746 152.0
1171.466919 164.0
1171.605103 148.0
1171.973022 200.0
1172.865845 92.0
1173.329346 200.0
1174.065674 156.0
1174.331665 136.0
1174.519775 208.0
1174.850098 228.0
1175.500977 184.0
1175.894409 180.0
1176.071533 216.0
1176.214844 116.0
1176.597168 168.0
1176.774658 160.0
1177.546265 148.0
1177.744385 48.0
1177.915039 144.0
1178.19519 140.0
1180.033569 120.0
1180.129272 168.0
1181.031982 204.0
1181.196167 104.0
1181.599731 204.0
1182.030762 160.0
1183.194336 64.0
1183.303833 164.0
1183.522949 160.0
1183.598267 212.0
1183.790039 200.0
1183.851562 180.0
1183.961182 172.0
1184.248779 168.0
1184.817383 208.0
1185.269531 120.0
1185.317505 196.0
1185.509399 196.0
1185.605347 240.0
1185.886353 168.0
1186.030273 192.0
1186.756958 160.0
1186.948853 184.0
1187.463257 128.0
1187.607178 140.0
1188.855835 168.0
1188.951904 168.0
1189.253906 212.0
1189.741211 164.0
1189.892334 104.0
1190.091431 188.0
1190.482788 132.0
1190.626953 152.0
1190.929199 256.0
1192.179565 176.0
1192.385742 100.0
1192.603394 168.0
1192.825562 168.0
1192.947876 212.0
1193.513062 92.0
1194.461548 216.0
1194.640991 176.0
1194.792358 200.0
1194.881714 96.0
1195.5354 148.0
1196.47522 184.0
1196.606201 156.0
1196.863892 188.0
1196.967163 212.0
1197.690308 168.0
1197.752319 172.0
1199.144043 240.0
1199.259644 164.0
1199.86792 52.0
1200.254028 184.0
1200.633179 188.0
1200.688354 156.0
1201.391968 168.0
1201.543701 100.0
1202.109497 160.0
1202.45459 160.0
1202.640869 172.0
1202.751343 148.0
1203.172363 176.0
1203.952637 152.0
1204.056274 172.0
1204.15979 96.0
1204.919678 152.0
1205.140747 176.0
1205.291138 224.0
1205.444702 212.0
1205.610596 200.0
1206.364014 140.0
1206.439941 148.0
1206.92395 192.0
1207.048462 256.0
1207.760742 144.0
1208.348755 156.0
1208.846924 108.0
1210.625977 228.0
1211.10376 200.0
1211.179932 172.0
1211.498657 56.0
1211.678711 160.0
1211.976685 212.0
1212.18457 112.0
1212.357788 96.0
1212.43396 116.0
1212.856812 136.0
1213.238037 212.0
1213.328125 180.0
1214.104736 252.0
1214.389038 200.0
1215.068848 208.0
1215.540649 228.0
1216.011597 220.0
1216.206909 136.0
1217.560791 172.0
1218.165039 192.0
1218.720825 108.0
1219.075195 200.0
1219.499146 148.0
1219.603394 156.0
1220.307129 236.0
1220.368042 76.0
1220.466187 140.0
1221.084229 120.0
1221.376343 144.0
1221.967651 192.0
1222.058105 188.0
1222.67041 136.0
1223.380371 180.0
1223.756348 244.0
1224.431763 168.0
1224.658203 244.0
1224.884521 148.0
1225.33728 140.0
1225.845947 200.0
1226.776489 224.0
1226.898315 136.0
1227.075195 152.0
1227.184204 140.0
1227.274902 172.0
1227.714111 152.0
1227.832764 128.0
1227.979126 184.0
1228.606934 192.0
1228.739502 76.0
1230.037109 148.0
1230.099487 156.0
1230.358521 136.0
1230.672729 176.0
1231.178467 168.0
1231.56665 116.0
1231.622437 176.0
1231.790161 148.0
1232.372437 56.0
1232.907959 124.0
1233.264404 176.0
1233.354004 148.0
1233.446167 36.0
1233.865601 208.0
1234.075317 136.0
1234.417969 160.0
1234.656738 80.0
1236.089722 116.0
1236.194702 176.0
1236.292725 44.0
1236.663574 168.0
1237.104614 220.0
1237.216553 104.0
1237.524658 200.0
1237.867676 168.0
1237.95874 256.0
1238.463013 172.0
1238.624023 196.0
1238.694092 100.0
1239.093384 212.0
1239.864136 124.0
1239.917236 180.0
1239.940186 104.0
1239.964844 164.0
1240.032349 136.0
1240.102417 124.0
1240.319702 172.0
1240.698242 164.0
1240.789429 244.0
1240.958984 108.0
1241.03479 192.0
1241.104858 224.0
1241.434448 176.0
1241.75708 140.0
1241.984619 240.0
1242.15686 188.0
1242.346313 232.0
1242.423462 188.0
1243.693481 156.0
1244.37439 184.0
1244.929077 128.0
1245.090698 192.0
1245.687622 132.0
1245.800049 160.0
1246.095093 92.0
1246.144287 152.0
1246.20752 68.0
1246.955078 216.0
1247.901367 148.0
1248.309204 152.0
1248.864746 192.0
1249.153076 156.0
1249.448608 112.0
1249.548706 212.0
1249.835571 164.0
1250.405518 216.0
1250.546265 172.0
1250.806763 144.0
1251.095337 168.0
1251.440308 240.0
1251.538818 100.0
1251.588135 128.0
1252.031738 56.0
1252.496582 168.0
1252.791382 224.0
1252.92627 176.0
1252.996826 100.0
1253.532227 60.0
1254.138306 168.0
1254.603516 116.0
1254.934937 160.0
1255.167603 156.0
1255.36499 132.0
1255.633057 212.0
1255.879883 184.0
1256.465332 116.0
1256.585205 140.0
1257.453247 204.0
1257.998779 176.0
1259.2323 220.0
1259.550171 208.0
1260.341431 184.0
1260.546265 200.0
1261.29541 160.0
1261.401489 156.0
1261.557007 212.0
1262.094238 196.0
1262.214478 64.0
1262.525635 156.0
1262.744873 204.0
1263.40271 136.0
1263.55127 108.0
1263.947388 128.0
1264.195068 124.0
1264.456909 108.0
1265.341797 168.0
1265.568359 80.0
1265.844482 124.0
1266.049805 108.0
1266.276489 156.0
1266.425171 152.0
1266.630615 196.0
1266.83606 124.0
1267.08728 184.0
1267.806641 68.0
1269.550537 136.0
1269.60022 176.0
1269.933472 156.0
1271.40918 184.0
1271.842163 180.0
1272.140259 148.0
1272.324829 160.0
1272.395874 36.0
1273.972412 156.0
1274.164185 200.0
1274.505249 120.0
1275.315308 148.0
1275.96936 260.0
1276.2323 148.0
1276.418823 192.0
1276.545166 212.0
1277.134521 388.0
1277.348877 156.0
1277.420044 204.0
1277.825562 68.0
1277.875366 260.0
1278.14563 124.0
1278.935669 188.0
1279.14209 168.0
1279.319946 188.0
1280.537598 188.0
1280.680054 140.0
1280.893677 156.0
1281.064697 172.0
1281.339478 264.0
1281.52063 52.0
1281.720093 152.0
1282.076416 88.0
1282.240356 136.0
1282.347168 76.0
1282.468384 52.0
1282.546753 200.0
1282.60376 140.0
1282.701416 116.0
1283.124146 128.0
1283.69458 132.0
1284.172363 116.0
1284.514771 180.0
1285.056885 172.0
1285.242432 136.0
1285.713379 220.0
1285.799072 72.0
1286.120239 92.0
1286.184448 192.0
1286.443848 148.0
1286.612793 244.0
1286.755493 184.0
1286.855469 160.0
1287.248169 224.0
1287.362427 164.0
1287.755249 176.0
1287.883789 208.0
1288.405273 172.0
1289.226929 160.0
1289.4198 144.0
1289.469116 164.0
1289.841553 136.0
1290.310425 204.0
1290.477783 120.0
1290.785278 164.0
1291.368774 204.0
1291.772217 108.0
1292.411865 228.0
1292.723755 180.0
1292.924072 136.0
1293.081543 224.0
1293.16748 184.0
1293.289062 160.0
1293.883301 124.0
1293.983521 160.0
1294.08374 132.0
1294.398804 160.0
1294.463257 116.0
1295.114868 84.0
1295.30835 144.0
1295.501709 212.0
1295.573364 196.0
1296.311279 92.0
1297.544067 148.0
1297.866699 140.0
1298.074707 32.0
1298.293701 244.0
1298.418945 56.0
1298.677124 140.0
1299.466187 152.0
1299.631226 156.0
1299.731689 192.0
1300.068848 144.0
1300.201782 176.0
1300.463623 200.0
1300.707642 160.0
1300.879883 200.0
1301.461426 140.0
1301.777344 144.0
1302.072632 184.0
1302.301636 236.0
1302.531494 168.0
1302.71106 36.0
1303.170898 140.0
1303.525146 196.0
1303.967407 140.0
1304.787842 196.0
1304.866943 104.0
1305.061157 88.0
1305.269653 180.0
1305.528442 184.0
1305.578857 84.0
1306.060669 168.0
1306.329224 168.0
1306.866333 184.0
1307.175781 120.0
1307.600342 236.0
1307.953003 104.0
1308.032227 72.0
1308.089844 184.0
1308.161743 40.0
1308.240967 184.0
1308.413696 92.0
1308.652222 156.0
1308.874512 228.0
1308.946533 200.0
1309.601929 128.0
1310.867065 180.0
1310.907471 144.0
1311.215698 152.0
1311.446289 172.0
1311.713013 92.0
1312.008545 172.0
1313.27771 164.0
1313.342651 220.0
1313.450806 136.0
1313.854736 192.0
1313.946777 184.0
1314.684448 164.0
1314.771118 144.0
1315.103027 80.0
1315.391846 172.0
1315.666138 196.0
1315.774414 152.0
1316.121704 152.0
1316.460327 176.0
1316.857544 96.0
1316.980347 64.0
1317.637695 176.0
1317.724365 144.0
1317.883301 160.0
1318.128906 136.0
1318.256104 148.0
1318.460571 184.0
1318.960083 172.0
1320.22522 136.0
1320.68811 196.0
1321.411499 136.0
1321.679199 204.0
1321.925293 152.0
1322.142334 52.0
1322.424561 184.0
1322.496948 212.0
1323.112305 132.0
1323.177368 156.0
1323.59729 176.0
1323.763916 220.0
1324.804321 160.0
1324.90625 200.0
1325.493042 144.0
1325.625488 188.0
1326.277832 248.0
1326.604004 112.0
1326.944702 168.0
1327.009888 48.0
1327.93811 136.0
1328.291138 124.0
1328.757812 52.0
1328.988525 180.0
1329.359985 212.0
1329.526978 132.0
1330.158325 172.0
1330.477783 104.0
1330.622925 200.0
1330.935181 200.0
1331.312744 188.0
1331.625 48.0
1332.182495 188.0
1332.336914 172.0
1332.431274 168.0
1332.783691 160.0
1332.874512 116.0
1333.041626 148.0
1333.543091 188.0
1333.710205 176.0
1333.812012 132.0
1334.000977 132.0
1334.27002 120.0
1334.328125 164.0
1334.880737 144.0
1335.411621 164.0
1335.724365 168.0
1335.782593 156.0
1336.306274 228.0
1336.459106 152.0
1336.561035 236.0
1336.640991 180.0
1336.785278 200.0
1337.048584 172.0
1337.230469 152.0
1337.834595 136.0
1337.936523 152.0
1338.052979 176.0
1338.377686 224.0
1338.854004 172.0
1339.123413 72.0
1339.261841 96.0
1339.902832 184.0
1340.150513 148.0
1340.296265 144.0
1340.55127 228.0
1340.781372 160.0
1340.886475 200.0
1340.9375 156.0
1341.134277 156.0
1341.272827 244.0
1341.549805 200.0
1343.635498 124.0
1343.737549 116.0
1344.065918 148.0
1344.591309 124.0
1344.664307 136.0
1345.051147 152.0
1345.481812 232.0
1345.782471 136.0
1346.372925 204.0
1346.642822 132.0
1346.802856 172.0
1346.876587 116.0
1346.971558 180.0
1347.6875 204.0
1347.789795 112.0
1348.016235 208.0
1348.498535 200.0
1348.988281 208.0
1349.280762 164.0
1349.361084 204.0
1349.717773 176.0
1350.284058 164.0
1350.32312 200.0
1350.40686 84.0
1350.487305 164.0
1350.640869 216.0
1351.028564 188.0
1351.467529 168.0
1351.75293 76.0
1351.862671 176.0
1352.001709 132.0
1352.082153 172.0
1352.133423 184.0
1352.396851 160.0
1352.667725 144.0
1352.865356 184.0
1352.916626 176.0
1353.070312 172.0
1353.319214 220.0
1353.509644 184.0
1353.985596 108.0
1354.176025 104.0
1354.329834 148.0
1354.454346 84.0
1354.520264 144.0
1354.608154 132.0
1354.688721 164.0
1354.923218 48.0
1355.548828 212.0
1355.663208 204.0
1356.168823 68.0
1356.411255 164.0
1356.498657 100.0
1356.557373 160.0
1356.989868 204.0
1357.202515 172.0
1357.459106 136.0
1357.613159 208.0
1357.781738 180.0
1357.994507 104.0
1358.111816 200.0
1358.163208 188.0
1358.258545 112.0
1358.309814 100.0
1358.397949 196.0
1358.801392 164.0
1359.4104 56.0
1359.47644 196.0
1359.946045 184.0
1360.210327 192.0
1360.452515 48.0
1361.186768 100.0
1361.686157 204.0
1361.737549 76.0
1361.928467 192.0
1362.049683 200.0
1362.132812 168.0
1362.214966 184.0
1362.33252 160.0
1363.0 168.0
1363.471313 136.0
1363.525269 176.0
1363.963745 164.0
1364.096069 144.0
1364.831299 148.0
1365.87561 144.0
1365.927002 188.0
1366.184448 160.0
1366.2948 196.0
1366.35376 212.0
1366.531006 148.0
1366.824585 144.0
1367.17041 48.0
1367.310303 132.0
1367.869629 172.0
1368.230347 28.0
1368.334106 208.0
1368.52478 132.0
1368.58374 128.0
1368.92981 180.0
1369.938843 124.0
1370.226074 192.0
1370.425049 144.0
1370.491333 172.0
1370.638672 208.0
1371.051392 208.0
1371.699951 212.0
1371.824463 152.0
1371.935791 168.0
1372.260742 176.0
1372.356079 44.0
1372.643677 384.0
1372.867676 188.0
1372.931274 116.0
1373.351562 216.0
1373.528564 212.0
1373.5802 168.0
1373.801514 76.0
1374.288208 196.0
1374.421265 228.0
1374.635254 188.0
1375.314209 164.0
1375.932739 176.0
1376.008057 216.0
1376.8573 124.0
1377.533569 220.0
1377.588501 220.0
1377.669678 192.0
1377.891357 176.0
1378.098267 212.0
1378.88147 124.0
1378.955444 76.0
1379.066284 84.0
1379.132812 148.0
1379.509766 176.0
1379.69458 168.0
1379.831787 324.0
1379.997681 156.0
1380.078979 40.0
1380.293457 96.0
1380.427368 144.0
1380.648438 108.0
1381.003418 168.0
1381.380615 256.0
1381.572998 164.0
1381.757935 48.0
1382.260986 208.0
1382.460815 124.0
1382.727173 116.0
1383.001099 176.0
1383.141724 180.0
1383.208252 180.0
1383.42041 188.0
1384.792847 208.0
1385.415039 120.0
1386.089233 136.0
1386.38562 148.0
1386.926636 144.0
1387.275024 148.0
1387.534424 136.0
1388.090576 184.0
1388.157349 168.0
1388.557373 192.0
1388.876709 160.0
1389.114014 264.0
1390.635132 128.0
1390.694458 212.0
1390.909668 180.0
1391.021118 160.0
1391.904541 152.0
1392.223877 108.0
1392.580322 168.0
1393.338013 184.0
1393.407593 196.0
1393.820923 160.0
1394.244507 48.0
1394.407959 160.0
1394.564087 148.0
1396.006348 128.0
1396.593872 136.0
1396.645874 180.0
1396.705444 76.0
1396.787231 184.0
1397.062378 144.0
1397.583252 48.0
1397.665039 152.0
1397.843628 232.0
1398.037109 184.0
1398.282715 196.0
1399.041016 172.0
1399.395264 272.0
1399.488647 232.0
1399.712036 156.0
1399.920532 188.0
1400.143921 104.0
1401.179199 200.0
1401.253784 176.0
1401.462402 220.0
1401.685913 196.0
1401.827515 144.0
1401.954102 244.0
1402.043579 136.0
1402.274658 168.0
1402.37146 176.0
1402.923096 108.0
1403.161621 88.0
1403.258545 116.0
1405.175293 208.0
1405.600586 184.0
1406.740601 156.0
1406.794678 216.0
1407.220215 160.0
1407.359985 256.0
1407.645752 240.0
1407.727905 60.0
1408.243286 200.0
1408.325439 64.0
1408.5271 132.0
1408.935425 216.0
1409.31897 72.0
1409.595459 196.0
1410.357666 144.0
1410.567017 212.0
1410.843506 172.0
1411.127686 156.0
1411.561279 44.0
1412.256836 164.0
1412.526123 124.0
1412.668213 168.0
1413.199341 120.0
1413.348999 224.0
1413.461182 180.0
1413.513672 180.0
1414.149658 164.0
1414.336792 116.0
1414.681152 168.0
1414.845825 236.0
1415.115356 164.0
1415.175293 216.0
1415.504761 136.0
1415.961548 180.0
1416.178711 224.0
1416.478271 172.0
1416.605591 212.0
1416.740479 68.0
1416.943726 196.0
1417.392334 172.0
1417.744507 120.0
1417.842773 168.0
1418.456543 188.0
1419.003906 152.0
1419.581055 152.0
1419.738525 224.0
1419.828613 184.0
1419.933594 104.0
1419.986084 128.0
1420.623657 252.0
1420.743652 160.0
1420.916138 160.0
1421.261353 368.0
1421.531372 204.0
1421.629028 168.0
1421.831543 236.0
1422.056763 180.0
1422.334473 184.0
1422.554443 216.0
1422.837402 80.0
1422.897461 172.0
1423.122681 48.0
1423.483154 116.0
1423.648315 152.0
1424.677246 120.0
1424.775879 136.0
1425.098022 260.0
1425.736694 140.0
1425.894531 184.0
1426.014771 152.0
1426.368042 180.0
1426.961914 108.0
1427.014526 228.0
1427.593506 204.0
1427.804077 120.0
1428.127441 220.0
1428.187622 232.0
1428.292969 164.0
1428.385864 172.0
1428.578735 180.0
1428.814941 92.0
1429.210693 144.0
1429.52771 200.0
1432.109009 148.0
1432.176758 144.0
1432.425293 180.0
1432.594604 148.0
1432.681396 160.0
1432.873413 96.0
1433.043091 168.0
1433.59314 128.0
1433.713745 124.0
1434.309082 188.0
1434.532349 208.0
1435.047852 160.0
1435.18689 176.0
1435.666138 132.0
1435.718994 180.0
1436.058716 164.0
1436.816772 244.0
1437.008789 208.0
1437.484131 136.0
1437.919067 144.0
1437.982178 44.0
1438.140747 152.0
1438.260742 212.0
1438.435059 80.0
1438.691772 84.0
1438.879639 176.0
1438.955933 136.0
1439.303223 168.0
1439.763794 192.0
1439.990479 156.0
1440.333008 160.0
1440.911987 192.0
1441.224487 168.0
1441.30603 128.0
1441.531616 140.0
1441.859497 164.0
1442.249512 168.0
1442.457886 164.0
1443.088623 168.0
1443.255005 172.0
1444.298584 52.0
1445.138306 176.0
1445.249512 164.0
1445.552002 172.0
1445.634033 56.0
1445.758789 144.0
1445.811768 160.0
1446.11438 144.0
1446.439941 184.0
1446.810791 228.0
1446.867798 136.0
1447.037964 96.0
1447.363525 172.0
1447.545288 220.0
1447.893555 140.0
1448.181396 144.0
1448.264648 96.0
1448.401001 240.0
1448.527466 208.0
1448.600342 188.0
1448.80249 44.0
1448.999512 88.0
1449.279785 144.0
1449.363159 220.0
1449.522217 224.0
1449.734497 176.0
1449.999634 144.0
1450.138306 112.0
1450.446899 176.0
1450.54541 180.0
1451.44751 136.0
1451.963257 252.0
1452.054199 128.0
1452.190674 84.0
1452.524414 164.0
1452.645874 132.0
1452.736816 72.0
1452.880981 116.0
1453.222412 128.0
1453.275513 120.0
1453.459106 180.0
1453.541016 128.0
1453.745972 212.0
1454.489746 100.0
1454.884399 72.0
1454.975586 160.0
1455.916992 148.0
1456.12207 144.0
1456.235962 184.0
1456.327148 212.0
1457.163208 172.0
1457.276733 196.0
1457.603394 176.0
1457.717407 200.0
1457.945312 164.0
1458.234131 80.0
1459.009521 180.0
1459.077881 120.0
1459.290771 184.0
1459.37439 128.0
1459.450439 152.0
1460.286865 180.0
1460.743286 188.0
1461.02478 108.0
1461.169312 212.0
1461.701904 248.0
1462.242188 128.0
1462.303101 164.0
1462.683594 172.0
1462.740845 208.0
1462.80542 120.0
1462.965332 184.0
1463.752197 164.0
1464.175903 132.0
1464.609985 36.0
1464.869019 80.0
1465.143188 204.0
1465.490601 152.0
1465.767944 176.0
1465.875732 152.0
1466.061768 232.0
1466.127686 196.0
1466.621582 156.0
1466.74353 156.0
1466.804443 136.0
1467.017944 204.0
1467.498169 84.0
1467.582031 128.0
1467.635376 140.0
1467.765015 200.0
1467.978516 32.0
1468.176758 344.0
1468.581055 104.0
1468.718262 168.0
1468.947144 76.0
1469.122559 168.0
1469.977051 156.0
1470.091553 172.0
1470.411133 152.0
1470.803223 256.0
1470.984497 184.0
1471.137207 184.0
1471.213501 160.0
1471.350952 284.0
1471.641113 140.0
1471.770874 180.0
1471.831909 220.0
1472.297729 120.0
1472.446411 188.0
1472.763672 136.0
1473.122681 128.0
1473.374756 92.0
1473.45874 168.0
1473.596313 172.0
1473.64978 112.0
1473.769287 184.0
1473.924805 228.0
1474.069946 136.0
1474.559082 196.0
1475.713379 176.0
1476.095581 156.0
1476.160645 160.0
1476.218018 100.0
1476.424438 204.0
1477.135742 100.0
1477.541138 176.0
1478.359863 84.0
1478.650635 168.0
1478.82666 200.0
1479.094604 152.0
1479.148193 180.0
1479.27832 212.0
1479.515625 148.0
1480.158691 108.0
1480.31958 128.0
1480.710083 164.0
1481.161987 44.0
1481.499023 36.0
1481.751831 164.0
1482.165527 128.0
1482.433716 188.0
1482.502686 188.0
1482.717285 212.0
1483.039185 36.0
1483.092773 160.0
1483.453125 164.0
1483.861938 200.0
1484.57251 156.0
1484.810181 136.0
1485.278076 140.0
1485.416138 132.0
1485.515869 220.0
1485.592529 188.0
1485.67688 184.0
1485.807373 204.0
1485.945435 56.0
1486.30603 140.0
1486.428833 160.0
1486.541138 188.0
1486.697388 168.0
1487.129761 144.0
1487.380493 124.0
1487.672119 244.0
1487.810303 156.0
1487.979248 124.0
1488.155762 188.0
1488.772461 88.0
1488.856689 176.0
1489.346069 196.0
1489.714722 156.0
1490.006714 124.0
1490.483032 224.0
1491.205444 188.0
1491.574341 184.0
1492.17395 152.0
1492.466064 160.0
1492.612183 212.0
1492.715454 212.0
1492.812134 120.0
1493.058228 180.0
1493.260742 284.0
1493.438965 148.0
1493.888916 204.0
1494.073486 52.0
1494.468506 268.0
1494.588989 120.0
1495.05835 160.0
1495.127563 160.0
1495.243042 144.0
1495.473999 180.0
1495.720215 140.0
1495.78125 176.0
1495.858765 192.0
1495.974243 144.0
1496.174438 184.0
1496.620972 144.0
1496.697998 204.0
1496.890503 124.0
1497.528931 144.0
1497.737549 80.0
1498.007202 104.0
1498.192017 200.0
1498.430054 160.0
1498.728149 164.0
1498.869995 132.0
1499.169434 120.0
1499.247681 244.0
1499.478882 144.0
1500.018311 124.0
1500.21875 136.0
1500.280396 144.0
1500.604248 124.0
1501.074585 136.0
1501.190186 84.0
1501.610229 140.0
1502.578613 160.0
1502.987549 276.0
1503.087769 60.0
1503.164917 172.0
1503.604858 192.0
1503.913574 208.0
