>compound 1-hydroxyphenazine
>formula C12H8N2O 
>ionization [M+H]+
>parentmass 197.07093932809053
#inchi InChI=1S/C12H8N2O/c15-11-7-3-6-10-12(11)14-9-5-2-1-4-8(9)13-10/h1-7,13H
#inchikey KLJWTLFECGZQCL
#Ion_Source DI-ESI
#Instrument Hybrid FT
#Compound_Source Crude
#PI Dorrestein
#Data_Collector WMoree
#Scan -1
#Precursor_MZ 197.0
#ExactMass 196.064
#Charge 1
#CAS_Number N/A
#Pubmed_ID 22869730
#Smiles N/A
#INCHI_AUX N/A
#Library_Class 1
#SpectrumID CCMSLIB00000072552
#IonMode Positive
#UpdateWorkflowName UPDATE-SINGLE-ANNOTATED-GOLD
#LibraryQualityString Gold
#TaskID 5ed77b6b02b142c48610bf40947c9c0c
##Scan# 1
#SpectrumFile 1_hydroxyphenazine_197_MS2_FT.mzXML
#LibraryName gnps_library.mgf
#MQScore -1
#Organism FT_data_reupload
#TIC_Query 0
#RT_Query -1
#MZErrorPPM -1
#SharedPeaks 0
#MassDiff 0
#LibMZ -1
#SpecMZ 197
#SpecCharge 0
#internalFilename spec-00000.mgf

>collision 10
50.309811 127.0
50.565948 116.0
51.805309 114.0
52.150272 124.0
52.455173 122.0
52.659218 138.0
52.885757 161.0
53.096981 130.0
53.359043 137.0
53.510181 134.0
53.611263 133.0
55.511166 108.0
55.628159 126.0
56.22757 127.0
56.650948 169.0
57.217045 120.0
57.300621 105.0
57.617577 125.0
57.931068 103.0
58.193138 118.0
58.677727 125.0
59.300571 111.0
59.353718 110.0
59.933865 126.0
60.341393 119.0
60.372643 210.0
60.550671 144.0
60.605282 125.0
60.910927 149.0
61.709995 148.0
62.154064 105.0
62.389141 179.0
62.51152 129.0
62.568024 124.0
62.864304 134.0
63.194378 118.0
63.386417 115.0
63.81908 103.0
64.32209 134.0
65.44381 182.0
65.82383 125.0
65.98661 113.0
66.042419 109.0
66.699379 118.0
66.699409 118.0
67.227554 116.0
67.621902 114.0
68.0149 121.0
68.23661 130.0
68.490532 109.0
68.649666 177.0
68.731644 109.0
69.846397 170.0
69.979919 132.0
70.584503 113.0
70.949806 108.0
71.068832 130.0
71.610847 124.0
72.556198 170.0
72.712036 114.0
72.891945 124.0
73.378532 144.0
73.613815 117.0
73.690002 124.0
74.666275 157.0
74.876762 111.0
75.267433 119.0
75.477013 123.0
75.591522 123.0
76.210526 110.0
76.320518 113.0
76.60347 216.0
76.675079 136.0
76.834969 144.0
77.169586 110.0
77.533363 123.0
77.799286 138.0
78.072906 138.0
78.170616 118.0
78.729309 133.0
79.676643 129.0
79.926659 129.0
80.643883 126.0
80.735886 149.0
80.86628 140.0
80.975037 120.0
81.431335 138.0
81.491196 107.0
81.688232 129.0
81.974518 110.0
82.955177 128.0
83.100769 115.0
83.630402 142.0
83.671097 120.0
83.859627 126.0
84.426071 133.0
84.948662 140.0
85.4543 138.0
85.622002 147.0
85.799576 215.0
85.84095 173.0
86.060249 116.0
86.566154 171.0
88.125786 134.0
88.940163 135.0
89.201088 117.0
89.215523 113.0
89.697739 115.0
89.977226 206.0
91.065002 106.0
91.267059 130.0
91.94519 124.0
92.239731 127.0
92.441849 131.0
92.471497 116.0
92.97683 132.0
94.082985 148.0
94.203072 147.0
94.86776 125.0
95.020042 157.0
95.827255 112.0
96.688911 122.0
96.723564 107.0
98.990906 137.0
99.01947 132.0
99.611366 112.0
100.643623 138.0
101.069725 121.0
101.22049 130.0
101.893806 131.0
103.135025 140.0
103.255936 121.0
103.813316 126.0
103.836205 128.0
105.278885 125.0
105.434486 131.0
105.962662 158.0
106.231049 109.0
106.529968 107.0
106.647354 106.0
107.145149 152.0
107.297211 121.0
107.325455 116.0
107.661674 146.0
108.432114 116.0
108.480042 127.0
108.480118 127.0
110.279144 145.0
111.058182 112.0
111.878922 174.0
113.617485 139.0
116.019234 146.0
116.406517 148.0
116.97818 118.0
117.585838 111.0
117.790863 128.0
117.988525 171.0
119.203194 119.0
120.043304 174.0
120.888016 128.0
121.152908 123.0
121.447937 109.0
122.776596 150.0
125.770523 133.0
127.412819 132.0
127.412926 132.0
127.841133 128.0
128.268112 119.0
130.259155 137.0
130.259277 137.0
130.747986 116.0
130.799744 119.0
131.472595 121.0
131.510895 131.0
131.732162 156.0
132.026184 114.0
133.288849 149.0
135.206604 121.0
135.996262 124.0
137.629517 119.0
141.258682 166.0
144.60289 132.0
145.923813 144.0
146.167114 115.0
146.476425 120.0
147.763687 137.0
148.072128 108.0
149.007278 160.0
150.601013 134.0
150.887482 131.0
152.379257 140.0
152.37941 140.0
153.690094 122.0
157.085068 128.0
157.879471 109.0
158.272598 121.0
159.693329 117.0
159.8694 125.0
162.458893 136.0
162.957092 121.0
163.012955 124.0
163.361679 121.0
164.605652 180.0
165.048828 114.0
167.56073 101.0
167.611832 127.0
169.07605 1191.0
171.899658 169.0
174.041779 127.0
178.163376 122.0
178.548889 139.0
179.058823 206.0
179.060303 3019.0
179.114227 133.0
179.405991 128.0
180.043655 107.0
182.426086 164.0
183.178101 131.0
183.221252 126.0
184.257675 125.0
184.750824 112.0
187.82457 148.0
187.903687 146.0
188.4655 156.0
189.898621 126.0
190.922501 141.0
191.13353 137.0
194.838593 137.0
195.401917 120.0
195.834137 119.0
196.048553 119.0
196.860077 122.0
202.61853 297.0
202.622055 129.0
205.463715 148.0
207.862106 107.0
208.412262 124.0
215.077087 127.0
215.131699 121.0
215.310974 135.0
215.606049 120.0
216.485947 148.0
218.026474 110.0
220.801041 123.0
221.603104 172.0
225.967377 109.0
226.671204 119.0
228.616425 193.0
229.504501 127.0
232.88739 130.0
239.84343 131.0
240.563217 169.0
241.429062 110.0
242.503418 144.0
243.885071 129.0
245.682678 118.0
246.75676 112.0
249.319656 151.0
254.380066 105.0
259.739075 111.0
263.540771 116.0
264.00412 139.0
264.184387 167.0
267.250397 113.0
267.547882 110.0
269.853882 112.0
269.938904 163.0
274.840515 121.0
275.737457 109.0
276.722565 150.0
280.515228 123.0
281.896942 198.0
282.422394 113.0
283.189697 115.0
283.445862 116.0
283.530121 128.0
290.668243 114.0
291.83667 116.0
294.22876 127.0
297.172516 146.0
297.330963 126.0
301.27832 106.0
302.830994 126.0
305.852173 171.0
313.422516 104.0
314.62149 119.0
319.88382 168.0
331.339539 136.0
332.172638 123.0
333.155548 110.0
337.169922 132.0
339.009644 121.0
342.038086 147.0
342.839874 160.0
342.951538 162.0
345.862488 193.0
347.435242 108.0
347.931824 117.0
348.810455 112.0
351.311188 159.0
352.576294 137.0
359.160797 135.0
360.239136 117.0
366.030396 115.0
368.8703 224.0
369.92749 144.0
371.476929 134.0
372.391785 142.0
372.994415 122.0
373.338745 131.0
374.186157 156.0
375.671021 228.0
375.979279 119.0
379.14212 128.0
379.987549 153.0
382.558258 144.0
382.803528 129.0
383.450043 132.0
389.452576 115.0
392.993744 140.0
395.149139 146.0
397.697113 121.0
