>compound MLS001076501-01!
>formula C24H34O5
>ionization [M+H]+
>parentmass 403.2479006400905
#inchi InChI=1S/C24H34O5/c1-13(4-7-21(28)29)16-5-6-17-22-18(12-20(27)24(16,17)3)23(2)9-8-15(25)10-14(23)11-19(22)26/h13-14,16-18,22H,4-12H2,1-3H3,(H,28,29)/t13-,14+,16-,17+,18+,22+,23+,24-/m1/s1
#inchikey OHXPGWPVLFPUSM
#Ion_Source LC-ESI
#Instrument qTof
#Compound_Source NIH Pharmacologically Active Library
#PI Dorrestein
#Data_Collector VP/LMS
#Scan -1
#Precursor_MZ 403.25
#ExactMass 402.241
#Charge 1
#CAS_Number N/A
#Pubmed_ID N/A
#Smiles C[C@H](CCC(=O)O)[C@H]1CC[C@H]2[C@H]3[C@H](CC(=O)[C@]12C)[C@@]4(C)CCC(=O)C[C@H]4CC3=O
#INCHI_AUX N/A
#Library_Class 1
#SpectrumID CCMSLIB00000085428
#IonMode Positive
#UpdateWorkflowName UPDATE-SINGLE-ANNOTATED-GOLD
#LibraryQualityString Gold
#TaskID d252d724072548979f1f6f1ced849daf
##Scan# 1861
#SpectrumFile p4-A09_GA9_01_18333.mzXML
#LibraryName Pharm_Active_Library.mgf
#MQScore -1
#Organism Pharm_Active_Library
#TIC_Query 0
#RT_Query -1
#MZErrorPPM -1
#SharedPeaks 0
#MassDiff 0
#LibMZ -1
#SpecMZ 403.25
#SpecCharge 0
#internalFilename spec-00000.mgf

>collision 10
45.123394 168.0
45.361687 140.0
45.45557 160.0
45.806751 196.0
46.006054 28.0
46.041161 216.0
46.106007 136.0
46.242603 144.0
46.28186 204.0
46.517761 116.0
46.635933 84.0
46.804626 120.0
46.815517 56.0
46.936798 172.0
47.111496 96.0
47.333061 128.0
47.412518 124.0
47.463238 88.0
47.531822 80.0
47.869976 48.0
47.916805 152.0
48.047779 156.0
48.295048 144.0
48.382225 152.0
48.583168 192.0
48.614285 188.0
48.68866 60.0
48.77758 216.0
48.822071 192.0
49.344971 164.0
49.584335 84.0
49.616573 200.0
49.730198 132.0
49.888924 172.0
50.026787 124.0
50.149334 132.0
50.183167 136.0
50.485344 232.0
50.611282 204.0
50.719856 244.0
50.73777 188.0
50.792686 152.0
50.873569 140.0
50.947414 108.0
50.987202 84.0
51.123726 168.0
51.665924 220.0
51.790462 108.0
51.961048 96.0
52.605778 120.0
52.650536 148.0
52.663532 148.0
52.787823 140.0
52.855808 176.0
52.96294 164.0
53.206558 76.0
53.277718 224.0
53.503132 144.0
53.602173 176.0
53.727562 48.0
53.872089 40.0
54.005108 136.0
54.456535 152.0
54.487385 140.0
54.71534 144.0
54.819916 140.0
54.875931 180.0
54.899178 256.0
54.961475 148.0
55.185986 188.0
55.22739 156.0
55.66013 68.0
55.844406 208.0
56.081142 52.0
56.110954 220.0
56.216858 180.0
56.390095 124.0
56.494766 56.0
56.873878 172.0
56.939941 268.0
56.97599 164.0
57.064663 32.0
57.181995 244.0
57.326569 228.0
57.365757 132.0
57.385353 144.0
57.567932 96.0
57.626842 196.0
57.732651 48.0
57.750801 92.0
57.827965 104.0
57.868835 176.0
57.952137 212.0
58.041565 204.0
58.087063 184.0
58.105267 184.0
58.182667 188.0
58.36499 200.0
58.390839 216.0
58.403008 192.0
58.506481 128.0
58.69236 224.0
58.713707 220.0
58.73201 184.0
58.840355 104.0
58.861732 156.0
58.918243 108.0
59.027657 232.0
59.152214 176.0
59.446484 136.0
59.532448 88.0
59.603111 156.0
59.61694 60.0
59.666126 64.0
59.679962 212.0
59.723022 44.0
60.055717 184.0
60.172997 136.0
60.534809 200.0
60.678909 196.0
60.74094 188.0
60.829388 144.0
60.849571 196.0
61.008034 140.0
61.495583 124.0
61.654884 204.0
61.679893 108.0
62.165409 168.0
62.692219 192.0
62.780499 104.0
62.791538 148.0
62.834126 180.0
62.939873 100.0
63.044132 116.0
63.43824 172.0
63.458851 188.0
63.558773 172.0
63.798595 176.0
63.889244 88.0
63.976772 152.0
63.997467 196.0
64.1026 176.0
64.458443 192.0
64.514381 152.0
64.591141 64.0
64.659935 76.0
65.034981 160.0
65.348343 128.0
65.596352 180.0
65.725372 132.0
65.738281 136.0
65.754417 116.0
65.919136 120.0
66.226524 192.0
66.768608 124.0
66.858086 172.0
66.999741 220.0
67.032326 148.0
67.076332 40.0
67.391304 112.0
67.477921 80.0
67.551514 164.0
67.746315 260.0
68.044792 192.0
68.482208 180.0
68.52504 148.0
68.747635 248.0
68.876419 156.0
68.990433 272.0
69.025154 144.0
69.144264 148.0
69.241943 160.0
69.273415 136.0
69.327415 156.0
69.53373 196.0
69.964989 152.0
70.054169 200.0
70.322632 92.0
70.359352 140.0
70.526398 156.0
70.593269 152.0
70.66687 252.0
70.757248 112.0
71.251991 176.0
71.410004 76.0
71.505898 184.0
71.681038 172.0
71.841209 208.0
72.074196 132.0
72.244957 188.0
72.258492 192.0
72.456573 132.0
72.541306 140.0
72.593864 140.0
72.660019 88.0
72.680374 208.0
72.883232 184.0
73.040543 108.0
73.05925 44.0
73.369194 176.0
73.39872 164.0
73.509056 116.0
73.526123 92.0
73.582451 132.0
73.727638 96.0
74.012566 164.0
74.146072 144.0
74.249794 152.0
74.514938 176.0
74.570847 244.0
74.723892 200.0
74.861588 212.0
74.97184 216.0
75.228836 204.0
75.546806 148.0
75.626404 108.0
75.674873 144.0
75.766663 80.0
75.856773 44.0
75.928894 192.0
75.983376 128.0
76.078819 196.0
76.153488 104.0
76.422935 80.0
76.631866 100.0
76.793991 180.0
76.834106 208.0
76.855042 108.0
76.881218 108.0
77.040108 48.0
77.094269 148.0
77.190414 136.0
77.288368 344.0
77.395142 64.0
77.419655 108.0
77.480965 160.0
77.740463 144.0
77.796631 144.0
78.259003 232.0
78.280136 136.0
78.502167 128.0
78.669785 140.0
78.726288 152.0
78.8853 96.0
78.904747 164.0
78.917122 164.0
78.968407 232.0
79.053322 132.0
79.189644 196.0
79.228607 48.0
79.271133 136.0
79.303032 136.0
79.361534 88.0
79.718315 160.0
79.736092 164.0
80.279068 120.0
80.575363 96.0
80.816727 92.0
81.024414 184.0
81.300545 188.0
81.620293 104.0
81.685036 116.0
81.739006 184.0
81.802002 100.0
81.913643 128.0
81.946075 92.0
81.987518 216.0
82.030777 200.0
82.182266 168.0
82.227379 120.0
82.456741 136.0
82.572449 120.0
82.585114 108.0
82.68824 200.0
82.911003 40.0
83.056046 204.0
83.079628 112.0
83.228447 200.0
83.673897 208.0
83.856056 220.0
83.881577 72.0
83.89798 260.0
83.921684 148.0
84.186264 180.0
84.769814 140.0
84.969673 144.0
84.989853 224.0
85.07061 212.0
85.338829 100.0
85.3517 132.0
85.392159 140.0
85.889465 164.0
85.946655 220.0
85.994629 192.0
86.075859 188.0
86.142349 92.0
86.292038 144.0
86.343819 216.0
86.571442 148.0
86.671471 200.0
86.984894 132.0
87.070305 156.0
87.129745 156.0
87.223831 184.0
87.382591 40.0
87.417938 136.0
87.566872 220.0
87.680519 216.0
87.723389 88.0
87.766273 184.0
87.952827 184.0
88.016304 120.0
88.536156 164.0
88.571739 72.0
88.605461 136.0
88.901718 44.0
88.926117 76.0
88.986183 180.0
89.115776 140.0
89.236061 180.0
89.264267 228.0
89.316864 124.0
89.569153 128.0
89.623787 196.0
90.035088 212.0
90.050125 148.0
90.258003 160.0
90.581627 176.0
90.600571 92.0
90.960869 172.0
91.053574 872.0
91.075096 180.0
91.340912 228.0
91.399887 256.0
91.575027 184.0
91.615028 92.0
91.702675 136.0
91.735085 196.0
91.889557 104.0
91.913551 196.0
92.058327 228.0
92.142853 160.0
92.195068 100.0
92.508743 88.0
92.596825 184.0
92.748184 240.0
92.84021 160.0
92.895836 188.0
93.068863 408.0
93.103127 152.0
93.193405 136.0
93.445274 200.0
93.551125 88.0
93.807327 132.0
93.971252 44.0
94.009842 128.0
94.038795 172.0
94.07354 148.0
94.158493 72.0
94.210648 144.0
94.407791 148.0
94.494835 240.0
94.537407 152.0
94.798836 136.0
95.051689 464.0
95.084175 312.0
95.128548 284.0
95.427734 192.0
95.48996 132.0
95.558044 124.0
95.626152 236.0
95.682602 184.0
95.818924 188.0
96.000198 152.0
96.182869 236.0
96.265594 172.0
96.441078 160.0
96.885612 228.0
97.068237 408.0
97.101044 208.0
97.301376 196.0
97.564636 36.0
97.622765 184.0
97.666885 212.0
97.694427 248.0
97.713242 64.0
97.836113 208.0
97.948364 204.0
98.221275 176.0
98.277588 168.0
98.670624 204.0
98.846657 228.0
98.975319 160.0
99.038589 156.0
99.050995 188.0
99.068398 200.0
99.119911 172.0
99.163513 96.0
99.211082 72.0
99.230911 172.0
99.28643 128.0
99.38958 104.0
99.558311 188.0
99.621872 128.0
99.635773 60.0
99.649681 100.0
99.674965 160.0
99.703331 172.0
99.794769 172.0
99.975784 176.0
100.412079 196.0
100.471916 36.0
100.549736 152.0
100.697479 88.0
100.88131 112.0
100.999283 144.0
101.058502 280.0
101.273499 84.0
101.287521 164.0
101.309555 152.0
101.875267 84.0
102.080276 132.0
102.26133 236.0
102.281464 248.0
102.333801 120.0
102.726784 28.0
103.009392 164.0
103.063736 156.0
103.274185 132.0
103.318687 212.0
103.338921 92.0
103.478569 188.0
103.802765 152.0
103.851433 220.0
103.902145 140.0
103.942726 112.0
103.991432 160.0
104.074661 192.0
104.214806 216.0
104.373352 56.0
104.534042 156.0
105.070831 2220.0
105.372063 148.0
105.41497 96.0
105.482414 124.0
105.62146 180.0
105.718132 48.0
106.077393 152.0
106.289337 60.0
106.552147 128.0
106.827621 144.0
106.90992 160.0
107.01078 156.0
107.048111 196.0
107.085785 1556.0
107.119926 244.0
107.237373 60.0
107.338394 116.0
107.422951 160.0
107.462151 132.0
107.573006 184.0
107.726402 116.0
108.034416 164.0
108.057175 236.0
108.090202 220.0
108.166855 184.0
108.326302 152.0
108.38224 64.0
108.705719 80.0
108.761749 84.0
109.066772 660.0
109.103073 216.0
109.620682 192.0
109.762428 116.0
109.814568 152.0
110.010704 120.0
110.071251 180.0
110.103737 140.0
110.619019 164.0
110.755119 228.0
110.903885 124.0
111.021294 168.0
111.082428 252.0
111.308784 164.0
111.436905 140.0
111.634491 212.0
111.912247 148.0
112.085602 236.0
112.485672 140.0
112.530006 180.0
112.570122 148.0
112.593353 108.0
112.616585 176.0
112.682068 188.0
112.931511 180.0
112.990738 120.0
113.060562 152.0
113.096542 164.0
113.401543 184.0
113.753647 184.0
113.987267 152.0
114.184967 156.0
114.410515 168.0
114.446709 128.0
114.468002 112.0
114.93055 224.0
114.981766 168.0
115.039398 192.0
115.057457 168.0
115.105583 104.0
115.270058 216.0
115.285019 176.0
115.304253 128.0
115.379066 160.0
115.441071 156.0
115.629326 232.0
116.008453 192.0
116.057762 204.0
116.555733 116.0
116.626656 152.0
116.719093 68.0
117.050468 196.0
117.069046 416.0
117.089226 188.0
117.140923 152.0
117.164619 100.0
117.466423 132.0
117.960915 164.0
118.004158 116.0
118.073349 228.0
118.434792 168.0
118.866219 196.0
119.025902 248.0
119.054115 136.0
119.086205 1572.0
119.418015 132.0
119.609489 156.0
119.731415 172.0
119.950523 88.0
120.088844 612.0
120.466461 160.0
120.888435 200.0
120.954094 248.0
121.013199 108.0
121.033607 152.0
121.065926 1380.0
121.098587 264.0
121.129265 48.0
121.151176 112.0
121.379112 136.0
121.490967 64.0
121.66214 132.0
121.677505 60.0
121.835632 160.0
122.073067 168.0
122.092796 52.0
122.678482 188.0
122.698326 168.0
122.861519 224.0
122.918884 128.0
122.943161 124.0
123.083176 192.0
123.119766 212.0
123.20591 120.0
123.851837 176.0
124.06456 156.0
124.395096 176.0
124.568298 224.0
124.643837 180.0
124.668282 160.0
124.699394 228.0
124.721626 164.0
124.766083 156.0
125.061935 232.0
125.098404 528.0
125.199966 132.0
125.389336 400.0
125.491875 196.0
125.866722 176.0
125.909149 60.0
125.973923 164.0
126.072235 164.0
126.101288 188.0
126.370323 180.0
126.405426 144.0
126.75251 144.0
127.055191 332.0
127.364967 140.0
127.380692 44.0
127.742104 180.0
127.861855 152.0
128.061798 708.0
128.098267 160.0
128.222198 148.0
128.262772 136.0
128.368729 188.0
128.385406 152.0
128.442093 168.0
128.542419 164.0
128.600403 144.0
128.774948 52.0
128.842712 172.0
128.867569 124.0
129.069885 756.0
129.36058 156.0
129.645966 112.0
129.673157 144.0
129.73436 144.0
129.85907 196.0
129.977036 128.0
130.080673 192.0
130.115479 228.0
130.185867 108.0
130.378967 172.0
130.467621 168.0
130.574478 120.0
130.817947 144.0
130.899902 52.0
130.961395 136.0
131.054062 248.0
131.085861 1720.0
131.123169 168.0
131.166473 40.0
131.346603 188.0
131.46524 48.0
131.593063 28.0
131.686691 72.0
132.059494 144.0
132.085632 476.0
132.246857 72.0
132.349869 72.0
132.52623 140.0
132.583527 188.0
132.682083 136.0
132.893082 60.0
132.945862 80.0
132.977997 204.0
133.06221 232.0
133.099854 972.0
133.448471 104.0
133.476501 132.0
133.6306 152.0
133.770981 68.0
133.929871 108.0
134.069275 268.0
134.103088 176.0
134.166931 64.0
134.236389 60.0
134.252533 76.0
134.439377 180.0
134.972992 148.0
135.053925 160.0
135.082565 740.0
135.116486 184.0
135.512283 160.0
135.82988 136.0
135.964462 148.0
136.061646 156.0
136.082306 636.0
136.322083 120.0
136.470856 176.0
136.573166 160.0
137.059769 324.0
137.095581 376.0
137.191925 172.0
137.208893 112.0
137.316162 124.0
137.39502 168.0
137.638199 176.0
137.719925 176.0
137.822723 216.0
138.054138 108.0
138.114944 172.0
138.250641 156.0
138.360657 136.0
138.726105 112.0
138.862106 48.0
139.075607 172.0
139.110825 156.0
139.261093 104.0
139.498413 204.0
139.630096 152.0
139.77359 172.0
139.839478 228.0
139.961899 100.0
140.228088 188.0
140.345963 32.0
140.499268 152.0
140.843903 76.0
140.886429 128.0
141.07106 580.0
141.089661 208.0
141.120392 184.0
141.140411 208.0
141.368759 112.0
141.46817 112.0
141.802155 160.0
142.078339 328.0
142.262314 204.0
142.383408 148.0
142.435654 176.0
143.08606 2300.0
143.344482 124.0
143.477951 152.0
143.702133 172.0
143.749863 156.0
143.780884 208.0
143.876358 92.0
144.062637 196.0
144.091492 288.0
144.638916 172.0
144.655685 176.0
145.002991 196.0
145.065811 360.0
145.101913 2728.0
145.166 248.0
145.185181 108.0
145.284332 180.0
145.355499 68.0
145.372299 256.0
145.391495 104.0
145.444305 208.0
145.626785 184.0
145.823792 52.0
145.936783 68.0
146.008911 160.0
146.032974 92.0
146.07663 176.0
146.104126 236.0
146.4879 52.0
146.731293 104.0
146.842209 116.0
146.994202 176.0
147.042465 152.0
147.081299 680.0
147.118637 2380.0
147.216278 44.0
147.315308 84.0
147.351547 64.0
147.40712 92.0
147.438538 32.0
147.45787 72.0
148.096603 132.0
148.120926 680.0
148.220154 48.0
148.241959 104.0
148.321945 156.0
148.530472 96.0
148.615387 192.0
148.746429 152.0
148.862976 92.0
149.011139 152.0
149.052444 188.0
149.096741 948.0
149.302826 120.0
150.098907 304.0
150.255219 120.0
150.299133 212.0
150.328415 260.0
150.350372 272.0
150.599411 124.0
150.785095 60.0
150.912201 220.0
150.985565 164.0
151.014908 192.0
151.072037 196.0
151.112762 168.0
151.172485 176.0
151.47998 268.0
151.499573 112.0
151.595123 192.0
151.728775 168.0
151.879517 216.0
152.064301 148.0
152.159271 44.0
152.2845 144.0
152.323807 116.0
152.876999 60.0
152.921295 44.0
153.017303 52.0
153.071533 304.0
153.090988 168.0
153.137955 52.0
153.219254 188.0
153.991333 136.0
154.038254 112.0
154.071991 140.0
154.088409 216.0
154.376862 152.0
154.705933 140.0
154.832199 140.0
154.908981 36.0
154.965973 68.0
155.050217 196.0
155.085251 2276.0
155.367599 144.0
155.576065 56.0
155.620743 136.0
155.736099 108.0
155.928772 144.0
156.060516 204.0
156.092743 912.0
156.22467 128.0
156.448639 200.0
156.725082 404.0
156.817291 160.0
156.849686 200.0
157.00676 168.0
157.044296 160.0
157.066391 536.0
157.10025 2712.0
157.136475 92.0
157.296188 76.0
157.331131 60.0
157.455978 140.0
157.898346 100.0
158.073425 316.0
158.105804 624.0
158.198593 136.0
158.271194 172.0
158.361359 120.0
158.411453 48.0
158.474075 112.0
158.77739 192.0
158.797455 112.0
158.867691 212.0
158.947968 216.0
159.020752 116.0
159.080429 2036.0
159.117798 3212.0
159.161331 124.0
159.201508 128.0
159.219086 96.0
159.25798 148.0
159.44017 64.0
159.477249 148.0
159.66391 96.0
160.013672 216.0
160.0858 196.0
160.121078 672.0
160.207596 32.0
160.294418 88.0
160.361298 108.0
160.464645 40.0
160.608383 108.0
160.744629 132.0
160.95665 204.0
160.999588 60.0
161.0186 184.0
161.096832 1480.0
161.129623 480.0
161.199158 116.0
161.307831 36.0
161.359573 100.0
161.464584 220.0
161.522766 148.0
161.649261 40.0
161.704941 52.0
161.740372 216.0
161.823914 184.0
161.882797 156.0
161.945465 48.0
162.098694 676.0
162.145615 140.0
162.424515 52.0
162.594513 56.0
162.624969 44.0
162.723969 56.0
162.791428 204.0
163.076859 196.0
163.111374 584.0
163.14061 128.0
163.237228 80.0
163.48143 36.0
163.718185 116.0
163.868469 184.0
163.929611 72.0
164.123337 156.0
164.536667 132.0
164.69754 192.0
164.794617 108.0
164.945389 176.0
165.065338 460.0
165.09198 192.0
165.121811 164.0
165.321365 200.0
165.582489 224.0
165.705444 64.0
165.818192 48.0
166.079987 144.0
166.126343 156.0
166.742538 96.0
167.009506 224.0
167.086121 1400.0
167.189606 92.0
167.270279 128.0
167.622223 148.0
167.658295 148.0
168.008972 148.0
168.095444 652.0
168.269623 40.0
168.316101 208.0
168.370331 120.0
168.620926 152.0
168.874298 72.0
168.993301 72.0
169.066895 408.0
169.102203 1936.0
169.342773 140.0
169.889694 108.0
169.990891 132.0
170.027222 92.0
170.082489 188.0
170.110168 160.0
170.545425 160.0
170.858704 140.0
171.038254 164.0
171.080261 792.0
171.117783 1404.0
171.184052 76.0
171.223114 188.0
171.269989 112.0
171.501892 92.0
171.950485 96.0
172.090195 172.0
172.117996 324.0
172.146286 156.0
172.266434 120.0
172.500397 164.0
172.73172 76.0
173.027435 152.0
173.058731 336.0
173.095688 1116.0
173.132736 928.0
173.769119 124.0
174.068344 176.0
174.101059 304.0
174.138184 312.0
174.220688 140.0
175.075516 124.0
175.110611 1076.0
175.139816 116.0
175.149933 156.0
175.381134 188.0
175.931625 196.0
175.958832 128.0
176.11705 468.0
176.492538 156.0
176.616837 180.0
176.913208 84.0
176.987335 152.0
177.09874 312.0
177.125046 376.0
177.199219 116.0
177.39798 48.0
177.588898 140.0
178.082474 220.0
178.183517 164.0
178.928177 184.0
179.002731 196.0
179.088455 452.0
179.10643 504.0
179.157196 68.0
179.34639 128.0
179.64238 192.0
179.727753 160.0
179.767776 56.0
179.874527 160.0
180.093719 368.0
180.157593 116.0
180.186981 136.0
180.341965 116.0
180.513062 112.0
180.767197 180.0
180.920685 128.0
180.992035 128.0
181.102631 1076.0
181.383179 40.0
181.680832 228.0
181.745224 140.0
181.892822 140.0
181.973358 92.0
182.109131 1320.0
182.182846 192.0
182.274185 232.0
182.451584 136.0
182.72052 168.0
183.077835 48.0
183.115509 2720.0
183.329041 136.0
183.493469 152.0
183.561203 144.0
183.844116 172.0
183.90889 36.0
184.01416 120.0
184.08783 276.0
184.122971 456.0
184.505875 48.0
184.730316 96.0
184.911606 72.0
185.017181 128.0
185.097183 992.0
185.134506 3108.0
185.23494 116.0
185.323212 204.0
185.407227 140.0
185.694595 48.0
185.81395 144.0
185.984375 164.0
186.05278 220.0
186.100754 220.0
186.136978 676.0
186.351517 48.0
186.441193 172.0
186.50914 228.0
186.764725 124.0
186.906189 192.0
187.023209 84.0
187.075012 128.0
187.109833 444.0
187.15036 484.0
187.181107 80.0
187.670547 128.0
187.726105 140.0
188.108078 136.0
188.15329 184.0
188.296463 108.0
188.329239 132.0
188.411118 152.0
188.495895 140.0
188.750107 192.0
189.048264 76.0
189.083847 128.0
189.13295 140.0
189.330231 148.0
189.376801 40.0
189.40419 80.0
189.593231 40.0
189.637085 36.0
189.823502 172.0
190.553619 216.0
190.669022 184.0
190.866943 180.0
191.106842 268.0
191.139267 64.0
191.706512 172.0
192.093597 456.0
192.194595 60.0
192.31601 168.0
193.020477 148.0
193.101379 1756.0
193.164291 44.0
193.31369 180.0
193.429932 92.0
193.641586 136.0
194.086014 176.0
194.109253 420.0
194.383331 264.0
194.413849 88.0
194.544296 64.0
194.733124 40.0
195.082108 148.0
195.116638 4328.0
195.250046 40.0
195.375214 60.0
195.464249 44.0
195.617325 60.0
195.940369 156.0
196.026733 68.0
196.054611 108.0
196.086182 196.0
196.120956 1556.0
196.207916 52.0
196.26088 136.0
196.35849 152.0
196.436584 56.0
196.481216 220.0
196.651428 120.0
196.766861 228.0
196.832886 268.0
197.000458 72.0
197.033981 168.0
197.097275 640.0
197.131393 7700.0
197.193268 156.0
197.235184 132.0
197.369385 88.0
197.414124 60.0
197.453278 68.0
197.534378 104.0
197.651886 156.0
197.702255 40.0
197.789017 88.0
197.861801 248.0
197.906601 88.0
198.098511 156.0
198.13765 1424.0
198.209106 48.0
198.265152 180.0
198.481003 80.0
198.531479 80.0
198.58757 52.0
198.817612 80.0
198.91304 44.0
198.949539 180.0
199.076492 168.0
199.112381 608.0
199.149017 996.0
199.255646 192.0
199.721817 188.0
199.803864 196.0
200.0121 156.0
200.119019 584.0
200.153992 372.0
200.516266 124.0
200.68541 120.0
200.707962 140.0
200.96463 136.0
201.0784 188.0
201.098892 180.0
201.104553 164.0
201.127243 700.0
201.16246 344.0
201.23558 116.0
201.277939 88.0
201.419144 80.0
201.653351 228.0
201.792175 80.0
201.879822 180.0
202.094803 196.0
202.134537 180.0
202.164047 156.0
202.431641 44.0
202.953018 140.0
203.081573 180.0
203.10965 52.0
203.143036 176.0
203.171402 44.0
203.310928 184.0
203.497772 164.0
203.577286 112.0
203.71077 128.0
204.092285 132.0
204.151321 328.0
205.096603 296.0
205.210556 168.0
205.398773 112.0
205.592789 36.0
205.692688 148.0
206.015366 212.0
206.106201 532.0
206.29541 44.0
206.564209 168.0
206.667206 84.0
206.710129 120.0
206.916214 36.0
207.0737 168.0
207.116226 1408.0
207.178055 148.0
207.420395 28.0
208.083069 140.0
208.12178 616.0
208.364517 176.0
208.416229 48.0
208.580048 84.0
208.732422 108.0
208.869476 140.0
208.904984 160.0
209.093964 384.0
209.132095 2956.0
209.230164 64.0
209.290634 136.0
209.581543 216.0
209.616119 156.0
209.884186 160.0
210.105362 272.0
210.13118 328.0
210.674988 144.0
210.706772 160.0
211.108002 680.0
211.147583 4752.0
211.232895 56.0
211.394913 64.0
211.442215 152.0
211.601028 148.0
211.814728 84.0
212.017532 32.0
212.118149 320.0
212.152573 964.0
212.400253 72.0
212.551102 180.0
212.722336 176.0
212.78331 52.0
212.876877 160.0
212.91687 76.0
213.086975 156.0
213.127106 1972.0
213.163635 460.0
213.338181 172.0
213.4254 68.0
213.521362 112.0
213.998596 48.0
214.130844 460.0
214.167496 164.0
214.187881 92.0
214.313156 68.0
214.435547 52.0
214.49675 228.0
214.68335 156.0
214.730011 164.0
214.785431 112.0
215.080566 264.0
215.108597 160.0
215.139709 828.0
215.18428 160.0
215.342911 112.0
215.638 92.0
216.08493 252.0
216.113373 184.0
216.121887 212.0
216.148514 228.0
216.193665 156.0
216.325363 100.0
216.3927 140.0
216.568405 48.0
216.776413 128.0
217.005035 152.0
217.112274 244.0
217.163391 112.0
217.336472 144.0
217.788559 140.0
218.108734 436.0
218.170639 164.0
218.197021 88.0
218.326401 44.0
218.667664 128.0
218.835464 188.0
218.997421 64.0
219.118256 696.0
219.814041 60.0
220.12532 468.0
220.874664 156.0
221.090286 160.0
221.100281 156.0
221.130875 2292.0
221.422211 112.0
222.106873 172.0
222.136078 544.0
222.590622 32.0
223.110977 548.0
223.148071 1072.0
223.259232 104.0
223.601364 88.0
224.116913 156.0
224.149307 148.0
224.253616 60.0
224.360916 60.0
224.441422 84.0
224.492111 68.0
224.724777 144.0
225.091904 40.0
225.127182 2248.0
225.164856 568.0
225.238251 180.0
225.510147 40.0
225.663757 76.0
226.024506 100.0
226.131393 292.0
226.512512 132.0
226.629349 116.0
226.662308 36.0
227.013016 108.0
227.099518 152.0
227.142532 1316.0
227.352005 124.0
227.382019 48.0
227.613174 140.0
227.784348 140.0
227.814392 72.0
228.114899 128.0
228.147659 388.0
228.403564 132.0
228.647278 40.0
228.860992 172.0
229.092667 192.0
229.101639 40.0
229.123352 216.0
229.15625 1016.0
229.317535 116.0
229.541977 64.0
229.584198 48.0
229.870773 128.0
229.937164 128.0
230.048843 160.0
230.100159 144.0
230.171753 236.0
230.221436 172.0
230.840439 36.0
231.006775 140.0
231.12674 316.0
231.136063 328.0
231.524353 124.0
231.733353 76.0
232.097061 188.0
232.127151 472.0
232.15979 152.0
232.185013 92.0
232.239594 184.0
232.35791 224.0
232.981369 164.0
233.004562 164.0
233.133362 1240.0
233.305435 176.0
233.338867 68.0
233.837738 44.0
234.044739 68.0
234.099548 172.0
234.152435 504.0
234.994278 120.0
235.114731 320.0
235.148041 1708.0
235.179916 180.0
235.233734 116.0
235.392502 48.0
235.905777 144.0
236.149643 304.0
236.184036 152.0
236.370667 144.0
236.808426 48.0
237.084167 168.0
237.130783 428.0
237.163651 576.0
237.206757 124.0
237.261932 36.0
237.605423 68.0
237.771118 36.0
237.820221 32.0
237.930725 92.0
238.130325 140.0
238.161194 160.0
238.191757 64.0
238.213257 52.0
238.333069 52.0
238.376099 76.0
238.514389 148.0
238.655807 40.0
238.741913 120.0
238.947998 64.0
239.00029 76.0
239.043381 96.0
239.102631 204.0
239.14447 2260.0
239.289612 36.0
239.600677 236.0
240.007507 192.0
240.103104 140.0
240.146973 756.0
240.189453 224.0
240.525787 196.0
241.060089 220.0
241.122192 1468.0
241.155197 540.0
241.409409 80.0
241.564041 148.0
241.68779 96.0
241.709457 44.0
241.944672 148.0
242.123276 424.0
242.158569 352.0
242.210983 160.0
242.48674 136.0
242.756454 64.0
242.855698 200.0
243.057343 256.0
243.136856 1300.0
243.454681 140.0
243.756012 44.0
243.98912 104.0
244.137344 452.0
244.172577 128.0
244.426727 80.0
244.717133 96.0
244.826111 104.0
245.047272 180.0
245.146164 288.0
245.577209 52.0
246.140793 580.0
246.329453 72.0
247.147476 1824.0
247.40831 140.0
247.777863 56.0
247.906326 168.0
247.940796 40.0
248.106918 144.0
248.152145 820.0
248.414246 64.0
248.922684 76.0
249.129242 888.0
249.163879 1336.0
249.221085 48.0
249.324783 156.0
249.431641 80.0
249.510239 152.0
249.796402 320.0
249.821579 76.0
249.881348 104.0
249.947418 88.0
250.169052 620.0
250.841843 128.0
251.141693 856.0
251.179718 1256.0
251.456909 84.0
251.889481 176.0
252.066391 88.0
252.145142 436.0
252.179901 540.0
252.229095 60.0
252.989929 172.0
253.156006 564.0
253.192841 140.0
253.363617 148.0
253.781967 84.0
253.813675 144.0
253.950043 84.0
254.124512 156.0
254.162582 628.0
255.140747 516.0
255.170837 188.0
255.937805 152.0
255.987152 96.0
256.133789 184.0
256.2547 96.0
256.43634 152.0
257.151031 1068.0
257.492401 48.0
257.843811 72.0
258.155151 540.0
258.342621 116.0
258.518585 108.0
258.947571 56.0
259.037262 132.0
259.140778 1224.0
259.489136 60.0
259.643036 40.0
259.898315 192.0
260.101837 176.0
260.156952 336.0
260.214203 112.0
260.243103 128.0
260.606049 60.0
260.805298 52.0
261.09787 112.0
261.132935 376.0
261.163269 1000.0
261.664185 148.0
261.796204 124.0
262.007477 256.0
262.168732 336.0
262.63736 48.0
263.027802 224.0
263.063293 92.0
263.131622 148.0
263.179352 1716.0
263.218292 100.0
263.555725 64.0
263.654388 68.0
263.967957 156.0
264.178772 828.0
265.110657 96.0
265.156647 404.0
265.194733 268.0
265.434814 180.0
265.830566 104.0
265.950653 124.0
266.09024 188.0
266.162933 580.0
266.189941 280.0
266.424744 104.0
266.48645 92.0
267.134857 532.0
267.171936 616.0
267.26355 84.0
267.361176 88.0
267.904907 132.0
268.025452 32.0
268.178314 152.0
269.154327 584.0
269.193726 348.0
269.565643 60.0
269.588501 168.0
270.160675 92.0
270.192963 428.0
270.393005 108.0
270.501007 128.0
270.828461 80.0
270.929993 220.0
271.093811 100.0
271.154694 460.0
272.123779 196.0
272.166229 304.0
272.452209 88.0
272.583618 52.0
273.07016 28.0
273.122711 184.0
273.16272 1208.0
273.228058 40.0
273.718475 152.0
273.853485 160.0
273.886414 252.0
274.054443 100.0
274.170868 596.0
274.28183 68.0
275.134369 172.0
275.173523 332.0
275.823303 92.0
276.140381 196.0
276.184906 268.0
276.95163 96.0
277.15686 308.0
277.191803 268.0
277.989319 216.0
278.164886 176.0
278.178314 164.0
278.193756 168.0
278.202118 264.0
278.723145 56.0
279.125244 124.0
279.17453 636.0
279.205872 280.0
279.238434 108.0
279.461304 80.0
279.627686 96.0
279.730865 152.0
280.14444 168.0
280.177032 328.0
280.607025 196.0
280.792206 92.0
281.153717 372.0
281.190491 360.0
281.327637 160.0
282.157074 128.0
282.163971 164.0
282.195221 248.0
282.31662 136.0
283.166138 484.0
283.203522 72.0
283.528503 100.0
283.625702 68.0
284.125336 124.0
284.171906 200.0
284.487793 116.0
284.900848 108.0
285.175323 348.0
285.458771 208.0
285.83551 100.0
286.181396 132.0
286.876221 104.0
287.180847 196.0
288.053925 84.0
288.186005 280.0
288.807678 144.0
289.164978 544.0
289.195312 1000.0
289.261383 148.0
289.474396 48.0
290.043579 40.0
290.165253 272.0
290.208405 232.0
290.793152 44.0
290.881409 156.0
291.095276 88.0
291.173584 1928.0
291.326233 136.0
291.353424 72.0
291.553894 160.0
291.679657 48.0
291.876831 128.0
291.989044 104.0
292.177673 656.0
292.884186 120.0
292.965942 64.0
293.143677 332.0
293.195221 492.0
293.229279 480.0
293.981995 236.0
294.159302 160.0
294.736633 56.0
294.989532 116.0
295.165588 308.0
295.203766 368.0
295.577789 68.0
295.896118 152.0
296.176056 152.0
296.21286 168.0
296.440704 104.0
296.985809 84.0
297.146759 188.0
297.182556 396.0
297.744324 68.0
298.168152 152.0
298.228729 112.0
299.150238 160.0
299.177856 120.0
299.315857 52.0
300.363556 204.0
300.580902 172.0
301.159546 200.0
301.193359 200.0
301.976562 40.0
302.05957 216.0
302.170319 240.0
302.530182 72.0
302.595947 44.0
303.160156 108.0
303.165955 144.0
303.209198 1204.0
304.04834 84.0
304.213074 272.0
304.440643 28.0
304.808838 152.0
304.913086 136.0
305.192322 520.0
305.226501 420.0
306.185791 176.0
306.232605 144.0
306.391937 76.0
307.167633 140.0
307.205658 1112.0
307.256531 32.0
308.201935 252.0
308.206421 412.0
308.713043 148.0
309.14682 192.0
309.183258 1312.0
309.328827 72.0
309.402313 60.0
309.664948 40.0
310.197998 216.0
310.418427 56.0
311.109619 184.0
311.163574 184.0
311.197571 472.0
311.238861 192.0
311.738312 148.0
312.161987 140.0
312.203125 160.0
312.2435 48.0
313.198242 672.0
313.536591 116.0
314.180115 132.0
315.18454 116.0
316.185791 272.0
316.73764 72.0
317.169922 116.0
319.175842 156.0
319.229095 168.0
320.203491 144.0
320.396515 40.0
320.43927 76.0
320.927582 88.0
320.977478 132.0
321.137238 172.0
321.221924 4544.0
321.412659 116.0
321.905243 96.0
322.065979 176.0
322.11795 80.0
322.148132 120.0
322.180267 112.0
322.225586 748.0
322.702057 56.0
323.202698 168.0
323.222412 892.0
324.058533 96.0
324.158875 104.0
324.207428 460.0
324.36673 80.0
325.177399 276.0
325.213257 1272.0
326.221863 140.0
326.28009 40.0
326.366394 124.0
326.74762 68.0
326.790802 200.0
327.035522 92.0
327.196564 472.0
327.539612 112.0
328.134216 88.0
328.93869 112.0
329.212402 172.0
330.130951 124.0
330.706207 44.0
331.202667 1736.0
332.208313 412.0
332.895935 60.0
333.222839 96.0
333.942566 72.0
334.168121 112.0
334.193573 180.0
334.550232 124.0
334.903442 80.0
335.196014 144.0
336.303558 108.0
336.391144 60.0
336.570038 48.0
337.066803 124.0
337.183746 116.0
337.212067 168.0
338.892639 124.0
339.230103 3472.0
339.449799 68.0
339.55246 88.0
339.600159 64.0
340.232269 748.0
340.341431 116.0
340.444244 60.0
340.616882 44.0
340.712402 44.0
341.13501 80.0
341.242371 556.0
342.076721 144.0
346.3638 240.0
347.568695 96.0
348.065002 152.0
348.225769 136.0
348.913208 40.0
349.054474 196.0
349.214172 3468.0
349.381775 48.0
349.520813 76.0
349.642242 52.0
349.68692 68.0
349.742737 40.0
350.217499 1264.0
351.213104 284.0
351.311493 80.0
351.639862 120.0
351.882477 44.0
352.196167 144.0
352.226044 116.0
352.416595 60.0
353.209137 144.0
353.336304 56.0
354.054993 156.0
354.455811 144.0
354.583221 92.0
355.844025 36.0
357.249847 328.0
358.227905 136.0
358.57077 160.0
359.981689 48.0
362.497253 64.0
364.215851 84.0
364.59201 168.0
365.752014 148.0
367.153992 180.0
367.224579 4564.0
367.32782 80.0
367.344116 44.0
367.360046 72.0
367.527924 52.0
367.676758 64.0
367.749268 48.0
367.821777 60.0
367.93631 32.0
368.00885 48.0
368.054657 88.0
368.132263 152.0
368.176849 32.0
368.230927 1140.0
368.283783 172.0
368.32962 40.0
368.631439 64.0
368.761383 40.0
368.994568 32.0
369.05957 76.0
369.228729 292.0
369.843811 44.0
370.14624 84.0
370.242523 164.0
370.552246 52.0
370.743835 136.0
371.246033 144.0
382.388031 44.0
383.591583 108.0
385.236359 508.0
385.718994 72.0
385.961365 80.0
386.035675 40.0
386.237701 168.0
386.325104 80.0
386.661591 72.0
387.252197 156.0
399.151459 156.0
403.025818 36.0
406.208557 84.0
406.248688 84.0
408.892578 104.0
413.145477 40.0
415.365356 40.0
417.827118 112.0
425.329895 68.0
439.542114 116.0
441.204407 136.0
446.462433 52.0
446.584381 172.0
446.794708 52.0
449.356201 56.0
457.79126 92.0
459.389557 48.0
469.012024 56.0
471.398651 96.0
474.428375 104.0
475.820953 72.0
479.557587 84.0
483.011353 104.0
485.301758 172.0
488.116272 128.0
492.784027 84.0
501.223236 88.0
511.89328 88.0
520.493896 92.0
536.392395 76.0
550.412903 88.0
555.842712 100.0
567.540649 44.0
602.554199 80.0
631.353577 88.0
631.643616 88.0
673.956909 48.0
684.361633 44.0
692.659973 76.0
706.404236 36.0
708.654236 52.0
730.538147 84.0
731.167725 48.0
738.900085 44.0
742.768005 64.0
771.678772 176.0
800.521973 80.0
856.752258 92.0
867.745361 112.0
869.827942 148.0
869.892517 168.0
883.676941 60.0
889.722046 108.0
896.532532 104.0
904.069031 112.0
909.258911 56.0
943.294006 280.0
946.524353 40.0
947.994507 232.0
957.84314 132.0
961.369751 172.0
966.16449 144.0
969.917114 132.0
984.969116 64.0
1001.144409 92.0
1002.007324 152.0
1005.058899 92.0
1007.818176 64.0
1008.311096 88.0
1009.271912 164.0
1018.893005 208.0
1020.958801 200.0
1027.972534 108.0
1052.151367 160.0
1058.137939 164.0
1059.588745 200.0
1071.29541 108.0
1075.051025 140.0
1079.996582 204.0
1083.367798 164.0
1090.730347 80.0
1094.881958 156.0
1097.86731 92.0
1111.739868 56.0
1117.966675 172.0
1120.743408 180.0
1126.460938 152.0
1131.463013 212.0
1137.214478 76.0
1138.147583 180.0
1141.453491 196.0
1142.906494 112.0
1150.59668 128.0
1157.330566 48.0
1163.378174 164.0
1163.595337 200.0
1174.531128 224.0
1187.526855 196.0
1195.1521 120.0
1195.269165 68.0
1201.794312 172.0
1202.643066 168.0
1205.557617 112.0
1205.833984 140.0
1206.767212 152.0
1209.617432 80.0
1220.391479 64.0
1228.805054 152.0
1229.119019 160.0
1232.79895 144.0
1249.641724 68.0
1251.253418 144.0
1255.008667 44.0
1258.748413 112.0
1261.072632 308.0
1267.073242 212.0
1275.539429 180.0
1280.306396 196.0
1281.4104 152.0
1284.946655 80.0
1286.866577 156.0
1288.966553 40.0
1289.016479 68.0
1293.22168 244.0
1296.121948 172.0
1297.376221 116.0
1299.17627 164.0
1299.807617 188.0
1302.988281 140.0
1306.942749 156.0
1307.158569 224.0
1313.390381 132.0
1313.599609 128.0
1320.938721 220.0
1321.018311 184.0
1321.929932 72.0
1322.052979 188.0
1331.840576 212.0
1333.431763 72.0
1338.29834 200.0
1346.436279 112.0
1348.430786 204.0
1350.273193 208.0
1351.11438 120.0
1352.087524 204.0
1352.739014 104.0
1354.049683 224.0
1359.672729 120.0
1360.817871 264.0
1362.485107 48.0
1363.936279 240.0
1368.987183 60.0
1371.742676 156.0
1375.593262 176.0
1379.360596 80.0
1379.478882 120.0
1379.811523 80.0
1380.476929 176.0
1382.422485 156.0
1386.784668 204.0
1388.015259 52.0
1388.608521 96.0
1389.988403 128.0
1391.933105 88.0
1393.128906 228.0
1397.723633 44.0
1401.953247 220.0
1404.234619 216.0
1407.279175 124.0
1411.15686 136.0
1411.291504 144.0
1411.785034 152.0
1415.331909 132.0
1417.744019 172.0
1418.07373 184.0
1418.613403 148.0
1418.815796 112.0
1420.060547 140.0
1421.170776 236.0
1421.223389 68.0
1421.359009 188.0
1422.957153 180.0
1423.039673 232.0
1427.984253 124.0
1428.142212 168.0
1432.975098 152.0
1433.834106 192.0
1438.752075 116.0
1441.705444 236.0
1448.075562 228.0
1452.297119 188.0
1454.125732 160.0
1454.201538 196.0
1456.418701 132.0
1456.851807 160.0
1462.676514 188.0
1464.123169 156.0
1466.667847 112.0
1469.626709 216.0
1471.282959 136.0
1474.995483 140.0
1476.24939 152.0
1477.511353 164.0
1479.018921 132.0
1479.508789 172.0
1479.600708 100.0
1479.937622 164.0
1480.864136 168.0
1481.377319 120.0
1482.557251 56.0
1484.233398 196.0
1485.233032 200.0
1487.888184 176.0
1489.523804 120.0
1493.766968 40.0
1493.990112 100.0
1494.13623 120.0
1495.667603 152.0
1497.068848 128.0
1497.792847 132.0
1497.946899 160.0
1499.981201 92.0
1502.387207 152.0
1503.581665 164.0
1503.698853 120.0
1504.393555 188.0
