>compound MLS001159916-01!
>formula C23H21ClN2O5
>ionization [M+H]+
>parentmass 441.122986
#inchi InChI=1S/C23H21ClN2O5/c1-13-5-23(29)31-19-8-20(17(24)7-16(13)19)30-12-22(28)25-9-14-6-15(11-25)18-3-2-4-21(27)26(18)10-14/h2-5,7-8,14-15H,6,9-12H2,1H3/t14-,15+/m1/s1
#inchikey KHMHKCOWJSAGRF
#Ion_Source LC-ESI
#Instrument qTof
#Compound_Source NIH Natural Product Library
#PI Dorrestein
#Data_Collector VVP/LMS
#Scan -1
#Precursor_MZ 441.122
#ExactMass 440.114
#Charge 1
#CAS_Number N/A
#Pubmed_ID N/A
#Smiles Cc1cc(=O)oc2cc(OCC(=O)N3C[C@H]4C[C@@H](C3)c5cccc(=O)n5C4)c(Cl)cc12
#INCHI_AUX N/A
#Library_Class 1
#SpectrumID CCMSLIB00000080322
#IonMode Positive
#UpdateWorkflowName UPDATE-SINGLE-ANNOTATED-GOLD
#LibraryQualityString Gold
#TaskID b1d8e8f6646f4e71acdff9ca3d919d08
##Scan# 1757
#SpectrumFile p2-C07_GC7_01_18007.mzXML
#LibraryName NIH_Natural_Products_Library.mgf
#MQScore -1
#Organism NIH_Natural_Products_Library
#TIC_Query 0
#RT_Query -1
#MZErrorPPM -1
#SharedPeaks 0
#MassDiff 0
#LibMZ -1
#SpecMZ 441.122
#SpecCharge 0
#internalFilename spec-00000.mgf

>collision 10
95.036575 136.0
95.070503 112.0
95.124847 40.0
95.229698 200.0
95.278259 140.0
95.326836 164.0
95.599083 152.0
95.657471 104.0
95.715881 80.0
95.747032 80.0
95.860023 76.0
95.963333 64.0
96.045235 372.0
96.228004 140.0
96.293114 164.0
96.359528 152.0
96.550865 140.0
96.733047 184.0
97.001411 308.0
97.052635 220.0
97.166138 124.0
97.201454 152.0
97.27211 244.0
97.364388 116.0
97.427246 160.0
97.466537 48.0
97.556946 228.0
97.720177 224.0
97.744156 172.0
97.873703 28.0
97.964294 60.0
98.029312 44.0
98.094353 168.0
98.449493 104.0
98.463318 152.0
98.526527 184.0
98.721756 88.0
98.771652 168.0
98.801323 140.0
98.88443 200.0
98.993309 192.0
99.026978 104.0
99.181526 160.0
99.211258 148.0
99.419525 140.0
99.441353 160.0
99.510826 128.0
99.628006 140.0
99.767113 184.0
99.810852 196.0
99.856491 164.0
99.87648 144.0
99.90831 176.0
99.995857 168.0
100.119293 180.0
100.155144 208.0
100.181755 156.0
100.324516 152.0
100.448151 220.0
100.527962 188.0
100.567871 56.0
100.601807 56.0
100.651718 136.0
100.707634 180.0
100.85894 168.0
100.887474 116.0
100.907471 128.0
100.985458 28.0
101.043465 168.0
101.135513 76.0
101.219597 100.0
101.307724 216.0
101.376732 108.0
101.419937 312.0
101.490097 256.0
101.614449 168.0
101.728188 220.0
101.825218 156.0
101.953796 132.0
101.989975 132.0
102.040718 176.0
102.305038 108.0
102.346054 152.0
102.565643 212.0
102.664429 164.0
102.780807 208.0
103.029762 180.0
103.053284 308.0
103.393723 200.0
103.411934 128.0
103.496964 88.0
103.586067 140.0
103.634689 188.0
103.719803 156.0
103.758324 200.0
103.843491 160.0
103.9571 208.0
103.989571 204.0
104.036255 172.0
104.054756 252.0
104.082947 200.0
104.127625 228.0
104.211449 200.0
104.255615 60.0
104.30262 156.0
104.334885 100.0
104.389786 164.0
104.414185 136.0
104.481308 48.0
104.517929 204.0
104.556595 152.0
104.638016 132.0
104.662445 164.0
104.676704 148.0
104.83152 148.0
104.949745 60.0
104.97625 124.0
105.056137 404.0
105.43557 160.0
105.486671 160.0
105.537781 176.0
105.680954 188.0
105.742348 176.0
105.789421 60.0
105.880096 112.0
106.001152 264.0
106.073486 260.0
106.365433 44.0
106.613953 184.0
106.633743 108.0
107.050064 172.0
107.118034 152.0
107.165413 28.0
107.437553 64.0
107.528923 184.0
107.594398 116.0
107.608849 136.0
108.042778 388.0
108.2519 168.0
108.361679 196.0
108.479805 232.0
108.556519 124.0
108.656075 156.0
108.689278 152.0
108.780594 324.0
108.836647 172.0
108.861565 176.0
109.016724 168.0
109.052971 2892.0
109.073479 172.0
109.106743 136.0
109.121292 128.0
109.239342 152.0
109.489601 152.0
109.664604 128.0
109.683365 212.0
109.74382 80.0
109.787613 140.0
109.819008 148.0
109.849304 152.0
109.864784 92.0
109.885643 160.0
109.973289 168.0
110.004601 136.0
110.058884 492.0
110.300102 60.0
110.504066 76.0
110.598236 172.0
110.651016 132.0
110.740616 112.0
110.763657 100.0
110.790886 156.0
110.828598 64.0
110.93531 96.0
110.983704 136.0
111.02774 236.0
111.066872 140.0
111.129433 48.0
111.161995 172.0
111.20504 220.0
111.241753 40.0
111.260643 116.0
111.275345 136.0
111.294235 212.0
111.397148 212.0
111.537933 188.0
111.67881 176.0
112.015587 84.0
112.255852 52.0
112.466827 208.0
112.863991 188.0
112.89782 64.0
112.969734 140.0
113.007812 224.0
113.041672 172.0
113.105164 116.0
113.202553 136.0
113.227959 156.0
113.295746 96.0
113.409622 216.0
113.539497 108.0
113.645561 264.0
113.698608 176.0
113.798378 192.0
113.851463 176.0
113.966164 240.0
113.991669 220.0
114.193626 132.0
114.265953 196.0
114.331909 152.0
114.354034 216.0
114.483063 256.0
114.517136 88.0
114.540565 68.0
114.572517 184.0
114.732353 124.0
114.832573 152.0
114.95417 112.0
115.053955 360.0
115.080109 168.0
115.101456 136.0
115.12281 204.0
115.22747 172.0
115.2873 176.0
115.458328 132.0
115.644455 128.0
115.680847 228.0
115.72448 168.0
115.778168 188.0
115.820763 140.0
115.840759 148.0
115.942154 148.0
116.004379 128.0
116.047188 52.0
116.063606 284.0
116.115807 140.0
116.208046 52.0
116.407661 156.0
116.558029 256.0
116.601006 164.0
116.849304 188.0
116.876259 40.0
117.057961 976.0
117.128143 196.0
117.148666 216.0
117.214317 192.0
117.272507 168.0
117.289749 36.0
117.326393 104.0
117.388924 44.0
117.861649 156.0
117.887573 248.0
117.953445 260.0
118.041054 156.0
118.066071 560.0
118.108101 116.0
118.172997 116.0
118.227089 168.0
118.352638 168.0
118.50209 192.0
118.517258 212.0
118.573601 212.0
118.690659 120.0
118.721016 208.0
118.742706 128.0
118.760056 160.0
118.812119 232.0
118.833809 128.0
118.96402 188.0
119.003098 56.0
119.048698 212.0
119.07476 196.0
119.229248 144.0
119.257263 188.0
119.418114 200.0
119.500816 80.0
119.715309 252.0
119.847008 216.0
119.868996 172.0
119.88623 48.0
120.081871 124.0
120.104248 132.0
120.119514 156.0
120.141335 136.0
120.289719 156.0
120.329018 100.0
120.357399 148.0
120.525589 188.0
120.554436 296.0
120.663284 136.0
120.726692 200.0
120.805428 344.0
120.839012 148.0
120.896133 176.0
121.045822 160.0
121.107498 64.0
121.140358 52.0
121.225807 60.0
121.271881 156.0
121.311279 116.0
121.32663 124.0
121.482491 164.0
121.534981 56.0
121.618378 92.0
121.697403 180.0
121.712776 68.0
121.736931 40.0
121.829178 140.0
121.930252 144.0
121.954422 196.0
122.061005 2116.0
122.225098 244.0
122.24324 208.0
122.280998 216.0
122.431839 172.0
122.475891 204.0
122.689636 220.0
122.852829 116.0
122.868271 224.0
122.919014 140.0
122.9786 168.0
123.06691 876.0
123.108856 148.0
123.192787 240.0
123.210457 92.0
123.232552 32.0
123.256859 204.0
123.303268 60.0
123.349678 84.0
123.413795 128.0
123.471283 124.0
123.493401 152.0
123.641632 52.0
123.683685 216.0
123.734604 224.0
123.752312 40.0
123.805458 60.0
123.933929 112.0
123.958305 144.0
123.995979 136.0
124.011497 208.0
124.076134 468.0
124.102188 232.0
124.244324 168.0
124.288696 164.0
124.397446 104.0
124.456619 104.0
124.513168 168.0
124.592865 104.0
124.637306 152.0
124.917427 60.0
124.99752 176.0
125.075417 224.0
125.177826 152.0
125.209 148.0
125.38723 100.0
125.49646 112.0
125.534363 176.0
125.741837 216.0
125.766388 176.0
126.057152 184.0
126.076828 132.0
126.096939 288.0
126.23555 72.0
126.427933 192.0
126.45031 156.0
126.571198 104.0
126.598068 140.0
126.927467 192.0
127.001472 180.0
127.057556 332.0
127.133842 72.0
127.178734 176.0
127.205666 100.0
127.284241 172.0
127.389801 172.0
127.499901 132.0
127.61039 180.0
127.648262 176.0
127.801216 180.0
127.857475 224.0
128.006989 160.0
128.046585 144.0
128.075867 100.0
128.14119 132.0
128.16864 196.0
128.202026 136.0
128.256119 164.0
128.276413 224.0
128.29895 148.0
128.465836 172.0
128.48613 236.0
128.510956 136.0
128.538025 124.0
128.709579 128.0
128.777725 136.0
128.878983 144.0
128.933212 112.0
129.037186 208.0
129.073364 140.0
129.179657 256.0
129.197754 60.0
129.410507 160.0
129.428619 172.0
129.49881 136.0
129.59996 124.0
129.902283 56.0
129.920425 188.0
129.97261 124.0
130.038803 168.0
130.064865 644.0
130.129227 68.0
130.226868 188.0
130.256393 184.0
130.295456 104.0
130.310913 180.0
130.467728 200.0
130.581421 212.0
130.651932 28.0
130.774811 104.0
131.052353 288.0
131.066528 328.0
131.109604 172.0
131.25322 112.0
131.282852 96.0
131.314789 36.0
131.358124 176.0
131.428848 60.0
131.526978 208.0
131.675385 120.0
131.702789 104.0
131.721069 220.0
131.819305 180.0
131.865021 196.0
131.903168 188.0
132.046387 1952.0
132.080185 1452.0
132.121826 184.0
132.1409 192.0
132.163666 120.0
132.221786 132.0
132.274429 224.0
132.304199 320.0
132.40036 136.0
132.425552 132.0
132.537796 168.0
132.572174 116.0
132.588211 44.0
132.608841 72.0
132.886307 132.0
132.973221 184.0
132.992279 200.0
133.053543 2200.0
133.087433 184.0
133.11496 228.0
133.173264 188.0
133.219193 140.0
133.320297 56.0
133.501907 156.0
133.543304 172.0
133.635315 96.0
133.699738 136.0
133.736725 172.0
133.807922 136.0
133.865494 256.0
133.916153 88.0
133.949875 112.0
133.987564 92.0
134.060745 6428.0
134.090973 168.0
134.098587 352.0
134.26416 80.0
134.361038 116.0
134.425034 152.0
134.561829 160.0
134.577988 152.0
134.612625 64.0
134.677292 36.0
134.707321 56.0
134.822845 52.0
134.846786 144.0
134.875992 120.0
134.998535 160.0
135.027466 180.0
135.067459 948.0
135.158966 200.0
135.250717 32.0
135.341003 144.0
135.375732 128.0
135.820709 132.0
135.869431 68.0
136.062042 216.0
136.077545 172.0
136.103836 80.0
136.14563 76.0
136.180481 192.0
136.264099 136.0
136.463974 132.0
136.487228 160.0
136.510483 160.0
136.568619 200.0
136.591888 164.0
136.708206 152.0
136.815277 156.0
136.947998 52.0
137.015182 776.0
137.082352 180.0
137.13826 188.0
137.850861 140.0
137.974731 184.0
138.016068 296.0
138.05423 92.0
138.258759 212.0
138.295212 96.0
138.372452 212.0
138.482513 184.0
138.644165 128.0
138.665253 72.0
138.742615 108.0
138.897385 132.0
139.00737 136.0
139.030823 844.0
139.077499 168.0
139.103867 152.0
139.12735 156.0
139.162033 192.0
139.195435 128.0
139.211868 96.0
139.303467 176.0
139.331665 136.0
139.366898 248.0
139.458557 220.0
139.505569 76.0
139.538483 132.0
139.601959 192.0
139.663116 160.0
139.708878 236.0
139.877228 148.0
140.211685 116.0
140.232895 108.0
140.251755 144.0
140.388489 220.0
140.404999 244.0
140.463974 132.0
140.4953 192.0
140.546539 160.0
140.63385 172.0
140.70842 92.0
140.904358 324.0
140.997574 288.0
141.024506 120.0
141.340454 128.0
141.371216 140.0
141.494293 204.0
141.532181 176.0
141.591385 168.0
141.688492 184.0
141.750107 152.0
141.766693 76.0
141.946854 60.0
142.06279 488.0
142.089157 172.0
142.11525 168.0
142.300385 88.0
142.473755 152.0
142.775848 184.0
142.832703 176.0
142.942139 144.0
143.06839 372.0
143.17067 188.0
143.25737 208.0
143.306442 180.0
143.554718 200.0
143.609192 224.0
143.647354 108.0
143.673599 148.0
143.795288 208.0
143.87645 108.0
143.900314 196.0
144.002991 120.0
144.049042 216.0
144.081528 584.0
144.215637 240.0
144.304092 132.0
144.339951 68.0
144.382996 88.0
144.481064 148.0
144.502594 168.0
144.524124 148.0
144.558792 148.0
144.598312 96.0
144.701248 156.0
144.718002 108.0
144.830551 144.0
144.876068 176.0
144.895233 68.0
145.050476 816.0
145.087799 536.0
145.139709 60.0
145.194214 252.0
145.262009 36.0
145.293198 52.0
145.413177 120.0
145.55481 112.0
145.64183 104.0
145.715744 124.0
145.738297 216.0
145.83522 200.0
145.874344 216.0
145.950256 192.0
145.979935 196.0
146.024307 136.0
146.061462 35268.0
146.098663 216.0
146.141296 64.0
146.159531 76.0
146.209412 104.0
146.227921 140.0
146.257767 84.0
146.276062 136.0
146.342331 144.0
146.371109 92.0
146.426254 104.0
146.454239 60.0
146.490372 56.0
146.521698 44.0
146.572296 240.0
146.606033 128.0
146.65181 216.0
146.709671 92.0
146.747681 276.0
146.90741 108.0
146.986877 184.0
147.020889 140.0
147.068314 18760.0
147.11467 328.0
147.158401 44.0
147.189789 64.0
147.221176 184.0
147.25827 72.0
147.296051 144.0
147.432785 156.0
147.536026 92.0
147.635178 76.0
147.675537 44.0
147.767456 164.0
147.985275 228.0
148.074707 6564.0
148.137848 56.0
148.159653 64.0
148.180466 168.0
148.201462 164.0
148.283234 48.0
148.356323 204.0
148.389893 60.0
148.630005 52.0
148.729507 140.0
148.824188 96.0
148.846039 84.0
148.867889 224.0
148.911606 100.0
148.952896 132.0
149.0215 220.0
149.041275 192.0
149.072067 2152.0
149.103531 60.0
149.130264 100.0
149.244522 128.0
149.296539 156.0
149.332077 220.0
149.417206 96.0
149.670334 48.0
149.704422 80.0
149.771881 80.0
149.826202 164.0
149.872498 180.0
149.948044 28.0
150.026047 100.0
150.070312 276.0
150.250397 196.0
150.340683 208.0
150.410233 120.0
150.513138 160.0
150.565277 164.0
150.636108 120.0
150.697189 216.0
150.824265 144.0
150.843811 136.0
150.909821 116.0
151.025452 56.0
151.031876 136.0
151.041641 164.0
151.05011 120.0
151.057999 88.0
151.088348 152.0
151.127502 140.0
151.190308 192.0
151.379623 112.0
151.504532 108.0
151.634399 48.0
151.729996 144.0
151.796768 120.0
151.862411 132.0
152.041504 144.0
152.156876 60.0
152.191238 96.0
152.242813 216.0
152.343506 224.0
152.392654 48.0
152.463913 168.0
152.557312 168.0
152.916428 160.0
153.028595 148.0
153.049362 156.0
153.294342 216.0
153.394272 164.0
153.450974 116.0
153.492874 200.0
153.626068 160.0
153.732162 44.0
153.751907 132.0
154.07196 164.0
154.105011 120.0
154.832779 152.0
155.018051 148.0
155.179169 164.0
155.208923 168.0
155.382034 200.0
155.447052 108.0
155.56369 252.0
155.682877 172.0
156.13765 60.0
156.224701 204.0
156.269485 200.0
156.341644 172.0
156.566086 264.0
156.630463 40.0
156.927017 176.0
156.970779 172.0
157.019272 104.0
157.054199 140.0
157.074341 156.0
157.13652 112.0
157.188904 164.0
157.321182 204.0
157.343658 144.0
157.56842 180.0
157.595901 64.0
157.758362 108.0
157.905884 196.0
158.061188 728.0
158.151077 116.0
158.173599 140.0
158.396454 60.0
158.501678 176.0
158.638931 188.0
158.709717 144.0
158.754852 220.0
158.77742 148.0
158.892807 68.0
158.92041 44.0
158.937973 184.0
159.067734 3044.0
159.166382 168.0
159.201538 120.0
159.286942 124.0
159.42009 164.0
159.440201 256.0
159.553314 52.0
159.608627 44.0
159.701675 72.0
159.797256 52.0
159.943222 128.0
159.986008 108.0
160.023773 40.0
160.076126 10068.0
160.176758 48.0
160.202576 276.0
160.22525 40.0
160.290756 68.0
160.328979 48.0
160.361328 140.0
160.578156 48.0
160.643738 44.0
160.668961 92.0
160.73204 48.0
160.81279 192.0
160.896088 60.0
160.961731 84.0
161.01561 144.0
161.077225 1728.0
161.156219 92.0
161.317963 112.0
161.345779 84.0
161.373581 96.0
161.467148 88.0
161.484848 164.0
161.623138 204.0
161.735336 124.0
161.770767 208.0
161.80368 152.0
161.830429 248.0
161.932373 112.0
161.993622 52.0
162.053421 184.0
162.093506 2316.0
162.262238 196.0
162.315216 188.0
162.340851 84.0
162.391769 192.0
162.498108 168.0
162.527206 140.0
162.54631 168.0
162.723984 80.0
162.774765 52.0
162.922073 208.0
162.95256 56.0
163.028793 240.0
163.099869 312.0
163.270294 152.0
163.333878 48.0
163.361862 200.0
163.433105 96.0
163.674911 60.0
163.692734 220.0
163.987137 212.0
164.07901 168.0
164.105515 192.0
164.146301 104.0
164.245773 96.0
164.322617 164.0
164.364853 148.0
164.516251 168.0
165.011322 400.0
165.063858 312.0
165.109039 212.0
165.160187 144.0
165.367432 116.0
165.418884 196.0
165.472397 120.0
165.559448 212.0
166.015594 136.0
166.066238 196.0
166.241348 140.0
166.329193 176.0
166.698196 168.0
166.886078 124.0
167.02684 928.0
167.086761 196.0
167.151001 76.0
167.315659 232.0
167.378326 64.0
167.423874 172.0
167.449631 96.0
167.591309 156.0
168.031067 196.0
168.088959 124.0
168.130234 76.0
168.261887 88.0
168.375488 104.0
168.471069 140.0
168.742416 120.0
168.838089 224.0
168.946732 192.0
169.017548 228.0
169.07869 176.0
169.130447 152.0
169.18222 108.0
169.243942 172.0
169.386795 64.0
169.5578 88.0
169.731491 132.0
169.944168 156.0
170.034988 120.0
170.05835 200.0
170.112869 196.0
170.393326 120.0
170.692383 140.0
170.723511 140.0
170.757248 180.0
170.788452 64.0
170.813995 44.0
171.210083 164.0
171.400238 152.0
171.454971 124.0
171.700027 160.0
172.018341 68.0
172.049667 188.0
172.076904 3700.0
172.161942 72.0
172.190674 56.0
172.412735 180.0
172.458237 224.0
172.50058 256.0
172.556503 60.0
172.585251 40.0
172.614014 60.0
172.651703 220.0
172.723862 112.0
172.781418 148.0
172.802338 180.0
172.83374 68.0
172.868561 144.0
172.94104 104.0
172.975067 204.0
173.084579 16588.0
173.142624 192.0
173.19632 96.0
173.221207 160.0
173.250549 80.0
173.278839 76.0
173.351639 148.0
173.401505 64.0
173.459656 64.0
173.504227 60.0
173.576813 140.0
173.630081 44.0
173.653687 236.0
173.76123 196.0
173.795349 60.0
173.832077 132.0
173.881943 224.0
173.997437 148.0
174.050537 196.0
174.088318 3708.0
174.124954 64.0
174.154999 92.0
174.202271 52.0
174.233795 60.0
174.270584 120.0
174.457169 56.0
174.562347 152.0
174.667542 88.0
174.728043 112.0
174.841187 164.0
175.0513 884.0
175.086166 1376.0
175.126343 208.0
175.341568 128.0
175.389008 52.0
175.433823 132.0
175.481277 248.0
175.499725 72.0
175.531372 84.0
175.60257 124.0
175.650055 144.0
175.689621 96.0
175.747665 80.0
175.884888 68.0
175.964096 128.0
176.003693 112.0
176.055557 504.0
176.075638 180.0
176.154236 180.0
176.175293 156.0
176.18544 152.0
176.735855 216.0
176.820526 144.0
176.955536 224.0
176.97406 180.0
177.077347 68.0
177.101181 188.0
177.144348 188.0
177.207138 104.0
177.262787 132.0
177.32373 116.0
177.342285 116.0
177.551727 68.0
177.633957 208.0
177.864807 160.0
177.886047 96.0
177.944443 184.0
178.069916 160.0
178.127686 164.0
178.241928 152.0
178.289764 196.0
178.457214 152.0
178.507736 236.0
178.536987 36.0
178.784393 164.0
178.813675 200.0
178.90683 140.0
179.022537 188.0
179.381012 108.0
179.583649 180.0
179.607651 108.0
179.636993 176.0
179.781082 136.0
179.930542 136.0
180.015991 240.0
180.186935 172.0
180.235031 332.0
180.253723 108.0
180.710953 112.0
180.989319 80.0
181.017654 232.0
181.045547 112.0
181.08342 196.0
181.24913 280.0
182.002853 136.0
182.028442 180.0
182.088776 104.0
182.389053 116.0
182.80925 100.0
182.970749 100.0
183.073059 172.0
183.167328 60.0
183.420624 120.0
183.55542 140.0
183.755005 36.0
183.938522 152.0
184.012161 144.0
184.122116 136.0
184.192337 168.0
184.335526 152.0
184.519318 96.0
184.600769 160.0
185.033356 344.0
185.076675 148.0
185.157913 120.0
185.331284 84.0
185.556229 124.0
185.907944 168.0
185.919418 112.0
185.923187 156.0
185.964066 232.0
186.001129 60.0
186.039124 164.0
186.058136 324.0
186.172165 144.0
186.212906 112.0
186.41394 80.0
186.606934 88.0
187.001358 184.0
187.079575 284.0
187.182693 188.0
187.219162 64.0
187.270905 96.0
187.314484 72.0
187.371689 176.0
187.567902 124.0
187.592422 164.0
187.698761 156.0
187.726028 136.0
187.775116 252.0
187.794205 200.0
187.860641 124.0
188.070969 1116.0
188.189896 100.0
188.279449 172.0
188.311188 172.0
188.345551 116.0
188.393127 164.0
188.475021 216.0
188.495804 76.0
188.514938 136.0
188.549606 208.0
188.596924 168.0
188.660446 172.0
188.692612 160.0
188.736343 76.0
188.760956 176.0
188.826859 80.0
188.870667 308.0
188.893951 224.0
188.925888 212.0
188.936478 164.0
188.951202 144.0
188.962158 188.0
188.994522 72.0
189.002243 264.0
189.032928 300.0
189.104034 106308.0
189.194214 132.0
189.233398 48.0
189.251205 96.0
189.288666 132.0
189.307831 116.0
189.346237 156.0
189.393265 88.0
189.419205 168.0
189.446457 216.0
189.466354 44.0
189.488419 36.0
189.511795 140.0
189.554321 1096.0
189.623596 168.0
189.652481 180.0
189.718796 56.0
189.756378 80.0
189.775223 104.0
189.798737 196.0
189.821014 260.0
189.863174 72.0
189.891968 72.0
189.916656 76.0
189.945984 52.0
189.992203 96.0
190.038727 80.0
190.073318 1240.0
190.107391 17172.0
190.181381 100.0
190.204391 60.0
190.214478 52.0
190.234573 144.0
190.281631 64.0
190.331055 52.0
190.369492 52.0
190.407944 216.0
190.438156 96.0
190.462875 40.0
190.502426 80.0
190.528793 284.0
190.559021 56.0
190.58374 84.0
190.602982 40.0
190.664566 144.0
190.704666 28.0
190.781631 76.0
190.833023 172.0
190.864105 116.0
190.957336 40.0
191.082001 1056.0
191.117004 5296.0
191.169891 72.0
191.210724 72.0
191.24649 88.0
191.280014 68.0
191.330917 116.0
191.35936 120.0
191.377411 60.0
191.403412 76.0
191.490707 200.0
191.537048 136.0
191.556702 152.0
191.611603 136.0
191.647568 140.0
191.674072 92.0
191.745728 100.0
191.869049 52.0
191.976578 60.0
192.028976 60.0
192.064835 144.0
192.095673 172.0
192.124893 772.0
192.21933 52.0
192.251984 120.0
192.307632 124.0
192.356323 156.0
192.448425 60.0
192.476028 100.0
192.571716 80.0
192.641739 68.0
192.741196 56.0
192.821335 48.0
192.912552 132.0
193.005539 920.0
193.089508 120.0
193.120956 140.0
193.251663 116.0
193.299759 72.0
193.376404 144.0
193.5457 108.0
193.651337 132.0
193.803696 56.0
193.900696 48.0
194.00824 308.0
194.18071 100.0
194.202896 32.0
194.299973 136.0
195.022079 1444.0
195.085892 64.0
195.197098 176.0
195.625565 52.0
196.025909 924.0
196.046127 44.0
196.288651 44.0
196.832764 160.0
196.919342 104.0
197.016968 1016.0
197.151215 28.0
197.358078 60.0
197.934479 88.0
198.133331 40.0
198.607071 108.0
198.744537 156.0
198.957825 116.0
198.980286 120.0
199.494385 60.0
199.764343 88.0
200.082352 200.0
200.321716 36.0
200.456955 60.0
201.322983 68.0
201.467026 92.0
201.664825 112.0
201.797684 92.0
201.86554 28.0
202.052216 172.0
202.084305 200.0
202.216339 104.0
202.352219 112.0
202.513626 124.0
202.967041 116.0
203.040771 40.0
203.082886 696.0
203.118454 1056.0
203.284744 156.0
203.341507 36.0
203.372726 64.0
203.406784 60.0
203.784485 176.0
203.906677 128.0
203.944092 244.0
204.09552 208.0
204.11554 76.0
204.313278 140.0
204.4897 48.0
205.116318 64.0
205.367233 156.0
205.715363 148.0
206.080902 144.0
206.278091 216.0
206.598373 96.0
206.678482 108.0
207.028091 296.0
207.110764 116.0
207.566437 48.0
207.959457 208.0
208.06279 112.0
208.141098 160.0
208.174774 192.0
208.200623 92.0
208.269547 132.0
208.674728 76.0
209.021545 188.0
209.152267 192.0
209.9561 40.0
210.005127 156.0
210.761475 124.0
211.016953 376.0
211.050507 136.0
211.400513 64.0
212.571213 192.0
212.966049 128.0
213.032852 40.0
213.12291 176.0
213.809174 92.0
214.109497 612.0
214.913574 44.0
215.039047 104.0
215.123703 100.0
215.211288 104.0
215.947693 180.0
216.398331 76.0
217.045853 88.0
217.099014 1844.0
217.18663 116.0
217.342117 188.0
217.770706 56.0
217.823578 140.0
218.100159 312.0
218.135056 208.0
218.302643 120.0
218.496765 68.0
219.380249 116.0
219.436264 204.0
219.59549 92.0
220.445724 160.0
220.853714 116.0
221.000549 288.0
221.407166 216.0
221.587845 140.0
222.106613 132.0
222.694305 160.0
222.819061 84.0
222.931976 112.0
223.01767 5812.0
223.069336 148.0
223.110306 52.0
223.17572 56.0
223.223297 32.0
223.306564 72.0
223.401749 48.0
223.660629 128.0
224.018021 468.0
224.065613 108.0
224.259308 52.0
224.304016 236.0
225.01564 1528.0
225.306671 80.0
225.5009 184.0
225.680267 144.0
225.808853 132.0
225.886612 200.0
225.956985 96.0
226.01622 464.0
226.048172 80.0
226.386429 56.0
226.632065 140.0
226.841843 172.0
227.084717 48.0
227.43576 48.0
227.615891 80.0
227.690964 108.0
227.895218 44.0
227.928268 56.0
227.976349 96.0
228.114609 180.0
228.264938 168.0
229.466293 124.0
229.665329 104.0
229.801071 140.0
230.323334 80.0
230.815933 196.0
231.114334 3860.0
231.146454 164.0
231.275772 48.0
231.363556 72.0
231.387772 60.0
231.817886 132.0
231.872437 196.0
231.917892 68.0
232.023346 152.0
232.120377 4540.0
232.221085 60.0
232.269623 128.0
232.318146 48.0
232.360626 52.0
232.408295 180.0
232.599472 68.0
232.973862 64.0
233.122772 664.0
233.399353 96.0
233.467682 108.0
233.688309 64.0
234.023102 196.0
234.720856 108.0
234.891647 84.0
235.01506 1056.0
235.315826 36.0
235.508209 116.0
235.72818 64.0
236.016281 200.0
236.260178 40.0
236.284653 64.0
236.462128 88.0
236.76828 180.0
236.998016 80.0
237.047043 156.0
237.473175 108.0
237.829086 36.0
238.437195 128.0
239.006088 136.0
239.055328 204.0
239.206131 60.0
239.286179 76.0
239.344681 176.0
241.384293 148.0
241.659576 232.0
241.972168 52.0
242.074341 168.0
242.678558 128.0
243.07869 132.0
243.107605 324.0
243.333206 188.0
243.991837 100.0
244.299698 36.0
245.059326 120.0
245.349167 192.0
245.654785 264.0
247.623947 128.0
247.999924 108.0
248.046936 144.0
249.038452 224.0
249.453217 152.0
250.019882 144.0
250.091751 100.0
250.327866 160.0
250.895004 148.0
251.007553 496.0
251.715332 64.0
251.926941 72.0
252.581268 156.0
253.01619 248.0
253.093948 188.0
253.150955 140.0
253.179459 164.0
254.051086 124.0
254.149429 60.0
254.301758 84.0
254.46048 232.0
256.123627 140.0
256.298828 60.0
257.102417 180.0
258.658936 48.0
259.562378 108.0
260.165558 140.0
260.946228 104.0
261.386871 100.0
262.698151 172.0
263.047302 96.0
264.114777 280.0
264.624237 100.0
264.721375 60.0
264.918945 88.0
265.103638 80.0
266.062164 124.0
266.498901 112.0
266.521637 128.0
268.064667 272.0
269.082428 168.0
269.50296 84.0
270.428436 116.0
270.716522 164.0
270.952362 76.0
271.097778 344.0
271.447266 76.0
272.100555 180.0
273.415009 56.0
274.034058 96.0
274.073578 140.0
274.139496 148.0
274.732971 60.0
276.041687 348.0
277.038788 468.0
277.076874 128.0
277.922302 120.0
277.960999 200.0
278.040344 276.0
278.069977 308.0
279.39743 156.0
280.062012 172.0
281.029938 128.0
281.07666 112.0
281.176758 100.0
281.293579 160.0
281.383728 76.0
282.075226 136.0
283.10907 76.0
283.186096 84.0
283.390411 48.0
284.148132 152.0
284.322632 192.0
284.500519 244.0
285.101746 132.0
285.246246 120.0
285.390808 132.0
286.599152 96.0
287.003632 152.0
287.091278 132.0
287.216064 80.0
288.790039 168.0
288.894897 152.0
289.510895 136.0
289.659943 192.0
289.988586 144.0
290.886627 84.0
292.06311 124.0
292.454407 44.0
292.736969 108.0
292.869781 108.0
294.066528 112.0
295.50174 204.0
295.881622 244.0
295.939819 108.0
295.977478 92.0
296.296021 72.0
297.448242 168.0
297.551208 152.0
298.819397 148.0
299.769714 168.0
300.25235 120.0
301.184204 132.0
301.249847 92.0
301.785522 128.0
302.79248 120.0
304.050964 268.0
304.502289 164.0
304.630798 108.0
304.769745 204.0
304.999115 104.0
305.872192 156.0
306.077576 148.0
306.290039 192.0
306.443298 136.0
307.779144 72.0
307.848999 144.0
309.387421 120.0
310.385925 196.0
310.55777 64.0
312.120514 108.0
313.105835 88.0
313.218536 120.0
314.050354 96.0
314.59024 72.0
316.917328 112.0
318.062775 124.0
318.499512 148.0
318.972107 156.0
319.018311 164.0
319.309875 152.0
319.726105 104.0
320.070709 204.0
320.097168 208.0
321.022827 248.0
322.111359 100.0
322.954926 44.0
323.19101 88.0
323.871216 40.0
325.090149 76.0
325.409607 104.0
326.876068 140.0
327.250427 100.0
328.627228 128.0
329.13974 252.0
329.443115 112.0
329.518982 136.0
329.717743 40.0
330.075623 148.0
330.129852 96.0
330.846252 136.0
331.320648 116.0
331.784515 176.0
332.266876 116.0
332.796753 156.0
332.891144 28.0
333.101807 88.0
333.719604 132.0
334.101471 108.0
335.142731 136.0
335.266632 56.0
335.64209 112.0
337.120453 92.0
337.376282 140.0
337.606628 44.0
337.723663 104.0
338.07489 256.0
338.444611 144.0
339.074677 164.0
339.235931 124.0
339.679626 112.0
339.995178 52.0
340.064911 128.0
340.659729 60.0
342.305878 228.0
343.081146 128.0
343.184387 96.0
343.844666 168.0
344.269226 44.0
344.682922 52.0
345.15976 112.0
345.500031 160.0
345.574005 192.0
346.981384 204.0
348.042511 168.0
348.373047 80.0
348.885864 160.0
349.261444 84.0
349.696747 124.0
349.793518 132.0
349.856812 104.0
350.199371 204.0
350.381897 116.0
350.456421 60.0
351.698242 96.0
352.822601 184.0
353.18158 108.0
353.802765 164.0
354.274597 184.0
355.031738 132.0
355.519409 52.0
356.086304 124.0
356.34549 132.0
357.010803 188.0
357.09729 28.0
358.121033 108.0
359.067017 136.0
360.471313 84.0
361.095093 140.0
362.090454 220.0
363.18576 84.0
364.674133 216.0
365.567841 132.0
365.73822 140.0
366.832306 160.0
367.858429 220.0
370.07959 88.0
370.278717 88.0
370.516205 152.0
370.834259 48.0
371.09491 48.0
372.134674 144.0
372.31897 88.0
372.864502 52.0
373.12973 140.0
374.449554 168.0
374.545837 100.0
374.923431 120.0
376.065002 188.0
376.157623 52.0
376.2966 192.0
376.597809 160.0
377.602692 80.0
377.75354 152.0
379.616455 72.0
379.690125 208.0
380.093567 120.0
380.147888 128.0
380.827301 44.0
381.025391 108.0
381.402802 168.0
381.791107 104.0
382.032257 88.0
384.393311 100.0
385.349915 72.0
386.006561 164.0
386.3703 52.0
387.157043 200.0
387.95636 152.0
388.054352 48.0
388.466125 76.0
388.827118 124.0
389.639923 188.0
390.516479 100.0
390.902039 104.0
392.560425 152.0
392.824677 168.0
392.98642 84.0
393.333679 92.0
393.768005 200.0
394.02475 112.0
394.641296 168.0
395.009094 152.0
395.127289 132.0
395.365173 64.0
395.95108 164.0
396.466095 156.0
398.068726 128.0
398.09491 140.0
398.83493 144.0
398.974609 156.0
399.125702 116.0
399.165466 172.0
399.853851 144.0
400.076569 180.0
400.108429 124.0
400.514587 44.0
400.897064 112.0
403.987366 96.0
404.395508 176.0
405.240448 68.0
405.488892 128.0
406.074219 148.0
406.142395 168.0
408.311218 84.0
409.619324 64.0
410.135071 204.0
411.163544 112.0
411.413788 40.0
412.22467 160.0
413.103943 128.0
413.17981 76.0
413.321411 128.0
413.807098 100.0
414.118927 144.0
414.216125 96.0
415.014496 72.0
415.140198 172.0
415.728973 164.0
415.951599 220.0
416.057159 112.0
416.333252 100.0
417.804626 124.0
418.138275 152.0
418.932281 212.0
419.001526 172.0
421.743713 148.0
422.021698 184.0
422.987152 140.0
423.108093 124.0
423.392487 124.0
423.535828 120.0
424.107666 156.0
424.724487 88.0
425.077332 136.0
426.609283 260.0
426.888855 44.0
427.291931 84.0
427.777527 68.0
428.18515 132.0
428.646545 100.0
429.768066 168.0
429.999146 140.0
430.094086 292.0
430.189026 172.0
430.300476 168.0
430.771271 44.0
430.804321 44.0
430.837372 100.0
431.308441 112.0
431.469666 80.0
431.589569 176.0
431.647461 120.0
432.797729 108.0
433.286469 116.0
433.32373 184.0
433.953705 144.0
434.443085 104.0
434.483032 136.0
434.712769 108.0
434.762573 156.0
434.961792 160.0
435.069702 96.0
435.53064 208.0
435.916992 160.0
435.962708 96.0
436.137268 64.0
436.212097 128.0
436.503113 128.0
436.79422 68.0
437.143707 116.0
437.37677 112.0
437.530792 88.0
437.626526 100.0
437.697327 156.0
438.013824 88.0
438.042999 100.0
438.259613 76.0
438.569855 136.0
438.672211 80.0
438.705566 36.0
439.001587 32.0
439.051636 32.0
439.19342 200.0
439.368622 156.0
439.4646 40.0
439.518829 88.0
439.568909 168.0
439.669037 140.0
439.713409 152.0
439.760864 168.0
439.877747 196.0
439.973755 400.0
440.056488 112.0
440.132416 168.0
440.222076 144.0
440.328674 104.0
440.416565 184.0
440.45816 60.0
440.494476 144.0
440.596008 132.0
440.672241 108.0
440.733459 128.0
440.773315 136.0
440.854706 368.0
440.891052 280.0
441.006256 420.0
441.122986 47592.0
441.225861 180.0
441.292694 80.0
441.36084 60.0
441.445709 68.0
441.501434 116.0
441.554596 120.0
441.593689 172.0
441.649994 28.0
441.699585 52.0
441.747375 168.0
441.786682 132.0
441.834656 96.0
441.878876 56.0
441.94931 184.0
441.972778 132.0
442.046844 88.0
442.125885 12512.0
442.222809 80.0
442.275604 48.0
442.343994 64.0
442.385834 124.0
442.442474 76.0
442.499634 88.0
442.602356 56.0
442.627441 136.0
442.708221 120.0
442.745911 312.0
442.779419 88.0
442.845795 240.0
442.959534 156.0
442.995209 108.0
443.046722 44.0
443.1203 14888.0
443.228058 168.0
443.247772 60.0
443.281189 188.0
443.335205 88.0
443.399902 64.0
443.444305 132.0
443.537292 72.0
443.572571 80.0
443.619568 164.0
443.755951 76.0
443.894135 76.0
443.948639 48.0
444.066071 92.0
444.125977 3680.0
444.204468 40.0
444.296753 60.0
444.354309 92.0
444.400818 80.0
444.506134 80.0
444.567535 60.0
444.718597 76.0
444.765167 64.0
444.8255 52.0
444.92627 264.0
444.964172 148.0
444.984161 76.0
445.001312 132.0
445.117493 340.0
445.30838 60.0
445.451172 72.0
445.556213 84.0
445.589813 56.0
445.686432 84.0
445.808319 84.0
445.909149 64.0
445.969391 120.0
446.060486 124.0
446.131927 116.0
446.226166 96.0
446.262268 48.0
446.36319 44.0
446.438873 48.0
446.539795 116.0
446.702454 196.0
446.755096 64.0
446.842651 108.0
447.05304 140.0
447.105164 124.0
447.212982 80.0
447.47818 72.0
447.568451 72.0
447.65921 44.0
447.697113 44.0
447.760284 92.0
447.834259 100.0
447.903503 100.0
448.366943 32.0
448.434387 40.0
448.535522 80.0
448.817993 108.0
449.19754 96.0
449.33255 64.0
449.573059 60.0
449.691223 116.0
450.058472 120.0
450.223175 104.0
451.757416 40.0
452.972321 60.0
453.400238 60.0
454.507019 120.0
455.075775 60.0
455.666107 48.0
458.099487 156.0
458.329529 76.0
458.495728 108.0
459.126678 160.0
459.237549 56.0
459.472168 52.0
462.069672 124.0
462.788696 84.0
466.284729 72.0
466.53833 84.0
467.910675 76.0
475.35791 96.0
476.120789 164.0
477.095215 140.0
477.303925 64.0
477.338684 40.0
477.617035 60.0
479.223389 56.0
479.449982 128.0
481.251495 140.0
485.57489 44.0
488.574951 52.0
493.863831 56.0
494.499786 76.0
495.027771 112.0
500.257904 136.0
500.78775 68.0
501.759186 68.0
504.848969 84.0
506.289948 36.0
512.42572 124.0
513.615845 68.0
514.861511 56.0
517.828247 48.0
521.5578 72.0
530.733826 92.0
533.373535 128.0
547.661865 76.0
548.220947 76.0
548.640442 60.0
553.377686 64.0
553.845947 108.0
558.21991 68.0
561.690918 120.0
562.516663 88.0
568.911987 32.0
570.256226 68.0
572.306458 112.0
572.635071 96.0
582.12793 88.0
582.824402 44.0
592.536682 56.0
593.200562 140.0
595.840515 44.0
609.810974 52.0
610.381226 80.0
615.594604 40.0
617.240112 104.0
628.345886 48.0
629.403992 84.0
635.384888 76.0
641.313477 52.0
646.960754 44.0
648.36377 128.0
649.773376 196.0
655.452576 56.0
655.727783 72.0
663.246155 96.0
666.957153 92.0
668.453674 64.0
671.230103 64.0
686.094788 72.0
699.584351 60.0
703.268799 52.0
714.523987 40.0
715.806641 196.0
716.941284 92.0
723.221985 88.0
725.209045 64.0
725.948853 112.0
729.949402 48.0
732.419617 116.0
732.855957 104.0
734.683594 108.0
736.421631 84.0
737.842773 100.0
755.419006 120.0
760.717896 128.0
765.016602 96.0
781.625793 88.0
788.518311 80.0
791.35437 196.0
793.006897 92.0
793.388 76.0
794.879944 196.0
797.058594 108.0
804.3573 208.0
808.19458 168.0
808.737793 64.0
809.151062 88.0
812.523071 144.0
815.970337 56.0
828.078857 56.0
831.467102 52.0
842.389465 96.0
850.478577 136.0
857.626831 124.0
863.196228 40.0
872.559753 100.0
872.730286 48.0
873.441833 224.0
878.059387 96.0
880.479065 68.0
880.585327 88.0
898.291016 84.0
906.673523 192.0
918.873779 128.0
922.865906 84.0
924.862183 108.0
929.929138 124.0
932.443481 52.0
932.565063 100.0
940.458496 148.0
948.34845 72.0
952.115417 72.0
956.006714 92.0
961.516052 148.0
961.867859 200.0
965.148254 68.0
975.097595 188.0
975.339966 32.0
994.483887 220.0
998.523682 40.0
1002.880432 148.0
1006.842468 44.0
1006.981384 112.0
1013.034546 52.0
1013.142212 176.0
1019.105835 124.0
1021.515198 104.0
1023.35437 92.0
1023.86377 164.0
1026.062012 168.0
1026.623169 88.0
1035.224487 172.0
1035.653564 88.0
1037.716919 96.0
1038.512085 244.0
1040.783813 112.0
1056.231201 172.0
1060.037964 144.0
1067.112793 100.0
1078.919434 204.0
1079.965698 160.0
1080.855347 160.0
1092.612549 148.0
1098.112671 224.0
1103.243164 116.0
1110.739014 132.0
1116.164795 148.0
1116.736694 72.0
1119.545166 128.0
1120.590942 72.0
1121.457153 108.0
1122.030396 100.0
1123.764404 120.0
1124.858887 68.0
1132.032593 76.0
1132.822876 168.0
1133.137817 176.0
1133.512939 208.0
1140.90918 252.0
1141.440308 148.0
1141.749634 204.0
1144.824951 224.0
1145.417725 80.0
1151.393311 128.0
1152.967407 80.0
1161.437134 108.0
1165.81604 172.0
1166.142212 52.0
1166.937622 76.0
1167.821533 48.0
1168.787598 48.0
1174.578247 204.0
1182.462769 108.0
1182.736572 132.0
1183.318481 208.0
1186.79895 184.0
1191.465088 172.0
1203.601196 100.0
1203.766968 188.0
1204.208862 68.0
1204.96875 164.0
1210.425781 160.0
1213.723999 220.0
1214.840576 152.0
1215.715698 152.0
1216.165894 164.0
1217.693359 148.0
1217.998901 216.0
1219.034058 224.0
1219.228638 188.0
1220.048828 252.0
1230.568604 132.0
1230.910645 216.0
1231.322632 208.0
1232.098022 136.0
1232.587036 176.0
1235.985229 116.0
1242.164307 152.0
1243.616699 148.0
1244.494263 220.0
1249.111328 160.0
1251.996948 172.0
1252.47583 244.0
1258.950195 116.0
1264.414795 212.0
1269.423096 144.0
1274.832275 184.0
1275.528687 208.0
1275.852417 148.0
1276.609375 164.0
1277.221069 112.0
1277.58374 224.0
1278.195679 164.0
1285.663574 176.0
1287.355347 148.0
1287.769531 148.0
1291.765137 188.0
1294.119507 72.0
1295.501709 188.0
1295.623535 160.0
1295.824097 160.0
1297.644531 156.0
1298.490601 72.0
1298.906616 148.0
1300.793701 168.0
1301.238892 100.0
1302.222534 128.0
1302.703857 76.0
1304.967529 148.0
1305.247925 96.0
1307.643433 160.0
1310.257324 60.0
1310.790405 48.0
1313.147705 216.0
1318.417847 180.0
1321.852661 92.0
1322.315796 136.0
1324.111206 96.0
1324.777588 124.0
1324.864502 164.0
1324.97522 228.0
1325.965942 204.0
1326.734253 156.0
1327.053223 132.0
1328.706787 100.0
1328.815552 200.0
1329.737183 164.0
1332.954102 32.0
1337.004517 180.0
1337.863403 192.0
1342.24292 160.0
1342.365967 104.0
1342.694092 176.0
1342.832764 224.0
1343.861206 140.0
1344.306274 148.0
1344.51062 88.0
1345.898193 224.0
1347.540894 156.0
1348.527344 40.0
1350.669678 140.0
1350.969604 132.0
1351.057373 188.0
1351.781738 172.0
1351.986572 240.0
1356.666748 144.0
1357.986694 120.0
1360.576782 152.0
1361.054077 44.0
1361.949951 144.0
1364.095581 132.0
1365.860229 176.0
1366.080933 192.0
1366.875488 132.0
1367.618774 164.0
1368.273926 112.0
1368.810425 160.0
1369.297363 220.0
1369.348999 92.0
1369.702515 192.0
1370.255005 144.0
1371.6698 188.0
1371.780396 148.0
1371.86145 140.0
1372.436523 164.0
1373.476318 180.0
1375.210205 120.0
1376.11084 156.0
1378.053223 208.0
1379.072998 136.0
1379.412964 124.0
1379.996948 76.0
1381.032227 144.0
1384.555054 172.0
1387.029663 84.0
1387.259399 148.0
1390.27063 100.0
1390.48584 164.0
1393.352051 184.0
1396.273193 136.0
1396.54834 208.0
1396.710693 164.0
1396.883057 152.0
1398.899658 156.0
1401.170898 192.0
1401.979248 248.0
1403.115967 108.0
1405.159424 152.0
1405.472778 180.0
1406.495239 100.0
1406.741455 236.0
1410.438965 128.0
1411.276245 208.0
1412.42041 156.0
1413.984131 176.0
1414.15625 188.0
1414.620239 132.0
1415.234131 180.0
1415.316528 56.0
1416.237671 36.0
1416.612183 108.0
1416.821899 160.0
1417.144043 200.0
1418.114746 168.0
1420.42749 180.0
1427.893188 140.0
1430.421265 184.0
1430.59436 176.0
1431.467773 148.0
1432.243408 124.0
1432.356445 76.0
1434.096924 108.0
1436.494629 188.0
1437.626343 92.0
1440.540649 176.0
1440.94104 140.0
1442.618652 116.0
1443.639404 168.0
1444.100708 200.0
1445.628784 164.0
1447.112427 168.0
1450.415283 168.0
1450.506226 188.0
1451.17334 152.0
1451.559937 124.0
1452.614136 96.0
1453.1604 156.0
1455.239868 192.0
1457.34375 176.0
1460.057373 52.0
1465.202759 208.0
1465.850342 136.0
1467.580566 128.0
1468.312622 148.0
1470.227417 148.0
1470.754028 136.0
1472.525391 128.0
1472.983643 200.0
1476.162964 196.0
1477.218384 192.0
1479.030884 144.0
1479.328247 192.0
1479.996338 188.0
1480.501709 188.0
1481.267578 112.0
1482.010742 184.0
1482.3479 180.0
1483.896118 152.0
1485.422119 136.0
1485.920776 116.0
1486.572998 284.0
1487.432495 104.0
1487.95459 36.0
1489.267578 160.0
1491.119263 172.0
1493.164185 168.0
1495.664673 168.0
1495.987915 92.0
1500.526855 172.0
1501.180786 160.0
1501.643433 124.0
1502.430298 216.0
1503.549072 200.0
