>compound MLS001160495-01!1-[2-(6-methyl-8-oxospiro[3,4-dihydropyrano[3,2-g]chromene-2,1'-cyclohexane]-7-yl)acetyl]piperidine-4-carboxamide
>formula C26H32N2O5
>ionization [M+H]+
>parentmass 453.239
#inchi InChI=1S/C26H32N2O5/c1-16-19-13-18-5-10-26(8-3-2-4-9-26)33-21(18)15-22(19)32-25(31)20(16)14-23(29)28-11-6-17(7-12-28)24(27)30/h13,15,17H,2-12,14H2,1H3,(H2,27,30)
#inchikey KSGUPXSMQDCSNG
#Ion_Source LC-ESI
#Instrument qTof
#Compound_Source NIH Natural Product Library
#PI Dorrestein
#Data_Collector VVP/LMS
#Scan -1
#Precursor_MZ 453.239
#ExactMass 452.231
#Charge 1
#CAS_Number N/A
#Pubmed_ID N/A
#Smiles Cc1c(CC(=O)N2CCC(CC2)C(=O)N)c(=O)oc3cc4OC5(CCCCC5)CCc4cc13
#INCHI_AUX N/A
#Library_Class 1
#SpectrumID CCMSLIB00000080072
#IonMode Positive
#UpdateWorkflowName UPDATE-SINGLE-ANNOTATED-GOLD
#LibraryQualityString Gold
#TaskID b1d8e8f6646f4e71acdff9ca3d919d08
##Scan# 2167
#SpectrumFile p2-G03_GG3_01_18051.mzXML
#LibraryName NIH_Natural_Products_Library.mgf
#MQScore -1
#Organism NIH_Natural_Products_Library
#TIC_Query 0
#RT_Query -1
#MZErrorPPM -1
#SharedPeaks 0
#MassDiff 0
#LibMZ -1
#SpecMZ 453.239
#SpecCharge 0
#internalFilename spec-00000.mgf

>collision 10
95.01445 92.0
95.051315 156.0
95.067604 204.0
95.08448 360.0
95.241577 180.0
95.301804 192.0
95.31929 164.0
95.334839 132.0
95.391205 128.0
95.415344 228.0
95.438896 144.0
95.529274 152.0
95.607391 164.0
95.774544 120.0
95.951881 156.0
96.026917 192.0
96.067802 100.0
96.099953 196.0
96.146942 108.0
96.160606 188.0
96.264076 196.0
96.308998 88.0
96.44577 160.0
96.498558 524.0
96.527885 152.0
96.696526 160.0
96.717659 132.0
96.736038 176.0
96.757851 136.0
96.784225 156.0
96.811638 188.0
96.843513 204.0
96.893906 104.0
97.050766 144.0
97.119347 128.0
97.13308 180.0
97.215485 40.0
97.250809 104.0
97.313126 172.0
97.386292 148.0
97.403969 136.0
97.427544 48.0
97.464874 144.0
97.510071 208.0
97.600655 156.0
97.675011 104.0
97.793297 132.0
97.840538 164.0
97.909462 200.0
97.950821 148.0
97.976433 164.0
98.02372 232.0
98.043625 80.0
98.06665 112.0
98.113075 204.0
98.155792 132.0
98.173538 92.0
98.207069 168.0
98.220879 212.0
98.26033 112.0
98.290802 180.0
98.323479 96.0
98.426132 56.0
98.47506 144.0
98.513031 88.0
98.542664 100.0
98.67215 132.0
98.716133 180.0
98.736389 248.0
98.805618 152.0
98.847916 192.0
98.888733 164.0
98.925812 240.0
98.965942 76.0
98.9897 164.0
99.033272 124.0
99.097565 168.0
99.158096 156.0
99.191788 120.0
99.215584 220.0
99.294899 168.0
99.32663 196.0
99.411949 56.0
99.43792 232.0
99.479431 160.0
99.608658 156.0
99.644119 164.0
99.699905 84.0
99.722176 196.0
99.741646 120.0
99.757545 180.0
99.78936 152.0
99.851006 156.0
99.89476 132.0
99.946487 52.0
99.989471 120.0
100.105736 104.0
100.155533 204.0
100.189392 204.0
100.231239 176.0
100.253159 156.0
100.283051 176.0
100.408661 212.0
100.532349 144.0
100.578255 68.0
100.616188 192.0
100.671509 232.0
100.815933 156.0
100.887886 128.0
100.969872 148.0
101.035881 148.0
101.095909 80.0
101.175972 188.0
101.199997 116.0
101.244057 240.0
101.258072 120.0
101.324173 336.0
101.340202 172.0
101.366257 92.0
101.402328 132.0
101.448433 168.0
101.500557 100.0
101.54258 172.0
101.590813 132.0
101.610878 164.0
101.680794 128.0
101.721252 108.0
101.847763 136.0
101.861824 64.0
101.982384 116.0
102.054756 132.0
102.10704 76.0
102.187172 192.0
102.215675 180.0
102.229759 148.0
102.289276 224.0
102.331924 196.0
102.374702 120.0
102.402901 144.0
102.51371 136.0
102.591202 192.0
102.632637 100.0
102.697174 160.0
102.720795 152.0
102.840431 76.0
102.900993 80.0
103.018127 184.0
103.05204 260.0
103.131905 224.0
103.248558 184.0
103.301147 204.0
103.380188 180.0
103.529144 132.0
103.618988 156.0
103.663567 192.0
103.768967 132.0
103.811554 148.0
103.839943 92.0
103.967232 200.0
104.000237 64.0
104.053017 164.0
104.06723 136.0
104.091591 272.0
104.195183 152.0
104.248016 180.0
104.35778 112.0
104.506264 124.0
104.567307 148.0
104.585495 124.0
104.665024 164.0
104.756676 188.0
105.001274 172.0
105.027794 156.0
105.052269 340.0
105.070671 208.0
105.141106 164.0
105.173187 188.0
105.272705 196.0
105.293129 136.0
105.391182 152.0
105.421837 128.0
105.438187 152.0
105.6222 144.0
105.649658 200.0
105.720413 136.0
105.74424 180.0
105.771576 84.0
105.949738 140.0
105.988731 132.0
106.034332 156.0
106.069305 372.0
106.097801 148.0
106.111076 128.0
106.228546 40.0
106.297241 108.0
106.31472 108.0
106.391792 120.0
106.409149 140.0
106.468697 172.0
106.485123 204.0
106.522102 120.0
106.643333 168.0
106.685471 224.0
106.723511 172.0
106.750244 132.0
106.766693 124.0
106.818115 120.0
106.907974 172.0
106.947746 148.0
107.023041 216.0
107.04451 356.0
107.085464 4208.0
107.141319 52.0
107.192833 84.0
107.258537 200.0
107.294624 176.0
107.403122 104.0
107.473267 168.0
107.577995 140.0
107.665779 200.0
107.68383 172.0
107.760269 188.0
107.886887 180.0
107.917351 216.0
107.938026 44.0
107.991798 192.0
108.008347 160.0
108.041443 204.0
108.092178 524.0
108.144913 160.0
108.279488 44.0
108.304344 156.0
108.329201 128.0
108.349915 80.0
108.380997 124.0
108.530235 100.0
108.789581 112.0
108.876785 180.0
108.982735 176.0
109.005585 168.0
109.074173 136.0
109.107437 224.0
109.146942 60.0
109.225975 184.0
109.255989 168.0
109.434975 156.0
109.509056 184.0
109.59655 48.0
109.623642 160.0
109.649376 80.0
109.809189 196.0
109.827957 280.0
109.896805 112.0
109.917671 124.0
109.932274 148.0
109.962715 124.0
109.999062 112.0
110.047081 168.0
110.12825 184.0
110.289413 48.0
110.306137 68.0
110.347954 60.0
110.402321 104.0
110.478302 140.0
110.517242 176.0
110.601082 148.0
110.65551 96.0
110.68692 168.0
110.774887 156.0
110.829353 116.0
110.8545 152.0
110.926231 168.0
111.00753 124.0
111.026405 48.0
111.074646 164.0
111.104019 212.0
111.154373 152.0
111.250923 96.0
111.301308 120.0
111.328606 180.0
111.408424 192.0
111.62912 84.0
111.645943 180.0
111.671181 192.0
111.698524 204.0
111.74691 160.0
111.839508 236.0
111.875298 160.0
111.903427 144.0
111.921616 172.0
112.012756 144.0
112.033241 144.0
112.075302 1900.0
112.241898 244.0
112.310738 156.0
112.361305 156.0
112.418327 296.0
112.44442 108.0
112.511971 144.0
112.535194 184.0
112.564758 148.0
112.611221 64.0
112.712624 116.0
112.72953 196.0
112.866928 184.0
112.930374 124.0
112.966331 152.0
112.993835 180.0
113.075645 236.0
113.175865 80.0
113.264809 80.0
113.28521 108.0
113.415253 104.0
113.457649 68.0
113.531868 152.0
113.7034 164.0
113.739792 116.0
113.765266 64.0
113.861877 96.0
113.884186 128.0
113.982201 144.0
114.022285 200.0
114.047791 180.0
114.15937 112.0
114.179611 148.0
114.258316 200.0
114.28598 232.0
114.332458 256.0
114.55423 244.0
114.592583 112.0
114.658638 96.0
114.763092 156.0
114.81427 112.0
114.850052 124.0
114.899597 212.0
114.923584 180.0
115.050896 136.0
115.118393 164.0
115.135582 152.0
115.164299 180.0
115.198479 144.0
115.212433 60.0
115.241203 304.0
115.365166 124.0
115.425034 112.0
115.497749 188.0
115.707466 232.0
115.731018 160.0
115.75029 152.0
115.913544 188.0
116.059998 120.0
116.129616 168.0
116.208008 148.0
116.29483 72.0
116.329178 188.0
116.483788 200.0
116.504471 140.0
116.593369 156.0
116.73526 184.0
116.86647 76.0
116.894447 168.0
116.940666 168.0
116.98484 204.0
117.004219 168.0
117.071808 424.0
117.111893 124.0
117.236847 56.0
117.295044 132.0
117.370506 72.0
117.386452 184.0
117.435204 108.0
117.57328 140.0
117.653145 180.0
117.760521 204.0
117.845367 152.0
117.884262 132.0
118.117767 148.0
118.241096 204.0
118.262741 128.0
118.396973 164.0
118.509621 148.0
118.550789 180.0
118.597443 208.0
118.685188 112.0
118.728561 172.0
118.745911 64.0
118.808525 148.0
118.839195 112.0
118.965073 144.0
119.012833 152.0
119.047577 104.0
119.084335 156.0
119.130112 68.0
119.16053 132.0
119.214851 164.0
119.399643 156.0
119.451843 124.0
119.488831 100.0
119.514938 224.0
119.530174 56.0
119.556412 140.0
119.721741 128.0
119.784904 108.0
119.808868 152.0
119.837189 92.0
119.863335 140.0
119.989754 52.0
120.066078 300.0
120.116241 168.0
120.155136 164.0
120.203514 112.0
120.23188 176.0
120.260254 124.0
120.2799 168.0
120.391251 152.0
120.442787 188.0
120.463913 120.0
120.485176 188.0
120.622856 120.0
120.780296 112.0
120.810921 152.0
120.860939 204.0
120.968483 116.0
121.065224 392.0
121.101807 2996.0
121.143173 184.0
121.16777 160.0
121.244568 168.0
121.294876 44.0
121.312416 48.0
121.373802 148.0
121.454948 232.0
121.485657 152.0
121.509796 220.0
121.553558 148.0
121.577812 172.0
121.601959 116.0
121.621712 204.0
121.645859 124.0
121.663422 112.0
121.701645 168.0
121.720505 144.0
121.749054 104.0
121.766624 116.0
121.823738 84.0
121.846672 132.0
121.913818 84.0
121.944588 148.0
122.052315 76.0
122.069901 216.0
122.103294 328.0
122.124886 40.0
122.179878 200.0
122.212883 160.0
122.328644 160.0
122.399979 156.0
122.433014 180.0
122.49469 168.0
122.598244 144.0
122.629097 168.0
122.67318 140.0
122.794456 176.0
122.845192 128.0
122.973175 96.0
123.021736 88.0
123.080261 600.0
123.19841 124.0
123.269112 196.0
123.297836 132.0
123.385452 132.0
123.411827 220.0
123.461967 200.0
123.62957 96.0
123.667198 188.0
123.703979 212.0
123.870911 172.0
123.897499 124.0
123.950668 180.0
124.021591 160.0
124.081444 240.0
124.116707 204.0
124.216721 192.0
124.305473 180.0
124.343201 176.0
124.420891 132.0
124.478622 168.0
124.538582 76.0
124.640564 164.0
124.647087 148.0
124.726212 172.0
124.909401 204.0
124.934143 144.0
124.97876 168.0
125.009918 164.0
125.029945 256.0
125.150154 40.0
125.270416 96.0
125.299377 132.0
125.352852 192.0
125.43869 196.0
125.458931 244.0
125.651642 216.0
125.671722 48.0
125.816795 36.0
125.845451 196.0
126.017799 164.0
126.040146 168.0
126.148033 192.0
126.203911 180.0
126.283829 108.0
126.31514 164.0
126.341896 208.0
126.348381 200.0
126.626266 200.0
126.76741 112.0
126.789818 148.0
126.86869 212.0
126.886208 136.0
127.043663 76.0
127.084816 188.0
127.213745 168.0
127.283348 232.0
127.381447 124.0
127.40239 196.0
127.429352 140.0
127.494514 104.0
127.521484 132.0
127.683365 120.0
127.766594 228.0
127.836342 224.0
127.879105 152.0
127.912865 136.0
128.063751 296.0
128.131317 172.0
128.158356 208.0
128.203415 92.0
128.24173 204.0
128.325134 168.0
128.347687 184.0
128.390533 72.0
128.406326 176.0
128.433395 152.0
128.492035 32.0
128.654541 240.0
128.677109 112.0
128.721588 200.0
128.766586 276.0
128.934631 140.0
128.97757 100.0
129.020523 160.0
129.047653 192.0
129.067444 564.0
129.100281 1360.0
129.147156 128.0
129.169769 164.0
129.253479 196.0
129.285172 168.0
129.359863 148.0
129.42778 128.0
129.491196 148.0
129.579544 84.0
129.611252 72.0
129.704376 136.0
129.733643 148.0
129.765381 244.0
129.853821 112.0
130.037201 112.0
130.105957 188.0
130.169281 84.0
130.206253 212.0
130.253311 124.0
130.319199 108.0
130.341919 300.0
130.405304 180.0
130.432831 52.0
130.537415 152.0
130.587143 152.0
130.612473 128.0
130.671616 120.0
130.719391 124.0
130.962997 144.0
131.013123 168.0
131.048035 296.0
131.090591 224.0
131.106537 332.0
131.231445 116.0
131.288925 68.0
131.329971 168.0
131.355057 100.0
131.377884 160.0
131.456696 132.0
131.528488 184.0
131.569641 156.0
131.601547 104.0
131.702026 156.0
131.736298 268.0
131.796265 144.0
131.843674 132.0
131.864258 136.0
131.932831 176.0
131.967117 56.0
131.992279 156.0
132.056305 96.0
132.134796 168.0
132.17984 172.0
132.195862 128.0
132.271393 124.0
132.294373 104.0
132.312607 132.0
132.355621 152.0
132.449997 328.0
132.472916 192.0
132.509567 176.0
132.534775 68.0
132.56456 188.0
132.598938 156.0
132.633316 184.0
132.665405 160.0
132.683746 100.0
132.738785 192.0
132.766296 172.0
132.782349 140.0
132.800705 196.0
132.876404 224.0
132.899338 156.0
132.971863 192.0
133.025574 112.0
133.065247 1004.0
133.089859 104.0
133.122971 152.0
133.163345 148.0
133.193207 168.0
133.219223 160.0
133.255234 116.0
133.282806 252.0
133.372437 100.0
133.406158 392.0
133.475891 104.0
133.577087 352.0
133.606995 88.0
133.632294 128.0
133.662216 116.0
133.763474 128.0
133.788803 156.0
133.804916 304.0
133.913147 104.0
133.950775 136.0
134.060593 64.0
134.106689 124.0
134.191986 132.0
134.220871 172.0
134.245026 192.0
134.270386 216.0
134.40419 140.0
134.491882 200.0
134.510651 124.0
134.563446 248.0
134.607315 124.0
134.711258 148.0
134.753738 144.0
134.819855 48.0
134.839691 172.0
134.983978 176.0
135.053436 140.0
135.078812 240.0
135.118134 172.0
135.192184 164.0
135.236847 348.0
135.26857 224.0
135.324127 184.0
135.347275 120.0
135.441864 208.0
135.5177 120.0
135.639191 108.0
135.699478 104.0
135.74585 148.0
135.929108 120.0
135.954636 96.0
136.013901 176.0
136.096237 172.0
136.240234 112.0
136.268112 148.0
136.307617 124.0
136.435455 76.0
136.509857 88.0
136.544739 40.0
136.563339 76.0
136.647095 120.0
136.709915 104.0
136.789047 120.0
136.868439 120.0
137.028931 68.0
137.092957 324.0
137.159424 160.0
137.241028 172.0
137.269012 148.0
137.310989 192.0
137.478958 188.0
137.506973 152.0
137.588669 88.0
137.637695 156.0
137.679733 152.0
137.759155 176.0
137.801193 192.0
137.829926 136.0
137.847488 212.0
137.881195 188.0
138.004547 180.0
138.038589 172.0
138.057159 176.0
138.08873 204.0
138.112122 156.0
138.137848 156.0
138.154236 80.0
138.182297 60.0
138.203354 136.0
138.231445 184.0
138.332077 208.0
138.366196 196.0
138.395294 84.0
138.421692 176.0
138.496002 112.0
138.528915 152.0
138.552216 88.0
138.598068 168.0
138.648285 108.0
138.758453 168.0
138.829361 136.0
138.89682 128.0
138.926422 208.0
138.960159 144.0
139.054031 132.0
139.103317 180.0
139.143692 164.0
139.199585 140.0
139.220398 176.0
139.446259 80.0
139.544998 60.0
139.594376 160.0
139.704926 276.0
139.787262 104.0
139.840454 140.0
139.849579 84.0
139.854416 180.0
139.918259 196.0
139.940277 272.0
139.970886 84.0
139.987366 220.0
140.041534 132.0
140.076859 116.0
140.133408 84.0
140.190491 160.0
140.237091 60.0
140.307816 140.0
140.377777 160.0
140.414291 152.0
140.635712 88.0
140.663223 116.0
140.720688 108.0
140.789169 112.0
140.845856 112.0
140.867126 120.0
140.899521 220.0
140.921631 160.0
140.947449 80.0
141.013626 188.0
141.03418 160.0
141.07254 172.0
141.11763 120.0
141.228775 140.0
141.292648 72.0
141.311584 188.0
141.377838 176.0
141.399139 72.0
141.429901 212.0
141.451202 64.0
141.48909 232.0
141.643021 184.0
141.70224 188.0
141.733047 92.0
141.828354 148.0
141.863403 168.0
141.8871 216.0
141.960617 60.0
141.984329 144.0
142.062607 128.0
142.326706 168.0
142.402908 164.0
142.443924 172.0
142.49469 160.0
142.542206 56.0
142.675308 188.0
142.735779 120.0
142.815613 112.0
142.86319 144.0
142.882217 128.0
142.955978 164.0
143.039291 36.0
143.08638 160.0
143.116592 152.0
143.139282 208.0
143.210724 168.0
143.284576 116.0
143.371185 212.0
143.413254 144.0
143.463318 76.0
143.549149 52.0
143.577774 104.0
143.604004 88.0
143.686661 136.0
143.761459 148.0
143.806808 136.0
143.833069 164.0
143.878418 156.0
143.924881 272.0
143.983582 212.0
144.05545 96.0
144.088593 140.0
144.179398 64.0
144.203293 168.0
144.227188 220.0
144.34465 156.0
144.463364 184.0
144.540497 116.0
144.609894 176.0
144.67453 140.0
144.710434 224.0
144.75354 200.0
144.791855 196.0
144.856277 192.0
144.909225 68.0
144.970154 176.0
145.009872 144.0
145.064331 528.0
145.096176 124.0
145.177704 152.0
145.23526 168.0
145.276047 172.0
145.336029 64.0
145.362411 208.0
145.415222 160.0
145.609695 152.0
145.69136 140.0
145.760574 124.0
145.774506 252.0
145.801895 148.0
145.832001 152.0
145.899353 172.0
145.95665 180.0
146.016769 132.0
146.07164 256.0
146.16983 180.0
146.208328 80.0
146.349487 188.0
146.465958 64.0
146.492462 196.0
146.591248 200.0
146.622574 148.0
146.767212 196.0
146.899857 112.0
146.967407 120.0
147.024597 184.0
147.041367 240.0
147.079895 1568.0
147.220871 192.0
147.28125 128.0
147.368225 172.0
147.404465 92.0
147.455215 104.0
147.571259 112.0
147.653473 40.0
147.699432 108.0
147.769592 148.0
147.854279 400.0
147.905106 144.0
147.971573 140.0
148.016479 100.0
148.093109 152.0
148.190872 132.0
148.384766 160.0
148.472061 248.0
148.498749 356.0
148.573944 76.0
148.675858 148.0
148.72197 44.0
148.797226 60.0
148.833649 236.0
148.891922 140.0
148.938065 124.0
148.962357 136.0
149.05574 400.0
149.088608 184.0
149.139145 48.0
149.233551 192.0
149.297775 180.0
149.331833 84.0
149.351288 172.0
149.398911 124.0
149.471771 164.0
149.614105 224.0
149.636017 212.0
149.655487 180.0
149.74559 136.0
149.845474 140.0
149.956879 204.0
150.011414 172.0
150.035004 120.0
150.068726 100.0
150.094086 148.0
150.128235 48.0
150.15506 164.0
150.185669 124.0
150.277023 108.0
150.301422 172.0
150.329605 132.0
150.357559 116.0
150.418579 112.0
150.479614 120.0
150.508911 192.0
150.542282 216.0
150.612869 148.0
150.784958 220.0
150.904739 200.0
150.92186 84.0
151.003784 72.0
151.11998 160.0
151.176254 136.0
151.195831 60.0
151.222763 72.0
151.279053 156.0
151.340256 136.0
151.487213 48.0
151.568054 168.0
151.604813 80.0
151.651382 252.0
151.703598 200.0
151.791122 172.0
151.8647 124.0
151.950562 84.0
151.98671 180.0
152.009445 144.0
152.062317 144.0
152.131683 60.0
152.175705 176.0
152.195999 168.0
152.274582 124.0
152.308975 92.0
152.392502 228.0
152.483429 260.0
152.542419 152.0
152.601425 80.0
152.650604 108.0
152.70224 116.0
152.751434 156.0
152.858276 204.0
152.896606 140.0
152.943375 160.0
152.97467 224.0
153.060501 188.0
153.110794 152.0
153.130508 192.0
153.156158 100.0
153.192078 156.0
153.355469 168.0
153.423737 96.0
153.481094 60.0
153.532227 168.0
153.57663 60.0
153.635818 116.0
153.835724 172.0
153.882629 240.0
153.927078 184.0
154.11615 140.0
154.151871 180.0
154.226013 184.0
154.24826 56.0
154.27298 340.0
154.295227 284.0
154.342209 140.0
154.408981 112.0
154.490601 132.0
154.558884 160.0
154.629166 144.0
154.6651 152.0
154.700958 100.0
154.730667 144.0
155.06012 116.0
155.095428 164.0
155.114655 40.0
155.134476 136.0
155.212967 200.0
155.259308 188.0
155.372559 96.0
155.389923 172.0
155.464371 156.0
155.548752 128.0
155.590591 60.0
155.596634 112.0
155.650543 116.0
155.718826 120.0
155.742432 188.0
155.807022 132.0
155.824417 152.0
155.911392 88.0
155.956131 144.0
156.085907 160.0
156.112762 120.0
156.177414 152.0
156.204788 140.0
156.262009 160.0
156.311768 148.0
156.356567 176.0
156.396378 144.0
156.41629 176.0
156.471069 144.0
156.508408 140.0
156.645386 212.0
156.849731 132.0
157.06308 300.0
157.109543 340.0
157.221359 64.0
157.255081 204.0
157.346161 92.0
157.378616 128.0
157.560379 88.0
157.603424 192.0
157.630905 164.0
157.703384 52.0
157.76088 212.0
157.785873 112.0
157.863388 144.0
157.908417 148.0
157.968445 140.0
158.070969 276.0
158.17865 112.0
158.258759 160.0
158.316345 120.0
158.338898 88.0
158.415405 124.0
158.449112 108.0
158.481674 452.0
158.508316 140.0
158.615387 112.0
158.676987 100.0
158.710388 180.0
158.792526 140.0
158.862762 128.0
158.98085 124.0
159.003281 92.0
159.025864 176.0
159.078415 756.0
159.123764 152.0
159.15892 104.0
159.199097 104.0
159.442795 140.0
159.540817 40.0
159.638885 192.0
159.710602 224.0
159.730331 240.0
159.777222 116.0
159.837616 156.0
159.890457 48.0
160.045212 152.0
160.133194 508.0
160.162384 216.0
160.245514 160.0
160.346313 132.0
160.394196 96.0
160.454697 108.0
160.485306 144.0
160.532867 124.0
160.585831 184.0
160.618622 124.0
160.733673 192.0
160.780106 136.0
160.86087 168.0
160.908844 120.0
160.926514 80.0
160.944183 172.0
161.060822 1132.0
161.100952 532.0
161.128571 80.0
161.178818 144.0
161.257446 172.0
161.325684 96.0
161.345917 152.0
161.419235 172.0
161.497635 76.0
161.576065 144.0
161.610428 212.0
161.663879 116.0
161.688644 168.0
161.730423 132.0
161.765869 180.0
161.841812 40.0
161.88739 108.0
162.062897 140.0
162.105255 100.0
162.179596 48.0
162.223236 212.0
162.285233 192.0
162.346085 128.0
162.399353 52.0
162.503357 48.0
162.546494 44.0
162.590866 128.0
162.658157 152.0
162.706406 148.0
162.782578 168.0
162.827621 124.0
162.87146 144.0
162.962921 204.0
162.993408 136.0
163.075027 264.0
163.249023 116.0
163.369705 116.0
163.443481 196.0
163.492035 156.0
163.559006 112.0
163.576553 156.0
163.636932 180.0
163.784637 152.0
163.827942 152.0
163.853195 136.0
163.890717 112.0
163.964233 124.0
164.036743 188.0
164.22049 236.0
164.268967 108.0
164.297028 144.0
164.371017 172.0
164.533432 184.0
164.557343 76.0
164.636505 164.0
164.67482 180.0
164.792328 32.0
164.870728 228.0
164.937988 116.0
165.011154 156.0
165.032593 124.0
165.059555 292.0
165.086288 192.0
165.147659 52.0
165.255112 200.0
165.290939 156.0
165.326752 128.0
165.383072 160.0
165.528351 144.0
165.762451 128.0
165.833862 228.0
165.890259 88.0
165.91333 220.0
165.992813 80.0
166.041534 176.0
166.077438 128.0
166.136444 88.0
166.192886 152.0
166.267303 148.0
166.298111 176.0
166.336609 124.0
166.372543 60.0
166.49057 112.0
166.52919 80.0
166.553986 208.0
166.629379 328.0
166.747574 128.0
166.793839 72.0
166.822983 180.0
166.887726 132.0
166.914673 160.0
166.992432 136.0
167.014984 132.0
167.035553 184.0
167.076035 180.0
167.083969 132.0
167.095261 156.0
167.238831 144.0
167.352112 88.0
167.41391 136.0
167.457687 160.0
167.504059 68.0
167.537552 140.0
167.555573 136.0
167.653488 148.0
167.706116 164.0
167.739807 132.0
167.78775 188.0
167.836517 112.0
168.037796 116.0
168.076767 176.0
168.097046 172.0
168.140488 164.0
168.164154 152.0
168.199051 116.0
168.294647 164.0
168.356064 180.0
168.381027 120.0
168.412018 116.0
168.458527 156.0
168.50769 240.0
168.579956 172.0
168.596527 148.0
168.618729 160.0
168.773834 124.0
168.797104 164.0
168.820374 180.0
168.890656 68.0
168.963669 292.0
169.098434 156.0
169.12825 160.0
169.16449 148.0
169.210052 136.0
169.394974 212.0
169.420868 128.0
169.516663 124.0
169.586716 176.0
169.661896 120.0
169.718933 136.0
169.843414 128.0
169.884918 80.0
169.925629 180.0
170.070023 480.0
170.0961 456.0
170.136658 96.0
170.185989 88.0
170.219742 164.0
170.310638 116.0
170.339218 136.0
170.406754 148.0
170.466522 128.0
170.562683 160.0
170.60907 156.0
170.823257 192.0
170.86174 224.0
170.976364 172.0
171.08197 244.0
171.116119 200.0
171.2444 168.0
171.267838 152.0
171.309525 176.0
171.382477 124.0
171.424164 124.0
171.452835 116.0
171.615723 188.0
171.669205 188.0
171.70311 96.0
171.781357 36.0
171.817886 120.0
171.888992 160.0
171.971848 84.0
171.997955 184.0
172.047546 148.0
172.110214 128.0
172.282593 128.0
172.311325 36.0
172.340073 144.0
172.544617 184.0
172.640106 144.0
172.659698 148.0
172.703445 144.0
172.747925 144.0
172.826401 148.0
172.902298 164.0
172.976486 104.0
173.009613 172.0
173.059296 776.0
173.095413 376.0
173.263657 136.0
173.329147 168.0
173.415634 124.0
173.46019 60.0
173.496109 160.0
173.513885 152.0
173.58342 132.0
173.620132 80.0
173.675217 136.0
173.732925 100.0
173.764954 136.0
173.856247 48.0
173.877243 68.0
173.897614 200.0
173.919235 248.0
173.96524 76.0
174.013748 216.0
174.066422 1748.0
174.097778 176.0
174.139801 180.0
174.269958 160.0
174.3237 60.0
174.372711 264.0
174.468262 32.0
174.528732 60.0
174.58728 56.0
174.676254 176.0
174.769348 100.0
174.786514 264.0
174.978653 140.0
175.04184 124.0
175.072998 1604.0
175.112625 64.0
175.141922 140.0
175.194611 104.0
175.219025 120.0
175.251373 188.0
175.369568 172.0
175.470413 172.0
175.497696 204.0
175.587357 196.0
175.631546 160.0
175.641342 120.0
175.687485 92.0
175.753555 168.0
175.793137 180.0
175.830078 124.0
175.888153 216.0
175.943253 224.0
175.969208 136.0
176.023392 144.0
176.055435 168.0
176.078384 956.0
176.128448 144.0
176.156372 124.0
176.194489 108.0
176.256668 120.0
176.283081 168.0
176.313385 196.0
176.360962 112.0
176.392685 176.0
176.435394 128.0
176.518295 188.0
176.646545 112.0
176.749725 40.0
176.826477 280.0
176.86441 168.0
176.962845 280.0
177.054672 612.0
177.125671 156.0
177.161819 204.0
177.1866 88.0
177.205154 172.0
177.276688 104.0
177.304794 152.0
177.361511 140.0
177.41452 188.0
177.433075 116.0
177.45694 96.0
177.523239 100.0
177.573624 120.0
177.605453 168.0
177.846909 208.0
177.889389 80.0
178.022141 72.0
178.051285 168.0
178.077911 136.0
178.125717 92.0
178.185501 160.0
178.235565 128.0
178.287796 156.0
178.436661 116.0
178.705292 144.0
178.734558 144.0
178.758499 140.0
178.890137 192.0
179.059341 156.0
179.089645 116.0
179.097443 144.0
179.18454 120.0
179.221832 120.0
179.333755 112.0
179.413727 64.0
179.51239 112.0
179.536392 212.0
179.576401 40.0
179.720444 72.0
179.832535 196.0
179.885727 168.0
179.97937 104.0
179.998062 92.0
180.064819 144.0
180.126251 148.0
180.262161 152.0
180.353378 264.0
180.479034 28.0
180.561935 132.0
180.628799 196.0
180.664673 180.0
180.770599 100.0
181.019562 80.0
181.061615 164.0
181.105026 184.0
181.112778 320.0
181.182892 184.0
181.327637 172.0
181.386612 152.0
181.421463 76.0
181.44957 132.0
181.513428 160.0
181.587708 56.0
181.649399 48.0
181.670868 144.0
181.806198 128.0
181.847961 128.0
181.877487 132.0
181.898972 100.0
181.960709 104.0
182.052002 160.0
182.086395 124.0
182.092941 100.0
182.101227 148.0
182.17514 208.0
182.256165 136.0
182.369034 104.0
182.535721 160.0
182.582977 152.0
182.632492 344.0
182.740143 120.0
182.799347 132.0
182.859985 188.0
182.910614 116.0
182.971603 176.0
183.009293 208.0
183.033539 116.0
183.083115 332.0
183.110703 196.0
183.143951 80.0
183.181656 132.0
183.316376 72.0
183.335236 220.0
183.459229 120.0
183.572479 184.0
183.853668 256.0
183.944809 148.0
183.992798 236.0
184.050095 128.0
184.071701 136.0
184.125717 140.0
184.182434 48.0
184.417511 128.0
184.479675 120.0
184.563492 92.0
184.690598 164.0
184.801102 180.0
184.882263 156.0
184.90976 120.0
184.990967 40.0
185.060577 2236.0
185.094803 588.0
185.126343 112.0
185.172379 84.0
185.210312 212.0
185.264481 180.0
185.303726 148.0
185.383911 156.0
185.421646 116.0
185.48941 168.0
185.554474 144.0
185.824371 196.0
185.942368 200.0
185.974106 196.0
185.999374 72.0
186.018372 128.0
186.06337 1128.0
186.10379 232.0
186.189438 148.0
186.217072 180.0
186.273636 156.0
186.417633 152.0
186.450241 56.0
186.605194 104.0
186.665009 192.0
186.708527 140.0
186.754761 164.0
186.779236 128.0
186.805481 228.0
186.830917 108.0
186.896225 180.0
186.926147 92.0
186.969696 32.0
187.00708 76.0
187.07489 3552.0
187.111237 232.0
187.173874 152.0
187.305161 136.0
187.348175 48.0
187.405396 152.0
187.481689 84.0
187.536209 80.0
187.59729 132.0
187.655045 140.0
187.721588 200.0
187.797424 144.0
187.830688 292.0
187.860703 136.0
187.882523 136.0
187.947998 108.0
187.986206 200.0
188.008041 160.0
188.080688 520.0
188.136322 160.0
188.196396 220.0
188.324738 88.0
188.360245 64.0
188.378967 116.0
188.398499 136.0
188.449615 192.0
188.488663 220.0
188.554245 92.0
188.636246 124.0
188.736038 224.0
188.781158 184.0
188.811234 144.0
188.838593 56.0
188.879623 164.0
188.928864 192.0
188.961685 88.0
189.05513 592.0
189.090454 420.0
189.131363 184.0
189.160294 48.0
189.224442 132.0
189.243607 112.0
189.391479 216.0
189.426147 104.0
189.49559 132.0
189.514771 164.0
189.56134 104.0
189.613419 132.0
189.650772 244.0
189.692902 132.0
189.720322 228.0
189.752808 244.0
189.832733 196.0
189.947922 88.0
189.976013 152.0
190.060532 264.0
190.118042 232.0
190.216492 152.0
190.259109 224.0
190.288223 164.0
190.321182 156.0
190.373352 56.0
190.398071 144.0
190.521667 100.0
190.571121 164.0
190.626862 164.0
190.653275 116.0
190.683792 124.0
190.723724 180.0
190.747009 112.0
190.796494 72.0
190.873489 212.0
190.895676 116.0
190.931229 116.0
191.070877 772.0
191.137558 144.0
191.167831 64.0
191.29718 60.0
191.341232 64.0
191.377029 176.0
191.476166 148.0
191.517471 112.0
191.605637 144.0
191.663483 108.0
191.708755 108.0
191.770966 92.0
191.859177 108.0
191.89502 116.0
191.961197 144.0
192.070969 304.0
192.098373 212.0
192.162552 80.0
192.264648 180.0
192.292252 100.0
192.451874 136.0
192.717529 168.0
192.909119 200.0
193.034119 148.0
193.104767 296.0
193.220734 168.0
193.248398 168.0
193.400604 128.0
193.422745 32.0
193.463242 108.0
193.519638 148.0
193.635956 160.0
193.660873 212.0
193.713501 184.0
193.755066 112.0
193.822311 192.0
193.846497 200.0
193.95459 36.0
194.018341 108.0
194.072754 212.0
194.130798 136.0
194.156982 128.0
194.198898 144.0
194.231873 120.0
194.323425 128.0
194.34285 120.0
194.36705 172.0
194.431641 176.0
194.45108 140.0
194.481598 108.0
194.501038 112.0
194.56488 60.0
194.606522 212.0
194.656509 104.0
194.687057 128.0
194.712051 128.0
194.764832 164.0
194.840363 208.0
194.923187 200.0
195.082535 136.0
195.116898 272.0
195.181702 124.0
195.235931 120.0
195.340225 104.0
195.373611 88.0
195.395874 112.0
195.451523 132.0
195.582321 76.0
195.621048 160.0
195.671402 92.0
195.712463 144.0
195.821777 120.0
195.855667 144.0
195.983353 220.0
196.010971 148.0
196.036285 200.0
196.087784 96.0
196.133835 104.0
196.342957 152.0
196.376419 208.0
196.412689 132.0
196.482422 140.0
196.658234 112.0
196.68335 144.0
196.797806 32.0
196.962341 140.0
197.001694 36.0
197.026825 108.0
197.063156 136.0
197.101959 108.0
197.133011 184.0
197.185272 148.0
197.233627 208.0
197.282913 76.0
197.306305 152.0
197.331467 148.0
197.39299 124.0
197.443329 148.0
197.479675 60.0
197.527237 136.0
197.583176 244.0
197.708694 192.0
197.748276 132.0
197.865601 180.0
197.916245 232.0
197.977859 136.0
197.998245 164.0
198.068878 120.0
198.092697 172.0
198.173935 128.0
198.199158 184.0
198.240494 224.0
198.269211 224.0
198.36171 116.0
198.448624 172.0
198.586029 132.0
198.625305 180.0
198.696762 160.0
198.759964 132.0
198.858185 128.0
198.912949 220.0
198.962051 176.0
199.077972 320.0
199.109177 144.0
199.167053 160.0
199.186707 136.0
199.281967 192.0
199.341232 136.0
199.360901 180.0
199.389008 192.0
199.407745 132.0
199.445221 164.0
199.502533 124.0
199.647659 104.0
199.782669 104.0
199.961563 328.0
200.050095 152.0
200.072449 236.0
200.237228 128.0
200.2612 140.0
200.306274 256.0
200.50914 148.0
200.542969 200.0
200.565521 128.0
200.588058 192.0
200.62471 144.0
200.675995 188.0
200.698013 144.0
200.748779 44.0
200.782623 192.0
200.80452 136.0
200.81636 240.0
200.867233 36.0
200.920044 144.0
200.972229 148.0
200.99556 116.0
201.055344 19008.0
201.091644 716.0
201.131607 180.0
201.169174 60.0
201.221222 176.0
201.250229 116.0
201.321655 120.0
201.380951 152.0
201.418503 100.0
201.437134 444.0
201.465698 228.0
201.514511 232.0
201.527054 112.0
201.535599 200.0
201.575897 72.0
201.613113 108.0
201.730927 164.0
201.762436 132.0
201.813126 56.0
201.882095 164.0
201.936356 160.0
201.947662 80.0
201.95694 180.0
202.016968 116.0
202.060745 5464.0
202.108978 336.0
202.152771 60.0
202.172592 36.0
202.218277 100.0
202.251831 152.0
202.271652 128.0
202.30188 112.0
202.325439 260.0
202.352234 120.0
202.386185 148.0
202.434357 112.0
202.493469 212.0
202.551987 168.0
202.622803 116.0
202.669388 320.0
202.723328 188.0
202.811874 100.0
202.857208 180.0
202.887207 192.0
202.931732 348.0
202.949982 116.0
202.979004 156.0
202.999481 72.0
203.071228 74348.0
203.156784 92.0
203.182068 184.0
203.206863 168.0
203.255325 108.0
203.284302 124.0
203.310211 152.0
203.354614 172.0
203.383896 352.0
203.401459 112.0
203.439575 156.0
203.46666 104.0
203.501114 204.0
203.537521 544.0
203.598587 224.0
203.631531 60.0
203.660126 168.0
203.692322 44.0
203.735519 96.0
203.777878 172.0
203.805161 128.0
203.855606 144.0
203.892624 112.0
203.970795 128.0
203.99736 188.0
204.018616 380.0
204.074188 11372.0
204.11232 200.0
204.152283 96.0
204.229553 64.0
204.293839 80.0
204.352905 88.0
204.389526 224.0
204.434708 164.0
204.47139 92.0
204.502289 112.0
204.547226 112.0
204.562973 180.0
204.600662 80.0
204.640213 184.0
204.671936 84.0
204.707687 352.0
204.727615 52.0
204.774612 40.0
204.813065 128.0
204.853699 120.0
204.963745 72.0
204.9897 144.0
205.07724 964.0
205.129364 80.0
205.166214 56.0
205.260513 128.0
205.399826 52.0
205.425934 132.0
205.472 164.0
205.524414 100.0
205.542908 256.0
205.594269 100.0
205.634232 164.0
205.664169 196.0
205.691315 76.0
205.72319 96.0
205.794098 44.0
205.81517 136.0
205.93074 160.0
205.999725 72.0
206.02829 84.0
206.061569 68.0
206.08699 132.0
206.122574 52.0
206.222595 128.0
206.497086 152.0
206.588623 148.0
206.634384 64.0
206.680176 120.0
206.705917 112.0
206.737396 200.0
206.791779 80.0
206.84903 260.0
206.989319 128.0
207.012222 140.0
207.078094 68.0
207.106476 220.0
207.172623 80.0
207.195541 132.0
207.313019 60.0
207.347412 188.0
207.378937 148.0
207.425842 164.0
207.449463 152.0
207.500488 208.0
207.513214 76.0
207.521225 196.0
207.57724 176.0
207.678375 172.0
207.708679 96.0
207.808182 76.0
207.900925 128.0
208.003159 148.0
208.270462 140.0
208.325104 136.0
208.47084 140.0
208.509766 112.0
208.627609 56.0
208.660461 144.0
208.722504 252.0
208.762756 140.0
208.874832 120.0
208.998642 96.0
209.021652 144.0
209.065735 200.0
209.094147 500.0
209.131729 228.0
209.178085 136.0
209.20874 192.0
209.289352 232.0
209.317871 128.0
209.372864 128.0
209.413177 64.0
209.43335 176.0
209.473679 48.0
209.539001 124.0
209.584854 176.0
209.704193 164.0
209.730133 128.0
209.839676 208.0
209.902115 56.0
209.980972 160.0
210.058853 204.0
210.087708 36.0
210.143188 368.0
210.260834 100.0
210.356079 104.0
210.413818 120.0
210.445587 64.0
210.467789 352.0
210.496414 192.0
210.555313 100.0
210.69397 204.0
210.774872 204.0
210.812424 128.0
210.94194 104.0
211.076721 692.0
211.109863 72.0
211.272171 140.0
211.357422 68.0
211.397903 176.0
211.422623 152.0
211.496521 144.0
211.526825 168.0
211.573151 128.0
211.604996 124.0
211.712128 168.0
211.741089 148.0
211.799545 196.0
211.856949 44.0
211.903305 76.0
211.935181 56.0
211.95546 220.0
212.080078 252.0
212.119888 252.0
212.192551 176.0
212.212463 96.0
212.262726 144.0
212.291733 120.0
212.323624 80.0
212.373489 168.0
212.55571 232.0
212.578918 172.0
212.683411 188.0
212.805328 176.0
212.854691 68.0
212.904068 132.0
212.956345 136.0
213.089966 1400.0
213.142273 64.0
213.17424 252.0
213.302124 204.0
213.334091 52.0
213.476562 148.0
213.510498 192.0
213.540543 88.0
213.598724 196.0
213.63945 44.0
213.66066 96.0
213.703918 124.0
213.72673 100.0
213.82753 144.0
213.890015 220.0
213.915909 192.0
213.942108 144.0
213.988693 152.0
214.068741 120.0
214.093903 576.0
214.121887 156.0
214.253723 112.0
214.297424 44.0
214.332382 100.0
214.388809 164.0
214.483932 184.0
214.507248 224.0
214.568481 228.0
214.615784 224.0
214.727798 176.0
214.769684 40.0
214.801773 56.0
214.82872 68.0
214.89061 152.0
214.918472 128.0
214.952103 128.0
214.975693 184.0
215.070679 23380.0
215.102219 748.0
215.161621 104.0
215.207443 80.0
215.229507 180.0
215.240616 100.0
215.303223 120.0
215.363235 276.0
215.397278 124.0
215.462997 104.0
215.578796 92.0
215.640854 188.0
215.674866 80.0
215.806412 44.0
215.917542 28.0
215.973114 244.0
216.034546 156.0
216.074219 3532.0
216.136749 60.0
216.202393 176.0
216.230591 112.0
216.289124 200.0
216.340378 204.0
216.432587 64.0
216.482361 104.0
216.573822 124.0
216.628815 72.0
216.649323 100.0
216.719116 180.0
216.75412 156.0
216.811539 176.0
216.856537 368.0
216.904266 40.0
216.971695 128.0
217.022217 260.0
217.086426 10884.0
217.16391 148.0
217.250153 84.0
217.37352 76.0
217.50267 84.0
217.529251 72.0
217.558441 64.0
217.593201 124.0
217.616104 108.0
217.686188 196.0
217.742126 192.0
217.7948 172.0
217.831406 80.0
217.878555 168.0
218.001953 80.0
218.092377 1332.0
218.169495 104.0
218.448868 40.0
218.560669 196.0
218.581268 116.0
218.654846 192.0
218.673737 148.0
218.790237 200.0
218.831467 148.0
218.855011 184.0
218.91391 136.0
218.978699 180.0
219.065445 512.0
219.094742 188.0
219.155457 168.0
219.204483 148.0
219.231567 140.0
219.318024 240.0
219.451904 164.0
219.548447 112.0
219.656647 76.0
219.748093 72.0
219.774658 132.0
219.80835 152.0
219.836624 60.0
219.892685 180.0
219.922211 72.0
220.034378 36.0
220.067932 212.0
220.125275 176.0
220.226334 104.0
220.297226 144.0
220.341537 68.0
220.433136 220.0
220.486328 180.0
220.616394 52.0
220.660645 284.0
220.713959 60.0
220.73761 156.0
220.770142 128.0
220.91507 248.0
220.962128 168.0
221.008682 356.0
221.087418 212.0
221.151794 160.0
221.282257 116.0
221.317581 196.0
221.551559 172.0
221.699707 224.0
221.773804 168.0
221.84198 132.0
221.868668 152.0
221.930923 168.0
221.954651 148.0
222.049545 140.0
222.091064 56.0
222.126419 96.0
222.165237 200.0
222.206772 144.0
222.282623 224.0
222.441208 124.0
222.54512 64.0
222.577347 192.0
222.655182 132.0
222.684692 124.0
222.725296 132.0
222.732956 176.0
222.788666 40.0
222.86647 64.0
222.93425 52.0
222.958023 60.0
222.984772 308.0
223.035309 68.0
223.074738 500.0
223.112656 216.0
223.150558 556.0
223.201797 104.0
223.236435 68.0
223.282089 120.0
223.380249 120.0
223.505203 208.0
223.564713 200.0
223.659958 124.0
223.728424 120.0
223.76712 100.0
223.814758 100.0
223.835602 176.0
224.00943 156.0
224.079102 144.0
224.121414 156.0
224.181168 264.0
224.237793 216.0
224.282501 144.0
224.315292 148.0
224.348083 48.0
224.552277 228.0
224.649277 148.0
224.824463 208.0
224.952835 260.0
225.005569 236.0
225.089722 328.0
225.123138 284.0
225.159698 140.0
225.246307 168.0
225.270203 96.0
225.33461 108.0
225.386734 44.0
225.440521 40.0
225.518219 152.0
225.592957 112.0
225.631821 268.0
225.673676 132.0
225.829178 100.0
225.911301 132.0
225.954819 112.0
225.98175 224.0
226.035599 40.0
226.063797 392.0
226.094131 144.0
226.12384 124.0
226.17926 164.0
226.300629 236.0
226.376862 108.0
226.517639 108.0
226.574554 176.0
226.718384 120.0
227.015167 80.0
227.071259 1156.0
227.107285 236.0
227.270142 188.0
227.375168 188.0
227.480225 180.0
227.536438 144.0
227.576294 112.0
227.612259 160.0
227.681396 124.0
227.812592 148.0
227.866837 164.0
227.936752 112.0
228.081924 180.0
228.132111 124.0
228.186218 212.0
228.306503 148.0
228.366653 108.0
228.403976 88.0
228.45726 164.0
228.492996 128.0
228.54715 68.0
228.580261 76.0
228.639511 168.0
228.703644 164.0
228.730743 196.0
228.754822 188.0
228.810791 196.0
228.839111 156.0
228.890305 120.0
228.917404 148.0
229.04509 132.0
229.086212 5224.0
229.140305 140.0
229.165207 164.0
229.218643 176.0
229.266861 120.0
229.57402 108.0
229.653412 164.0
229.722153 180.0
229.770325 124.0
229.839813 48.0
230.017883 228.0
230.05307 128.0
230.091751 888.0
230.12822 136.0
230.208099 132.0
230.49205 56.0
230.546738 120.0
230.570618 152.0
230.606003 220.0
230.668427 56.0
231.101517 3060.0
231.145203 56.0
231.225677 88.0
231.278366 104.0
231.452057 156.0
231.499374 152.0
231.523605 128.0
231.553894 72.0
231.596298 132.0
231.6483 168.0
231.693237 88.0
231.744736 100.0
231.799286 176.0
231.820496 120.0
231.877899 140.0
231.953842 44.0
232.062988 104.0
232.107559 692.0
232.144852 128.0
232.244949 112.0
232.34201 144.0
232.430008 144.0
232.51123 136.0
232.551743 104.0
232.661301 324.0
232.721405 216.0
232.77095 264.0
232.833755 160.0
232.91272 120.0
233.028961 168.0
233.067352 172.0
233.134354 224.0
233.442429 224.0
233.481094 104.0
233.526718 148.0
233.794449 180.0
233.861404 108.0
233.933121 128.0
234.05928 100.0
234.089737 176.0
234.196335 44.0
234.400452 132.0
234.424835 52.0
234.449219 144.0
234.491882 40.0
234.532669 128.0
234.638199 152.0
234.805908 152.0
234.890533 204.0
234.94928 324.0
235.112564 180.0
235.147949 148.0
235.181198 120.0
235.277145 232.0
235.315521 164.0
235.42157 148.0
235.45903 252.0
235.510956 128.0
235.580368 144.0
235.623993 116.0
235.715652 104.0
235.850128 68.0
236.112549 116.0
236.125916 80.0
236.132629 132.0
236.154816 364.0
236.183411 184.0
236.318024 92.0
236.435455 180.0
236.547485 176.0
236.583344 200.0
236.605713 152.0
236.795578 152.0
236.924225 168.0
236.960983 68.0
237.028397 196.0
237.092575 884.0
237.135788 188.0
237.221481 40.0
237.3853 224.0
237.4944 164.0
237.736771 152.0
237.776672 196.0
237.914795 220.0
238.052963 68.0
238.094086 240.0
238.122833 224.0
238.175827 136.0
238.381668 216.0
238.424698 108.0
238.507675 308.0
238.673691 144.0
238.815155 160.0
238.895142 196.0
238.919739 136.0
238.947433 164.0
238.981277 204.0
239.033585 148.0
239.074249 168.0
239.106339 480.0
239.150543 92.0
239.187469 144.0
239.341415 64.0
239.375275 128.0
239.455353 120.0
239.518753 240.0
239.544678 180.0
239.723373 100.0
239.780457 144.0
239.852829 176.0
239.950607 172.0
239.98848 144.0
240.071136 268.0
240.116379 356.0
240.161179 76.0
240.250626 80.0
240.349365 92.0
240.374512 188.0
240.401825 60.0
240.429596 44.0
240.565399 40.0
240.639496 184.0
240.67038 104.0
240.695084 216.0
240.809341 216.0
240.993179 212.0
241.047226 36.0
241.086716 1060.0
241.118988 288.0
241.157135 160.0
241.201752 40.0
241.350159 64.0
241.490967 156.0
241.535706 72.0
241.567932 212.0
241.619232 44.0
241.820374 116.0
241.891571 132.0
241.956573 128.0
242.08313 92.0
242.091644 124.0
242.099548 280.0
242.171539 200.0
242.353027 124.0
242.486282 128.0
242.50798 104.0
242.532776 184.0
242.560669 128.0
242.617798 196.0
242.690872 128.0
242.728088 132.0
242.849045 104.0
243.104462 496.0
243.139557 100.0
243.367294 116.0
243.423187 132.0
243.617828 156.0
243.692078 212.0
243.73381 116.0
243.888214 100.0
244.025986 196.0
244.099838 384.0
244.128601 120.0
244.156586 60.0
244.287231 132.0
244.314545 140.0
244.346344 160.0
244.490845 128.0
244.542389 112.0
244.648224 120.0
244.835037 200.0
244.869308 160.0
245.106369 124.0
245.146393 176.0
245.305527 292.0
245.511322 124.0
245.604889 72.0
245.664154 128.0
245.69902 112.0
245.763992 40.0
245.907547 120.0
246.044891 100.0
246.088379 168.0
246.341568 240.0
246.397797 220.0
246.429047 164.0
246.641556 116.0
246.688446 128.0
246.797867 168.0
246.829132 144.0
246.882294 108.0
246.910446 136.0
246.984009 200.0
247.045517 152.0
247.093933 212.0
247.154449 108.0
247.382111 200.0
247.445541 128.0
247.476852 168.0
247.51442 96.0
247.552002 120.0
247.72113 76.0
247.913925 392.0
247.996872 192.0
248.065842 148.0
248.122269 188.0
248.219467 64.0
248.360596 148.0
248.401382 160.0
248.463669 84.0
248.688248 120.0
248.715164 156.0
248.787369 176.0
248.934937 120.0
248.967819 280.0
249.000885 48.0
249.051147 60.0
249.087906 108.0
249.151672 128.0
249.236496 40.0
249.280487 156.0
249.403061 40.0
249.48793 128.0
249.59169 128.0
249.679749 136.0
249.708054 164.0
249.750229 176.0
249.805557 308.0
249.840164 68.0
249.867325 120.0
249.961365 260.0
250.028961 124.0
250.062592 140.0
250.077026 88.0
250.083923 164.0
250.113937 164.0
250.139114 100.0
250.254868 132.0
250.33432 148.0
250.476059 88.0
250.529602 320.0
250.702911 228.0
250.813217 192.0
250.993088 148.0
251.005249 136.0
251.052841 116.0
251.144119 664.0
251.177139 264.0
251.257385 184.0
251.346207 164.0
251.431412 88.0
251.481918 64.0
251.545044 80.0
251.581238 188.0
251.643707 204.0
252.01561 184.0
252.149033 428.0
252.265289 184.0
252.325974 200.0
252.489777 136.0
252.58783 124.0
252.619461 156.0
252.641617 116.0
252.79982 256.0
252.897919 144.0
252.932739 292.0
252.958069 84.0
252.992889 52.0
253.04303 172.0
253.119583 292.0
253.179764 216.0
253.24939 128.0
253.315903 104.0
253.35463 124.0
253.452133 68.0
253.493332 108.0
253.607422 180.0
253.734222 80.0
253.772278 208.0
253.862854 204.0
253.927658 100.0
254.00061 176.0
254.045013 116.0
254.085648 296.0
254.129852 108.0
254.168762 128.0
254.233688 164.0
254.327438 180.0
254.359177 84.0
254.441727 76.0
254.470291 188.0
254.571899 160.0
254.606842 80.0
254.692596 212.0
254.778366 72.0
254.806961 48.0
254.886383 188.0
254.940414 28.0
254.99762 104.0
255.029404 164.0
255.099228 1040.0
255.136795 228.0
255.24559 176.0
255.315552 64.0
255.363251 128.0
255.420502 144.0
255.515945 224.0
255.627304 172.0
255.653183 92.0
255.741882 184.0
255.770523 160.0
255.974289 160.0
256.025238 164.0
256.053894 68.0
256.106262 144.0
256.150635 364.0
256.194061 148.0
256.283264 132.0
256.385223 136.0
256.477661 356.0
256.560547 132.0
256.605194 120.0
256.700836 36.0
256.735931 124.0
256.785248 216.0
256.981537 200.0
257.017792 144.0
257.230469 140.0
257.256012 132.0
257.428436 32.0
257.458588 172.0
257.612366 156.0
257.754242 96.0
257.811768 32.0
257.872498 140.0
257.973022 36.0
258.019135 192.0
258.039185 168.0
258.077087 92.0
258.125061 108.0
258.189026 156.0
258.265778 144.0
258.435333 124.0
258.508911 184.0
258.659363 148.0
258.745789 260.0
258.864868 148.0
258.903717 148.0
258.93631 176.0
259.072449 120.0
259.315979 112.0
259.452332 276.0
259.620544 160.0
259.687897 116.0
259.716766 104.0
259.739227 124.0
259.768097 212.0
259.841888 44.0
259.912476 80.0
259.954712 148.0
260.040833 108.0
260.085785 72.0
260.185303 128.0
260.239868 144.0
260.304077 148.0
260.394318 124.0
260.445404 36.0
260.534607 124.0
260.567474 32.0
260.641388 140.0
260.834198 152.0
260.901703 140.0
260.937073 148.0
261.082733 164.0
261.13324 132.0
261.323029 144.0
261.461395 108.0
261.493591 208.0
261.670624 140.0
261.76178 132.0
261.809113 60.0
261.91861 192.0
261.970154 60.0
262.060944 88.0
262.095795 172.0
262.139832 240.0
262.208588 224.0
262.244049 60.0
262.392334 276.0
262.414886 80.0
262.566895 148.0
262.626282 168.0
262.700867 136.0
262.766449 128.0
262.805176 132.0
262.86969 136.0
263.082733 132.0
263.273224 108.0
263.311981 204.0
263.402435 168.0
263.481506 160.0
263.757874 164.0
264.059723 224.0
264.115997 456.0
264.204132 176.0
264.259125 48.0
264.327087 168.0
264.375641 164.0
264.430634 152.0
264.485657 196.0
264.666962 124.0
264.72525 120.0
264.780304 140.0
264.854797 144.0
264.926056 212.0
264.951996 160.0
265.02652 180.0
265.088074 192.0
265.11911 124.0
265.213654 160.0
265.412231 100.0
265.52417 116.0
265.627045 100.0
265.668457 92.0
265.723602 192.0
265.755096 220.0
265.872864 220.0
266.012085 152.0
266.077362 136.0
266.145538 88.0
266.39563 108.0
266.470337 56.0
266.558075 64.0
266.601074 192.0
266.69458 176.0
266.853882 124.0
267.081512 148.0
267.12381 144.0
267.18045 108.0
267.201874 108.0
267.231171 172.0
267.286469 232.0
267.357727 204.0
267.476868 128.0
267.671783 140.0
267.703156 112.0
267.735718 132.0
267.774811 116.0
267.888794 188.0
267.944183 164.0
268.048462 68.0
268.110657 380.0
268.149475 176.0
268.188599 152.0
268.227692 168.0
268.25705 96.0
268.348328 148.0
268.426575 96.0
268.482025 96.0
268.510895 112.0
268.553772 224.0
268.592926 84.0
268.641846 100.0
268.707092 132.0
268.899628 136.0
268.971436 180.0
269.007324 144.0
269.036713 56.0
269.082428 116.0
269.111816 68.0
269.151611 1004.0
269.209778 168.0
269.328583 128.0
269.406433 152.0
269.451477 112.0
269.621399 108.0
269.696564 88.0
269.882904 112.0
269.939789 224.0
269.971222 56.0
270.039886 96.0
270.088959 132.0
270.124207 160.0
270.153564 280.0
270.217346 128.0
270.311432 96.0
270.406342 160.0
270.49472 172.0
270.612549 76.0
270.658417 156.0
270.737 236.0
270.769745 156.0
270.812317 184.0
271.03183 148.0
271.179291 144.0
271.264526 160.0
271.310394 208.0
271.467804 168.0
271.618652 144.0
271.667877 108.0
271.726929 320.0
271.769562 184.0
271.845062 120.0
271.943512 128.0
272.071533 140.0
272.110931 84.0
272.190155 156.0
272.24884 100.0
272.324371 200.0
272.377136 136.0
272.419647 120.0
272.495209 108.0
272.593781 216.0
272.728516 132.0
272.919189 180.0
272.958649 48.0
272.997162 96.0
273.063873 216.0
273.21521 364.0
273.23822 72.0
273.267853 104.0
273.320496 164.0
273.343506 204.0
273.425781 244.0
273.455414 188.0
273.573914 112.0
273.811005 120.0
273.860382 164.0
273.886749 152.0
274.030762 128.0
274.087708 172.0
274.216248 128.0
274.316467 156.0
274.404144 108.0
274.450287 92.0
274.685486 312.0
274.753723 344.0
274.839508 132.0
274.865906 152.0
274.938507 152.0
275.044128 104.0
275.06723 132.0
275.090332 60.0
275.176178 184.0
275.238922 172.0
275.291748 44.0
275.334686 356.0
275.486633 92.0
275.526276 196.0
275.556 108.0
275.598938 132.0
275.668335 200.0
275.708008 92.0
275.741058 100.0
275.807159 112.0
275.859833 124.0
275.906342 40.0
275.946014 164.0
275.995605 56.0
276.031982 120.0
276.352814 164.0
276.425629 76.0
276.505035 84.0
276.543457 152.0
276.584473 136.0
276.653992 184.0
276.74054 144.0
276.802979 84.0
276.826172 52.0
276.883575 156.0
276.9104 128.0
276.945404 104.0
276.981842 144.0
277.029327 200.0
277.114349 172.0
277.230652 124.0
277.303223 136.0
277.369537 152.0
277.650391 152.0
277.687836 88.0
277.727631 128.0
277.774078 52.0
277.800629 124.0
277.922852 208.0
277.993042 32.0
278.019592 36.0
278.112549 120.0
278.139099 96.0
278.305084 120.0
278.401703 124.0
278.464478 220.0
278.53479 148.0
278.57077 256.0
278.596039 116.0
278.627258 72.0
278.660492 128.0
278.803375 132.0
278.859863 132.0
278.932983 204.0
278.955475 152.0
279.019409 120.0
279.049347 196.0
279.077576 180.0
279.13916 16176.0
279.235565 152.0
279.256287 132.0
279.323151 36.0
279.352142 236.0
279.419678 124.0
279.471741 52.0
279.534973 140.0
279.562897 204.0
279.648132 180.0
279.693115 148.0
279.744659 124.0
279.841217 72.0
279.864502 132.0
279.89447 52.0
279.991058 76.0
280.021027 84.0
280.141571 2556.0
280.210907 180.0
280.420837 208.0
280.449341 124.0
280.474182 96.0
280.535919 84.0
280.594177 188.0
280.650879 128.0
280.684204 172.0
280.731598 172.0
280.779419 160.0
280.904327 92.0
280.934357 128.0
281.090302 276.0
281.146973 1068.0
281.175751 164.0
281.207977 56.0
281.2547 56.0
281.353607 96.0
281.373657 164.0
281.560059 140.0
281.622009 44.0
281.668762 56.0
281.714111 140.0
281.745605 132.0
281.798584 176.0
281.845825 176.0
281.929382 60.0
281.992859 104.0
282.022949 132.0
282.049072 152.0
282.058105 124.0
282.067841 216.0
282.117432 376.0
282.203461 148.0
282.300446 124.0
282.32251 156.0
282.611542 44.0
282.708588 200.0
282.735352 176.0
282.832397 148.0
282.865875 172.0
282.973175 88.0
283.070129 44.0
283.341431 156.0
283.421844 148.0
283.529083 176.0
283.572632 188.0
283.797089 164.0
284.011871 188.0
284.156128 132.0
284.454803 148.0
284.498444 128.0
284.760376 116.0
284.955078 124.0
285.039215 148.0
285.062714 132.0
285.086243 104.0
285.203888 88.0
285.452667 108.0
285.533386 144.0
285.590546 172.0
285.708893 136.0
285.758759 240.0
285.957306 120.0
285.979736 220.0
286.06839 116.0
286.199677 32.0
286.293976 76.0
286.361328 132.0
286.384918 196.0
286.435425 164.0
286.534546 188.0
286.612671 116.0
286.68689 144.0
286.779114 168.0
286.829681 216.0
287.045471 200.0
287.106171 164.0
287.338898 132.0
287.416504 48.0
287.502838 192.0
287.599182 216.0
287.625763 184.0
287.684479 80.0
287.723663 164.0
287.747284 92.0
287.774292 164.0
287.918701 204.0
287.987061 168.0
288.128937 172.0
288.176239 212.0
288.453339 48.0
288.534485 212.0
288.564911 180.0
288.595337 64.0
288.735168 132.0
288.777954 188.0
288.915466 148.0
289.007996 220.0
289.075684 152.0
289.181 168.0
289.434479 172.0
289.502228 52.0
289.617371 104.0
289.67157 196.0
289.735931 228.0
289.819672 128.0
289.851135 120.0
289.927765 84.0
290.000244 116.0
290.122284 72.0
290.179901 96.0
290.271454 160.0
290.376587 176.0
290.692108 124.0
290.81427 44.0
290.895752 172.0
291.340607 136.0
291.366852 188.0
291.63681 120.0
291.728027 176.0
292.224548 104.0
292.309631 148.0
292.374298 40.0
292.404907 212.0
292.430817 132.0
292.541077 68.0
292.663635 100.0
292.818481 140.0
292.874786 84.0
292.990601 164.0
293.021271 112.0
293.085999 208.0
293.109863 200.0
293.197296 188.0
293.312744 196.0
293.430237 124.0
293.51889 88.0
293.583679 100.0
293.622955 204.0
293.669708 160.0
293.706482 120.0
293.754242 160.0
293.792664 164.0
293.909943 264.0
294.240204 132.0
294.290039 80.0
294.319336 104.0
294.389069 208.0
294.452393 228.0
294.491516 124.0
294.524811 184.0
294.559845 156.0
294.652069 148.0
294.675995 180.0
294.71701 124.0
294.853577 132.0
294.958069 160.0
295.038269 80.0
295.14328 288.0
295.195892 124.0
295.326019 112.0
295.376831 136.0
295.421295 64.0
295.448303 256.0
295.530762 144.0
295.593658 428.0
295.647125 52.0
295.70874 112.0
295.796692 252.0
295.866547 156.0
295.929047 192.0
296.02243 288.0
296.054016 84.0
296.085846 156.0
296.113983 144.0
296.124664 108.0
296.140137 208.0
296.200531 304.0
296.252563 292.0
296.299316 204.0
296.345825 344.0
296.370605 180.0
296.406891 236.0
296.436798 196.0
296.483887 364.0
296.511719 460.0
296.552002 468.0
296.592468 400.0
296.61618 408.0
296.665222 540.0
296.70517 252.0
296.755676 300.0
296.771454 136.0
296.783966 428.0
296.833588 608.0
296.891449 208.0
296.916473 608.0
296.940948 440.0
297.000519 408.0
297.026672 580.0
297.032898 392.0
297.064728 724.0
297.151093 362944.0
297.231873 264.0
297.264526 432.0
297.335266 164.0
297.37793 264.0
297.421265 164.0
297.439484 288.0
297.463806 404.0
297.496429 324.0
297.563904 272.0
297.60968 132.0
297.650543 368.0
297.663635 452.0
297.717468 4436.0
297.749542 512.0
297.776703 444.0
297.813446 292.0
297.870544 208.0
297.898285 152.0
297.922455 344.0
297.993713 276.0
298.024872 164.0
298.090729 392.0
298.153809 97520.0
298.249908 172.0
298.290863 164.0
298.326691 228.0
298.358612 164.0
298.403992 176.0
298.432526 48.0
298.459808 252.0
298.486633 260.0
298.529175 212.0
298.584656 100.0
298.610046 132.0
298.662598 220.0
298.721558 192.0
298.776764 324.0
298.833649 208.0
298.902771 64.0
298.930603 120.0
298.969147 116.0
299.019043 68.0
299.08548 172.0
299.156067 12768.0
299.24884 140.0
299.325287 124.0
299.413971 188.0
299.439117 212.0
299.475677 56.0
299.511871 120.0
299.601715 232.0
299.653229 80.0
299.684174 316.0
299.754852 156.0
299.790192 136.0
299.848511 120.0
299.90451 232.0
299.925232 148.0
299.973633 160.0
299.98642 172.0
300.013672 348.0
300.065887 164.0
300.094543 240.0
300.157593 1436.0
300.217133 152.0
300.25647 300.0
300.293457 224.0
300.33316 276.0
300.385254 136.0
300.403809 128.0
300.418488 144.0
300.458069 76.0
300.492188 144.0
300.525848 232.0
300.584076 136.0
300.638397 108.0
300.693787 204.0
300.746368 220.0
300.819397 128.0
300.869751 140.0
300.906372 56.0
300.984436 124.0
300.993988 128.0
301.03476 152.0
301.076721 76.0
301.139008 324.0
301.164307 84.0
301.219086 108.0
301.259064 116.0
301.299194 156.0
301.325348 64.0
301.389923 96.0
301.47168 104.0
301.533844 80.0
301.559052 76.0
301.565857 48.0
301.618011 100.0
301.685059 80.0
301.750153 108.0
301.796906 92.0
301.810699 76.0
301.820831 72.0
301.83902 52.0
301.887695 124.0
301.911194 100.0
302.001801 52.0
302.050232 40.0
302.104126 160.0
302.148926 68.0
302.229462 120.0
302.299347 56.0
302.482788 52.0
302.538177 64.0
302.576263 60.0
302.700897 56.0
302.732086 84.0
302.774048 32.0
302.818665 48.0
302.891388 52.0
302.929504 36.0
302.960663 136.0
303.043823 44.0
303.075012 60.0
303.1539 52.0
303.240234 88.0
303.286407 88.0
303.362671 36.0
303.407745 96.0
303.705963 68.0
303.742462 84.0
303.790588 60.0
303.934937 80.0
303.966156 96.0
304.018219 64.0
304.160522 80.0
304.233429 36.0
304.452179 68.0
304.5112 60.0
304.587616 104.0
304.684875 44.0
304.754364 48.0
305.031097 64.0
305.077606 84.0
305.101929 56.0
305.147125 52.0
305.206238 28.0
305.390564 52.0
305.644501 52.0
305.679321 60.0
305.828949 72.0
305.856812 172.0
306.100525 152.0
306.177124 100.0
306.49762 208.0
306.581268 124.0
306.804321 44.0
306.853149 52.0
307.030975 48.0
307.09726 40.0
307.173981 232.0
307.243744 108.0
307.292603 220.0
307.320526 112.0
307.365875 36.0
307.749817 192.0
307.812683 92.0
307.936646 88.0
308.066559 52.0
308.19693 96.0
308.432922 128.0
308.553436 88.0
308.588379 76.0
308.640839 120.0
308.6828 92.0
308.794708 48.0
308.934631 88.0
308.983612 52.0
309.123566 112.0
309.204041 144.0
309.302063 128.0
309.330048 92.0
309.435089 48.0
309.459595 88.0
309.545654 156.0
309.624176 52.0
309.655701 104.0
309.701233 152.0
309.785309 72.0
309.911407 48.0
309.942963 196.0
310.084564 108.0
310.16507 148.0
310.191803 64.0
310.240875 88.0
310.374115 40.0
310.556458 160.0
310.591553 88.0
310.763428 72.0
310.847656 128.0
310.872223 36.0
310.945923 60.0
311.009094 136.0
311.082794 80.0
311.174072 132.0
311.204346 116.0
311.440979 84.0
311.613098 64.0
311.841522 68.0
312.057709 72.0
312.084106 108.0
312.175507 96.0
312.295746 140.0
312.372467 124.0
312.44635 116.0
312.470978 200.0
312.583588 108.0
312.703247 52.0
312.78418 92.0
313.044739 132.0
313.238434 28.0
313.368774 60.0
313.640137 92.0
313.791718 72.0
313.862244 160.0
313.943359 80.0
314.253784 108.0
314.380798 80.0
314.451385 64.0
314.514923 92.0
314.91037 52.0
315.108185 52.0
315.183807 64.0
315.549988 108.0
315.599487 124.0
315.709106 52.0
315.733856 76.0
315.882416 36.0
316.080536 76.0
316.983521 28.0
317.182007 104.0
317.231628 60.0
317.522369 72.0
317.909088 72.0
317.969391 68.0
318.832428 84.0
318.910614 164.0
319.557831 112.0
320.38382 120.0
320.918427 32.0
321.100281 68.0
321.621216 64.0
321.871124 64.0
322.0354 148.0
322.078247 124.0
322.39624 100.0
323.032684 64.0
323.490723 104.0
323.866699 260.0
324.035065 148.0
324.103149 132.0
324.590637 36.0
324.637268 64.0
324.687469 124.0
324.726929 104.0
324.841705 100.0
324.906281 84.0
324.967285 56.0
325.003143 36.0
325.056976 132.0
325.144897 17300.0
325.203583 240.0
325.215576 420.0
325.27063 76.0
325.340515 52.0
325.469788 56.0
325.581116 88.0
325.617004 276.0
325.717041 52.0
325.769592 76.0
325.940338 48.0
326.044556 52.0
326.148132 3516.0
326.195496 48.0
326.260223 32.0
326.297577 92.0
326.46875 88.0
326.551483 44.0
326.610016 88.0
326.652191 68.0
326.698456 56.0
326.911255 64.0
326.96524 88.0
327.074524 152.0
327.150635 740.0
327.328827 32.0
327.411652 120.0
327.494476 80.0
327.591736 80.0
327.627777 36.0
327.916992 60.0
327.952087 36.0
328.089081 48.0
328.164764 124.0
328.363129 128.0
328.417206 72.0
329.143921 100.0
329.23288 68.0
329.879639 52.0
331.048309 48.0
331.164215 68.0
332.157379 116.0
333.224701 32.0
334.151825 112.0
334.366516 68.0
334.497528 76.0
335.102081 76.0
336.126678 124.0
337.873169 80.0
338.674866 52.0
339.506836 48.0
340.013123 112.0
340.821014 64.0
340.953278 52.0
342.24292 44.0
342.270264 48.0
342.34021 84.0
342.391785 76.0
342.587006 56.0
343.60083 48.0
344.582916 92.0
344.741791 104.0
345.481293 116.0
345.880951 36.0
346.080872 68.0
346.262299 84.0
346.914459 84.0
347.622864 36.0
350.952057 124.0
352.50116 100.0
352.590851 112.0
353.772827 60.0
355.046783 92.0
355.279358 100.0
355.369385 112.0
355.707153 56.0
356.251648 108.0
356.39444 108.0
356.514679 44.0
356.76651 48.0
357.033478 72.0
358.373566 136.0
358.746704 100.0
359.078522 80.0
359.414246 160.0
362.768982 60.0
363.66037 192.0
364.142578 68.0
364.560486 80.0
365.256256 80.0
365.743317 40.0
367.072937 108.0
368.194916 68.0
370.359711 92.0
374.577362 40.0
376.196991 92.0
380.917511 64.0
381.620941 44.0
382.457367 56.0
382.95575 60.0
383.898895 136.0
384.214844 40.0
384.374817 44.0
385.515076 80.0
385.761322 76.0
386.739227 40.0
387.72229 124.0
388.122131 76.0
388.898926 80.0
390.785217 28.0
391.556763 84.0
393.528442 128.0
394.856201 72.0
397.939178 52.0
399.64032 52.0
399.902954 68.0
401.715973 76.0
402.885681 144.0
404.489258 48.0
406.533325 64.0
406.617584 36.0
409.077545 72.0
409.733978 76.0
410.806335 160.0
411.028229 72.0
412.684326 84.0
414.266754 80.0
414.95166 84.0
415.166565 80.0
415.978058 48.0
418.48645 96.0
419.578339 92.0
420.36557 56.0
422.015808 96.0
422.490234 72.0
422.981293 52.0
423.554565 108.0
426.217163 92.0
427.582458 40.0
429.147797 108.0
429.374603 64.0
431.178802 128.0
432.167114 116.0
434.163757 68.0
434.524628 116.0
436.909332 76.0
438.241638 172.0
438.80014 140.0
438.962769 44.0
439.696991 88.0
439.726196 40.0
440.795319 116.0
440.895599 84.0
442.908081 36.0
443.729462 108.0
446.378937 44.0
449.394867 84.0
450.230652 44.0
450.889709 36.0
452.048462 56.0
452.128876 68.0
453.183289 200.0
453.243683 124.0
454.612274 152.0
457.634552 64.0
458.098785 164.0
458.222321 32.0
459.416046 124.0
460.179993 124.0
461.530182 48.0
463.644867 88.0
464.635376 72.0
466.63678 44.0
467.94043 60.0
468.371063 96.0
469.211395 72.0
469.741821 76.0
472.186584 96.0
472.316345 76.0
473.112579 56.0
476.265106 112.0
476.842987 120.0
478.030243 76.0
478.661438 80.0
483.48526 84.0
483.804779 96.0
487.049805 84.0
487.102509 132.0
487.287018 120.0
488.513611 44.0
489.327759 84.0
489.37619 68.0
489.65802 52.0
492.851898 124.0
493.904053 80.0
495.958618 64.0
496.934235 100.0
498.790558 40.0
499.177368 64.0
501.300751 80.0
502.147797 108.0
502.370819 140.0
504.545715 32.0
505.073395 76.0
505.883331 40.0
508.361908 36.0
508.990356 72.0
510.118073 44.0
510.149536 100.0
511.008514 96.0
512.327637 76.0
516.069092 52.0
517.689087 64.0
518.096741 80.0
519.706238 48.0
520.110107 116.0
520.391602 80.0
520.891174 108.0
521.813721 100.0
524.508728 44.0
524.786804 44.0
524.905334 52.0
528.03363 56.0
531.148193 96.0
532.313965 104.0
533.628052 72.0
535.137207 44.0
538.993225 72.0
539.344482 56.0
539.973328 128.0
540.005676 104.0
540.088928 32.0
542.728638 92.0
544.009155 92.0
544.644287 104.0
545.20929 84.0
547.598877 84.0
548.339661 68.0
548.913086 88.0
551.359253 44.0
552.897888 40.0
553.075745 152.0
553.698486 124.0
554.106018 88.0
555.761108 60.0
556.361816 36.0
556.460449 76.0
557.399841 140.0
557.883911 52.0
559.652954 40.0
559.977844 108.0
562.184265 48.0
563.440247 104.0
564.858459 56.0
566.439514 44.0
568.421265 80.0
570.349487 68.0
574.955139 100.0
578.099731 76.0
578.736389 56.0
580.039429 84.0
580.581238 140.0
581.536011 76.0
582.088074 60.0
584.04895 64.0
584.366455 112.0
585.565063 64.0
588.864014 56.0
593.020142 52.0
600.166382 84.0
606.428711 108.0
606.639465 88.0
608.788574 52.0
609.874329 124.0
611.27594 36.0
612.12262 60.0
612.304871 80.0
613.319824 92.0
613.94104 76.0
615.416504 68.0
617.620605 100.0
618.23407 36.0
619.818726 32.0
619.907898 52.0
620.284546 168.0
621.261475 48.0
621.837097 56.0
622.249084 84.0
624.83844 76.0
625.843872 104.0
626.386719 64.0
629.034546 44.0
629.998352 72.0
631.392883 112.0
632.718933 132.0
634.322021 112.0
634.963806 124.0
635.2146 80.0
636.619934 56.0
638.348572 52.0
638.916992 96.0
640.170288 52.0
640.477478 56.0
640.643738 84.0
643.594177 52.0
647.498108 64.0
650.40332 128.0
651.139587 116.0
654.475525 48.0
654.55188 48.0
655.631836 76.0
659.683594 108.0
663.395935 80.0
666.634583 64.0
668.887329 96.0
670.210876 96.0
673.011658 76.0
676.3255 60.0
677.293762 56.0
677.640808 52.0
679.56958 68.0
680.644043 40.0
681.475098 60.0
683.789124 104.0
684.340942 88.0
684.585693 108.0
685.617188 80.0
691.335632 40.0
703.039062 68.0
714.915222 64.0
717.386597 32.0
717.861145 100.0
719.734131 80.0
720.326965 108.0
726.155884 56.0
732.476929 92.0
733.123474 104.0
735.296814 44.0
737.938354 80.0
738.197876 36.0
741.651978 80.0
742.660522 68.0
742.937134 68.0
743.914001 128.0
744.858826 80.0
745.945618 68.0
746.364258 84.0
747.680725 96.0
756.523193 44.0
757.098083 100.0
759.251831 124.0
762.958191 76.0
771.696777 52.0
773.909912 56.0
778.462402 60.0
782.065002 40.0
784.421204 100.0
787.210876 120.0
791.707031 68.0
814.686646 88.0
815.266174 76.0
815.55603 124.0
818.776306 48.0
819.767578 48.0
820.89624 40.0
822.122742 28.0
826.168091 44.0
827.41571 60.0
832.656738 84.0
836.860291 136.0
846.040039 32.0
847.94574 72.0
856.370361 64.0
856.527588 48.0
859.58844 48.0
865.697144 36.0
867.454895 68.0
870.411804 160.0
875.050964 56.0
876.800476 56.0
883.123718 148.0
889.333191 120.0
889.689331 124.0
893.225159 68.0
893.843872 48.0
894.052185 84.0
897.095825 196.0
902.552673 96.0
903.210571 80.0
907.858215 96.0
908.643982 60.0
910.528809 72.0
918.268616 68.0
922.87616 104.0
925.665649 116.0
925.932129 96.0
931.35437 64.0
934.929382 40.0
935.891113 92.0
940.707458 96.0
945.285278 76.0
955.076904 36.0
956.71991 52.0
958.358154 200.0
963.6026 172.0
964.028931 112.0
964.943726 160.0
965.982666 96.0
970.237122 76.0
970.826172 76.0
973.215149 160.0
978.91095 132.0
982.444946 68.0
986.504089 164.0
987.57959 40.0
989.287903 60.0
989.550842 84.0
998.404724 128.0
1004.482727 96.0
1006.123474 168.0
1008.182617 140.0
1009.554443 76.0
1012.199524 152.0
1014.5755 56.0
1017.043091 112.0
1018.662292 104.0
1020.486267 112.0
1031.259644 96.0
1035.917969 84.0
1036.859741 136.0
1042.327271 156.0
1044.236694 72.0
1044.288086 144.0
1046.294678 124.0
1051.278198 60.0
1051.633179 88.0
1058.14917 44.0
1059.82019 140.0
1060.831299 44.0
1061.233276 132.0
1067.512207 172.0
1074.836304 56.0
1078.510742 40.0
1079.275635 160.0
1082.691528 120.0
1089.480347 160.0
1100.960938 148.0
1102.791016 36.0
1106.230591 100.0
1107.190674 48.0
1109.470093 60.0
1110.663696 44.0
1117.539429 104.0
1119.043701 76.0
1119.696167 36.0
1125.070557 84.0
1126.893799 224.0
1134.78479 188.0
1137.515259 140.0
1141.943237 100.0
1142.333374 96.0
1143.261841 96.0
1146.056396 104.0
1153.892334 56.0
1154.791748 48.0
1159.151489 100.0
1161.836548 112.0
1163.967651 160.0
1171.830566 108.0
1176.297363 52.0
1179.419067 68.0
1184.790771 140.0
1204.167969 48.0
1204.575562 48.0
1205.784668 60.0
1214.203369 192.0
1221.503296 48.0
1222.372925 128.0
1226.175293 160.0
1226.518555 236.0
1227.109375 148.0
1230.38147 64.0
1233.608887 128.0
1247.017944 180.0
1248.810913 92.0
1254.613159 76.0
1256.57373 152.0
1259.877808 92.0
1260.266357 64.0
1260.379395 72.0
1262.330322 52.0
1262.443481 128.0
1265.471924 172.0
1269.376221 124.0
1269.539307 136.0
1272.796387 148.0
1275.84436 200.0
1276.071899 160.0
1276.583862 144.0
1280.412598 180.0
1281.944214 124.0
1283.284302 76.0
1288.522949 188.0
1292.698608 132.0
1295.22583 124.0
1296.766357 108.0
1297.77002 136.0
1298.960449 64.0
1299.979248 192.0
1304.719727 160.0
1306.62561 116.0
1308.295166 40.0
1309.296021 116.0
1310.333374 108.0
1312.834473 200.0
1314.695679 88.0
1327.101318 80.0
1331.527832 172.0
1331.840088 212.0
1331.93457 128.0
1335.321533 156.0
1337.657959 212.0
1339.57959 172.0
1339.703491 40.0
1341.095215 124.0
1341.313965 180.0
1343.122314 168.0
1343.873657 188.0
1348.013794 72.0
1350.645752 224.0
1354.664429 148.0
1355.331177 48.0
1357.874878 104.0
1361.015747 104.0
1361.786743 88.0
1366.660645 248.0
1369.406494 68.0
1370.975708 192.0
1371.226318 136.0
1372.309937 32.0
1374.249756 92.0
1376.907104 44.0
1382.644165 76.0
1387.429077 268.0
1391.123535 104.0
1392.014404 188.0
1393.849243 160.0
1398.013428 60.0
1398.259033 140.0
1399.442627 160.0
1400.40332 52.0
1402.250977 184.0
1405.427734 188.0
1407.01001 28.0
1407.375854 160.0
1408.406494 232.0
1409.033936 104.0
1409.437378 112.0
1411.253784 192.0
1413.318115 132.0
1415.07019 204.0
1415.915649 60.0
1417.653687 52.0
1419.137817 112.0
1419.235352 152.0
1419.677734 132.0
1421.478149 164.0
1426.946167 92.0
1427.555298 228.0
1427.856079 136.0
1428.886597 80.0
1429.149902 240.0
1429.330566 48.0
1430.188477 152.0
1431.588745 156.0
1438.230957 172.0
1438.585693 72.0
1443.950439 100.0
1444.404175 108.0
1444.933716 92.0
1450.461914 56.0
1450.977417 184.0
1451.470215 164.0
1453.123779 108.0
1455.696899 136.0
1457.633911 60.0
1458.05188 132.0
1459.610229 128.0
1459.693848 188.0
1459.967651 128.0
1460.956421 168.0
1465.615845 128.0
1465.928223 68.0
1467.124878 136.0
1467.400146 196.0
1469.229736 148.0
1469.641724 156.0
1469.870605 36.0
1470.91626 156.0
1473.726562 188.0
1478.169067 152.0
1479.623413 132.0
1480.787231 192.0
1481.821411 132.0
1482.878906 136.0
1483.254517 80.0
1483.714355 88.0
1487.642212 184.0
1488.686401 140.0
1490.522339 188.0
1490.622192 144.0
1492.589966 180.0
1493.782104 112.0
1496.283203 196.0
1497.28418 36.0
1500.235229 160.0
1500.990845 36.0
1502.417725 148.0
1502.780273 156.0
1503.752686 116.0
