>compound MLS001140938-01!4-[[[2-[4-(4-methoxyphenyl)-8-methyl-2-oxochromen-7-yl]oxyacetyl]amino]methyl]cyclohexane-1-carboxylic acid
>formula C27H29NO7
>ionization [M+H]+
>parentmass 480.202
#inchi InChI=1S/C27H29NO7/c1-16-23(34-15-24(29)28-14-17-3-5-19(6-4-17)27(31)32)12-11-21-22(13-25(30)35-26(16)21)18-7-9-20(33-2)10-8-18/h7-13,17,19H,3-6,14-15H2,1-2H3,(H,28,29)(H,31,32)/t17-,19-
#inchikey SYEOCUOTXUJMEV
#Ion_Source LC-ESI
#Instrument qTof
#Compound_Source NIH Natural Product Library
#PI Dorrestein
#Data_Collector VVP/LMS
#Scan -1
#Precursor_MZ 480.202
#ExactMass 479.194
#Charge 1
#CAS_Number N/A
#Pubmed_ID N/A
#Smiles COc1ccc(cc1)c2cc(=O)oc3c(C)c(OCC(=O)NC[C@H]4CC[C@@H](CC4)C(=O)O)ccc23
#INCHI_AUX N/A
#Library_Class 1
#SpectrumID CCMSLIB00000080591
#IonMode Positive
#UpdateWorkflowName UPDATE-SINGLE-ANNOTATED-GOLD
#LibraryQualityString Gold
#TaskID b1d8e8f6646f4e71acdff9ca3d919d08
##Scan# 2146
#SpectrumFile p2-B11_GB11_01_17999.mzXML
#LibraryName NIH_Natural_Products_Library.mgf
#MQScore -1
#Organism NIH_Natural_Products_Library
#TIC_Query 0
#RT_Query -1
#MZErrorPPM -1
#SharedPeaks 0
#MassDiff 0
#LibMZ -1
#SpecMZ 480.202
#SpecCharge 0
#internalFilename spec-00000.mgf

>collision 10
95.086487 4880.0
95.176445 92.0
95.252525 72.0
95.363853 176.0
95.60833 52.0
95.684242 148.0
95.820572 156.0
96.046509 212.0
96.087883 264.0
96.111084 196.0
96.267242 80.0
96.304352 60.0
96.361 120.0
96.411804 68.0
96.499771 144.0
96.577988 240.0
96.640587 168.0
96.742363 160.0
96.893158 168.0
97.089165 92.0
97.314827 124.0
97.424805 268.0
97.526985 160.0
97.564339 88.0
97.627258 44.0
97.688232 92.0
97.912613 136.0
97.952003 148.0
97.973679 140.0
98.141197 44.0
98.690102 188.0
98.876045 176.0
98.895836 124.0
98.92157 56.0
99.081978 136.0
99.183044 208.0
99.309944 112.0
99.462723 32.0
99.642242 132.0
99.669266 76.0
99.814369 68.0
99.828285 196.0
99.915802 208.0
100.134766 180.0
100.252304 128.0
100.298149 200.0
100.405815 136.0
100.539474 192.0
100.603348 160.0
100.629303 148.0
100.711174 128.0
100.835052 204.0
100.877022 236.0
100.905014 140.0
100.973 148.0
101.115051 104.0
101.293251 108.0
101.317284 96.0
101.397438 32.0
101.474121 172.0
101.664162 100.0
101.690254 76.0
101.704308 80.0
101.824768 148.0
102.069939 128.0
102.200684 128.0
102.240929 52.0
102.464439 176.0
102.522873 164.0
102.705421 184.0
102.764839 116.0
102.865746 204.0
102.944489 116.0
103.009117 92.0
103.077812 76.0
103.389236 160.0
103.54512 140.0
103.647743 176.0
103.692116 160.0
103.739639 168.0
103.79641 148.0
104.011459 92.0
104.060181 144.0
104.599678 220.0
104.780144 112.0
104.875923 180.0
104.896301 64.0
105.037003 212.0
105.070724 172.0
105.328896 112.0
105.345238 96.0
105.531219 80.0
105.770569 176.0
105.952827 192.0
106.004051 224.0
106.254196 200.0
106.287025 144.0
106.800621 68.0
106.815018 132.0
106.857353 148.0
106.938477 196.0
106.971405 176.0
106.994049 32.0
107.047768 176.0
107.064812 132.0
107.085983 212.0
107.375252 140.0
107.430946 120.0
107.639404 64.0
107.757133 68.0
107.953499 224.0
108.030029 244.0
108.052544 172.0
108.087868 180.0
108.121063 128.0
108.201797 72.0
108.276337 92.0
108.342621 128.0
108.4711 112.0
108.563988 20.0
108.672264 136.0
108.73037 88.0
108.989944 156.0
109.033577 140.0
109.070992 172.0
109.15831 224.0
109.260231 44.0
109.432968 168.0
109.447548 212.0
109.555847 112.0
109.576675 92.0
109.591263 128.0
109.618347 72.0
109.801804 84.0
109.964539 200.0
110.060471 904.0
110.09613 664.0
110.476471 160.0
110.622955 128.0
110.654358 172.0
110.824013 92.0
111.063095 132.0
111.079781 148.0
111.10556 284.0
111.279144 116.0
111.430367 156.0
111.449272 188.0
111.625839 188.0
111.758354 200.0
111.935165 240.0
111.960434 104.0
112.010986 84.0
112.048904 168.0
112.076294 356.0
112.112282 2924.0
112.160591 64.0
112.261795 136.0
112.297646 44.0
112.363037 184.0
112.377808 200.0
112.411568 244.0
112.449554 132.0
112.555107 176.0
112.798065 228.0
112.842461 84.0
112.865097 96.0
112.875366 188.0
112.969345 188.0
112.99424 196.0
113.112083 208.0
113.252991 100.0
113.316544 156.0
113.422501 208.0
113.439461 120.0
113.505188 92.0
113.609108 132.0
113.638809 168.0
113.776962 128.0
114.027313 188.0
114.137955 124.0
114.17836 72.0
114.20388 200.0
114.244301 116.0
114.442223 44.0
114.497589 152.0
114.548706 72.0
114.593811 164.0
114.717056 140.0
114.813004 92.0
114.998611 40.0
115.323265 168.0
115.475739 140.0
115.605568 212.0
115.742561 196.0
115.808952 120.0
116.027527 180.0
116.095024 168.0
116.175499 156.0
116.261322 84.0
116.426628 64.0
116.463135 176.0
116.712425 172.0
116.811356 148.0
116.862984 64.0
116.942612 144.0
117.059555 132.0
117.086861 148.0
117.190254 168.0
117.269989 172.0
117.332886 180.0
117.606461 104.0
117.714401 144.0
118.003944 160.0
118.12072 164.0
118.399925 120.0
118.473572 212.0
118.575417 76.0
118.681633 124.0
118.905067 132.0
119.048347 192.0
119.072243 144.0
119.306908 76.0
119.467834 112.0
119.570107 152.0
119.604927 136.0
119.71814 156.0
119.818336 148.0
119.931648 204.0
120.171532 156.0
120.280647 256.0
120.317802 192.0
120.372345 132.0
120.573318 136.0
120.608292 120.0
120.921059 256.0
121.06385 144.0
121.319717 184.0
121.387688 172.0
121.976074 192.0
122.028839 176.0
122.048622 128.0
122.064018 60.0
122.098076 156.0
122.417862 20.0
122.64743 164.0
122.821617 128.0
123.045837 304.0
123.081017 200.0
123.272003 144.0
123.30294 192.0
123.433372 100.0
123.53511 148.0
123.661232 128.0
123.721001 76.0
123.873795 220.0
123.991226 156.0
124.026695 144.0
124.051071 116.0
124.075844 384.0
124.112663 1932.0
124.210732 68.0
124.27285 228.0
124.341637 28.0
124.366051 84.0
124.541458 176.0
124.585892 208.0
124.603661 140.0
124.640564 180.0
124.852615 152.0
124.999435 120.0
125.081886 176.0
125.113937 352.0
125.148567 204.0
125.224281 136.0
125.268829 136.0
125.315613 128.0
125.518448 72.0
125.578659 140.0
125.627731 64.0
125.654503 208.0
125.853142 204.0
125.967041 152.0
126.039154 112.0
126.333656 120.0
126.35379 184.0
126.434341 204.0
126.539551 180.0
126.602242 188.0
126.705276 348.0
126.738884 152.0
126.777679 256.0
126.799393 160.0
126.828529 216.0
126.862152 56.0
126.920441 136.0
126.994446 40.0
127.016876 148.0
127.034821 120.0
127.055016 144.0
127.115593 192.0
127.232307 52.0
127.328857 284.0
127.358055 48.0
127.377037 196.0
127.60833 140.0
127.760429 124.0
127.926956 100.0
127.94722 176.0
128.16568 236.0
128.253571 48.0
128.273865 52.0
128.339249 116.0
128.373062 56.0
128.436218 120.0
128.458771 184.0
128.535477 172.0
128.648331 220.0
128.901291 44.0
128.946487 208.0
128.962311 128.0
129.065292 116.0
129.242722 132.0
129.276672 116.0
129.378525 144.0
129.394363 172.0
129.638992 136.0
129.799942 152.0
129.904266 140.0
130.065384 120.0
130.376541 60.0
130.587967 60.0
130.649384 156.0
130.738129 176.0
130.763153 120.0
130.881531 140.0
131.044601 228.0
131.15947 168.0
131.626068 100.0
131.835037 160.0
131.924179 128.0
132.072464 212.0
132.139145 60.0
132.214661 220.0
132.239838 132.0
132.255859 172.0
132.290192 224.0
132.368042 32.0
132.39093 88.0
132.512344 160.0
132.680756 184.0
132.789703 72.0
132.824112 180.0
132.989319 204.0
133.065063 184.0
133.115585 116.0
133.363708 144.0
133.395889 180.0
133.462555 260.0
133.648499 124.0
133.678772 176.0
133.710999 152.0
133.745514 228.0
133.80307 252.0
133.87764 156.0
133.968887 72.0
134.103394 264.0
134.167068 168.0
134.263916 184.0
134.282364 112.0
134.330795 60.0
134.499252 220.0
134.737106 212.0
134.808731 132.0
134.827209 128.0
134.845703 120.0
134.898865 160.0
134.949722 216.0
135.0448 3404.0
135.080124 372.0
135.109314 28.0
135.127823 188.0
135.153275 128.0
135.190292 100.0
135.285187 60.0
135.361588 148.0
135.512146 68.0
135.597885 144.0
135.827423 144.0
135.935104 184.0
136.046829 336.0
136.126816 192.0
136.317307 36.0
136.368439 120.0
136.559082 224.0
136.596298 72.0
136.733582 180.0
136.815048 96.0
136.980621 160.0
137.078232 196.0
137.150482 64.0
137.358002 216.0
137.446655 104.0
137.579697 148.0
137.598373 144.0
137.652069 44.0
137.780533 124.0
137.813248 104.0
137.888016 104.0
138.041122 204.0
138.092178 872.0
138.121841 176.0
138.145233 224.0
138.290298 72.0
138.320724 164.0
138.35585 100.0
138.374573 236.0
138.52211 128.0
138.550217 84.0
138.695511 212.0
138.892471 192.0
138.969879 120.0
139.012527 164.0
139.073135 136.0
139.096619 204.0
139.115387 44.0
139.329102 184.0
139.809616 128.0
139.8629 132.0
140.01593 96.0
140.089813 132.0
140.108856 1112.0
140.223267 144.0
140.376495 96.0
140.411865 144.0
140.444885 88.0
140.468475 76.0
140.494431 208.0
140.591949 192.0
140.606232 104.0
140.768219 128.0
141.061188 176.0
141.120285 216.0
141.203049 140.0
141.359192 180.0
141.617233 120.0
141.657166 224.0
141.717712 188.0
141.75975 128.0
141.844696 124.0
142.04863 160.0
142.074722 144.0
142.126923 144.0
142.319183 168.0
142.509201 36.0
142.585236 92.0
142.601868 204.0
142.628433 116.0
142.653183 184.0
142.820618 208.0
142.853912 168.0
142.894363 144.0
142.937195 152.0
143.122116 156.0
143.19191 68.0
143.22287 120.0
143.241928 132.0
143.395203 184.0
143.437637 132.0
143.568451 216.0
143.5923 132.0
143.649551 164.0
143.763733 196.0
143.801178 112.0
143.826126 144.0
143.935944 184.0
144.057755 232.0
144.258484 196.0
144.418686 156.0
144.442612 104.0
144.471313 212.0
144.500031 84.0
144.629242 124.0
144.648392 160.0
144.691483 156.0
144.909424 136.0
144.942017 200.0
145.023117 112.0
145.06041 144.0
145.103561 140.0
145.177887 32.0
145.221069 140.0
145.367401 156.0
145.453812 160.0
145.477814 240.0
145.720367 96.0
145.828506 196.0
145.941498 180.0
145.972748 172.0
146.035278 156.0
146.073685 116.0
146.10022 88.0
146.23497 152.0
146.353394 124.0
146.487808 236.0
146.5914 92.0
146.625137 160.0
146.66452 236.0
146.805954 204.0
146.830063 140.0
146.849365 100.0
146.938614 204.0
146.98204 76.0
147.069366 108.0
147.266907 104.0
147.404617 64.0
147.610077 164.0
147.658447 208.0
147.745804 244.0
147.776978 216.0
147.847153 180.0
148.086823 156.0
148.123169 116.0
148.4552 260.0
148.479462 172.0
148.510986 112.0
148.540085 116.0
148.637131 148.0
148.714798 52.0
148.781174 268.0
148.802185 164.0
148.83374 200.0
148.865311 208.0
148.921173 132.0
148.944244 216.0
149.05722 168.0
149.134979 68.0
149.40004 176.0
149.716461 160.0
149.757858 96.0
149.871674 172.0
149.886169 156.0
149.957642 60.0
150.008835 112.0
150.111237 108.0
150.238068 124.0
150.372269 164.0
150.545609 272.0
150.567581 184.0
150.6604 152.0
150.777679 84.0
150.82901 108.0
150.921906 136.0
150.961029 108.0
151.040039 4256.0
151.1763 48.0
151.328064 56.0
151.347656 140.0
151.455414 168.0
151.577057 148.0
151.614655 140.0
151.63884 88.0
151.685745 136.0
151.721863 196.0
151.764191 144.0
151.786255 184.0
151.935867 152.0
151.95549 208.0
152.043716 688.0
152.106323 1124.0
152.205856 136.0
152.227951 156.0
152.326187 160.0
152.38269 64.0
152.429382 132.0
152.591599 204.0
152.662903 140.0
152.709641 120.0
152.748993 188.0
152.862167 148.0
152.933533 172.0
153.048233 168.0
153.115738 2196.0
153.157593 148.0
153.19455 80.0
153.221649 68.0
153.280777 84.0
153.322678 80.0
153.395905 60.0
153.746857 184.0
153.769058 128.0
153.94429 188.0
154.085129 140.0
154.122009 584.0
154.218567 104.0
154.255646 196.0
154.361771 372.0
154.468307 176.0
154.557373 52.0
154.584595 156.0
155.312973 112.0
155.370026 60.0
155.38739 120.0
155.690216 248.0
155.809448 196.0
155.849197 168.0
155.879013 124.0
155.921265 100.0
156.029175 208.0
156.095428 208.0
156.234558 116.0
156.274368 204.0
156.368927 136.0
156.406265 184.0
156.548172 152.0
156.764908 200.0
156.784836 156.0
156.920029 152.0
157.01918 84.0
157.136429 152.0
157.283661 136.0
157.326096 132.0
157.528366 124.0
157.545853 88.0
157.643295 132.0
157.753265 112.0
157.780777 132.0
157.865784 236.0
157.918304 132.0
157.973206 244.0
158.176025 192.0
158.323746 136.0
158.363815 152.0
158.669525 52.0
158.762299 112.0
159.04538 736.0
159.078445 104.0
159.337097 268.0
159.495422 116.0
159.955734 124.0
159.980911 52.0
160.050171 172.0
160.104279 152.0
160.126953 124.0
160.194962 128.0
160.351181 140.0
160.441925 156.0
160.61087 180.0
160.65123 72.0
160.774872 128.0
160.908646 148.0
161.017227 184.0
161.036972 172.0
161.062698 344.0
161.118271 160.0
161.381119 76.0
161.42662 148.0
161.725067 116.0
161.90744 104.0
162.039169 160.0
162.097443 152.0
162.267258 164.0
162.307831 108.0
162.508209 200.0
162.6427 132.0
163.041962 180.0
163.242279 88.0
163.616302 104.0
163.644318 152.0
163.730896 152.0
163.769089 124.0
163.983109 196.0
164.00351 144.0
164.054489 168.0
164.112061 140.0
164.143723 212.0
164.258484 272.0
164.322266 156.0
164.347778 168.0
164.613235 176.0
164.730728 152.0
164.781815 156.0
165.069839 644.0
165.53125 204.0
165.559418 128.0
165.643936 136.0
165.682373 220.0
165.715668 200.0
165.925842 116.0
166.081619 460.0
166.323456 144.0
166.343994 140.0
166.377365 192.0
166.562256 160.0
166.700989 104.0
166.75238 48.0
166.801224 136.0
167.085663 388.0
167.300278 124.0
167.483093 72.0
167.565536 212.0
167.666031 120.0
168.054031 208.0
168.087112 320.0
168.419403 192.0
168.514984 104.0
168.60025 184.0
168.620926 144.0
168.693298 192.0
168.848434 176.0
168.943619 180.0
169.064789 380.0
169.096802 148.0
169.122681 104.0
169.272842 140.0
169.337585 48.0
169.438614 156.0
169.583725 88.0
169.70816 108.0
169.754822 236.0
169.833817 176.0
169.879318 116.0
169.964935 92.0
169.985703 184.0
170.011642 120.0
170.076538 124.0
170.11644 308.0
170.263184 188.0
170.35437 180.0
170.406326 224.0
170.455704 156.0
170.744263 92.0
170.928955 100.0
170.978394 100.0
171.053879 80.0
171.082382 272.0
171.1203 156.0
171.191864 176.0
171.376816 176.0
171.577499 144.0
171.621811 116.0
171.653107 124.0
171.687012 48.0
171.765259 172.0
171.788727 136.0
171.927017 124.0
172.052307 176.0
172.386627 160.0
172.411041 164.0
172.489838 220.0
172.556519 112.0
172.585281 140.0
172.709854 120.0
172.763123 228.0
172.972473 48.0
173.011734 156.0
173.090286 224.0
173.289352 204.0
173.347 116.0
173.496399 176.0
173.559311 48.0
173.986969 124.0
174.554489 108.0
174.58342 184.0
174.609726 176.0
174.643906 80.0
174.920197 160.0
175.037552 180.0
175.067642 76.0
175.12294 136.0
175.378525 80.0
175.420685 140.0
175.474594 72.0
175.499786 160.0
175.792572 104.0
175.853271 172.0
175.932465 232.0
176.030151 188.0
176.06279 296.0
176.238831 204.0
176.32338 108.0
176.355103 92.0
176.622162 72.0
176.738556 176.0
176.804718 132.0
176.923828 144.0
177.032379 112.0
177.070404 668.0
177.117126 148.0
177.276093 200.0
177.421875 56.0
177.482849 32.0
177.618103 116.0
177.639328 56.0
177.754227 208.0
177.867538 108.0
178.081116 840.0
178.164948 112.0
178.242004 104.0
178.289825 148.0
178.313751 172.0
178.406784 148.0
178.502502 72.0
178.523773 184.0
178.600891 96.0
178.699326 152.0
178.88562 236.0
179.085068 1040.0
179.383759 96.0
179.46373 112.0
179.810516 164.0
179.879913 168.0
179.922287 160.0
179.943985 176.0
180.055969 188.0
180.103378 1136.0
180.17366 124.0
180.737793 100.0
180.799347 84.0
180.879639 164.0
180.935852 116.0
180.962631 188.0
181.065643 912.0
181.103958 408.0
181.134018 156.0
181.17421 84.0
181.219757 164.0
181.265762 140.0
181.351059 124.0
181.375183 76.0
181.471695 148.0
181.643326 156.0
181.662109 60.0
181.948807 144.0
181.95697 64.0
182.062027 136.0
182.129166 92.0
182.228561 128.0
182.431519 208.0
182.508087 88.0
182.604904 188.0
182.69635 148.0
182.755539 160.0
182.790527 104.0
183.081696 560.0
183.135117 52.0
183.178207 96.0
183.385696 124.0
183.531265 272.0
183.582504 104.0
183.609467 56.0
183.714661 108.0
183.865753 168.0
183.925552 184.0
184.092484 120.0
184.189758 60.0
184.219467 216.0
184.24649 88.0
184.368073 124.0
184.4897 96.0
184.527557 124.0
184.72226 152.0
184.741196 232.0
184.814255 112.0
185.000992 88.0
185.028061 204.0
185.052429 168.0
185.099091 180.0
185.20137 144.0
185.320572 112.0
185.353088 120.0
185.629578 64.0
185.672958 164.0
185.800446 88.0
185.879135 116.0
185.925262 164.0
186.012115 112.0
186.06369 176.0
186.088135 180.0
186.107132 124.0
186.134293 344.0
186.316269 160.0
186.360657 224.0
186.411362 196.0
186.541824 132.0
186.685303 124.0
187.043457 136.0
187.072266 136.0
187.183899 120.0
187.211136 140.0
187.373108 128.0
187.453583 160.0
187.479218 196.0
187.505356 124.0
187.61438 124.0
187.677094 180.0
187.698898 148.0
187.87767 140.0
187.91983 100.0
188.097229 64.0
188.239197 80.0
188.679092 172.0
188.755646 136.0
188.826752 152.0
188.947098 156.0
189.053528 216.0
189.10582 136.0
189.365921 136.0
189.592117 156.0
189.764587 140.0
190.021072 124.0
190.064453 128.0
190.07077 104.0
190.079391 140.0
190.174744 124.0
190.314743 196.0
190.394379 184.0
190.520721 212.0
190.572922 64.0
190.751556 148.0
190.999039 152.0
191.033203 320.0
191.080963 200.0
191.362289 140.0
191.425613 48.0
191.513748 128.0
191.656998 148.0
191.679047 164.0
191.816849 52.0
191.885757 140.0
191.927124 120.0
192.048325 156.0
192.096237 224.0
192.160355 160.0
192.197433 88.0
192.401672 136.0
192.434799 80.0
192.641922 236.0
192.735855 204.0
192.918274 224.0
193.006744 124.0
193.057831 152.0
193.102783 172.0
193.258438 128.0
193.441101 180.0
193.463242 148.0
193.507538 220.0
193.557373 120.0
193.820526 124.0
193.83992 104.0
193.898117 112.0
194.017303 160.0
194.073837 2736.0
194.463898 84.0
194.52774 196.0
194.572159 132.0
194.716553 104.0
194.916565 172.0
194.972137 52.0
195.013824 80.0
195.078339 940.0
195.194534 116.0
195.322464 144.0
195.392014 44.0
195.528351 84.0
195.556183 136.0
195.65361 192.0
195.851318 108.0
195.873611 64.0
196.007339 116.0
196.088745 1328.0
196.146683 152.0
196.213577 136.0
196.235886 52.0
196.272141 224.0
196.456207 132.0
196.521454 208.0
196.612457 96.0
196.634781 140.0
196.743652 152.0
196.805817 148.0
196.995407 196.0
197.063889 288.0
197.095734 324.0
197.134674 136.0
197.162628 116.0
197.210129 36.0
197.33313 184.0
197.565262 228.0
197.626816 144.0
197.705154 152.0
197.755539 156.0
197.805923 96.0
197.973907 204.0
198.070633 112.0
198.117767 476.0
198.237228 144.0
198.357742 124.0
198.556824 116.0
198.719513 40.0
198.817719 116.0
198.893509 112.0
198.9328 160.0
199.031067 172.0
199.078598 420.0
199.116928 264.0
199.160248 116.0
199.182724 176.0
199.252945 192.0
199.449661 64.0
199.702713 140.0
199.85463 160.0
199.919983 140.0
199.991028 212.0
200.054443 56.0
200.079498 156.0
200.119202 136.0
200.178329 148.0
200.302246 160.0
200.389572 100.0
200.423386 124.0
200.522095 156.0
200.575577 112.0
200.682693 196.0
200.849091 80.0
200.959106 96.0
201.083267 40.0
201.230057 208.0
201.536789 360.0
201.611389 164.0
201.817734 152.0
202.143021 212.0
202.174149 108.0
202.284454 132.0
202.310013 92.0
202.411942 88.0
202.491226 116.0
202.754715 56.0
202.86525 212.0
202.887924 76.0
202.961639 140.0
202.992844 176.0
203.02562 172.0
203.052261 168.0
203.137482 120.0
203.262314 140.0
203.45816 100.0
203.580246 80.0
203.929688 132.0
204.196945 156.0
204.416 144.0
204.697815 156.0
204.882935 196.0
204.999756 36.0
205.065323 1016.0
205.110916 124.0
205.213547 128.0
205.287674 204.0
205.447403 200.0
205.493042 152.0
205.570084 68.0
205.681396 80.0
205.832703 48.0
206.041214 80.0
206.074478 452.0
206.158356 196.0
206.498566 44.0
206.990784 96.0
207.080185 404.0
207.188416 80.0
207.391861 212.0
207.431992 108.0
207.535202 148.0
207.738831 116.0
208.061325 328.0
208.085815 720.0
208.215286 60.0
208.402008 100.0
208.551437 60.0
208.597427 28.0
208.864853 64.0
208.908005 32.0
208.931015 88.0
209.059296 292.0
209.097565 4108.0
209.146835 148.0
209.210159 168.0
209.267746 76.0
209.293655 76.0
209.587448 120.0
209.619141 248.0
209.699844 100.0
209.734421 76.0
209.904526 244.0
210.016998 136.0
210.062531 208.0
210.100143 764.0
210.135269 68.0
210.224716 208.0
210.289566 76.0
210.46431 64.0
210.496063 268.0
210.704025 116.0
211.077225 1468.0
211.114075 1188.0
211.152069 152.0
211.244614 48.0
211.392181 104.0
211.473206 148.0
211.542679 108.0
211.597687 144.0
211.762741 168.0
211.785904 52.0
211.84964 144.0
211.869919 84.0
212.08168 720.0
212.135239 220.0
212.211899 200.0
212.232193 40.0
212.281494 164.0
212.307587 148.0
212.339493 136.0
212.559967 216.0
212.588013 72.0
212.746475 244.0
213.088882 788.0
213.166855 144.0
213.352875 124.0
213.63205 124.0
213.690231 144.0
213.771713 112.0
214.039505 128.0
214.092697 152.0
214.121048 144.0
214.30748 124.0
214.406555 156.0
214.741837 224.0
214.803085 164.0
214.922699 172.0
214.957718 200.0
214.982559 168.0
215.119995 172.0
215.448227 72.0
215.620621 144.0
215.807709 156.0
215.860336 160.0
216.041672 172.0
216.111893 136.0
216.228943 100.0
216.299179 152.0
216.73848 68.0
216.873291 148.0
216.911392 164.0
217.069702 156.0
217.254486 236.0
217.347107 196.0
217.52446 212.0
217.774048 228.0
217.809296 168.0
217.906235 136.0
218.070419 128.0
218.132523 72.0
218.232468 144.0
218.323624 120.0
218.387924 144.0
218.608978 124.0
218.807526 168.0
218.838577 64.0
218.885681 164.0
219.144882 160.0
219.295166 168.0
219.354126 172.0
219.436676 64.0
219.501541 48.0
219.728653 240.0
220.087509 160.0
220.218658 152.0
220.254105 116.0
220.327957 128.0
220.567322 240.0
220.789062 108.0
220.830475 108.0
221.000336 132.0
221.061264 852.0
221.097565 336.0
221.194412 188.0
221.3069 68.0
221.395737 152.0
221.422394 140.0
221.499405 144.0
221.523102 124.0
221.546799 128.0
221.573456 164.0
221.67717 60.0
221.697906 104.0
221.736435 52.0
221.869827 160.0
221.958771 284.0
222.070053 668.0
222.108597 172.0
222.184174 96.0
222.332535 188.0
222.507675 188.0
222.584869 140.0
222.623474 144.0
222.736328 56.0
222.854477 156.0
223.036438 76.0
223.078094 588.0
223.108826 436.0
223.244553 104.0
223.286194 152.0
223.351624 92.0
223.460495 228.0
223.547974 124.0
223.580719 160.0
223.601547 120.0
223.691223 92.0
223.753357 28.0
223.809921 100.0
223.83374 128.0
223.884369 160.0
223.9767 80.0
224.084747 2444.0
224.140549 160.0
224.179291 124.0
224.218033 68.0
224.328308 220.0
224.444595 152.0
224.507202 184.0
224.736893 152.0
224.808502 84.0
224.865204 96.0
224.999802 184.0
225.087494 1124.0
225.121948 84.0
225.196609 140.0
225.387802 212.0
225.567123 56.0
225.61496 72.0
225.767441 168.0
225.821274 28.0
225.878113 124.0
225.905029 56.0
226.032745 44.0
226.098145 304.0
226.228226 172.0
226.368942 148.0
226.466095 200.0
226.563629 112.0
226.602722 156.0
226.881287 140.0
226.938248 164.0
227.023132 144.0
227.070847 2052.0
227.108215 4732.0
227.166183 188.0
227.274185 112.0
227.304184 164.0
227.394211 64.0
227.426865 160.0
227.574326 36.0
227.63739 80.0
227.658401 120.0
227.694443 164.0
227.8927 100.0
228.077484 400.0
228.109924 608.0
228.160187 120.0
228.184235 64.0
228.298492 60.0
228.448883 104.0
228.574219 176.0
228.804001 164.0
228.828079 84.0
228.903351 80.0
228.927444 220.0
229.044907 120.0
229.087082 120.0
229.10817 112.0
229.130707 112.0
229.159378 44.0
229.246765 144.0
229.385406 160.0
229.412537 192.0
229.596832 164.0
229.644714 104.0
229.768387 136.0
229.864944 72.0
229.913223 80.0
229.961517 128.0
230.015839 208.0
230.039993 88.0
230.115463 224.0
230.221146 52.0
230.338943 164.0
230.375183 184.0
230.48999 152.0
230.583679 120.0
230.698669 172.0
230.743881 80.0
230.84668 124.0
230.878693 164.0
230.940445 252.0
231.227859 144.0
231.367096 144.0
231.64267 140.0
231.742645 188.0
231.906296 120.0
232.100311 56.0
232.226257 140.0
232.579636 248.0
232.889343 104.0
233.071609 148.0
233.278275 96.0
233.345169 236.0
233.4151 168.0
233.749695 172.0
233.804474 176.0
233.903519 192.0
233.953613 252.0
234.069321 48.0
234.203308 60.0
234.395248 32.0
234.514099 196.0
234.556763 88.0
234.63298 116.0
234.70311 80.0
234.770187 184.0
234.890182 188.0
234.925735 188.0
234.974548 108.0
235.011169 112.0
235.07608 780.0
235.197327 124.0
235.334702 48.0
235.395767 120.0
235.466003 60.0
235.527084 204.0
235.606506 124.0
235.866257 48.0
236.083221 416.0
236.281601 112.0
236.416779 92.0
236.560638 80.0
236.640228 284.0
236.732086 112.0
236.753525 140.0
236.806747 144.0
236.836212 80.0
236.90361 144.0
236.983261 344.0
237.05014 348.0
237.093475 20420.0
237.150665 228.0
237.184402 164.0
237.227753 72.0
237.291199 68.0
237.320419 48.0
237.369476 52.0
237.402176 56.0
237.461472 52.0
237.519745 196.0
237.557068 48.0
237.588715 224.0
237.633865 40.0
237.755997 96.0
237.777481 72.0
237.811234 212.0
237.838867 128.0
237.88797 108.0
237.921738 64.0
237.959671 188.0
238.010788 160.0
238.059097 120.0
238.095459 3940.0
238.148438 92.0
238.17247 216.0
238.195053 60.0
238.302567 72.0
238.367096 40.0
238.403976 64.0
238.586807 140.0
238.611679 160.0
238.700943 172.0
238.726761 68.0
238.785187 132.0
238.840546 56.0
238.954376 160.0
239.072235 4680.0
239.108124 5140.0
239.172195 148.0
239.274445 48.0
239.32515 68.0
239.400681 52.0
239.425323 132.0
239.477676 60.0
239.502319 152.0
239.526962 112.0
239.705658 120.0
239.745712 132.0
239.807358 48.0
239.850739 172.0
239.881332 88.0
239.921402 112.0
239.990143 148.0
240.003113 80.0
240.012589 188.0
240.034164 156.0
240.07901 2612.0
240.109222 1196.0
240.288406 216.0
240.340851 220.0
240.406921 136.0
240.448853 92.0
240.484741 160.0
240.603195 176.0
240.664185 148.0
240.735016 156.0
240.794632 72.0
240.916824 144.0
240.992554 56.0
241.083725 1768.0
241.136002 196.0
241.196304 152.0
241.26741 184.0
241.316757 108.0
241.344696 188.0
241.40036 64.0
241.646469 148.0
241.688019 88.0
241.718964 108.0
241.811813 64.0
241.910858 92.0
241.988144 116.0
242.089157 480.0
242.201935 116.0
242.480774 36.0
242.880753 56.0
243.101028 168.0
243.163086 36.0
243.557404 60.0
243.781097 136.0
244.163483 124.0
244.303452 128.0
244.390564 200.0
244.583496 64.0
244.782745 148.0
244.838806 176.0
244.879288 112.0
244.966507 132.0
245.031921 148.0
245.069321 72.0
245.097351 196.0
245.580566 128.0
245.899216 152.0
246.125229 156.0
246.475784 192.0
246.615021 164.0
246.842255 140.0
246.88916 88.0
246.986115 172.0
247.083084 160.0
247.201981 228.0
247.699783 80.0
247.749908 176.0
247.937912 212.0
248.079758 280.0
248.173004 184.0
248.220032 172.0
248.514877 136.0
249.056503 144.0
249.091812 296.0
249.167923 168.0
249.318741 56.0
249.485336 64.0
249.573364 124.0
249.607956 68.0
249.658264 128.0
249.686569 192.0
249.777786 192.0
249.875305 84.0
249.900467 168.0
250.060959 164.0
250.099823 252.0
250.28447 96.0
250.536423 172.0
250.725479 100.0
251.070831 324.0
251.107437 1108.0
251.308838 108.0
251.378265 124.0
251.542374 44.0
251.665497 108.0
251.892883 156.0
252.078796 940.0
252.249954 108.0
252.37326 76.0
252.417526 72.0
252.58197 168.0
252.629425 188.0
252.692184 172.0
252.810425 136.0
252.939529 184.0
253.087036 1936.0
253.138992 140.0
253.167496 64.0
253.313187 80.0
253.395554 144.0
253.48111 148.0
253.664932 44.0
253.699799 64.0
253.725159 108.0
253.956635 164.0
253.98201 56.0
254.029602 92.0
254.096161 14868.0
254.151505 112.0
254.172104 216.0
254.223129 48.0
254.281311 60.0
254.343201 164.0
254.37439 140.0
254.408447 52.0
254.48024 204.0
254.515167 60.0
254.556458 72.0
254.581848 120.0
254.613068 116.0
254.661774 72.0
254.693008 140.0
254.75972 40.0
254.813721 44.0
255.026642 120.0
255.098801 4420.0
255.139603 52.0
255.152664 148.0
255.217377 68.0
255.550552 48.0
255.618164 40.0
255.812302 128.0
255.872787 40.0
255.923737 88.0
255.974686 96.0
256.102112 388.0
256.135315 220.0
256.23587 68.0
256.302765 116.0
256.411102 108.0
256.567291 100.0
256.611938 180.0
256.726715 88.0
256.767883 176.0
256.828796 104.0
256.870239 168.0
256.924469 64.0
256.960724 112.0
257.036163 100.0
257.216705 180.0
257.307892 204.0
257.441559 108.0
257.537354 168.0
257.751404 88.0
257.776978 208.0
258.058258 160.0
258.137451 192.0
258.458649 156.0
258.534851 164.0
258.666077 180.0
258.976685 160.0
259.290649 96.0
259.409241 76.0
259.733124 76.0
259.922394 84.0
260.179169 160.0
260.436066 136.0
260.50351 104.0
260.538849 156.0
260.934143 164.0
261.060883 144.0
261.159241 180.0
261.278259 140.0
261.703094 172.0
262.466736 100.0
262.582825 140.0
262.651093 72.0
262.73764 200.0
262.850586 160.0
263.070251 356.0
263.199188 160.0
263.725769 112.0
263.822723 200.0
263.906799 132.0
264.079834 680.0
264.156708 72.0
264.298157 88.0
264.414642 124.0
264.442474 148.0
264.513855 180.0
264.65097 200.0
264.735138 172.0
264.819366 176.0
264.995087 180.0
265.038757 104.0
265.088409 3816.0
265.282715 184.0
265.303925 192.0
265.37674 108.0
265.426178 224.0
265.512909 96.0
265.542114 136.0
265.658875 168.0
265.691315 96.0
265.831421 164.0
265.892487 148.0
265.947662 56.0
266.093597 1012.0
266.16626 156.0
266.301575 140.0
266.447754 40.0
266.47049 204.0
266.610229 32.0
266.649231 292.0
266.693054 76.0
266.782471 76.0
266.837738 140.0
266.86377 80.0
266.904602 136.0
266.961304 80.0
267.040344 172.0
267.071472 348.0
267.102814 4600.0
267.169464 32.0
267.192261 148.0
267.348419 144.0
267.371216 200.0
267.875885 52.0
267.983398 48.0
268.032257 116.0
268.074249 1616.0
268.108582 964.0
268.221283 144.0
268.302795 60.0
268.325592 68.0
268.374512 224.0
268.61911 120.0
268.652924 148.0
268.811584 132.0
269.075928 180.0
269.111053 204.0
269.159302 116.0
269.190247 44.0
269.307831 216.0
269.389496 144.0
269.494019 192.0
269.582581 124.0
269.716248 92.0
269.853546 184.0
269.886261 104.0
270.071869 164.0
270.118439 88.0
270.151154 60.0
270.180603 184.0
270.217926 168.0
270.484924 44.0
270.661713 168.0
270.858215 88.0
270.979431 152.0
271.334656 52.0
271.355804 124.0
271.431732 140.0
271.723297 188.0
271.812256 180.0
271.92807 156.0
272.179871 104.0
272.307953 224.0
272.521484 176.0
272.98822 120.0
273.057281 172.0
273.202026 156.0
273.350067 72.0
273.419189 52.0
273.527802 112.0
273.702301 120.0
273.751678 152.0
273.890015 220.0
273.965759 312.0
274.051422 128.0
274.321655 144.0
274.348053 44.0
274.819672 60.0
275.073761 136.0
275.195923 80.0
275.622009 172.0
275.674866 104.0
275.988892 200.0
276.035919 200.0
276.107941 56.0
276.220398 216.0
276.445374 104.0
276.915466 192.0
277.018158 132.0
277.086639 692.0
277.124176 200.0
277.166931 160.0
277.614746 160.0
277.830353 200.0
277.890076 144.0
277.956421 192.0
278.01947 112.0
278.091125 480.0
278.155548 168.0
278.178772 128.0
278.381805 136.0
278.600525 136.0
278.882965 48.0
279.022583 140.0
279.096039 296.0
279.331848 128.0
279.381744 64.0
279.578064 164.0
279.664612 52.0
279.936737 156.0
280.073914 588.0
280.22406 40.0
280.320679 116.0
280.347321 148.0
280.403992 192.0
280.557312 84.0
280.604004 124.0
280.63028 172.0
280.657349 40.0
280.777374 184.0
280.864105 68.0
280.890778 112.0
280.977509 160.0
281.081848 3732.0
281.134338 112.0
281.157715 96.0
281.257843 68.0
281.461487 164.0
281.532593 200.0
281.561646 180.0
281.655182 136.0
281.904663 176.0
281.929138 120.0
281.975311 136.0
282.089874 8136.0
282.17984 180.0
282.218353 116.0
282.310028 136.0
282.39386 100.0
282.468109 252.0
282.490753 164.0
282.529724 128.0
282.57663 112.0
282.617828 88.0
282.629944 132.0
282.693115 160.0
282.744324 184.0
282.806824 192.0
282.835266 116.0
282.875671 152.0
282.957947 152.0
282.970398 188.0
282.980682 140.0
282.994049 220.0
283.032227 208.0
283.098969 81060.0
283.189911 88.0
283.224365 176.0
283.266541 72.0
283.325195 100.0
283.38327 204.0
283.436157 56.0
283.476318 236.0
283.528809 136.0
283.577026 164.0
283.609467 244.0
283.650146 688.0
283.697205 184.0
283.725159 48.0
283.741638 40.0
283.76593 132.0
283.830933 156.0
283.903381 124.0
283.945984 208.0
284.030151 184.0
284.102234 23948.0
284.186035 100.0
284.224243 208.0
284.282562 104.0
284.310974 88.0
284.347961 156.0
284.380676 44.0
284.407532 76.0
284.46933 68.0
284.504883 44.0
284.671143 76.0
284.723999 124.0
284.785461 152.0
284.839813 124.0
284.895905 136.0
284.934418 88.0
284.946838 80.0
285.001923 68.0
285.058472 92.0
285.104492 1940.0
285.211639 100.0
285.255768 136.0
285.301056 48.0
285.35849 92.0
285.421295 84.0
285.446777 220.0
285.478241 60.0
285.607056 72.0
285.644043 72.0
285.681061 52.0
285.690186 124.0
285.767151 128.0
285.800537 104.0
285.840942 108.0
285.906494 100.0
285.946869 108.0
285.975922 76.0
285.997772 180.0
286.03775 176.0
286.063934 292.0
286.109253 132.0
286.162445 104.0
286.18396 224.0
286.230103 124.0
286.240692 100.0
286.25647 108.0
286.329224 84.0
286.381195 52.0
286.433533 156.0
286.484009 180.0
286.550659 116.0
286.600159 60.0
286.724854 64.0
286.852936 108.0
286.943939 96.0
286.981049 124.0
287.072083 64.0
287.11377 144.0
287.149658 64.0
287.173248 112.0
287.196869 96.0
287.227234 80.0
287.393921 48.0
287.421326 60.0
287.455597 128.0
287.861725 136.0
287.915741 52.0
287.952881 84.0
288.023834 92.0
288.246796 72.0
288.307617 76.0
288.376221 136.0
288.432678 132.0
288.544617 156.0
288.868896 72.0
288.970367 72.0
289.203857 136.0
289.413757 52.0
289.810028 148.0
289.969299 176.0
290.009979 100.0
290.193024 28.0
290.233734 156.0
290.257446 36.0
290.807037 92.0
291.156738 140.0
291.28241 92.0
291.425079 80.0
291.571198 184.0
291.649384 100.0
291.710541 136.0
291.955353 132.0
292.355896 76.0
292.424835 156.0
292.639313 68.0
292.666534 180.0
292.765289 108.0
292.971436 92.0
293.037781 140.0
293.075684 300.0
293.160461 84.0
293.238831 148.0
293.310425 120.0
293.436554 88.0
293.514984 164.0
293.77417 140.0
293.875488 184.0
294.084808 116.0
294.170013 136.0
294.231476 36.0
294.275848 96.0
294.313416 236.0
294.398773 120.0
294.524933 68.0
294.600281 116.0
294.66861 192.0
294.747742 124.0
294.783081 100.0
294.81897 212.0
294.891876 164.0
294.962036 376.0
295.019836 160.0
295.098969 64620.0
295.152252 108.0
295.167206 184.0
295.238159 84.0
295.293823 160.0
295.322998 56.0
295.349915 180.0
295.404205 284.0
295.47641 180.0
295.541199 76.0
295.579742 84.0
295.605499 48.0
295.63208 60.0
295.666168 260.0
295.762909 52.0
295.795258 244.0
295.824921 104.0
295.856354 188.0
295.891815 288.0
295.918457 128.0
295.953857 144.0
295.987427 192.0
296.026123 76.0
296.10144 13332.0
296.194366 84.0
296.296783 96.0
296.323059 128.0
296.36908 96.0
296.401703 84.0
296.427307 52.0
296.475311 84.0
296.49826 80.0
296.521515 156.0
296.559418 88.0
296.62674 144.0
296.706726 60.0
296.780365 136.0
296.814667 44.0
296.848938 44.0
296.886688 60.0
296.934692 68.0
297.044434 68.0
297.10437 1344.0
297.154572 172.0
297.221405 96.0
297.365021 56.0
297.440063 68.0
297.484741 116.0
297.52832 300.0
297.579803 80.0
297.627869 68.0
297.665924 84.0
297.780792 68.0
297.830505 56.0
297.868286 228.0
298.002258 56.0
298.086304 880.0
298.215302 40.0
298.288879 160.0
298.343414 120.0
298.541931 68.0
298.565979 88.0
298.610687 48.0
298.648529 56.0
298.679474 92.0
298.734528 40.0
298.762482 32.0
298.848053 36.0
298.962708 136.0
299.000397 132.0
299.054535 28.0
299.094147 260.0
299.119934 36.0
299.144012 128.0
299.29895 52.0
299.333374 52.0
299.38504 48.0
299.639923 60.0
299.743286 152.0
299.894928 76.0
300.005219 36.0
300.194855 64.0
300.446655 28.0
300.751221 144.0
300.83316 120.0
301.302826 112.0
301.745178 140.0
301.790131 92.0
302.132538 104.0
302.184418 76.0
302.222473 52.0
302.547821 96.0
302.804047 52.0
303.147003 160.0
303.673981 48.0
303.698242 112.0
304.15625 136.0
304.475677 192.0
304.631989 64.0
305.073212 128.0
305.09613 284.0
305.514954 60.0
306.094208 124.0
306.716339 176.0
306.820923 108.0
306.862732 84.0
307.090759 184.0
307.36499 104.0
307.944519 72.0
308.018921 212.0
308.047638 136.0
308.07251 192.0
308.101685 160.0
308.398712 120.0
309.079559 360.0
309.112152 196.0
309.159851 132.0
309.34314 200.0
309.987579 136.0
310.084198 188.0
310.618652 48.0
310.927399 88.0
310.979431 156.0
312.283539 136.0
313.385376 72.0
313.554535 80.0
313.653229 112.0
314.08078 172.0
314.111603 36.0
314.665649 80.0
314.746857 108.0
315.025879 68.0
315.078461 136.0
315.428711 60.0
316.061768 136.0
316.231628 48.0
316.33075 96.0
316.451111 128.0
316.904449 232.0
317.074554 64.0
318.199005 96.0
318.408508 88.0
319.275635 68.0
319.510406 64.0
320.589264 164.0
320.888672 100.0
321.066956 160.0
321.09906 128.0
321.412994 84.0
321.744904 144.0
321.798462 156.0
322.111298 328.0
322.194885 168.0
322.230621 68.0
322.327087 204.0
322.366394 140.0
322.806091 100.0
322.877594 96.0
322.906219 152.0
322.931244 88.0
322.992065 116.0
323.031403 176.0
323.092316 9820.0
323.140503 232.0
323.183472 196.0
323.219238 40.0
323.264862 220.0
323.33194 56.0
323.408905 160.0
323.487457 116.0
323.525238 100.0
323.568207 52.0
323.729309 48.0
323.826019 84.0
323.901245 32.0
323.940643 148.0
323.990967 84.0
324.038513 88.0
324.095673 1904.0
324.367065 44.0
324.453094 36.0
324.56424 56.0
324.965942 48.0
325.096558 820.0
325.380066 124.0
325.694702 100.0
325.788086 32.0
325.928192 32.0
326.082733 176.0
326.118683 248.0
326.151031 68.0
326.280426 104.0
326.348755 156.0
326.460205 60.0
326.841492 84.0
327.302246 44.0
328.37973 164.0
328.794617 84.0
329.401215 60.0
331.311249 60.0
331.550385 152.0
331.981781 152.0
332.224792 28.0
332.2901 172.0
332.751007 48.0
333.037903 80.0
333.662903 76.0
333.979279 108.0
334.110229 152.0
334.481415 124.0
335.158783 132.0
335.315491 80.0
335.727448 88.0
335.971832 164.0
336.427979 112.0
336.690887 132.0
337.257172 104.0
337.567932 112.0
337.615479 144.0
338.050781 108.0
338.100739 216.0
338.493713 36.0
338.669495 48.0
338.892975 40.0
338.971008 108.0
339.057861 140.0
339.387787 132.0
339.483276 184.0
339.523468 100.0
339.607819 112.0
339.725189 156.0
339.783875 128.0
339.860992 212.0
339.894409 164.0
339.948517 184.0
340.009277 348.0
340.11911 26888.0
340.197632 172.0
340.231018 116.0
340.266266 184.0
340.332214 124.0
340.40564 172.0
340.458649 68.0
340.592224 80.0
340.638519 60.0
340.696503 92.0
340.734741 84.0
340.776367 128.0
340.829376 96.0
340.878662 120.0
340.958893 60.0
341.014038 76.0
341.121918 6124.0
341.194153 92.0
341.229156 48.0
341.282379 52.0
341.308105 52.0
341.333496 40.0
341.385345 120.0
341.466248 60.0
341.614288 80.0
341.661652 64.0
341.743225 68.0
341.863556 48.0
341.933472 48.0
342.053284 88.0
342.120331 540.0
342.231659 52.0
342.361694 76.0
342.408417 56.0
342.459961 40.0
342.588898 52.0
342.63678 48.0
342.758362 56.0
342.87262 112.0
343.056915 124.0
343.130493 180.0
343.254944 84.0
343.318695 64.0
343.385071 136.0
343.463867 120.0
343.494171 124.0
343.519867 140.0
343.573181 116.0
343.625763 96.0
343.761353 92.0
344.11203 96.0
344.222778 56.0
344.300323 36.0
344.403748 128.0
344.474579 68.0
344.629089 40.0
344.69931 76.0
344.732544 92.0
344.939514 52.0
345.091095 96.0
345.216827 60.0
345.71991 96.0
346.123413 204.0
346.160431 96.0
346.808777 84.0
347.802795 52.0
349.350922 52.0
349.482544 116.0
350.297852 68.0
350.577301 92.0
352.119476 2384.0
352.241302 32.0
353.119141 492.0
353.35907 120.0
353.470734 76.0
354.133789 96.0
354.212616 80.0
354.280029 68.0
355.134674 104.0
355.468567 116.0
355.547363 56.0
355.832642 120.0
356.862091 60.0
357.008728 48.0
358.601227 92.0
358.740692 80.0
359.449738 112.0
359.559174 32.0
359.664856 36.0
359.878937 136.0
360.635559 32.0
363.688385 112.0
365.371765 152.0
366.129242 124.0
366.167328 128.0
366.578766 160.0
367.619781 112.0
368.028229 48.0
368.838135 68.0
369.606812 40.0
370.18866 156.0
372.217163 144.0
374.43988 80.0
374.624786 100.0
376.036011 140.0
376.279205 108.0
377.167694 296.0
377.27594 168.0
378.761871 100.0
378.870331 68.0
379.176453 184.0
380.145966 156.0
382.874969 108.0
382.987915 80.0
386.802765 132.0
387.146271 100.0
387.542938 72.0
389.092133 52.0
389.190277 132.0
390.290436 44.0
391.569366 52.0
391.93573 64.0
393.083191 84.0
395.220856 88.0
396.76944 72.0
396.916138 92.0
397.491302 44.0
397.927917 40.0
398.090698 60.0
398.348877 168.0
399.65683 156.0
400.186218 84.0
404.190582 148.0
404.233612 108.0
405.166504 288.0
406.174286 292.0
407.143982 96.0
407.196198 112.0
408.19281 108.0
408.397919 160.0
408.908875 64.0
410.746185 40.0
411.973328 32.0
413.339874 96.0
413.67984 100.0
415.957794 172.0
424.603851 64.0
424.759705 160.0
425.950104 104.0
426.788483 48.0
430.026367 84.0
430.381409 56.0
431.885651 64.0
432.092468 48.0
432.816803 80.0
432.866486 84.0
433.230957 88.0
433.624573 40.0
433.686157 140.0
433.761353 108.0
433.931335 44.0
433.960358 184.0
434.101349 140.0
434.197937 10720.0
434.337738 32.0
434.466339 88.0
434.510529 116.0
434.565887 60.0
434.719421 100.0
434.81073 56.0
434.868835 68.0
434.945923 132.0
435.051453 64.0
435.105438 132.0
435.201294 4044.0
435.3172 48.0
435.371185 68.0
435.450073 68.0
435.582764 72.0
435.628693 108.0
435.661926 120.0
435.832245 60.0
435.886261 128.0
435.940308 40.0
435.981842 152.0
436.110687 136.0
436.203186 916.0
436.350311 100.0
436.393372 48.0
436.659485 76.0
436.904907 132.0
437.129578 76.0
437.197449 276.0
437.591614 100.0
437.654053 92.0
437.812286 72.0
437.896179 144.0
437.941406 148.0
438.012207 116.0
438.15802 76.0
438.337158 52.0
438.441345 96.0
438.524689 132.0
439.308594 116.0
439.863586 36.0
440.732269 44.0
440.920319 52.0
442.112183 48.0
442.304718 64.0
443.25119 88.0
445.235382 64.0
447.6745 84.0
448.163116 68.0
448.782715 60.0
448.875458 56.0
449.955597 96.0
450.48349 76.0
451.599365 80.0
454.39093 88.0
455.116699 88.0
455.626343 104.0
457.301727 84.0
459.568787 172.0
461.97406 96.0
462.194641 172.0
462.299255 48.0
463.189667 168.0
463.335419 32.0
465.303925 144.0
465.557251 68.0
470.979553 84.0
471.874084 68.0
479.291718 144.0
480.669617 56.0
481.324341 112.0
482.259247 116.0
485.135071 96.0
488.129395 48.0
490.753662 56.0
491.424072 80.0
494.225311 48.0
494.327087 104.0
499.251099 52.0
500.194336 140.0
502.681213 64.0
504.548187 100.0
505.29953 72.0
510.808441 68.0
510.902893 92.0
513.23584 64.0
516.12561 52.0
517.00769 64.0
518.706116 36.0
529.371887 48.0
529.596252 112.0
532.784302 116.0
535.25415 72.0
537.374329 100.0
542.262085 72.0
543.866882 76.0
552.534363 92.0
553.114624 44.0
561.992004 136.0
565.971741 80.0
569.851501 76.0
574.593445 64.0
578.718018 80.0
580.025879 132.0
581.056885 32.0
582.521057 40.0
589.521606 76.0
591.562683 60.0
595.728149 88.0
597.074524 52.0
597.950256 28.0
600.161804 52.0
601.005615 60.0
604.30365 100.0
605.360901 92.0
606.96814 100.0
615.238708 80.0
617.570984 32.0
617.620483 44.0
619.159668 52.0
619.263672 76.0
621.524231 56.0
629.423584 112.0
633.800293 56.0
633.875427 108.0
635.459839 100.0
635.515015 104.0
639.62085 52.0
648.981995 104.0
649.565186 60.0
654.148682 76.0
658.589905 116.0
661.386719 56.0
662.518372 104.0
669.014648 80.0
678.603271 76.0
679.98822 104.0
683.891479 84.0
689.71759 92.0
689.937195 164.0
696.198486 108.0
702.403687 44.0
702.809937 92.0
718.274536 48.0
726.850464 112.0
728.831787 32.0
731.079468 76.0
731.989197 52.0
735.898315 68.0
741.345215 68.0
749.730408 132.0
750.308167 60.0
756.327942 72.0
757.006836 128.0
761.388428 40.0
772.27887 44.0
773.806152 68.0
774.033203 88.0
778.152771 52.0
781.376221 116.0
782.01062 88.0
783.29126 48.0
808.857727 56.0
817.279602 56.0
820.548767 92.0
821.963257 44.0
822.10022 152.0
824.898804 100.0
828.693054 76.0
829.925293 204.0
831.617615 56.0
838.916931 52.0
839.643433 72.0
853.163635 40.0
862.911255 76.0
879.677734 100.0
881.195435 108.0
891.368835 92.0
891.642151 216.0
893.116638 164.0
895.908386 156.0
896.468445 164.0
897.028687 76.0
903.096252 116.0
925.530151 128.0
936.168701 176.0
938.154968 92.0
940.888 32.0
943.252075 116.0
944.982727 52.0
945.380432 192.0
951.835205 72.0
952.099243 68.0
952.222107 64.0
954.539856 124.0
964.402649 44.0
964.575745 80.0
969.620056 88.0
970.766907 64.0
979.897644 176.0
980.695312 208.0
981.493225 132.0
988.708191 48.0
989.127502 76.0
993.670776 76.0
995.459656 68.0
996.967285 144.0
999.029541 68.0
1003.841431 296.0
1014.057495 80.0
1015.179626 168.0
1019.903076 84.0
1020.932983 76.0
1027.11084 188.0
1028.163574 128.0
1028.463501 184.0
1035.797485 156.0
1037.162231 36.0
1037.418701 176.0
1038.418945 216.0
1038.964233 64.0
1039.169434 40.0
1040.998779 76.0
1041.40979 164.0
1042.436035 220.0
1052.492676 168.0
1065.640869 176.0
1066.966675 108.0
1069.933228 116.0
1070.59729 152.0
1072.55188 104.0
1073.255859 72.0
1078.282349 156.0
1079.315186 204.0
1082.383911 148.0
1092.787231 36.0
1093.583374 100.0
1094.129761 160.0
1101.812744 136.0
1109.781128 172.0
1110.470825 88.0
1117.385742 56.0
1127.00647 188.0
1134.582642 196.0
1141.195557 152.0
1141.464478 104.0
1147.03894 36.0
1152.295898 124.0
1153.627197 148.0
1155.087769 136.0
1160.02417 240.0
1160.220703 136.0
1166.275635 120.0
1168.989136 76.0
1169.730957 36.0
1170.50708 164.0
1172.871094 148.0
1173.123291 44.0
1173.511963 156.0
1174.800903 56.0
1177.695923 144.0
1180.544922 188.0
1181.19458 144.0
1187.057129 48.0
1187.14624 184.0
1194.391846 172.0
1197.765381 176.0
1198.115845 120.0
1198.233032 96.0
1199.5354 204.0
1205.595215 48.0
1210.105103 140.0
1210.202026 140.0
1210.472046 156.0
1213.687134 80.0
1215.393433 100.0
1225.245239 208.0
1231.020264 88.0
1234.087769 76.0
1236.2771 152.0
1239.540283 184.0
1243.474365 208.0
1246.494019 216.0
1248.476318 148.0
1252.016113 188.0
1252.748657 72.0
1254.728882 172.0
1257.4375 172.0
1260.233765 192.0
1260.996948 212.0
1265.33313 192.0
1268.116943 196.0
1269.059692 92.0
1271.300293 148.0
1273.217896 184.0
1273.274658 172.0
1276.700073 168.0
1277.660278 136.0
1278.492798 140.0
1281.875244 72.0
1292.078125 108.0
1292.564697 228.0
1295.757935 96.0
1297.334595 48.0
1300.038574 128.0
1303.126099 148.0
1313.700928 216.0
1317.123047 180.0
1318.742554 148.0
1320.180176 240.0
1322.792114 120.0
1324.356079 156.0
1324.529907 192.0
1325.457153 48.0
1332.284302 144.0
1334.88623 120.0
1335.184448 80.0
1336.31189 140.0
1346.421997 152.0
1348.160767 136.0
1350.083252 176.0
1350.887817 176.0
1356.709595 28.0
1357.655396 76.0
1358.06604 200.0
1358.139404 108.0
1358.31543 96.0
1358.403564 152.0
1358.542847 124.0
1364.234009 160.0
1367.24231 44.0
1370.30542 60.0
1376.54541 148.0
1376.988403 152.0
1380.0625 128.0
1381.075562 100.0
1382.851318 60.0
1383.080688 156.0
1390.507202 212.0
1393.462524 92.0
1393.781982 164.0
1400.588989 68.0
1402.473999 76.0
1403.637085 68.0
1412.980591 56.0
1413.092773 212.0
1414.36499 136.0
1415.143555 148.0
1418.529663 120.0
1421.50708 88.0
1423.150879 172.0
1424.05957 160.0
1424.945923 116.0
1427.817261 156.0
1429.163818 204.0
1431.489624 176.0
1432.280396 100.0
1433.093994 216.0
1433.870117 48.0
1434.352539 152.0
1436.064087 140.0
1437.716309 40.0
1438.946655 100.0
1439.173096 64.0
1441.280396 204.0
1442.036133 64.0
1446.067139 40.0
1446.475952 256.0
1454.981323 228.0
1456.294922 136.0
1458.551514 180.0
1462.780762 104.0
1464.989014 148.0
1465.645142 176.0
1470.043945 140.0
1471.967529 144.0
1474.404297 200.0
1475.627319 188.0
1478.870728 168.0
1479.819458 192.0
1480.708252 100.0
1484.708618 212.0
1485.713379 108.0
1487.984985 136.0
1488.50708 176.0
1492.287354 144.0
1497.974487 228.0
1498.066895 188.0
1499.962524 128.0
1503.20166 204.0
