>compound MLS001158369-01!
>formula C25H24N2O5
>ionization [M+H]+
>parentmass 433.1757983200905
#inchi InChI=1S/C25H24N2O5/c28-23-6-2-5-21-16-9-15(12-27(21)23)11-26(13-16)24(29)14-31-17-7-8-19-18-3-1-4-20(18)25(30)32-22(19)10-17/h2,5-8,10,15-16H,1,3-4,9,11-14H2/t15-,16+/m1/s1
#inchikey NAEZQNRJBHPTCW
#Ion_Source LC-ESI
#Instrument qTof
#Compound_Source NIH Natural Product Library
#PI Dorrestein
#Data_Collector VVP/LMS
#Scan -1
#Precursor_MZ 433.176
#ExactMass 432.169
#Charge 1
#CAS_Number N/A
#Pubmed_ID N/A
#Smiles O=C(COc1ccc2c3CCCc3c(=O)oc2c1)N4C[C@H]5C[C@@H](C4)c6cccc(=O)n6C5
#INCHI_AUX N/A
#Library_Class 1
#SpectrumID CCMSLIB00000079974
#IonMode Positive
#UpdateWorkflowName UPDATE-SINGLE-ANNOTATED-GOLD
#LibraryQualityString Gold
#TaskID b1d8e8f6646f4e71acdff9ca3d919d08
##Scan# 1724
#SpectrumFile p2-E02_GE2_01_18026.mzXML
#LibraryName NIH_Natural_Products_Library.mgf
#MQScore -1
#Organism NIH_Natural_Products_Library
#TIC_Query 0
#RT_Query -1
#MZErrorPPM -1
#SharedPeaks 0
#MassDiff 0
#LibMZ -1
#SpecMZ 433.176
#SpecCharge 0
#internalFilename spec-00000.mgf

>collision 10
94.952545 216.0
95.035561 136.0
95.073685 248.0
95.115135 144.0
95.155899 156.0
95.200562 180.0
95.262711 108.0
95.327507 92.0
95.480408 232.0
95.494019 128.0
95.51104 144.0
95.540703 180.0
95.567986 168.0
95.700294 200.0
95.805466 212.0
95.869766 124.0
95.895096 132.0
96.043785 172.0
96.06279 100.0
96.080849 324.0
96.148811 184.0
96.234528 132.0
96.275536 168.0
96.295616 184.0
96.322411 148.0
96.345856 48.0
96.455284 136.0
96.47789 228.0
96.603897 280.0
96.633247 204.0
96.754585 88.0
96.807457 168.0
96.887756 212.0
96.903435 116.0
96.981819 128.0
97.081802 156.0
97.121033 160.0
97.175957 180.0
97.302223 204.0
97.359337 124.0
97.397789 60.0
97.501923 52.0
97.564819 144.0
97.60218 108.0
97.781197 180.0
97.801033 256.0
97.867813 120.0
97.882172 176.0
97.936737 144.0
98.043129 224.0
98.057907 200.0
98.082542 152.0
98.137741 180.0
98.185074 120.0
98.212685 180.0
98.234383 140.0
98.281731 180.0
98.313301 60.0
98.406075 232.0
98.524574 148.0
98.660934 152.0
98.745964 160.0
98.766899 280.0
98.77211 164.0
98.821136 140.0
98.929985 176.0
98.969582 128.0
99.102287 120.0
99.203362 136.0
99.221199 192.0
99.274734 348.0
99.316383 140.0
99.346138 144.0
99.381851 156.0
99.530716 140.0
99.548592 152.0
99.610161 144.0
99.655853 180.0
99.767151 124.0
99.781067 196.0
99.816856 112.0
99.914314 192.0
99.948135 164.0
99.997887 80.0
100.011818 160.0
100.071541 188.0
100.103401 160.0
100.206924 156.0
100.226898 156.0
100.346489 172.0
100.388367 156.0
100.418282 128.0
100.589874 116.0
100.701691 212.0
100.715675 236.0
100.78759 172.0
101.055519 96.0
101.089539 112.0
101.183609 140.0
101.257698 248.0
101.279732 124.0
101.329811 120.0
101.36187 220.0
101.432014 40.0
101.548309 144.0
101.624786 164.0
101.702805 96.0
101.769051 148.0
101.815239 180.0
101.99807 128.0
102.040291 156.0
102.060394 116.0
102.094467 140.0
102.187111 92.0
102.211128 128.0
102.301819 128.0
102.31591 192.0
102.363411 160.0
102.414589 164.0
102.487106 160.0
102.573769 108.0
102.626183 160.0
102.718956 176.0
102.79966 200.0
102.839348 128.0
102.858185 132.0
102.904617 92.0
102.928535 156.0
103.05294 340.0
103.16291 160.0
103.195557 188.0
103.238022 92.0
103.274429 168.0
103.298698 172.0
103.565887 120.0
103.600327 164.0
103.638817 176.0
103.713806 144.0
103.786781 184.0
103.847626 216.0
103.920654 500.0
103.967323 36.0
104.024155 160.0
104.050797 768.0
104.154114 104.0
104.311523 288.0
104.393936 96.0
104.416306 328.0
104.436218 100.0
104.45359 264.0
104.479362 148.0
104.544472 192.0
104.579071 208.0
104.607567 156.0
104.63607 136.0
104.695114 200.0
104.713448 56.0
104.735847 64.0
104.77002 160.0
104.77478 180.0
104.817345 208.0
104.882561 116.0
104.915176 208.0
104.992653 148.0
105.038422 204.0
105.055542 368.0
105.07151 268.0
105.278366 152.0
105.32534 160.0
105.341682 204.0
105.402969 216.0
105.429535 136.0
105.452019 152.0
105.544014 180.0
105.662636 204.0
105.762909 144.0
105.893951 152.0
105.928772 120.0
106.000481 212.0
106.023018 180.0
106.045563 44.0
106.07093 192.0
106.135765 136.0
106.197289 80.0
106.23011 108.0
106.381966 168.0
106.416862 40.0
106.451767 128.0
106.548309 176.0
106.592705 236.0
106.693466 208.0
106.797035 148.0
106.845345 256.0
106.924599 164.0
106.950478 176.0
106.966858 248.0
107.029587 144.0
107.09137 176.0
107.318047 160.0
107.42942 164.0
107.503693 156.0
107.565613 148.0
107.608963 196.0
107.635811 168.0
107.681244 28.0
107.784531 148.0
107.855736 216.0
107.877533 148.0
107.943695 152.0
108.051254 184.0
108.078148 296.0
108.102982 140.0
108.143051 144.0
108.280159 152.0
108.351448 120.0
108.386673 192.0
108.500008 232.0
108.519325 124.0
108.553879 192.0
108.612648 160.0
108.772423 140.0
108.84301 100.0
108.904617 156.0
108.973618 172.0
109.05278 3560.0
109.152168 148.0
109.187965 200.0
109.216713 112.0
109.327354 192.0
109.35939 204.0
109.374283 204.0
109.408531 176.0
109.718941 108.0
109.797333 216.0
109.803261 128.0
109.833633 220.0
109.864929 156.0
110.020302 164.0
110.05645 328.0
110.150917 104.0
110.217773 232.0
110.261658 68.0
110.286736 132.0
110.328545 224.0
110.382904 204.0
110.435188 176.0
110.460289 196.0
110.508408 240.0
110.550255 124.0
110.598389 160.0
110.703072 52.0
110.855995 220.0
110.872757 132.0
111.06617 292.0
111.092918 148.0
111.264999 92.0
111.283897 168.0
111.377274 148.0
111.437218 180.0
111.460335 128.0
111.540657 128.0
111.579346 224.0
111.687386 120.0
111.733665 168.0
111.846741 180.0
111.862038 188.0
111.893616 88.0
111.927299 152.0
111.984161 260.0
112.064384 148.0
112.094269 120.0
112.110565 172.0
112.156937 124.0
112.266571 204.0
112.312965 52.0
112.462776 44.0
112.490219 88.0
112.51133 156.0
112.528976 156.0
112.566223 212.0
112.627472 192.0
112.64859 184.0
112.673943 172.0
112.709862 216.0
112.813423 148.0
112.862053 156.0
112.948761 180.0
113.066368 164.0
113.220612 184.0
113.289566 152.0
113.336182 152.0
113.412468 184.0
113.458305 148.0
113.531197 148.0
113.571495 188.0
113.620285 236.0
113.704102 248.0
113.756104 220.0
113.900497 144.0
113.996101 80.0
114.034355 160.0
114.049591 100.0
114.070488 212.0
114.151283 184.0
114.229973 128.0
114.255501 84.0
114.306564 140.0
114.325226 156.0
114.393829 192.0
114.440666 120.0
114.562752 172.0
114.587624 148.0
114.615326 120.0
114.637146 216.0
114.781586 148.0
114.828796 144.0
114.943703 136.0
114.96077 196.0
115.054947 604.0
115.094223 224.0
115.174271 232.0
115.246902 164.0
115.283234 132.0
115.347351 184.0
115.494888 48.0
115.509865 104.0
115.58046 48.0
115.683197 220.0
115.715309 128.0
115.755882 164.0
115.788109 88.0
115.918793 148.0
115.933792 140.0
115.96373 132.0
115.966675 128.0
116.032387 92.0
116.060928 160.0
116.11602 176.0
116.134079 152.0
116.24688 136.0
116.276924 124.0
116.448685 164.0
116.477524 140.0
116.510979 148.0
116.588326 176.0
116.639053 260.0
116.667854 200.0
116.70871 184.0
116.811935 176.0
116.863571 156.0
117.05864 724.0
117.096054 76.0
117.145599 192.0
117.169296 128.0
117.188683 124.0
117.236092 68.0
117.257645 148.0
117.28566 236.0
117.378365 220.0
117.410713 148.0
117.704193 156.0
117.750404 108.0
117.786263 124.0
117.803543 188.0
117.948318 140.0
118.006691 188.0
118.061966 664.0
118.112656 172.0
118.165314 164.0
118.192703 228.0
118.24897 124.0
118.324028 180.0
118.361542 88.0
118.398354 172.0
118.420013 132.0
118.456833 96.0
118.478493 180.0
118.502327 168.0
118.539162 196.0
118.608513 116.0
118.662712 176.0
118.729935 168.0
119.074112 204.0
119.174927 176.0
119.19883 204.0
119.277069 68.0
119.327072 128.0
119.403175 188.0
119.449051 176.0
119.518471 160.0
119.655594 156.0
119.681717 128.0
119.71656 208.0
119.742691 320.0
119.775368 152.0
119.804581 244.0
119.895195 100.0
119.919174 212.0
119.936607 148.0
120.045616 132.0
120.078926 180.0
120.15686 136.0
120.172134 44.0
120.226685 208.0
120.244141 60.0
120.27906 132.0
120.311806 104.0
120.351105 156.0
120.423172 140.0
120.484337 120.0
120.549881 212.0
120.597961 92.0
120.648239 168.0
120.72258 220.0
120.783821 288.0
120.807884 132.0
120.838509 156.0
121.036934 140.0
121.068871 200.0
121.15815 148.0
121.219498 180.0
121.263329 88.0
121.280861 204.0
121.380173 228.0
121.412415 200.0
121.429955 184.0
121.562729 192.0
121.598892 152.0
121.702065 168.0
121.76136 48.0
121.849998 204.0
121.875587 120.0
121.963493 200.0
122.059364 2324.0
122.084412 360.0
122.135002 224.0
122.286819 52.0
122.339645 176.0
122.379272 204.0
122.445335 36.0
122.515823 188.0
122.577515 96.0
122.592941 76.0
122.634811 48.0
122.941368 44.0
122.983307 88.0
123.063354 940.0
123.200737 120.0
123.335236 180.0
123.383133 120.0
123.407455 168.0
123.484848 40.0
123.535721 156.0
123.628654 220.0
123.737114 176.0
123.78804 64.0
123.805756 160.0
123.887703 148.0
123.94088 172.0
123.976334 148.0
123.998497 168.0
124.053909 160.0
124.073105 300.0
124.11377 148.0
124.282341 164.0
124.296417 152.0
124.340042 132.0
124.371109 92.0
124.38665 184.0
124.435493 196.0
124.475456 136.0
124.513206 208.0
124.658165 192.0
124.713165 68.0
124.748734 84.0
124.810982 216.0
124.853233 36.0
124.893272 180.0
124.935532 44.0
125.060143 188.0
125.07795 88.0
125.149193 112.0
125.172607 116.0
125.21035 224.0
125.327377 436.0
125.347435 172.0
125.36972 184.0
125.406799 144.0
125.456642 136.0
125.532455 112.0
125.588211 60.0
125.628357 136.0
125.668518 200.0
125.715378 112.0
125.804657 188.0
125.820282 132.0
125.860474 172.0
125.940865 204.0
126.036926 124.0
126.052567 128.0
126.141968 120.0
126.19339 128.0
126.322403 180.0
126.396927 60.0
126.540176 128.0
126.692467 128.0
126.75296 168.0
126.768646 148.0
126.92556 124.0
127.058434 280.0
127.174576 192.0
127.264374 196.0
127.378906 44.0
127.405869 120.0
127.578911 44.0
127.677841 88.0
127.707077 196.0
127.792564 40.0
127.990631 148.0
128.010895 108.0
128.031174 188.0
128.063049 1740.0
128.081772 240.0
128.150558 36.0
128.198364 128.0
128.29567 164.0
128.337631 208.0
128.437805 220.0
128.466187 156.0
128.500015 196.0
128.685089 160.0
128.718964 92.0
128.779938 156.0
128.818329 148.0
128.922272 112.0
128.996857 184.0
129.069611 2232.0
129.148361 80.0
129.298019 108.0
129.348236 160.0
129.370117 52.0
129.456146 184.0
129.675903 60.0
129.739365 292.0
129.764618 204.0
129.786987 200.0
130.000214 140.0
130.043335 176.0
130.067642 388.0
130.111435 144.0
130.134125 140.0
130.186356 64.0
130.247681 136.0
130.313553 108.0
130.334015 180.0
130.390823 192.0
130.574982 172.0
130.793396 92.0
130.831299 156.0
130.980118 180.0
131.005173 148.0
131.049728 624.0
131.085632 672.0
131.192032 76.0
131.262711 240.0
131.292358 72.0
131.312881 152.0
131.531937 40.0
131.573013 140.0
131.60498 176.0
131.639236 128.0
131.682632 156.0
131.712311 200.0
131.917969 112.0
132.044617 2084.0
132.083237 704.0
132.11235 156.0
132.233261 172.0
132.261093 136.0
132.359543 168.0
132.540497 112.0
132.588608 92.0
132.627579 160.0
132.657379 192.0
132.718155 220.0
132.791367 212.0
132.814392 264.0
132.971619 208.0
133.019821 232.0
133.05307 2360.0
133.086792 208.0
133.132324 88.0
133.244873 144.0
133.267853 136.0
133.382751 132.0
133.458618 128.0
133.500015 180.0
133.52301 156.0
133.575302 168.0
133.633423 188.0
133.893539 160.0
133.931534 160.0
133.964935 216.0
134.022354 148.0
134.06044 7760.0
134.216156 136.0
134.234604 104.0
134.25766 164.0
134.281494 120.0
134.306091 216.0
134.393753 52.0
134.446838 188.0
134.767807 184.0
134.796234 344.0
134.957336 72.0
135.015152 180.0
135.038269 136.0
135.064392 876.0
135.098984 164.0
135.14006 96.0
135.179398 204.0
135.216415 156.0
135.246506 176.0
135.290497 160.0
135.313644 180.0
135.352997 148.0
135.37439 188.0
135.491974 76.0
135.624054 164.0
135.665787 248.0
135.686646 76.0
135.795639 80.0
135.853622 36.0
135.933533 160.0
136.032303 128.0
136.066971 476.0
136.092667 152.0
136.12851 148.0
136.171631 128.0
136.234344 172.0
136.344009 120.0
136.41095 60.0
136.513245 236.0
136.555115 156.0
136.599304 252.0
136.61792 164.0
136.648163 164.0
136.885574 128.0
136.914841 276.0
137.018341 92.0
137.055618 136.0
137.120865 116.0
137.137177 152.0
137.209442 140.0
137.244415 296.0
137.288727 60.0
137.438019 200.0
137.470688 128.0
137.505692 132.0
137.57338 128.0
137.641083 152.0
137.670853 144.0
137.683838 156.0
137.795242 120.0
137.898056 176.0
138.050018 180.0
138.073013 120.0
138.117844 88.0
138.288651 144.0
138.393997 192.0
138.478302 152.0
138.520462 124.0
138.613998 56.0
138.719635 124.0
138.743088 184.0
138.761841 184.0
139.069138 160.0
139.097305 84.0
139.113983 192.0
139.129608 84.0
139.280457 72.0
139.529556 208.0
139.55542 108.0
139.623611 160.0
139.748276 148.0
139.790634 96.0
139.814163 104.0
139.896545 236.0
140.026047 164.0
140.11792 184.0
140.202881 220.0
140.303513 224.0
140.337112 240.0
140.405487 176.0
140.433792 72.0
140.544678 180.0
140.589508 220.0
140.672119 224.0
141.072784 744.0
141.104431 168.0
141.158371 188.0
141.317291 84.0
141.39592 176.0
141.454559 184.0
141.583847 152.0
141.803375 164.0
141.862 156.0
141.899933 180.0
141.930756 212.0
141.97818 176.0
142.011383 128.0
142.067642 440.0
142.094406 148.0
142.151352 212.0
142.208313 164.0
142.229675 192.0
142.289032 136.0
142.309235 140.0
142.338882 148.0
142.355515 152.0
142.459427 144.0
142.536041 140.0
142.555054 236.0
142.671509 180.0
142.738617 160.0
143.073013 136.0
143.18309 268.0
143.225967 152.0
143.254547 236.0
143.345093 44.0
143.444061 160.0
143.464264 100.0
143.612106 164.0
143.676514 172.0
143.712296 148.0
143.760025 160.0
143.793427 248.0
143.810135 204.0
143.850708 72.0
143.876968 128.0
143.915176 176.0
144.054825 264.0
144.07843 648.0
144.180328 212.0
144.200516 152.0
144.254425 44.0
144.285492 180.0
144.395493 68.0
144.42659 228.0
144.486389 112.0
144.536636 144.0
144.642914 76.0
144.725723 116.0
144.776016 216.0
144.848175 156.0
144.8862 156.0
144.905365 168.0
145.053925 700.0
145.090302 808.0
145.116272 180.0
145.14505 40.0
145.1978 140.0
145.298553 120.0
145.32254 192.0
145.370529 184.0
145.394531 148.0
145.42572 232.0
145.484055 148.0
145.538559 112.0
145.569778 188.0
145.653473 216.0
145.660095 184.0
145.814819 176.0
145.860474 124.0
145.901352 184.0
145.925385 192.0
145.97348 136.0
145.995193 140.0
146.024979 116.0
146.060684 32588.0
146.133087 156.0
146.150986 272.0
146.195587 96.0
146.24173 184.0
146.290924 184.0
146.33139 72.0
146.353378 68.0
146.4664 152.0
146.498169 56.0
146.555984 168.0
146.594543 124.0
146.618637 144.0
146.688538 52.0
146.707825 68.0
146.727112 172.0
146.781219 200.0
146.897568 220.0
146.917068 188.0
146.958649 84.0
147.008636 100.0
147.067154 18216.0
147.176712 172.0
147.19519 64.0
147.239212 192.0
147.319138 212.0
147.324905 68.0
147.335129 192.0
147.366165 112.0
147.410172 40.0
147.436768 140.0
147.45134 132.0
147.543625 284.0
147.56488 168.0
147.642532 168.0
147.693039 188.0
147.755936 52.0
147.818848 100.0
147.850311 148.0
147.944702 44.0
147.961655 164.0
148.009583 196.0
148.023651 112.0
148.075256 10392.0
148.14328 152.0
148.167511 188.0
148.22081 160.0
148.25473 36.0
148.310471 76.0
148.366226 84.0
148.562668 132.0
148.619675 88.0
148.696121 48.0
148.739639 120.0
148.892822 116.0
148.993454 80.0
149.074692 1508.0
149.113861 204.0
149.143021 172.0
149.188736 84.0
149.237823 76.0
149.262146 180.0
149.279984 96.0
149.315643 92.0
149.366714 72.0
149.462555 144.0
149.614929 28.0
149.724503 124.0
149.882843 48.0
149.902344 184.0
149.935471 128.0
149.95874 112.0
150.004089 80.0
150.022766 140.0
150.053177 204.0
150.079147 176.0
150.172943 200.0
150.199783 96.0
150.233932 56.0
150.260773 124.0
150.338852 72.0
150.387665 204.0
150.404739 48.0
150.429153 132.0
150.500519 156.0
150.768661 196.0
150.834656 212.0
150.854202 144.0
150.944672 144.0
151.042496 168.0
151.061264 212.0
151.085617 204.0
151.287201 180.0
151.377792 108.0
151.426773 200.0
151.465958 76.0
151.527206 188.0
151.571304 176.0
151.592438 228.0
151.919449 44.0
152.069138 208.0
152.091217 136.0
152.314667 180.0
152.395737 200.0
152.431595 148.0
152.494034 120.0
152.550568 96.0
152.700562 156.0
152.732529 172.0
153.138657 168.0
153.175598 172.0
153.195312 128.0
153.313583 320.0
153.56012 68.0
153.648911 128.0
153.668655 176.0
153.780579 196.0
153.834 140.0
154.01033 236.0
154.036499 164.0
154.066849 336.0
154.122955 68.0
154.335526 168.0
154.478973 136.0
154.690704 204.0
154.832916 144.0
154.870071 188.0
154.892365 332.0
154.944382 124.0
154.961731 200.0
155.001373 120.0
155.058395 168.0
155.23439 200.0
155.281509 160.0
155.338852 164.0
155.432831 96.0
155.574295 204.0
155.646301 116.0
155.686035 152.0
155.858154 124.0
155.936951 132.0
156.060715 132.0
156.081131 316.0
156.282608 144.0
156.332382 124.0
156.37468 116.0
156.409531 164.0
156.43692 116.0
156.457199 244.0
156.534012 144.0
156.97757 124.0
157.002502 168.0
157.064438 1868.0
157.124725 148.0
157.159668 136.0
157.299423 156.0
157.336868 132.0
157.621597 172.0
157.774063 120.0
157.819061 116.0
157.954102 76.0
158.004135 176.0
158.057129 1000.0
158.107727 212.0
158.324524 148.0
158.449768 172.0
158.477325 172.0
158.597626 124.0
158.707932 204.0
158.753067 92.0
158.93869 124.0
158.958755 236.0
159.011032 208.0
159.073685 2028.0
159.252487 136.0
159.277603 236.0
159.310257 96.0
159.349197 184.0
159.4384 180.0
159.501236 180.0
159.606827 140.0
159.770309 188.0
159.823151 84.0
159.854477 64.0
159.918777 164.0
160.016953 200.0
160.044189 156.0
160.075912 18388.0
160.155457 48.0
160.231384 56.0
160.267166 116.0
160.329712 48.0
160.362061 204.0
160.3797 64.0
160.472977 40.0
160.504288 48.0
160.59906 40.0
160.63942 124.0
160.745392 52.0
160.788284 92.0
160.805954 96.0
160.836243 72.0
160.853912 204.0
160.881683 52.0
160.937225 116.0
161.080139 2276.0
161.164551 48.0
161.245407 40.0
161.265625 100.0
161.308594 284.0
161.361694 48.0
161.447662 56.0
161.54631 196.0
161.601959 144.0
161.83403 156.0
162.044189 208.0
162.049667 164.0
162.089554 1824.0
162.186951 100.0
162.216003 164.0
162.245255 108.0
162.273132 44.0
162.354279 84.0
162.394867 64.0
162.477829 136.0
162.50647 156.0
162.549606 156.0
162.607986 64.0
162.69429 164.0
162.90506 80.0
162.981277 80.0
163.029556 48.0
163.098526 668.0
163.253265 120.0
163.347366 80.0
163.400803 160.0
163.645126 132.0
163.665497 116.0
163.828491 188.0
163.864166 172.0
163.948242 212.0
164.042557 164.0
164.097931 128.0
164.12413 128.0
164.177689 80.0
164.210846 120.0
164.356247 220.0
164.402176 112.0
164.435364 44.0
164.624283 92.0
164.695786 172.0
164.721329 172.0
164.757095 44.0
165.00499 52.0
165.112396 152.0
165.143082 172.0
165.168655 124.0
165.342636 192.0
165.804779 168.0
166.042053 160.0
166.108734 68.0
166.319153 164.0
166.396393 132.0
166.617035 148.0
166.682129 224.0
166.796906 156.0
166.892029 76.0
167.088394 184.0
167.118378 248.0
167.19043 184.0
167.327194 208.0
167.368042 56.0
167.411819 160.0
167.458176 160.0
167.602432 136.0
167.932419 160.0
168.04837 168.0
168.084625 152.0
168.451233 148.0
168.629517 136.0
168.80014 120.0
168.818237 132.0
168.838928 180.0
168.919113 144.0
168.970856 148.0
169.072205 212.0
169.115768 208.0
169.426498 116.0
169.486084 192.0
169.636414 132.0
169.65715 108.0
169.846451 288.0
169.900925 104.0
169.921677 248.0
170.060852 132.0
170.078674 152.0
170.098145 52.0
170.20459 120.0
170.360413 128.0
170.581299 116.0
170.886627 192.0
170.916794 60.0
171.008286 128.0
171.052689 244.0
171.079361 352.0
171.104187 120.0
171.184906 212.0
171.322952 160.0
171.393295 216.0
171.432388 164.0
171.562714 156.0
171.802628 172.0
171.899918 112.0
171.930481 156.0
171.948746 100.0
172.008774 124.0
172.042709 164.0
172.075989 4060.0
172.126266 152.0
172.285583 72.0
172.306488 192.0
172.326248 64.0
172.447952 148.0
172.46553 144.0
172.523392 128.0
172.620132 76.0
172.69075 88.0
172.749786 84.0
172.82869 140.0
172.869324 128.0
172.913132 184.0
172.98642 112.0
173.020462 140.0
173.083893 17368.0
173.148758 192.0
173.173462 68.0
173.198532 88.0
173.226562 108.0
173.294373 68.0
173.429108 64.0
173.459991 56.0
173.509048 172.0
173.536865 76.0
173.61412 236.0
173.713394 144.0
173.759521 100.0
173.825104 144.0
173.851349 52.0
173.895966 48.0
173.978485 92.0
174.019348 60.0
174.03772 192.0
174.068619 4116.0
174.089081 3412.0
174.153275 156.0
174.208435 164.0
174.226425 80.0
174.249649 228.0
174.291534 76.0
174.3293 76.0
174.355576 36.0
174.396973 320.0
174.525589 196.0
174.634262 152.0
174.69838 92.0
174.73024 132.0
174.776321 44.0
174.794739 56.0
174.834213 112.0
174.871887 52.0
174.920425 116.0
174.992142 52.0
175.049423 504.0
175.088028 860.0
175.12381 212.0
175.255539 40.0
175.279251 192.0
175.330139 128.0
175.437378 120.0
175.46875 120.0
175.492752 124.0
175.682037 124.0
175.75914 76.0
175.848877 116.0
175.875259 116.0
176.038956 124.0
176.096329 176.0
176.149872 144.0
176.237061 40.0
176.443207 60.0
176.609802 164.0
176.699753 168.0
176.76326 152.0
176.903519 144.0
177.00148 220.0
177.050873 80.0
177.075638 144.0
177.131256 184.0
177.155106 136.0
177.446625 140.0
177.504944 92.0
177.523514 116.0
177.985229 140.0
178.463501 132.0
178.583176 80.0
178.721497 204.0
178.804001 144.0
179.05159 160.0
179.080887 180.0
179.182114 248.0
179.251389 192.0
179.445969 160.0
179.563293 140.0
179.600632 76.0
179.74469 224.0
179.966232 108.0
180.177231 160.0
180.241348 180.0
180.415085 168.0
180.851105 132.0
180.993149 196.0
181.271561 232.0
181.343918 128.0
181.418976 196.0
181.620087 148.0
181.684464 200.0
181.754227 188.0
181.856201 124.0
182.342911 148.0
182.487488 132.0
182.581604 128.0
182.638092 156.0
182.678436 72.0
182.901779 96.0
182.979843 208.0
183.04985 216.0
183.068115 144.0
183.117172 92.0
183.241089 72.0
183.599594 116.0
183.645447 164.0
183.989822 148.0
184.115051 124.0
184.152863 204.0
184.197662 136.0
184.574432 128.0
184.66098 176.0
185.011475 104.0
185.060349 5968.0
185.202301 92.0
185.291687 128.0
185.310654 128.0
185.371582 172.0
185.401489 100.0
185.451569 96.0
185.508484 52.0
185.541016 128.0
185.559998 164.0
185.624878 172.0
185.695587 116.0
185.809509 260.0
185.950623 64.0
185.999466 204.0
186.062637 816.0
186.142303 144.0
186.181381 104.0
186.20282 192.0
186.245651 180.0
186.356262 92.0
186.439468 152.0
186.46936 140.0
186.580811 140.0
186.629745 164.0
186.741241 80.0
186.869095 132.0
186.966217 92.0
187.00293 188.0
187.07579 7264.0
187.181564 60.0
187.231125 40.0
187.29921 88.0
187.348251 60.0
187.395737 84.0
187.462692 88.0
187.489929 76.0
187.509018 80.0
187.609863 160.0
187.651947 92.0
187.750427 200.0
187.871246 208.0
187.877808 176.0
187.988983 100.0
188.073074 2716.0
188.105743 164.0
188.133652 48.0
188.203476 284.0
188.22168 148.0
188.297485 120.0
188.336029 124.0
188.354843 156.0
188.414932 148.0
188.494171 188.0
188.526962 152.0
188.546097 60.0
188.570694 152.0
188.59256 160.0
188.622375 180.0
188.668427 148.0
188.68222 188.0
188.693085 180.0
188.789398 188.0
188.835892 56.0
188.863251 204.0
188.912949 160.0
188.939972 276.0
188.962601 128.0
188.988312 156.0
189.021118 612.0
189.067795 1076.0
189.103683 105384.0
189.165634 208.0
189.220016 96.0
189.263184 140.0
189.294922 164.0
189.322128 100.0
189.357147 68.0
189.38266 96.0
189.388763 124.0
189.425217 208.0
189.461823 60.0
189.512115 252.0
189.553787 796.0
189.580444 104.0
189.584747 68.0
189.589325 140.0
189.605026 60.0
189.615341 196.0
189.65181 112.0
189.682343 116.0
189.729416 180.0
189.813553 232.0
189.832748 44.0
189.865662 48.0
189.894196 108.0
189.942032 312.0
189.970428 60.0
190.031754 172.0
190.073257 2136.0
190.1073 17584.0
190.197159 92.0
190.225098 68.0
190.249359 176.0
190.282898 76.0
190.313217 64.0
190.339951 48.0
190.369873 196.0
190.429474 140.0
190.471909 68.0
190.539719 84.0
190.562881 88.0
190.648071 56.0
190.708527 36.0
190.749756 48.0
190.785492 48.0
190.83812 56.0
190.861328 96.0
190.953232 72.0
190.972473 56.0
191.048981 168.0
191.0811 1552.0
191.117355 14916.0
191.168884 124.0
191.209549 72.0
191.260773 144.0
191.297165 120.0
191.31871 184.0
191.353607 112.0
191.382523 56.0
191.401794 180.0
191.437592 96.0
191.462372 80.0
191.49968 124.0
191.552658 144.0
191.588272 124.0
191.613876 100.0
191.641418 116.0
191.685516 96.0
191.723297 84.0
191.812286 80.0
191.867416 96.0
191.939102 104.0
191.966675 108.0
192.010803 88.0
192.078262 308.0
192.119965 2044.0
192.165283 56.0
192.214951 56.0
192.27565 60.0
192.35437 116.0
192.397995 100.0
192.410568 32.0
192.417007 96.0
192.437607 156.0
192.535172 36.0
192.558258 88.0
192.578506 104.0
192.634598 224.0
192.836304 76.0
192.934097 132.0
193.002167 216.0
193.12413 312.0
193.17955 60.0
193.262375 56.0
193.375626 68.0
193.450363 108.0
193.50296 52.0
193.581436 100.0
193.658035 124.0
193.81041 140.0
193.918488 136.0
194.279846 148.0
194.406586 112.0
194.581451 28.0
194.642532 140.0
194.7314 100.0
194.767517 96.0
195.145447 52.0
195.626755 180.0
195.80217 176.0
196.336319 192.0
196.485092 148.0
196.730667 92.0
196.901001 132.0
197.060074 152.0
197.213913 68.0
197.264221 128.0
197.546661 208.0
197.90683 116.0
197.952484 112.0
198.325104 68.0
198.602676 116.0
198.647568 120.0
198.748566 164.0
198.81871 92.0
198.99556 68.0
199.074753 600.0
199.130341 104.0
199.17247 56.0
199.203369 132.0
199.498444 176.0
199.520935 36.0
199.686829 136.0
199.835922 132.0
199.956924 36.0
200.086411 192.0
200.156799 100.0
200.351135 84.0
200.585434 220.0
200.686523 92.0
200.751373 228.0
201.059753 452.0
201.095551 112.0
201.482407 60.0
201.502182 48.0
201.631119 80.0
201.824402 48.0
201.897919 52.0
202.059036 1324.0
202.282715 188.0
202.820908 56.0
202.840744 32.0
202.900284 36.0
203.005188 72.0
203.078018 396.0
203.118668 3684.0
203.257248 56.0
203.314407 88.0
203.359818 80.0
203.575577 132.0
203.626694 64.0
203.72612 208.0
204.035873 84.0
204.076706 200.0
204.124939 508.0
204.169525 112.0
204.255402 184.0
204.539398 152.0
204.980835 68.0
205.09198 204.0
205.534012 92.0
205.633896 148.0
206.116516 76.0
206.162247 212.0
206.379486 52.0
206.462418 96.0
206.55394 236.0
206.714157 96.0
206.951736 224.0
206.971771 80.0
207.034775 132.0
207.08194 144.0
207.223816 88.0
207.444489 148.0
207.487488 128.0
207.711166 148.0
207.897659 92.0
207.94072 112.0
208.153152 128.0
208.18187 176.0
208.224945 84.0
208.514206 76.0
208.549606 136.0
208.65596 72.0
209.038513 92.0
209.093185 140.0
209.62883 36.0
210.012268 52.0
210.044006 88.0
210.110352 148.0
210.153625 76.0
210.511551 132.0
210.890015 56.0
211.014313 132.0
211.093536 140.0
211.213852 72.0
211.254349 68.0
211.4048 264.0
211.708771 136.0
211.786957 140.0
211.914429 44.0
211.960785 104.0
212.099899 136.0
212.236145 120.0
212.372452 188.0
212.392761 108.0
212.67421 292.0
212.74968 64.0
213.06694 1384.0
213.103989 160.0
213.260925 100.0
213.295792 64.0
213.510956 120.0
213.641846 144.0
214.061752 324.0
214.109421 172.0
214.299805 56.0
214.34642 92.0
214.37265 124.0
214.547531 116.0
214.626251 124.0
214.748734 148.0
214.789566 176.0
214.827484 116.0
214.93544 152.0
214.959869 128.0
215.070847 15552.0
215.221497 32.0
215.241928 116.0
215.323395 76.0
215.367508 100.0
215.452225 196.0
215.504807 44.0
215.538605 136.0
215.591003 104.0
215.646622 68.0
215.709381 248.0
215.776627 84.0
215.802933 164.0
215.867264 80.0
216.010025 236.0
216.074463 2276.0
216.165634 52.0
216.229095 64.0
216.259277 52.0
216.27977 40.0
216.342575 88.0
216.49057 40.0
216.543289 120.0
216.566711 220.0
217.02681 32.0
217.097992 1084.0
217.176361 156.0
217.296646 60.0
217.357773 100.0
217.37709 72.0
217.405212 52.0
217.478577 36.0
217.507935 168.0
217.581314 56.0
217.607742 116.0
217.721207 156.0
217.830933 68.0
217.895569 60.0
217.945511 64.0
218.101913 272.0
218.312958 108.0
218.333542 52.0
218.511993 40.0
218.545334 120.0
219.110626 392.0
219.51442 128.0
219.800552 112.0
219.912689 172.0
219.96582 32.0
220.122299 120.0
220.258163 88.0
220.807907 92.0
221.118561 36.0
221.212555 164.0
221.693085 56.0
222.404877 168.0
222.47612 88.0
224.332413 60.0
224.857376 160.0
225.006622 164.0
225.078278 88.0
225.176834 188.0
225.897186 60.0
226.295212 44.0
226.660629 200.0
226.897415 56.0
227.03833 148.0
227.07338 144.0
227.383347 88.0
228.107208 144.0
228.576385 100.0
228.844269 208.0
229.124359 148.0
229.226807 136.0
229.24791 104.0
229.627762 56.0
230.086426 56.0
230.288742 140.0
230.397476 124.0
230.445816 80.0
230.532623 148.0
230.61203 84.0
230.902267 120.0
231.112854 3640.0
231.374313 44.0
231.419724 124.0
231.46817 100.0
231.519653 72.0
231.68927 112.0
231.889252 240.0
232.013535 144.0
232.12149 5096.0
232.404785 32.0
232.510986 116.0
232.586868 76.0
232.608109 40.0
232.665787 164.0
232.778137 72.0
233.125702 1340.0
233.202698 80.0
233.887817 140.0
234.046112 156.0
234.13443 152.0
234.201431 176.0
234.50737 68.0
234.814056 64.0
234.893356 44.0
235.134399 208.0
235.433578 172.0
235.897995 120.0
236.017227 232.0
236.570999 68.0
237.272537 200.0
237.435059 64.0
238.116379 96.0
238.675674 68.0
238.872498 56.0
239.134033 164.0
239.352615 148.0
239.46347 120.0
240.002762 36.0
240.103653 300.0
240.332794 144.0
240.434631 48.0
241.039886 108.0
241.277878 124.0
241.878006 188.0
242.218628 172.0
242.543976 144.0
243.065842 2756.0
243.38269 148.0
243.502716 168.0
243.746933 124.0
244.034088 84.0
244.068878 412.0
244.121155 44.0
244.149139 60.0
244.226898 80.0
245.070847 160.0
245.581787 112.0
246.056107 72.0
246.171631 80.0
246.243454 120.0
246.317719 196.0
247.359695 148.0
247.779343 64.0
248.001816 100.0
248.607117 108.0
249.127319 164.0
249.56517 72.0
249.612335 124.0
250.127655 116.0
250.373886 44.0
251.329025 32.0
251.862549 232.0
252.080551 144.0
252.526306 144.0
253.085144 248.0
253.507721 48.0
253.856415 76.0
254.037201 64.0
254.081619 128.0
254.120529 212.0
254.672043 84.0
255.066055 124.0
255.158234 60.0
255.976898 148.0
256.326355 124.0
257.098053 172.0
257.203369 88.0
257.979614 180.0
258.112579 644.0
259.112396 128.0
259.205414 184.0
260.052063 108.0
261.025452 88.0
262.000702 212.0
262.645416 104.0
262.913177 48.0
263.42981 160.0
263.500854 84.0
263.620422 84.0
263.966309 140.0
264.030975 160.0
264.110687 872.0
264.195953 60.0
264.270355 132.0
264.752655 120.0
264.791534 132.0
264.924316 76.0
265.481812 112.0
265.747803 96.0
265.99118 116.0
266.595306 120.0
266.832581 80.0
267.883728 176.0
267.974945 148.0
267.997742 224.0
268.097992 1204.0
268.144409 48.0
268.320404 184.0
268.705261 132.0
269.051208 116.0
269.099884 504.0
269.379486 116.0
269.701263 92.0
270.09787 172.0
270.121124 200.0
270.517609 176.0
270.594299 128.0
270.653259 148.0
270.879211 236.0
271.344574 120.0
271.367523 108.0
271.400299 136.0
271.436371 108.0
271.544586 60.0
272.375 52.0
272.480133 208.0
272.780121 136.0
272.881073 88.0
273.081665 172.0
273.154053 68.0
273.39093 112.0
273.776093 156.0
273.878204 52.0
273.953949 36.0
274.098907 120.0
274.332916 184.0
274.801239 140.0
275.289734 164.0
275.629974 100.0
275.669647 104.0
275.729126 224.0
276.893677 116.0
278.87439 104.0
279.547211 168.0
279.705933 220.0
279.80246 156.0
279.849091 84.0
280.355408 188.0
281.346008 68.0
281.392761 136.0
281.52298 184.0
282.037506 112.0
282.127747 68.0
284.184113 68.0
284.298187 120.0
284.731262 92.0
284.785004 84.0
284.936157 52.0
285.080627 96.0
285.995422 136.0
286.65213 184.0
286.861084 100.0
286.98584 224.0
287.471558 160.0
288.088501 160.0
289.09024 136.0
289.201935 188.0
289.543884 132.0
289.730164 108.0
289.774231 152.0
290.083984 168.0
290.140228 200.0
290.445435 144.0
290.991791 64.0
291.183136 172.0
291.44693 96.0
291.654205 172.0
291.803802 204.0
291.847992 88.0
292.450134 184.0
292.514801 120.0
292.734314 168.0
293.076721 64.0
293.601685 100.0
294.069092 80.0
294.094574 152.0
294.782837 128.0
295.06311 92.0
295.145172 184.0
295.374298 144.0
295.40509 136.0
295.583008 108.0
296.075958 104.0
296.178711 104.0
296.521332 144.0
296.706421 132.0
297.052795 156.0
297.244904 200.0
297.38562 84.0
297.433685 196.0
297.663696 144.0
297.722076 76.0
297.93158 68.0
298.254608 76.0
298.467743 104.0
299.042267 84.0
299.386536 68.0
299.52774 104.0
299.906769 36.0
300.192322 184.0
300.5896 120.0
301.017639 120.0
301.097076 100.0
301.141968 120.0
301.743225 140.0
302.102905 184.0
302.390106 96.0
303.258759 148.0
304.55014 64.0
304.685608 56.0
304.911469 88.0
305.808777 84.0
306.846832 124.0
307.621307 76.0
307.726044 132.0
307.813324 184.0
307.956512 112.0
308.022888 120.0
308.309387 132.0
308.34082 120.0
308.952728 164.0
309.309662 80.0
309.407684 100.0
310.115295 172.0
310.357178 64.0
310.651764 220.0
310.67984 68.0
310.932465 156.0
311.220306 64.0
311.35025 96.0
311.409943 168.0
311.824524 128.0
312.067078 180.0
312.320282 148.0
313.228424 196.0
314.300171 64.0
314.688416 124.0
315.773254 48.0
316.077484 148.0
316.109344 112.0
316.700562 124.0
316.776093 112.0
317.168274 100.0
317.749847 112.0
318.807983 56.0
319.462189 180.0
320.024506 80.0
320.049408 88.0
320.466156 192.0
322.039337 72.0
322.135773 160.0
322.207214 160.0
322.321533 104.0
322.600311 104.0
322.668243 260.0
322.825562 112.0
323.000824 132.0
323.405151 152.0
323.612762 124.0
323.79541 188.0
323.900024 96.0
324.12854 164.0
324.246796 180.0
324.680603 144.0
325.251068 104.0
326.066376 100.0
326.699219 88.0
326.965485 108.0
327.026672 228.0
327.718079 172.0
328.029144 128.0
328.893707 32.0
329.724426 108.0
330.994171 184.0
331.215088 84.0
331.244049 112.0
331.660767 120.0
332.121246 72.0
332.248199 188.0
333.268402 128.0
333.510803 212.0
333.55188 132.0
333.715454 68.0
333.933655 236.0
334.443024 92.0
335.087585 88.0
335.17807 24.0
335.648895 92.0
335.692657 104.0
336.718109 220.0
336.904419 128.0
337.072479 136.0
337.704926 128.0
337.756134 152.0
337.876862 100.0
338.294037 112.0
338.901978 124.0
339.070557 120.0
339.422485 216.0
340.134216 116.0
340.167236 108.0
340.486664 160.0
340.56012 104.0
340.699707 80.0
341.137024 100.0
341.559906 64.0
341.78064 124.0
342.299652 104.0
342.424835 148.0
342.929596 116.0
344.453491 212.0
344.937561 128.0
345.055847 96.0
345.266602 112.0
345.873383 68.0
346.447052 228.0
346.75119 100.0
347.195465 124.0
347.229462 136.0
347.273956 76.0
347.459442 88.0
347.563324 120.0
347.662231 196.0
348.016144 132.0
348.127533 128.0
348.435822 216.0
348.833466 212.0
348.919342 172.0
349.696411 160.0
350.094757 192.0
350.459808 132.0
350.70575 132.0
350.735565 128.0
351.593414 60.0
352.101135 176.0
354.068298 96.0
354.735229 136.0
354.926422 112.0
355.616699 128.0
355.932037 52.0
356.363983 152.0
356.476715 112.0
356.777405 64.0
357.025543 132.0
357.172241 168.0
357.631287 140.0
357.672699 32.0
358.068024 128.0
358.13205 132.0
358.305328 160.0
358.535187 116.0
358.580414 100.0
358.610565 144.0
359.180023 112.0
360.282166 124.0
360.421967 176.0
360.818817 128.0
361.13266 120.0
361.200745 56.0
361.40506 132.0
361.666168 104.0
361.927368 168.0
362.14093 240.0
362.181122 140.0
363.00351 152.0
363.081207 436.0
363.108002 200.0
363.158997 120.0
363.31073 144.0
363.614288 144.0
363.883789 176.0
364.09024 152.0
364.244568 36.0
364.309143 104.0
364.411713 60.0
364.799347 156.0
365.027466 140.0
365.155151 204.0
365.598083 108.0
366.115814 48.0
366.180573 300.0
366.489136 60.0
366.855011 136.0
366.889313 196.0
367.667419 140.0
367.739929 128.0
368.255371 180.0
369.023468 176.0
370.313049 180.0
372.687622 120.0
372.96048 172.0
373.214203 120.0
373.633423 104.0
374.645905 204.0
375.185425 116.0
375.493896 116.0
375.7099 112.0
375.991577 160.0
376.200012 104.0
376.717468 188.0
376.810181 160.0
377.181183 132.0
377.339661 172.0
377.432465 92.0
377.645172 76.0
378.124908 116.0
378.182953 132.0
378.306824 172.0
378.841248 60.0
379.125458 124.0
379.166718 100.0
379.484558 124.0
379.651306 320.0
380.772888 140.0
381.056427 104.0
381.126373 76.0
381.289581 168.0
381.736633 156.0
381.783325 124.0
382.113953 112.0
383.028778 100.0
383.0755 120.0
383.114471 120.0
383.316803 312.0
383.995392 220.0
384.380127 96.0
384.900757 196.0
386.014404 112.0
386.374237 132.0
387.113983 140.0
387.168396 264.0
387.341156 176.0
387.599731 136.0
388.148499 128.0
388.185211 204.0
388.250458 40.0
388.407318 92.0
389.101929 148.0
389.196136 104.0
390.135132 108.0
390.182312 64.0
390.499878 84.0
390.579468 184.0
390.795837 88.0
390.921753 152.0
391.130341 104.0
391.173645 216.0
391.464996 132.0
391.839172 132.0
391.874634 136.0
393.250885 48.0
393.602234 120.0
394.086334 52.0
394.226379 132.0
394.716522 44.0
395.155579 136.0
395.278229 112.0
395.527557 124.0
396.347351 72.0
397.255249 168.0
397.445679 104.0
397.608368 140.0
397.933868 132.0
397.985474 72.0
398.247589 72.0
398.489899 120.0
398.577301 152.0
398.684601 168.0
398.740234 112.0
398.974762 48.0
399.066193 152.0
399.169586 108.0
399.670776 100.0
401.096497 164.0
402.253265 48.0
402.57666 40.0
402.868256 164.0
402.908203 124.0
403.179901 104.0
403.267822 196.0
403.319794 156.0
403.651611 144.0
404.056793 132.0
404.111603 144.0
404.183594 196.0
404.3797 148.0
404.45575 104.0
404.503784 116.0
404.675934 48.0
404.744202 152.0
404.792053 84.0
405.181366 8900.0
405.276703 92.0
405.376892 144.0
405.44101 56.0
405.549225 132.0
405.689514 72.0
405.73761 52.0
405.77771 52.0
405.829834 52.0
405.91803 48.0
406.025208 192.0
406.078461 92.0
406.186127 2084.0
406.499695 104.0
406.602875 56.0
406.772614 40.0
406.836823 184.0
406.889008 56.0
406.961914 52.0
407.187103 588.0
407.841064 148.0
407.925476 60.0
408.142578 40.0
408.200226 200.0
408.392181 60.0
408.430359 136.0
408.987396 88.0
409.285309 160.0
409.333618 120.0
409.643738 124.0
409.679993 104.0
409.815643 132.0
410.062775 112.0
410.107117 136.0
410.191772 124.0
411.200134 80.0
411.361572 172.0
411.567474 112.0
411.644196 172.0
412.088501 132.0
412.896942 164.0
413.248871 124.0
413.418823 68.0
413.645477 68.0
414.115173 136.0
414.325806 176.0
414.528381 172.0
415.165955 456.0
415.270264 84.0
415.574524 136.0
415.708405 172.0
415.761169 116.0
415.919464 80.0
416.167572 100.0
417.166504 208.0
417.748016 128.0
418.085724 164.0
418.377472 224.0
418.48056 128.0
419.062988 108.0
419.23819 44.0
419.303406 176.0
419.817078 108.0
420.171936 48.0
420.735138 196.0
422.296051 88.0
422.56604 60.0
422.958893 256.0
423.847595 164.0
423.999207 140.0
424.376343 112.0
424.58548 112.0
425.693481 156.0
426.21106 88.0
426.346649 164.0
427.000336 124.0
427.325287 80.0
427.670959 192.0
427.926178 32.0
428.012665 116.0
429.636505 60.0
429.884064 136.0
430.090424 88.0
430.152344 100.0
430.189148 144.0
430.272064 148.0
430.329865 152.0
430.523926 44.0
430.565247 144.0
430.660217 96.0
430.779999 192.0
430.939209 100.0
430.990723 104.0
431.044434 64.0
431.08783 80.0
431.234528 160.0
431.288269 108.0
431.391602 72.0
431.511475 124.0
431.632629 188.0
431.67276 156.0
431.718567 96.0
431.755463 36.0
431.792664 32.0
431.878815 160.0
431.907196 268.0
431.961761 136.0
432.010712 236.0
432.061523 180.0
432.13504 52.0
432.177368 148.0
432.212555 84.0
432.254181 256.0
432.269684 144.0
432.325043 76.0
432.376007 76.0
432.408478 156.0
432.418091 132.0
432.433319 160.0
432.487762 100.0
432.549835 148.0
432.58255 248.0
432.632874 200.0
432.690887 140.0
432.753815 136.0
432.76355 168.0
432.830475 108.0
432.883942 284.0
432.899292 128.0
432.910797 108.0
432.962219 240.0
432.998169 128.0
433.046326 156.0
433.058563 172.0
433.088837 392.0
433.178528 113444.0
433.31842 144.0
433.379944 140.0
433.417877 180.0
433.470337 100.0
433.5271 152.0
433.617859 260.0
433.666626 60.0
433.720428 152.0
433.755524 60.0
433.835876 164.0
433.854584 64.0
433.865601 232.0
433.946716 100.0
434.093384 172.0
434.180969 26720.0
434.292358 312.0
434.420746 156.0
434.495331 68.0
434.566284 156.0
434.621613 192.0
434.704315 196.0
434.745026 132.0
434.81665 44.0
434.83197 40.0
434.845154 36.0
434.879303 40.0
434.911072 116.0
434.96286 120.0
435.009827 80.0
435.089111 88.0
435.1828 5620.0
435.286041 180.0
435.337799 52.0
435.380035 52.0
435.441101 216.0
435.516388 108.0
435.551941 40.0
435.601776 60.0
435.640839 72.0
435.673706 128.0
435.713928 40.0
435.762421 60.0
435.775848 40.0
435.861816 128.0
435.932465 88.0
436.018646 132.0
436.058441 88.0
436.066711 80.0
436.180878 656.0
436.265625 64.0
436.341492 92.0
436.386841 88.0
436.398041 60.0
436.45166 124.0
436.53125 164.0
436.618561 152.0
436.64975 60.0
436.683899 188.0
436.733124 68.0
436.777252 120.0
436.788544 112.0
436.829102 96.0
436.869995 92.0
436.913177 60.0
436.981964 136.0
437.052704 172.0
437.126404 112.0
437.18042 196.0
437.219147 92.0
437.252441 56.0
437.302399 128.0
437.344025 80.0
437.393951 76.0
437.433807 120.0
437.560486 96.0
437.622925 48.0
437.710083 76.0
437.837708 76.0
437.924988 112.0
438.022736 76.0
438.164368 152.0
438.300171 100.0
438.339355 64.0
438.510223 56.0
438.616699 100.0
438.67276 44.0
438.827026 48.0
438.881226 108.0
438.972961 80.0
439.198181 52.0
439.385895 100.0
439.544434 132.0
439.824036 60.0
439.928406 76.0
440.00354 128.0
440.112091 48.0
440.283325 100.0
440.563171 84.0
440.792969 48.0
440.976837 60.0
441.141235 132.0
441.286163 76.0
441.415802 120.0
441.49942 44.0
441.788025 56.0
442.633453 76.0
443.136078 56.0
443.22406 32.0
443.2995 56.0
443.773163 56.0
444.914307 104.0
445.287994 48.0
445.628265 64.0
446.044312 40.0
446.557281 60.0
447.297821 68.0
447.352539 60.0
447.853607 88.0
448.06424 92.0
448.110565 64.0
448.86084 108.0
449.143402 96.0
449.240417 92.0
449.354309 60.0
449.594849 48.0
450.109833 64.0
450.213531 76.0
451.288696 56.0
451.385956 100.0
451.694672 76.0
452.833252 32.0
453.595947 116.0
454.312592 64.0
456.58075 48.0
457.555145 112.0
459.037903 44.0
460.090851 92.0
460.822083 80.0
461.629944 32.0
461.685516 132.0
463.80481 40.0
464.182098 92.0
466.754181 104.0
469.160919 68.0
473.325897 148.0
477.557129 84.0
480.401489 88.0
485.81723 76.0
486.260376 32.0
489.328613 100.0
492.989655 148.0
498.986816 80.0
505.172302 60.0
511.067413 48.0
511.166382 104.0
514.826782 88.0
516.177917 80.0
517.957764 72.0
519.080505 88.0
520.128479 108.0
521.150269 56.0
523.03302 88.0
528.939575 48.0
530.37323 68.0
530.992188 44.0
533.90387 96.0
539.191772 124.0
544.120239 96.0
548.306641 44.0
551.279358 68.0
552.8974 56.0
555.788635 44.0
557.136108 116.0
557.24884 132.0
557.56842 64.0
564.876587 80.0
565.49646 64.0
569.274841 40.0
571.661194 56.0
574.147949 172.0
574.481812 76.0
581.611633 48.0
585.881714 56.0
592.277405 120.0
596.737122 44.0
602.04834 60.0
602.756653 48.0
604.40448 116.0
613.643311 32.0
615.039368 84.0
619.415405 92.0
621.219727 60.0
621.780396 96.0
623.896362 64.0
631.880798 76.0
632.60144 76.0
637.019287 104.0
639.166077 152.0
641.943054 68.0
649.898193 56.0
652.07666 76.0
657.357727 68.0
675.313171 64.0
676.203064 92.0
677.76178 72.0
679.955322 88.0
683.213196 76.0
685.5354 68.0
687.929382 40.0
690.494873 116.0
693.182373 204.0
697.725708 64.0
698.509277 96.0
714.213989 100.0
726.344421 84.0
733.792419 52.0
740.200562 40.0
748.66095 48.0
756.906555 36.0
760.651001 52.0
769.398254 88.0
771.718689 180.0
772.10022 44.0
782.771606 80.0
792.227295 32.0
793.163635 172.0
801.029785 112.0
808.482544 84.0
812.647339 64.0
823.674377 64.0
824.251404 184.0
826.767456 148.0
828.94928 44.0
830.239075 56.0
832.052246 68.0
833.30426 140.0
833.695007 60.0
837.192627 88.0
838.713623 96.0
846.206055 176.0
855.710205 100.0
855.768433 140.0
870.550354 184.0
874.153809 64.0
875.401733 92.0
884.333923 68.0
886.756287 84.0
887.449829 56.0
900.057922 84.0
900.529663 32.0
903.153564 60.0
916.468689 88.0
918.783813 60.0
919.127686 108.0
924.064026 176.0
925.855713 112.0
929.966187 216.0
935.82019 112.0
936.654541 76.0
944.338989 48.0
949.440613 196.0
952.018005 72.0
955.447754 72.0
961.788635 72.0
961.99231 124.0
964.327148 52.0
970.387329 168.0
977.860107 144.0
980.020935 84.0
980.812378 64.0
990.059021 76.0
990.347107 124.0
993.587891 108.0
994.353455 144.0
997.280212 60.0
1000.142029 32.0
1000.249023 220.0
1010.041992 76.0
1013.504883 112.0
1014.027527 76.0
1017.322815 116.0
1019.11377 236.0
1021.764954 112.0
1022.426697 196.0
1035.81543 164.0
1036.218994 56.0
1038.141968 192.0
1041.967407 132.0
1045.606812 172.0
1048.311523 48.0
1054.118286 120.0
1059.074707 68.0
1059.508789 252.0
1059.903931 140.0
1060.714111 192.0
1061.505005 48.0
1063.14624 128.0
1067.778198 156.0
1075.329102 92.0
1075.86438 144.0
1080.105347 156.0
1080.857666 216.0
1080.936157 36.0
1082.350098 152.0
1082.415527 76.0
1083.345581 152.0
1083.509277 180.0
1084.590576 116.0
1087.102417 156.0
1089.643433 136.0
1089.965332 84.0
1091.431152 184.0
1095.505005 136.0
1095.966187 108.0
1098.398804 164.0
1098.939697 168.0
1100.140869 104.0
1100.206909 36.0
1103.391113 160.0
1103.787842 148.0
1108.991211 108.0
1109.53479 196.0
1110.509521 168.0
1111.212646 152.0
1111.351929 40.0
1111.809814 108.0
1112.593018 212.0
1112.639526 128.0
1113.33667 180.0
1114.173584 124.0
1118.449341 204.0
1121.773193 144.0
1124.661499 128.0
1125.188843 156.0
1128.263672 104.0
1128.917114 84.0
1129.632812 104.0
1133.95813 76.0
1135.077637 192.0
1139.138062 192.0
1139.890503 76.0
1140.57605 144.0
1141.241577 132.0
1141.779541 96.0
1145.87207 140.0
1146.3302 72.0
1150.856201 92.0
1152.686768 148.0
1153.713989 184.0
1153.977661 88.0
1158.071655 108.0
1158.722046 172.0
1159.074341 208.0
1162.451172 164.0
1162.580078 220.0
1163.258789 56.0
1167.171997 148.0
1168.886108 184.0
1170.826172 120.0
1171.459595 56.0
1173.108765 184.0
1173.50415 188.0
1173.797363 120.0
1174.963623 64.0
1177.43457 132.0
1180.161011 116.0
1180.824341 148.0
1181.145752 156.0
1181.412598 200.0
1183.575195 72.0
1184.26001 244.0
1184.808105 128.0
1185.232788 124.0
1186.356812 144.0
1187.611694 144.0
1188.263306 152.0
1188.997559 48.0
1189.608398 156.0
1191.123779 200.0
1191.435059 112.0
1191.895386 164.0
1196.400269 172.0
1198.11499 136.0
1198.624878 124.0
1201.996704 168.0
1202.38208 132.0
1203.328735 64.0
1203.377075 164.0
1204.32312 60.0
1204.378418 240.0
1206.741699 132.0
1209.155884 156.0
1211.447754 96.0
1212.791992 112.0
1213.22168 148.0
1213.665405 48.0
1214.671021 216.0
1214.830566 184.0
1215.77417 164.0
1216.253052 144.0
1218.287598 56.0
1223.607666 104.0
1223.935791 136.0
1225.021362 184.0
1231.620117 252.0
1234.660278 96.0
1236.153931 196.0
1237.214111 176.0
1237.942261 244.0
1238.411499 88.0
1239.609497 60.0
1240.864136 188.0
1242.028198 136.0
1242.308838 140.0
1243.396362 168.0
1244.484375 236.0
1244.793335 108.0
1245.025024 84.0
1245.481567 80.0
1249.080444 196.0
1249.83313 232.0
1254.023193 160.0
1254.509521 196.0
1259.908081 228.0
1262.360596 92.0
1263.676147 164.0
1265.77832 144.0
1270.484375 212.0
1270.917236 92.0
1273.359131 128.0
1273.522461 128.0
1273.685913 88.0
1274.055176 120.0
1274.836792 108.0
1276.151733 240.0
1276.201538 68.0
1278.079224 168.0
1279.24646 156.0
1279.922729 168.0
1280.513794 120.0
1281.568115 108.0
1283.024902 180.0
1283.884766 136.0
1284.198608 92.0
1284.255615 144.0
1285.389893 168.0
1285.903687 156.0
1288.074219 76.0
1289.047607 168.0
1291.433716 144.0
1292.75 184.0
1293.386963 104.0
1294.496704 168.0
1295.470703 204.0
1296.796265 80.0
1298.050781 196.0
1298.631714 96.0
1299.600098 132.0
1300.166992 140.0
1302.435791 172.0
1302.866699 40.0
1307.727539 116.0
1307.821167 140.0
1309.354614 176.0
1309.765259 232.0
1309.966919 68.0
1312.107178 92.0
1314.56665 184.0
1315.258667 176.0
1315.844238 120.0
1316.826294 112.0
1317.396973 148.0
1317.750854 164.0
1320.309692 200.0
1322.559814 80.0
1324.507568 96.0
1325.507324 236.0
1325.739136 148.0
1325.8479 176.0
1326.079712 192.0
1327.544189 96.0
1327.609497 224.0
1328.53064 156.0
1332.341797 184.0
1333.802368 148.0
1334.100464 216.0
1338.553101 172.0
1343.574829 208.0
1345.749634 164.0
1346.290039 140.0
1347.18103 256.0
1347.72168 160.0
1349.300293 176.0
1349.790161 116.0
1350.14856 272.0
1351.245728 156.0
1351.457886 176.0
1352.804443 40.0
1353.807495 264.0
1354.708374 160.0
1355.44104 164.0
1357.119507 172.0
1358.960449 144.0
1359.613525 96.0
1359.694214 40.0
1360.274048 108.0
1361.10376 36.0
1361.243164 240.0
1363.587524 144.0
1364.843628 196.0
1365.674683 188.0
1366.432373 148.0
1367.101929 136.0
1367.204956 144.0
1369.465088 116.0
1369.980713 128.0
1371.211182 188.0
1373.968994 120.0
1375.813843 156.0
1375.954102 204.0
1377.354858 176.0
1377.940796 188.0
1378.094116 180.0
1379.588745 200.0
1379.825317 244.0
1381.112061 156.0
1381.607666 132.0
1383.020996 224.0
1385.138672 48.0
1385.731323 152.0
1387.317261 180.0
1387.843628 148.0
1389.13916 172.0
1389.749756 172.0
1391.300903 132.0
1391.493896 120.0
1391.724121 348.0
1391.932007 152.0
1392.221558 164.0
1393.031128 116.0
1394.740112 188.0
1395.044922 144.0
1396.695679 72.0
1397.394897 196.0
1398.034912 240.0
1398.146484 92.0
1398.622803 104.0
1398.727051 172.0
1399.635254 220.0
1401.676147 212.0
1402.562988 168.0
1403.845337 152.0
1404.001953 172.0
1404.807495 112.0
1405.008911 64.0
1407.576416 228.0
1407.658447 52.0
1409.249512 156.0
1409.667847 248.0
1412.040649 160.0
1412.119995 56.0
1412.980103 60.0
1413.28064 104.0
1413.922974 188.0
1414.072632 184.0
1415.180542 96.0
1415.6073 140.0
1415.734619 44.0
1415.90686 104.0
1417.607422 76.0
1418.710693 216.0
1418.896606 128.0
1419.946289 192.0
1420.816406 128.0
1421.289062 92.0
1421.686768 140.0
1423.931396 188.0
1424.434692 112.0
1425.215942 196.0
1426.283081 144.0
1426.403442 228.0
1426.719116 104.0
1427.508545 180.0
1429.313843 176.0
1430.82666 204.0
1431.57959 128.0
1431.895874 100.0
1432.697266 140.0
1432.942871 168.0
1434.842041 100.0
1434.977783 180.0
1437.266968 144.0
1437.746094 112.0
1438.070557 148.0
1438.674438 168.0
1439.097168 92.0
1439.316162 160.0
1440.056274 192.0
1442.844482 140.0
1443.532593 136.0
1445.166382 116.0
1448.671509 188.0
1449.883789 128.0
1450.619019 64.0
1451.104126 68.0
1453.235352 172.0
1454.36499 188.0
1455.512451 164.0
1455.702271 148.0
1455.869263 120.0
1457.943237 180.0
1459.11377 204.0
1459.623169 212.0
1463.952881 176.0
1464.478394 172.0
1465.171509 172.0
1465.331543 168.0
1465.605835 76.0
1465.682007 180.0
1467.175781 168.0
1467.595093 160.0
1468.388184 152.0
1468.632202 172.0
1469.425537 172.0
1469.929199 180.0
1470.257324 148.0
1470.333618 140.0
1470.608398 60.0
1471.208008 216.0
1471.623657 192.0
1472.188721 180.0
1473.19104 212.0
1474.770874 148.0
1475.420654 152.0
1475.864014 92.0
1477.401245 220.0
1478.311768 136.0
1478.474121 136.0
1480.761475 120.0
1481.535156 148.0
1481.795654 120.0
1482.056152 288.0
1482.607788 148.0
1483.565918 72.0
1483.903198 92.0
1484.976807 156.0
1485.176147 124.0
1485.858887 128.0
1486.334595 200.0
1487.272583 156.0
1488.122925 216.0
1488.668091 136.0
1490.181274 44.0
1490.542358 124.0
1491.68335 228.0
1492.433228 156.0
1493.117554 136.0
1495.30249 120.0
1495.548828 56.0
1496.903687 168.0
1497.835571 148.0
1497.904907 148.0
1498.40564 144.0
1498.890991 216.0
1499.507568 136.0
1499.769531 36.0
1500.224365 184.0
1500.47876 104.0
1500.540405 136.0
1501.249756 116.0
1501.643066 212.0
1502.630493 192.0
1502.73291 152.0
1503.016235 236.0
1503.456055 224.0
1503.726196 108.0
1503.818848 168.0
