>compound MLS001074898-01!NU2058
>formula C12H17N5O
>ionization [M+H]+
>parentmass 248.15058661609052
#inchi InChI=1S/C12H17N5O/c13-12-16-10-9(14-7-15-10)11(17-12)18-6-8-4-2-1-3-5-8/h7-8H,1-6H2,(H3,13,14,15,16,17)
#inchikey MWGXGTJJAOZBNW
#Ion_Source LC-ESI
#Instrument qTof
#Compound_Source NIH Pharmacologically Active Library
#PI Dorrestein
#Data_Collector VP/LMS
#Scan -1
#Precursor_MZ 248.156
#ExactMass 247.143
#Charge 1
#CAS_Number N/A
#Pubmed_ID N/A
#Smiles Nc1nc(OCC2CCCCC2)c3[nH]cnc3n1
#INCHI_AUX N/A
#Library_Class 1
#SpectrumID CCMSLIB00000086098
#IonMode Positive
#UpdateWorkflowName UPDATE-SINGLE-ANNOTATED-GOLD
#LibraryQualityString Gold
#TaskID d252d724072548979f1f6f1ced849daf
##Scan# 1507
#SpectrumFile p5-E03_GE3_01_18460.mzXML
#LibraryName Pharm_Active_Library.mgf
#MQScore -1
#Organism Pharm_Active_Library
#TIC_Query 0
#RT_Query -1
#MZErrorPPM -1
#SharedPeaks 0
#MassDiff 0
#LibMZ -1
#SpecMZ 248.156
#SpecCharge 0
#internalFilename spec-00000.mgf

>collision 10
45.004078 200.0
45.135021 128.0
45.155079 120.0
45.21796 44.0
45.227329 200.0
45.294277 144.0
45.417595 136.0
45.461868 156.0
45.483341 144.0
45.675488 32.0
45.686844 208.0
45.715851 160.0
45.82761 152.0
45.842434 144.0
45.944904 152.0
46.156952 256.0
46.286854 60.0
46.334259 180.0
46.405464 196.0
46.419647 240.0
46.503757 156.0
46.528191 144.0
46.618385 248.0
46.658611 92.0
46.706207 132.0
46.823257 180.0
46.840965 168.0
46.875023 188.0
46.973953 128.0
47.011387 224.0
47.059162 92.0
47.091938 208.0
47.264183 200.0
47.288818 136.0
47.391521 216.0
47.402485 128.0
47.7388 204.0
47.945297 156.0
48.003197 52.0
48.014229 176.0
48.210262 220.0
48.221317 112.0
48.284744 132.0
48.319496 148.0
48.334713 128.0
48.377617 136.0
48.38731 136.0
48.475956 144.0
48.642384 156.0
48.772953 136.0
48.850822 48.0
48.877258 204.0
48.886997 136.0
48.914288 272.0
48.945461 120.0
48.979744 240.0
49.038799 136.0
49.104328 160.0
49.202003 180.0
49.285801 220.0
49.348698 188.0
49.394848 188.0
49.499813 180.0
49.590874 276.0
49.609013 136.0
49.630127 88.0
49.698853 108.0
49.752186 128.0
49.785885 160.0
49.805546 64.0
49.889858 140.0
49.944618 212.0
50.068554 40.0
50.08123 184.0
50.14463 120.0
50.306839 216.0
50.336491 212.0
50.366505 212.0
50.431141 68.0
50.504665 220.0
50.521641 192.0
50.537201 160.0
50.549938 140.0
50.565506 100.0
50.586735 48.0
50.615051 164.0
50.633461 180.0
50.694378 148.0
50.734062 176.0
50.982452 124.0
51.093357 128.0
51.109009 188.0
51.207233 124.0
51.352608 152.0
51.46106 96.0
51.575344 140.0
51.656849 192.0
51.668293 156.0
51.961987 196.0
52.043617 192.0
52.068207 136.0
52.084007 212.0
52.119923 112.0
52.164474 200.0
52.175297 188.0
52.21291 128.0
52.514366 152.0
52.563599 160.0
52.60527 176.0
52.651474 204.0
52.694809 192.0
53.039223 104.0
53.259773 200.0
53.352776 108.0
53.377491 120.0
53.550671 124.0
53.654129 232.0
53.839104 212.0
54.004585 52.0
54.029453 128.0
54.071884 256.0
54.153873 136.0
54.475746 148.0
54.557396 96.0
54.585331 160.0
54.595627 144.0
54.689785 200.0
54.785496 224.0
54.947662 52.0
55.028687 176.0
55.065754 160.0
55.107117 44.0
55.21946 220.0
55.246086 200.0
55.266335 204.0
55.388191 152.0
55.445976 164.0
55.474136 152.0
55.551247 184.0
55.586853 144.0
55.635834 172.0
55.713055 148.0
55.733856 68.0
55.744259 60.0
55.814121 36.0
56.032913 32.0
56.074635 104.0
56.274525 172.0
56.45084 148.0
56.462803 180.0
56.606464 116.0
56.648399 180.0
56.807301 80.0
56.826801 180.0
56.874825 152.0
56.98595 108.0
57.023518 116.0
57.044559 172.0
57.140808 172.0
57.151337 136.0
57.353134 168.0
57.395348 176.0
57.427017 148.0
57.644409 140.0
57.959145 156.0
57.981876 196.0
58.132008 256.0
58.245876 236.0
58.343128 176.0
58.382664 140.0
58.420689 84.0
58.47242 244.0
58.614044 164.0
58.774147 200.0
58.827564 172.0
58.899334 172.0
58.96809 220.0
59.070534 196.0
59.097244 148.0
59.121471 164.0
59.238918 140.0
59.269558 124.0
59.542614 176.0
59.587158 148.0
59.610207 216.0
59.651703 132.0
59.720898 104.0
59.797825 180.0
59.939503 124.0
60.025822 40.0
60.289795 156.0
60.483124 196.0
60.799297 156.0
60.8381 104.0
60.853626 200.0
60.886234 212.0
60.921223 228.0
61.013649 164.0
61.04319 200.0
61.072739 132.0
61.259529 164.0
61.278221 152.0
61.382652 176.0
61.401367 164.0
61.42334 152.0
61.47937 196.0
61.554298 208.0
61.626766 196.0
61.771538 204.0
61.82317 64.0
61.845951 180.0
61.993862 124.0
62.084785 128.0
62.177345 164.0
62.222866 172.0
62.269974 204.0
62.417694 184.0
62.460155 204.0
62.480606 96.0
62.507355 56.0
62.551422 172.0
62.614403 168.0
62.686867 148.0
62.730999 228.0
62.82877 104.0
62.899479 208.0
62.920971 224.0
63.209545 168.0
63.234863 208.0
63.384781 240.0
63.508965 160.0
63.543861 168.0
63.566078 152.0
63.584187 204.0
63.697849 216.0
63.737568 60.0
63.855206 188.0
63.866341 144.0
63.942707 160.0
64.035049 212.0
64.05735 120.0
64.099457 372.0
64.192818 196.0
64.245453 152.0
64.269386 140.0
64.438629 192.0
64.462593 100.0
64.580894 208.0
64.646492 176.0
64.792198 164.0
64.835457 216.0
64.84668 308.0
64.920425 128.0
64.981377 136.0
65.042358 44.0
65.114609 124.0
65.165367 192.0
65.235115 156.0
65.24958 268.0
65.279503 236.0
65.30265 108.0
65.334816 192.0
65.466805 136.0
65.503845 160.0
65.568298 140.0
65.63147 168.0
65.656967 68.0
65.715034 152.0
65.747307 112.0
65.784042 84.0
65.881325 68.0
66.102821 184.0
66.169189 180.0
66.401466 224.0
66.470657 168.0
66.535583 172.0
66.579422 136.0
66.634651 196.0
66.693153 172.0
66.709404 208.0
66.733795 108.0
66.784203 160.0
66.834633 104.0
66.942062 140.0
67.00396 112.0
67.166977 148.0
67.237129 100.0
67.371025 208.0
67.460899 160.0
67.480522 196.0
67.529579 144.0
67.591072 176.0
67.675217 180.0
67.758743 160.0
67.878395 228.0
67.899712 204.0
68.004623 144.0
68.280617 192.0
68.333366 76.0
68.353111 204.0
68.382736 104.0
68.407425 116.0
68.481522 160.0
68.544121 232.0
68.593567 244.0
68.664467 184.0
68.723846 144.0
68.779961 164.0
68.973213 204.0
69.021156 184.0
69.039963 268.0
69.122063 236.0
69.196541 144.0
69.223038 152.0
69.317451 244.0
69.395355 200.0
69.463348 196.0
69.498192 156.0
69.577858 140.0
69.763916 232.0
69.86702 176.0
69.941902 248.0
70.060135 180.0
70.088455 124.0
70.160126 60.0
70.288948 232.0
70.325264 220.0
70.341957 40.0
70.386909 160.0
70.408737 164.0
70.502296 156.0
70.600929 176.0
70.613228 56.0
70.649429 48.0
70.850319 148.0
70.935783 172.0
70.962608 56.0
71.00621 40.0
71.251274 196.0
71.283333 200.0
71.321854 152.0
71.437881 164.0
71.473213 172.0
71.631462 148.0
71.658417 168.0
71.676949 136.0
71.818565 180.0
71.941742 208.0
71.960312 120.0
72.029556 172.0
72.142769 196.0
72.193497 160.0
72.398262 128.0
72.533798 144.0
72.586357 216.0
72.681343 168.0
72.741653 120.0
72.773003 156.0
72.805267 128.0
72.863014 80.0
73.005791 188.0
73.070427 140.0
73.142456 184.0
73.187866 36.0
73.266212 200.0
73.469078 196.0
73.562935 164.0
73.68248 180.0
73.713234 192.0
73.976616 172.0
74.000587 136.0
74.1222 180.0
74.279922 144.0
74.637146 140.0
74.657776 256.0
74.733467 156.0
74.92112 184.0
75.141792 212.0
75.312691 132.0
75.392166 160.0
75.419815 192.0
75.504539 92.0
75.547775 116.0
75.863739 200.0
75.927101 108.0
75.968735 220.0
76.003433 188.0
76.041611 168.0
76.055496 112.0
76.112785 164.0
76.215263 56.0
76.246544 228.0
76.316078 100.0
76.363029 152.0
76.427391 196.0
76.455406 200.0
76.549164 184.0
76.575356 112.0
76.849045 220.0
76.977585 236.0
77.079521 136.0
77.126709 156.0
77.142441 156.0
77.184395 256.0
77.275352 112.0
77.299843 200.0
77.343597 168.0
77.539764 180.0
77.560799 176.0
77.608131 80.0
77.657227 184.0
77.788826 168.0
77.932838 140.0
77.962708 144.0
77.98204 196.0
77.994347 152.0
78.062912 136.0
78.117432 256.0
78.166527 84.0
78.203651 48.0
78.268784 160.0
78.284637 212.0
78.360374 164.0
78.381516 148.0
78.452568 96.0
78.527664 204.0
78.600166 152.0
78.644287 208.0
78.661934 48.0
78.750221 132.0
78.79438 164.0
78.863297 188.0
79.231361 216.0
79.243759 240.0
79.314644 212.0
79.337692 116.0
79.428131 148.0
79.442322 208.0
79.491997 40.0
79.506195 120.0
79.554115 208.0
79.586075 196.0
79.618034 176.0
79.69442 164.0
79.719299 148.0
79.909554 168.0
79.932686 140.0
80.007439 180.0
80.060852 152.0
80.080444 128.0
80.098251 212.0
80.22834 144.0
80.271126 156.0
80.322853 44.0
80.433479 192.0
80.447762 220.0
80.477654 156.0
80.495964 152.0
80.51918 112.0
80.554901 140.0
80.796242 172.0
80.898331 80.0
80.912567 52.0
80.954208 172.0
81.07019 176.0
81.17057 316.0
81.231552 136.0
81.264648 192.0
81.303314 156.0
81.403847 168.0
81.473892 220.0
81.491859 64.0
81.689613 260.0
81.714798 80.0
81.84079 120.0
81.865997 56.0
81.878609 224.0
82.150772 160.0
82.190697 156.0
82.324043 96.0
82.349327 204.0
82.383644 156.0
82.396294 136.0
82.473991 48.0
82.571625 168.0
82.694656 148.0
82.725906 240.0
82.940979 152.0
82.97361 164.0
83.118713 200.0
83.170418 232.0
83.294815 144.0
83.367485 136.0
83.507477 156.0
83.583878 136.0
83.612991 180.0
83.68763 188.0
83.718582 296.0
83.816948 216.0
83.875267 52.0
83.926315 112.0
83.975548 176.0
83.99926 444.0
84.013855 140.0
84.158035 156.0
84.450424 200.0
84.466881 132.0
84.497986 132.0
84.64624 148.0
84.693855 136.0
84.721161 172.0
84.844116 144.0
84.950478 220.0
85.003685 92.0
85.2957 184.0
85.345337 144.0
85.529305 60.0
85.547707 152.0
85.610313 208.0
85.706093 164.0
85.774284 192.0
86.080544 216.0
86.110092 160.0
86.192795 192.0
86.352203 128.0
86.428047 88.0
86.444702 128.0
86.498375 168.0
86.700256 240.0
86.809631 200.0
86.867126 180.0
86.969177 168.0
87.016899 248.0
87.288986 224.0
87.513145 208.0
87.67778 196.0
87.791504 236.0
87.927689 156.0
87.959419 224.0
87.99115 140.0
88.035965 120.0
88.054688 168.0
88.105072 160.0
88.223305 196.0
88.422951 152.0
88.554001 244.0
88.570862 196.0
88.638306 100.0
88.717018 224.0
88.979668 140.0
89.107376 104.0
89.242699 140.0
89.372475 108.0
89.737869 176.0
89.996353 200.0
90.039787 156.0
90.106934 212.0
90.131935 200.0
90.202278 164.0
90.219292 180.0
90.310051 152.0
90.325188 240.0
90.565575 296.0
90.604881 144.0
90.703896 256.0
90.734222 180.0
90.912521 136.0
90.98085 416.0
91.001732 92.0
91.032112 180.0
91.185989 152.0
91.248718 120.0
91.400879 196.0
91.4142 200.0
91.448456 92.0
91.501755 144.0
91.59697 92.0
91.762764 112.0
91.808533 168.0
91.993324 164.0
92.012695 52.0
92.054703 64.0
92.119637 40.0
92.149483 116.0
92.385353 344.0
92.477203 192.0
92.561432 120.0
92.852715 204.0
92.8834 164.0
92.902588 140.0
93.008125 132.0
93.044601 96.0
93.058037 140.0
93.111801 56.0
93.205933 188.0
93.227074 144.0
93.458771 212.0
93.532867 192.0
93.574326 160.0
93.669586 152.0
93.731232 168.0
93.976112 184.0
94.107353 148.0
94.244492 188.0
94.341118 120.0
94.360374 192.0
94.413361 188.0
94.495712 204.0
94.546143 84.0
94.631317 192.0
94.687469 124.0
94.712646 224.0
94.844322 128.0
94.85022 120.0
94.856651 176.0
94.897804 148.0
94.968498 44.0
95.053856 40.0
95.127609 160.0
95.201393 136.0
95.230522 124.0
95.281029 172.0
95.308228 204.0
95.329597 248.0
95.343201 152.0
95.358032 216.0
95.393738 136.0
95.430679 128.0
95.465675 108.0
95.531807 160.0
95.666077 168.0
95.695282 64.0
95.718643 192.0
95.827721 76.0
95.985603 188.0
96.040207 160.0
96.147514 168.0
96.293938 192.0
96.436562 188.0
96.452194 100.0
96.474388 192.0
96.480003 248.0
96.520622 60.0
96.549957 136.0
96.575378 144.0
96.634064 172.0
96.715401 220.0
96.751488 156.0
96.771072 144.0
96.790649 100.0
96.812187 132.0
96.839607 152.0
96.917969 184.0
96.9356 188.0
96.976753 168.0
97.000275 168.0
97.031723 196.0
97.102295 132.0
97.21035 144.0
97.406464 92.0
97.467369 144.0
97.542046 152.0
97.587265 172.0
97.646255 176.0
97.675758 196.0
97.829285 196.0
98.043938 180.0
98.083351 148.0
98.099892 184.0
98.123932 168.0
98.181938 60.0
98.39109 124.0
98.420708 148.0
98.444397 176.0
98.515503 188.0
98.560135 144.0
98.584656 152.0
98.612572 160.0
98.655807 56.0
98.673599 184.0
98.691399 184.0
98.772476 160.0
98.821938 232.0
99.132439 192.0
99.467987 88.0
99.662613 104.0
99.68248 148.0
99.720772 180.0
99.761978 136.0
99.811684 180.0
99.833557 372.0
99.859413 172.0
99.931023 184.0
99.99868 128.0
100.269539 156.0
100.391151 128.0
100.44899 156.0
100.54937 180.0
100.848335 160.0
100.864326 136.0
100.886314 176.0
100.991829 172.0
101.048302 156.0
101.131065 168.0
101.298546 124.0
101.346626 188.0
101.443565 140.0
101.460907 192.0
101.490936 72.0
101.929482 248.0
101.960663 100.0
102.002869 76.0
102.069214 256.0
102.113457 156.0
102.147652 192.0
102.292488 164.0
102.316689 220.0
102.367027 152.0
102.580589 132.0
102.788322 200.0
102.871071 124.0
103.010406 180.0
103.137703 144.0
103.288521 204.0
103.325768 140.0
103.356117 216.0
103.418854 116.0
103.54438 180.0
103.73024 148.0
103.795662 60.0
103.921417 232.0
103.964027 156.0
104.088417 188.0
104.15284 168.0
104.201599 232.0
104.268654 48.0
104.404861 200.0
104.431297 184.0
104.482155 160.0
104.559479 204.0
104.726425 188.0
104.758812 200.0
104.775314 164.0
104.842552 192.0
104.960785 140.0
105.195404 256.0
105.338348 156.0
105.65316 200.0
105.70636 160.0
105.876266 184.0
106.064758 76.0
106.150864 68.0
106.249313 120.0
106.275986 124.0
106.421028 204.0
106.588089 36.0
106.618912 108.0
106.705246 232.0
106.719635 188.0
106.740196 172.0
106.76693 148.0
106.820404 60.0
107.036568 3448.0
107.205414 156.0
107.279617 152.0
107.335281 200.0
107.465225 132.0
107.57254 232.0
107.646866 140.0
107.719154 136.0
107.75634 180.0
107.874138 156.0
107.969246 36.0
108.020638 148.0
108.036308 180.0
108.058189 96.0
108.076813 152.0
108.114059 176.0
108.136826 128.0
108.189964 184.0
108.213417 96.0
108.34182 64.0
108.379112 188.0
108.44796 232.0
108.495171 92.0
108.522125 40.0
108.704659 204.0
108.735786 112.0
108.874878 192.0
109.051147 716.0
109.08889 216.0
109.199089 56.0
109.33432 88.0
109.45089 204.0
109.586281 192.0
109.734253 196.0
109.778046 80.0
109.990845 252.0
110.035858 12260.0
110.061172 76.0
110.139099 32.0
110.164993 152.0
110.295807 56.0
110.316711 188.0
110.488197 68.0
110.605377 64.0
110.622124 176.0
110.806412 252.0
110.965698 208.0
111.038185 424.0
111.060066 164.0
111.270218 188.0
111.356003 104.0
111.498863 196.0
111.524086 176.0
111.608177 32.0
111.782761 192.0
111.81012 156.0
111.836823 180.0
111.958229 124.0
111.99678 164.0
112.113373 132.0
112.178711 36.0
112.208229 128.0
112.296791 72.0
112.319992 148.0
112.604935 224.0
112.619713 204.0
112.797203 120.0
112.873314 180.0
112.930412 160.0
112.951569 304.0
113.065819 176.0
113.271194 200.0
113.333473 180.0
113.468277 180.0
113.519157 136.0
113.659164 220.0
113.782265 168.0
113.835342 112.0
113.950043 124.0
113.97979 124.0
114.001038 200.0
114.34343 192.0
114.373222 136.0
114.660751 172.0
114.684196 112.0
115.059631 124.0
115.087387 128.0
115.119415 220.0
115.174202 172.0
115.362984 112.0
115.388641 152.0
115.623314 180.0
115.778069 192.0
115.889458 140.0
115.923744 152.0
116.005188 168.0
116.155289 36.0
116.228233 192.0
116.262566 116.0
116.316223 188.0
116.750221 172.0
116.82766 152.0
116.961067 112.0
117.098869 160.0
117.189339 140.0
117.39196 104.0
117.407051 212.0
117.42215 172.0
117.554146 152.0
117.605537 160.0
117.640076 136.0
117.834442 136.0
117.933846 176.0
118.080864 152.0
118.136719 188.0
118.1847 128.0
118.288574 88.0
118.418495 204.0
118.489975 128.0
118.524643 184.0
118.706718 184.0
119.030045 172.0
119.090851 176.0
119.121262 112.0
119.505882 148.0
119.575691 196.0
119.621399 100.0
119.734619 164.0
119.815216 116.0
119.832642 148.0
119.865326 416.0
120.071327 144.0
120.179306 140.0
120.268784 188.0
120.316803 152.0
120.380127 108.0
120.39978 144.0
120.537399 76.0
120.602966 52.0
120.714462 148.0
120.760384 168.0
120.788025 132.0
120.830383 216.0
120.913536 48.0
120.933235 136.0
120.972633 44.0
120.987953 188.0
121.239845 136.0
121.303406 116.0
121.364792 104.0
121.423996 152.0
121.544655 120.0
121.933342 184.0
122.012474 200.0
122.147011 224.0
122.529655 108.0
122.664574 216.0
122.758881 56.0
122.831665 160.0
123.007164 180.0
123.089882 184.0
123.125214 212.0
123.142883 216.0
123.244499 48.0
123.273224 168.0
123.377106 144.0
123.447861 200.0
123.469971 196.0
123.516418 108.0
123.549599 40.0
123.786423 108.0
123.830719 180.0
123.892738 192.0
123.912674 164.0
124.061157 56.0
124.076675 140.0
124.398346 136.0
124.467171 152.0
124.627098 108.0
124.687096 144.0
124.71376 100.0
124.731544 112.0
124.864952 160.0
125.12307 168.0
125.14756 200.0
125.348022 232.0
125.448318 76.0
125.475067 124.0
125.66687 216.0
125.682487 216.0
125.715965 168.0
125.840958 68.0
126.041985 228.0
126.086678 184.0
126.278946 224.0
126.294601 112.0
126.475838 172.0
126.634811 160.0
126.688568 208.0
126.758018 96.0
126.780434 36.0
126.825256 136.0
126.872475 124.0
126.919411 152.0
127.09436 292.0
127.246986 184.0
127.748856 212.0
127.838135 196.0
127.869644 132.0
127.88765 28.0
127.995705 92.0
128.119583 120.0
128.457718 180.0
128.527664 128.0
128.681137 184.0
128.724045 180.0
128.751144 44.0
128.936386 188.0
129.04715 144.0
129.169266 108.0
129.228088 152.0
129.280136 120.0
129.332184 184.0
129.425003 92.0
129.508789 92.0
129.673569 220.0
129.898666 208.0
130.050003 192.0
130.123337 144.0
130.30275 152.0
130.324158 208.0
130.447784 196.0
130.50502 236.0
130.623291 188.0
130.758545 224.0
130.896393 196.0
131.030777 224.0
131.208542 136.0
131.324829 112.0
131.397827 176.0
131.662613 152.0
131.690018 232.0
131.740265 172.0
131.854507 168.0
131.892059 188.0
131.987091 160.0
132.032837 160.0
132.110596 184.0
132.144913 132.0
132.165512 140.0
132.195251 120.0
132.211273 260.0
132.333755 184.0
132.520401 152.0
132.607483 260.0
132.708344 200.0
132.887238 108.0
132.919357 336.0
133.058792 224.0
133.121368 116.0
133.229309 104.0
133.286758 92.0
133.827271 76.0
133.90097 312.0
133.919388 188.0
134.01384 268.0
134.046692 1568.0
134.218979 96.0
134.288162 152.0
134.354889 224.0
134.389664 192.0
134.425323 240.0
134.454269 204.0
134.486588 168.0
134.516586 124.0
134.541977 152.0
134.580536 80.0
134.590012 184.0
134.593216 228.0
134.65744 104.0
134.67572 248.0
134.701324 120.0
134.725494 120.0
134.795486 116.0
134.849564 128.0
134.86972 108.0
134.89444 188.0
134.931076 200.0
134.948517 360.0
134.969772 176.0
134.994598 188.0
135.031387 85552.0
135.094299 96.0
135.12738 224.0
135.174377 124.0
135.193146 196.0
135.243301 96.0
135.262329 184.0
135.285233 200.0
135.331345 148.0
135.38559 124.0
135.412094 1360.0
135.441513 140.0
135.504059 84.0
135.544601 72.0
135.57901 92.0
135.612152 156.0
135.646088 112.0
135.731201 124.0
135.751801 68.0
135.821655 76.0
135.864304 68.0
135.917999 60.0
135.977097 172.0
135.994751 116.0
136.033356 7104.0
136.080719 44.0
136.110519 108.0
136.16449 100.0
136.192139 84.0
136.258072 56.0
136.276657 60.0
136.381226 112.0
136.495667 316.0
136.543976 44.0
136.562576 236.0
136.603287 48.0
136.673996 128.0
136.758743 52.0
136.802948 336.0
136.876572 88.0
136.921494 112.0
136.950699 160.0
136.972473 116.0
136.999832 104.0
137.036972 240.0
137.067947 148.0
137.090851 136.0
137.129974 108.0
137.207596 216.0
137.226257 48.0
137.557526 76.0
137.582031 88.0
137.618225 92.0
137.660248 136.0
138.013092 164.0
138.05751 176.0
138.101135 128.0
138.162766 76.0
138.244659 112.0
138.539673 164.0
138.811554 68.0
138.926483 156.0
138.97438 76.0
139.14473 76.0
139.313812 96.0
139.386642 180.0
139.468903 40.0
139.868774 136.0
140.160797 40.0
140.45784 244.0
140.516815 208.0
140.757568 28.0
140.807159 156.0
141.093079 208.0
141.298828 84.0
141.336685 128.0
141.395844 128.0
141.616028 108.0
141.675247 136.0
142.004715 48.0
142.185028 132.0
142.576889 104.0
142.681473 164.0
142.919296 140.0
143.171631 52.0
143.319321 116.0
143.355057 64.0
143.371735 80.0
143.657852 36.0
143.719879 76.0
143.736588 168.0
143.882187 68.0
144.066071 40.0
144.230942 72.0
144.247681 48.0
144.264404 80.0
144.285919 212.0
144.30983 68.0
144.388748 132.0
144.549026 96.0
144.723755 72.0
144.826736 172.0
144.865051 144.0
144.948914 108.0
145.131073 172.0
145.464554 120.0
145.865707 104.0
146.139862 168.0
146.361923 108.0
146.582901 100.0
146.69136 32.0
147.415405 60.0
147.618469 60.0
148.507263 212.0
148.592163 140.0
148.752335 100.0
148.973312 136.0
149.021896 236.0
149.165283 68.0
149.593414 176.0
149.632355 144.0
149.85643 164.0
149.970963 120.0
150.063599 52.0
150.087967 116.0
150.151382 184.0
150.71283 64.0
150.844803 72.0
150.898575 148.0
151.091782 152.0
151.130936 108.0
151.169952 144.0
151.31694 188.0
151.383057 128.0
151.485916 128.0
151.547165 144.0
151.569214 128.0
151.601074 196.0
151.637711 224.0
151.694214 88.0
151.73378 192.0
151.799637 136.0
151.843781 216.0
151.875656 180.0
151.896378 208.0
151.928406 312.0
151.956436 56.0
151.970596 172.0
152.002258 328.0
152.012146 152.0
152.017838 188.0
152.057892 74728.0
152.092407 356.0
152.121033 200.0
152.166168 240.0
152.189774 76.0
152.232788 84.0
152.286774 160.0
152.306427 80.0
152.31311 108.0
152.358536 220.0
152.376434 40.0
152.440323 96.0
152.460205 188.0
152.48793 152.0
152.505447 112.0
152.528809 88.0
152.548462 92.0
152.573044 60.0
152.600098 164.0
152.66684 80.0
152.759064 92.0
152.795425 104.0
152.81633 48.0
152.909866 112.0
152.929733 124.0
153.003571 100.0
153.04216 12036.0
153.093445 120.0
153.157486 36.0
153.175949 96.0
153.205521 76.0
153.268616 124.0
153.304062 152.0
153.323792 64.0
153.395264 116.0
153.453339 144.0
153.49881 72.0
153.525543 172.0
153.578751 116.0
153.631989 40.0
153.719666 188.0
153.743027 88.0
153.777573 100.0
153.834946 116.0
153.905945 80.0
153.930878 204.0
153.98497 44.0
154.044357 644.0
154.083878 128.0
154.113419 104.0
154.157745 64.0
154.185074 40.0
154.230392 60.0
154.249344 52.0
154.28157 100.0
154.318558 68.0
154.357834 88.0
154.38533 132.0
154.423691 148.0
154.632721 80.0
155.019058 68.0
155.044891 400.0
155.130585 104.0
155.192566 72.0
155.306641 84.0
155.507614 176.0
155.977051 96.0
156.154724 76.0
156.422302 84.0
159.051926 64.0
160.91983 32.0
161.329102 88.0
161.379669 60.0
161.440353 64.0
161.794586 68.0
162.296234 72.0
162.509277 76.0
163.291672 36.0
163.721039 68.0
163.775253 80.0
164.236603 52.0
164.279968 44.0
164.936218 124.0
165.015472 140.0
165.125427 80.0
166.083328 48.0
166.938553 48.0
167.906845 160.0
171.719345 88.0
172.31189 88.0
174.127182 148.0
182.361237 72.0
183.667099 28.0
185.042587 156.0
186.550964 84.0
187.198502 80.0
189.695694 52.0
192.117264 460.0
192.80867 32.0
193.112793 160.0
194.58699 64.0
196.733429 136.0
200.537048 96.0
202.914368 72.0
208.046783 36.0
209.003845 92.0
210.560486 168.0
213.583481 148.0
215.799805 80.0
216.519653 148.0
220.148636 68.0
224.105103 184.0
225.714462 120.0
229.401306 88.0
230.095154 164.0
230.318619 40.0
235.555389 96.0
236.683899 68.0
236.760452 36.0
236.926666 136.0
240.030106 116.0
240.12262 44.0
241.951889 120.0
242.416489 64.0
248.14386 148.0
249.134125 152.0
249.165543 148.0
254.135025 108.0
255.268982 44.0
264.250336 80.0
264.936676 144.0
271.819489 48.0
279.166229 64.0
281.024872 60.0
291.836975 108.0
297.734924 52.0
298.336212 76.0
310.191406 132.0
310.524506 120.0
311.858673 96.0
314.669739 100.0
314.715637 72.0
323.651093 44.0
324.819397 104.0
330.222229 68.0
334.143494 44.0
352.465942 72.0
360.92334 88.0
376.356842 96.0
392.547089 60.0
402.467224 88.0
408.257538 68.0
455.163727 84.0
476.972443 44.0
502.14621 128.0
507.010315 72.0
534.660645 36.0
541.229431 92.0
580.774231 76.0
594.087769 96.0
595.301147 84.0
619.729797 52.0
623.689941 124.0
634.642822 76.0
640.688904 96.0
666.366638 84.0
671.33374 112.0
677.64502 84.0
685.209534 188.0
718.451294 96.0
770.372803 152.0
788.173767 188.0
792.437256 132.0
797.493286 104.0
798.887817 100.0
801.900208 52.0
809.49292 188.0
816.001038 140.0
817.980713 128.0
823.066101 84.0
824.408447 48.0
830.970398 144.0
831.205627 116.0
846.428955 160.0
849.164246 180.0
854.793518 212.0
855.119385 52.0
866.593994 184.0
868.669312 60.0
872.286499 148.0
877.46698 152.0
884.005554 228.0
888.342468 204.0
889.932983 80.0
901.405029 176.0
901.966797 172.0
907.240479 184.0
914.081421 132.0
917.9245 188.0
918.039062 168.0
918.34668 172.0
922.899963 124.0
944.134399 84.0
944.617554 156.0
945.963806 260.0
946.025024 216.0
957.704102 148.0
961.582153 64.0
962.711914 96.0
965.919617 192.0
968.661743 112.0
978.722656 140.0
979.55719 144.0
981.090149 216.0
991.403259 152.0
992.418701 264.0
994.771301 124.0
1002.419128 128.0
1008.161621 168.0
1010.85553 168.0
1010.99469 104.0
1012.666077 164.0
1014.605042 152.0
1015.492798 116.0
1015.803589 168.0
1020.083496 160.0
1020.522156 136.0
1022.729614 172.0
1025.729614 216.0
1026.590332 212.0
1027.464233 196.0
1028.619263 164.0
1029.666382 192.0
1032.516724 176.0
1033.271484 160.0
1033.885742 36.0
1034.37854 208.0
1037.504639 112.0
1041.078491 120.0
1041.650146 200.0
1041.952026 216.0
1054.795288 116.0
1056.437744 164.0
1057.466553 160.0
1058.256348 200.0
1059.966309 188.0
1060.795898 96.0
1061.217285 156.0
1063.286499 152.0
1066.571167 216.0
1067.125488 220.0
1070.509033 164.0
1072.567749 192.0
1072.835083 184.0
1074.139282 248.0
1074.393677 172.0
1075.966431 184.0
1077.331299 148.0
1077.566528 160.0
1079.213501 168.0
1082.472046 168.0
1084.15564 148.0
1085.945435 216.0
1086.18811 176.0
1086.778442 68.0
1090.731934 164.0
1093.375854 88.0
1094.053833 84.0
1094.19873 32.0
1096.088989 208.0
1096.444824 132.0
1098.950562 156.0
1099.339844 104.0
1099.762329 140.0
1100.079102 112.0
1100.158325 80.0
1101.72998 196.0
1102.423828 196.0
1104.109497 132.0
1104.281494 200.0
1105.856079 172.0
1107.219971 264.0
1107.372314 152.0
1107.948608 144.0
1109.512573 216.0
1109.691528 136.0
1110.268433 212.0
1115.247803 144.0
1115.96582 136.0
1116.783691 76.0
1117.821533 200.0
1118.174194 184.0
1120.265015 156.0
1124.205444 76.0
1124.952881 208.0
1125.293335 140.0
1126.749268 192.0
1127.811768 104.0
1129.249268 252.0
1129.824585 52.0
1131.15625 220.0
1131.203125 144.0
1131.979736 44.0
1133.111694 188.0
1133.976074 92.0
1134.291138 220.0
1137.121582 156.0
1137.41687 112.0
1138.417236 208.0
1139.45166 168.0
1141.696655 160.0
1149.26123 152.0
1150.435547 136.0
1152.387329 196.0
1152.576538 208.0
1154.354248 160.0
1155.849121 216.0
1158.692871 152.0
1160.800781 168.0
1161.302612 136.0
1161.804565 144.0
1164.064697 244.0
1165.071045 212.0
1166.428955 180.0
1169.462524 184.0
1169.979858 132.0
1172.159424 164.0
1172.650024 208.0
1173.597534 244.0
1175.295898 220.0
1175.848633 208.0
1177.71936 112.0
1181.075439 272.0
1181.219116 96.0
1181.773193 132.0
1182.799683 272.0
1182.957153 148.0
1183.06665 240.0
1184.518433 184.0
1184.64856 124.0
1185.758545 172.0
1185.833984 84.0
1187.644043 144.0
1189.929077 168.0
1193.247437 236.0
1196.088623 204.0
1198.147583 152.0
1199.69812 160.0
1200.291016 200.0
1201.242798 124.0
1203.36145 168.0
1204.604492 176.0
1205.806763 220.0
1206.463379 128.0
1208.877319 208.0
1209.140259 152.0
1213.282349 120.0
1213.434937 172.0
1213.816162 144.0
1214.357178 160.0
1214.773315 236.0
1215.439331 140.0
1215.529541 120.0
1216.896851 128.0
1217.063599 152.0
1217.750977 192.0
1218.202515 180.0
1219.355957 192.0
1222.889038 204.0
1223.202271 160.0
1223.717407 128.0
1226.420288 200.0
1227.39624 216.0
1228.386597 180.0
1231.234253 108.0
1234.770508 152.0
1235.442017 148.0
1235.609863 204.0
1238.227783 208.0
1238.402954 96.0
1241.732056 148.0
1242.419434 164.0
1242.594849 188.0
1243.43689 200.0
1243.907104 152.0
1244.251099 68.0
1245.234131 44.0
1245.571289 40.0
1246.843872 160.0
1247.370117 184.0
1247.932495 224.0
1249.226562 116.0
1249.409424 192.0
1249.747192 196.0
1251.351807 120.0
1251.830688 148.0
1254.028687 208.0
1255.974731 80.0
1256.320312 164.0
1256.870605 48.0
1258.112793 112.0
1258.896484 176.0
1259.306152 148.0
1259.68042 164.0
1261.093628 148.0
1261.991455 176.0
1264.226685 188.0
1264.276123 188.0
1265.415771 44.0
1265.578613 172.0
1266.03894 88.0
1266.591309 108.0
1267.016357 168.0
1267.278442 152.0
1267.434326 144.0
1269.099976 156.0
1269.255981 144.0
1269.319824 136.0
1269.369507 196.0
1270.823486 156.0
1271.114502 128.0
1274.231445 104.0
1275.027222 136.0
1275.077026 156.0
1276.228638 160.0
1278.917603 64.0
1279.024414 144.0
1279.359009 160.0
1281.075195 140.0
1284.703613 188.0
1285.295776 160.0
1285.574097 180.0
1285.65979 200.0
1286.828491 176.0
1288.144409 148.0
1288.351562 256.0
1289.223267 184.0
1291.503906 168.0
1293.73645 160.0
1293.815186 144.0
1296.322021 240.0
1298.989136 204.0
1299.103882 60.0
1299.541504 56.0
1299.613281 196.0
1300.251953 180.0
1300.632324 140.0
1300.962524 144.0
1301.666138 148.0
1302.792114 160.0
1305.467407 200.0
1305.711914 80.0
1306.100342 196.0
1307.049927 148.0
1309.346313 196.0
1311.594238 64.0
1313.807251 212.0
1314.442871 176.0
1315.640991 136.0
1317.511353 140.0
1318.840942 88.0
1318.898804 56.0
1319.173462 196.0
1323.058228 132.0
1324.984497 168.0
1326.238159 156.0
1326.818115 104.0
1329.247803 156.0
1330.263916 192.0
1330.866455 208.0
1330.982666 140.0
1331.781494 76.0
1332.747681 204.0
1333.932251 120.0
1334.070312 156.0
1334.470215 192.0
1334.98645 156.0
1335.640991 176.0
1337.147095 172.0
1337.583862 216.0
1338.450195 176.0
1339.615479 160.0
1340.118164 240.0
1340.205566 144.0
1340.285645 156.0
1344.223267 136.0
1345.120972 184.0
1345.522461 264.0
1346.070068 212.0
1346.179565 152.0
1346.880615 176.0
1349.138672 196.0
1349.694336 224.0
1350.271973 140.0
1352.481567 144.0
1352.711792 188.0
1353.001221 172.0
1353.133057 188.0
1353.228271 208.0
1353.403931 184.0
1353.799316 128.0
1354.971313 108.0
1355.169067 188.0
1355.279053 144.0
1355.51355 148.0
1356.444214 208.0
1357.536621 120.0
1358.497437 148.0
1358.60022 136.0
1359.676392 120.0
1359.921021 96.0
1359.994385 156.0
1360.544922 216.0
1362.814331 232.0
1364.020874 188.0
1364.945801 112.0
1365.173828 212.0
1366.181396 88.0
1366.792114 172.0
1368.411377 148.0
1368.805786 196.0
1369.132935 104.0
1369.906372 136.0
1370.827271 232.0
1370.996826 192.0
1371.365234 176.0
1371.991821 172.0
1373.238037 160.0
1373.63269 224.0
1374.92749 188.0
1376.071655 180.0
1376.979858 132.0
1377.194092 56.0
1378.583008 176.0
1379.070679 184.0
1379.359009 148.0
1380.468018 92.0
1381.473877 184.0
1381.954712 152.0
1382.124878 68.0
1384.308594 108.0
1386.09375 104.0
1386.448364 188.0
1386.619873 156.0
1387.197998 120.0
1387.361084 152.0
1387.887451 220.0
1389.489502 352.0
1389.623047 104.0
1390.046021 192.0
1390.166626 212.0
1391.159302 128.0
1391.218628 120.0
1391.738403 164.0
1392.23584 152.0
1392.807739 180.0
1393.037964 36.0
1394.405151 168.0
1394.947754 100.0
1395.289673 152.0
1395.355469 196.0
1396.033203 236.0
1397.424194 116.0
1397.614624 220.0
1397.811157 240.0
1398.57019 160.0
1399.867676 132.0
1400.982788 200.0
1401.333008 156.0
1401.437256 192.0
1405.202393 160.0
1407.045776 160.0
1407.411621 204.0
1407.896973 184.0
1408.03894 132.0
1409.219116 124.0
1409.809448 156.0
1411.26709 176.0
1412.583252 116.0
1412.800171 128.0
1413.039673 140.0
1413.802856 260.0
1414.401611 188.0
1414.57373 152.0
1414.828247 144.0
1415.389771 164.0
1415.689331 164.0
1416.535645 176.0
1417.100464 340.0
1417.367188 176.0
1417.944214 108.0
1419.63855 144.0
1419.773438 80.0
1421.003662 160.0
1421.161255 132.0
1421.69397 144.0
1422.391968 164.0
1422.827393 180.0
1423.660767 224.0
1425.215698 140.0
1426.854126 124.0
1427.335327 136.0
1427.718872 168.0
1427.949829 228.0
1428.365723 172.0
1429.34375 132.0
1429.614624 164.0
1429.810303 120.0
1430.254272 252.0
1430.570435 152.0
1431.910767 196.0
1433.861938 112.0
1434.042847 208.0
1434.291626 108.0
1435.233887 228.0
1435.65625 176.0
1435.867432 204.0
1437.172363 120.0
1438.549072 152.0
1439.127197 228.0
1439.338623 216.0
1439.920166 148.0
1440.491699 212.0
1440.78125 156.0
1440.909668 108.0
1441.876831 164.0
1441.975098 188.0
1446.899414 72.0
1447.035645 160.0
1447.236572 200.0
1447.346313 116.0
1447.860962 136.0
1448.474487 156.0
1449.224487 40.0
1449.406372 196.0
1449.747314 196.0
1450.474854 160.0
1450.611328 232.0
1452.886353 112.0
1453.303589 204.0
1453.766479 152.0
1454.938721 292.0
1455.154297 180.0
1455.542725 52.0
1456.978149 140.0
1459.691528 192.0
1460.490112 172.0
1460.779175 168.0
1461.539917 56.0
1461.981323 56.0
1462.361816 148.0
1462.468384 188.0
1462.856567 136.0
1462.978394 144.0
1463.112671 224.0
1463.141846 144.0
1463.274414 180.0
1463.907227 128.0
1464.265137 100.0
1465.247314 204.0
1465.94873 112.0
1467.297852 228.0
1467.854492 260.0
1468.143799 208.0
1468.342529 128.0
1468.487427 120.0
1469.67749 236.0
1469.776611 144.0
1470.501587 128.0
1471.837524 200.0
1472.033447 180.0
1472.135376 112.0
1473.74707 144.0
1474.49585 100.0
1474.954834 176.0
1475.084473 132.0
1476.078369 92.0
1477.233154 136.0
1477.692139 208.0
1479.536621 144.0
1481.137085 184.0
1481.634888 172.0
1482.416504 204.0
1482.585083 128.0
1484.930176 184.0
1485.092041 152.0
1485.314453 156.0
1485.874512 180.0
1487.493652 340.0
1487.593506 132.0
1488.038696 124.0
1488.14624 228.0
1488.315186 124.0
1488.929443 196.0
1489.735962 96.0
1489.812744 84.0
1490.614258 108.0
1490.873047 156.0
1490.949951 76.0
1492.164429 128.0
1492.39502 184.0
1493.794678 180.0
1494.633301 172.0
1496.703857 180.0
1498.398315 216.0
1499.715942 140.0
1500.448242 164.0
1501.42749 236.0
1501.558594 172.0
1502.144897 164.0
1502.499756 128.0
1502.592285 100.0
1504.174316 216.0
