>compound Retapamulin
>formula C30H47NO4S
>ionization [M+H]+
>parentmass 518.3298564360906
#inchi InChI=1S/C30H47NO4S/c1-7-28(4)16-24(35-25(33)17-36-22-14-20-8-9-21(15-22)31(20)6)29(5)18(2)10-12-30(19(3)27(28)34)13-11-23(32)26(29)30/h7,18-22,24,26-27,34H,1,8-17H2,2-6H3/t18-,19-,20-,21+,22-,24+,26-,27-,28-,29-,30-/m0/s1
#inchikey STZYTFJPGGDRJD
#Ion_Source LC-ESI
#Instrument qTof
#Compound_Source Commercial
#PI Dorrestein
#Data_Collector Garg_Neha
#Scan -1
#Precursor_MZ 518.33
#ExactMass 517.323
#Charge 1
#CAS_Number 224452-66-8
#Pubmed_ID N/A
#Smiles [C@]12(CC[C@@](N1C)(C[C@H](C2)SCC(O[C@@H]3C[C@]([C@H]([C@@H]([C@]45[C@]([C@@]3(C)[C@H](CC4)C)(C(CC5)=O)[H])C)O)(C)C=C)=O)[H])[H]
#INCHI_AUX N/A
#Library_Class 1
#SpectrumID CCMSLIB00000078643
#IonMode Positive
#UpdateWorkflowName UPDATE-SINGLE-ANNOTATED-GOLD
#LibraryQualityString Gold
#TaskID 77f51c88eb8b467eb4a01dd2d0cb90d2
##Scan# 1159
#SpectrumFile Plate10_21_40_GC2_01_15744.mzXML
#LibraryName FDALibrary_2_04302014.mgf
#MQScore -1
#Organism FDALibrary_2_04302014
#TIC_Query 0
#RT_Query -1
#MZErrorPPM -1
#SharedPeaks 0
#MassDiff 0
#LibMZ -1
#SpecMZ 518.33
#SpecCharge 0
#internalFilename spec-00000.mgf

>collision 10
45.025467 152.0
45.144409 168.0
45.333164 172.0
45.417625 148.0
45.674183 168.0
46.189465 152.0
46.205696 172.0
46.258793 136.0
46.54726 140.0
46.608387 156.0
46.646442 160.0
46.849205 168.0
46.962345 184.0
47.018284 348.0
47.160328 140.0
47.346397 168.0
47.506767 160.0
47.574173 136.0
47.890282 152.0
47.949524 144.0
47.999153 172.0
48.008808 176.0
48.059845 224.0
48.364235 156.0
48.413723 168.0
48.654991 144.0
48.76334 148.0
48.827293 192.0
49.029163 168.0
49.564381 208.0
49.71162 212.0
49.891403 160.0
49.968754 160.0
50.278759 140.0
50.325344 192.0
50.352173 144.0
50.407269 144.0
50.501991 144.0
50.708706 300.0
50.772507 168.0
50.952484 168.0
51.337093 172.0
51.612694 184.0
51.645584 184.0
51.995178 160.0
52.029629 164.0
52.075581 160.0
52.286926 164.0
52.305637 160.0
52.671898 172.0
52.729694 176.0
52.813553 220.0
52.871426 148.0
53.35881 220.0
53.877644 152.0
53.987267 176.0
54.184875 148.0
54.198059 168.0
54.793114 184.0
54.806377 200.0
54.885059 136.0
55.222679 152.0
55.329224 160.0
55.444759 140.0
55.890255 140.0
57.001278 252.0
57.067413 152.0
57.308235 156.0
57.474094 140.0
57.484657 160.0
57.649258 160.0
57.762653 172.0
57.789883 164.0
57.824688 192.0
57.842854 152.0
57.859505 180.0
58.127785 144.0
58.494064 160.0
58.535172 152.0
59.173416 188.0
59.244858 148.0
59.368015 208.0
59.983021 140.0
60.067043 172.0
60.223732 168.0
60.287079 196.0
60.616692 156.0
60.787266 168.0
61.400204 180.0
61.550014 168.0
61.568752 208.0
61.593742 176.0
61.867405 200.0
61.884624 224.0
61.93317 184.0
62.444588 168.0
62.632153 156.0
62.678394 132.0
62.833931 196.0
62.868645 144.0
63.061325 212.0
63.092937 196.0
63.111912 224.0
63.384163 188.0
64.072144 180.0
64.346458 184.0
64.594162 156.0
64.805481 144.0
64.893639 168.0
65.337715 164.0
65.394287 152.0
65.631653 148.0
65.644554 148.0
65.80217 156.0
65.896355 144.0
66.109795 152.0
66.542587 188.0
66.763573 212.0
66.937698 144.0
66.981674 216.0
67.010368 136.0
67.115311 140.0
67.284996 152.0
67.381477 156.0
67.68721 180.0
67.931557 188.0
68.247307 164.0
68.313965 288.0
68.739258 168.0
68.876282 168.0
69.006836 168.0
69.212006 140.0
69.283226 160.0
69.34951 200.0
69.373138 220.0
70.19072 152.0
70.593498 216.0
70.86097 184.0
70.928009 200.0
70.959854 160.0
71.206894 168.0
71.697792 144.0
71.937302 152.0
72.287163 156.0
72.403969 168.0
73.086388 140.0
73.355476 152.0
73.683083 140.0
73.710472 184.0
73.768585 184.0
74.302895 204.0
74.412735 140.0
74.483147 192.0
74.660179 160.0
74.728981 196.0
74.785767 172.0
74.923531 164.0
75.180443 140.0
75.303024 168.0
75.657501 156.0
75.823784 140.0
75.964233 164.0
76.06411 176.0
76.079811 160.0
76.316788 148.0
76.73291 180.0
76.820107 144.0
76.895187 136.0
77.069763 184.0
77.136177 204.0
77.151909 144.0
77.622894 180.0
77.63868 164.0
77.657967 160.0
77.754463 152.0
77.940613 152.0
78.046074 156.0
78.31337 144.0
78.375221 176.0
78.528595 216.0
78.662697 188.0
78.841087 216.0
78.971916 168.0
79.026756 172.0
79.887207 204.0
80.018906 208.0
80.03315 148.0
80.209518 148.0
80.473549 168.0
80.773788 168.0
80.86824 172.0
80.893677 156.0
80.972466 156.0
81.318489 152.0
81.429802 236.0
81.582535 180.0
81.616699 180.0
81.693367 184.0
82.650253 148.0
82.662918 168.0
82.693687 192.0
82.780586 144.0
83.039742 192.0
83.11956 224.0
83.434967 220.0
83.565735 144.0
83.588379 188.0
83.972771 156.0
84.011078 144.0
84.076759 160.0
84.131523 216.0
84.3489 172.0
84.420204 172.0
85.144089 288.0
85.339828 152.0
85.489708 148.0
85.762283 188.0
85.875305 148.0
85.926407 152.0
86.225548 172.0
86.24588 140.0
86.960823 212.0
87.24131 212.0
87.699226 188.0
87.834068 104.0
88.58493 196.0
88.603661 176.0
88.693611 140.0
88.708611 236.0
89.025696 204.0
89.082039 164.0
89.11586 144.0
89.294884 120.0
89.36216 160.0
89.51651 148.0
89.770905 172.0
89.846352 152.0
89.902962 168.0
90.384827 144.0
90.73143 144.0
90.898338 164.0
90.947685 228.0
91.054054 556.0
91.135696 152.0
91.171799 264.0
91.492325 156.0
91.618942 148.0
92.05677 336.0
92.190186 196.0
92.41317 196.0
92.734886 156.0
93.071144 468.0
93.124374 176.0
93.231964 144.0
93.247337 208.0
93.393463 192.0
93.755692 168.0
93.878799 144.0
94.091042 168.0
94.405998 156.0
94.547569 156.0
94.601418 156.0
94.618835 140.0
94.870689 164.0
95.051064 144.0
95.064644 216.0
95.085503 1332.0
95.19471 156.0
95.45121 176.0
96.045212 200.0
96.078598 260.0
96.136223 148.0
96.388817 260.0
96.817223 172.0
97.019043 180.0
97.064804 836.0
97.100403 152.0
97.121773 176.0
97.317253 156.0
97.554977 204.0
97.706398 220.0
97.724106 176.0
98.049797 132.0
98.070702 156.0
98.09626 284.0
98.496902 176.0
98.63324 148.0
98.854752 156.0
98.894333 152.0
99.019066 172.0
99.044647 792.0
99.081612 160.0
99.365959 196.0
99.524742 156.0
99.770561 160.0
99.816841 172.0
99.874512 140.0
99.983192 132.0
100.048332 148.0
100.081482 156.0
100.137238 204.0
100.212936 212.0
100.571892 156.0
100.835945 156.0
101.059509 284.0
101.752975 148.0
101.891556 180.0
101.951836 180.0
102.032234 152.0
102.091751 220.0
102.523369 144.0
102.787537 212.0
102.844048 220.0
103.055244 280.0
103.381645 180.0
103.84964 144.0
104.020081 184.0
104.060684 224.0
104.135818 188.0
104.188637 188.0
104.255692 208.0
104.488579 320.0
104.723618 164.0
104.746025 244.0
104.907127 144.0
104.962059 140.0
105.070427 2840.0
105.10688 140.0
105.170151 212.0
105.204849 172.0
105.321243 172.0
105.341675 152.0
105.366188 156.0
105.879608 160.0
105.965637 192.0
106.073341 288.0
106.503105 164.0
106.581177 144.0
106.700684 108.0
106.792915 212.0
106.965759 204.0
107.050957 300.0
107.085426 2596.0
107.250015 168.0
107.299492 144.0
107.333046 136.0
107.505753 160.0
108.053314 164.0
108.086281 480.0
108.41568 152.0
108.492371 264.0
108.546997 184.0
109.064964 564.0
109.101112 5308.0
109.339836 156.0
109.408531 244.0
109.539726 184.0
109.850319 144.0
110.06646 108.0
110.104675 780.0
110.15242 100.0
110.303802 144.0
110.512589 164.0
110.868568 212.0
110.918869 164.0
111.081505 1148.0
111.121277 212.0
111.410141 144.0
111.586449 152.0
112.047356 156.0
112.083176 140.0
112.473328 168.0
112.490219 164.0
112.764809 304.0
113.058159 224.0
113.093498 136.0
113.156624 160.0
113.60968 148.0
113.63726 152.0
113.741249 188.0
113.877136 144.0
114.036484 232.0
114.366158 172.0
114.444931 248.0
114.645157 184.0
114.770927 156.0
114.845566 164.0
114.877563 152.0
115.05336 296.0
115.396523 148.0
115.719597 200.0
115.878082 148.0
115.931656 156.0
115.974518 144.0
115.993805 156.0
116.083855 176.0
116.143906 164.0
116.161064 144.0
116.446541 164.0
116.693665 140.0
116.762474 176.0
116.796303 176.0
116.842064 188.0
116.90876 156.0
116.971184 200.0
117.06884 624.0
117.473267 172.0
117.494843 140.0
117.760353 156.0
117.92804 132.0
118.056435 216.0
118.873116 204.0
118.901131 176.0
119.04895 400.0
119.085785 5824.0
119.177109 152.0
119.359695 188.0
119.385788 164.0
119.509781 160.0
119.64254 140.0
120.087379 596.0
120.383873 148.0
120.63295 216.0
120.777267 172.0
121.063416 1156.0
121.101379 4564.0
121.289642 152.0
121.425819 112.0
121.512886 140.0
121.638412 200.0
121.653778 156.0
122.080032 148.0
122.10498 612.0
122.339661 160.0
122.392502 140.0
122.672302 172.0
122.784073 156.0
123.081139 1432.0
123.117004 1588.0
123.144493 212.0
123.206345 160.0
123.316032 144.0
123.533524 172.0
123.814629 168.0
123.911301 324.0
123.968826 192.0
124.025902 156.0
124.050171 196.0
124.082329 320.0
124.112259 27864.0
124.207039 104.0
124.644295 264.0
125.05999 204.0
125.095734 1880.0
125.11528 3216.0
125.271698 292.0
125.395058 140.0
125.515602 124.0
125.630608 180.0
125.656281 400.0
125.704231 224.0
126.081642 300.0
126.099968 188.0
126.123505 540.0
126.173286 248.0
126.61409 140.0
126.896431 152.0
126.941277 152.0
127.074318 296.0
127.116356 160.0
127.20153 144.0
127.244675 184.0
127.731277 144.0
128.060959 308.0
128.191132 176.0
128.317581 204.0
128.669312 172.0
129.067505 284.0
129.13028 160.0
129.478821 188.0
129.666855 176.0
129.719955 168.0
129.797592 144.0
130.035049 164.0
130.075134 144.0
130.6754 124.0
131.085495 3160.0
131.269577 140.0
131.345551 116.0
131.441162 164.0
131.680359 172.0
131.890564 168.0
131.914963 116.0
131.966003 176.0
132.090164 244.0
132.269897 120.0
132.868378 188.0
133.064896 316.0
133.101044 9760.0
133.852112 156.0
133.948837 172.0
133.971878 176.0
134.02948 144.0
134.10524 1020.0
135.011215 168.0
135.080841 3940.0
135.117157 3040.0
135.408615 184.0
135.772476 176.0
135.978943 156.0
136.081619 316.0
136.123352 276.0
136.879242 192.0
136.934509 188.0
137.067291 268.0
137.095703 2116.0
137.13208 1476.0
137.169846 156.0
137.202484 148.0
137.267761 264.0
137.344406 316.0
137.989258 156.0
138.099869 332.0
138.135269 200.0
138.618881 140.0
138.67514 240.0
138.724365 156.0
138.907272 140.0
139.072922 980.0
139.1138 592.0
139.198746 168.0
139.46376 144.0
139.548401 164.0
139.802429 168.0
140.115601 156.0
140.156723 140.0
140.481003 140.0
140.69104 148.0
141.068497 424.0
141.090897 392.0
141.124313 184.0
141.272385 168.0
141.4617 144.0
141.563507 216.0
142.074768 576.0
142.141907 144.0
142.250122 140.0
142.289062 204.0
143.086456 3044.0
143.559662 184.0
143.812561 188.0
144.091507 932.0
144.473663 156.0
144.534271 208.0
145.066208 200.0
145.100693 5744.0
145.188873 124.0
145.643066 112.0
146.072342 172.0
146.106033 540.0
146.334442 156.0
146.760574 144.0
147.047974 168.0
147.081009 1520.0
147.116531 7984.0
147.160339 312.0
147.344086 140.0
147.646194 104.0
147.736618 156.0
148.082275 304.0
148.119278 1756.0
148.191772 168.0
148.30809 296.0
148.345505 156.0
148.480927 212.0
148.652481 164.0
148.751984 200.0
149.097046 7044.0
149.132812 3856.0
149.207077 176.0
149.58577 216.0
149.614975 164.0
149.731857 200.0
149.938934 180.0
150.099838 1268.0
150.136795 716.0
150.39415 168.0
150.915375 148.0
151.022964 152.0
151.074387 268.0
151.112747 1392.0
151.148346 156.0
151.272552 268.0
151.553513 156.0
151.583603 172.0
151.72821 208.0
152.113678 188.0
152.15506 280.0
152.914032 96.0
153.068436 272.0
153.092087 432.0
153.129105 540.0
153.476318 212.0
154.073807 288.0
154.145248 168.0
154.303436 152.0
154.323212 196.0
154.451813 144.0
154.530975 168.0
154.872589 252.0
155.085358 1228.0
155.110474 356.0
155.76442 140.0
155.887299 156.0
155.904694 212.0
156.009766 116.0
156.084946 4656.0
156.571411 164.0
157.100311 2920.0
157.258255 148.0
157.316589 168.0
157.677628 120.0
157.756607 180.0
158.030365 120.0
158.078857 260.0
158.105042 900.0
158.17186 168.0
158.292023 164.0
158.367523 136.0
159.080826 828.0
159.116409 7832.0
159.270126 164.0
159.327896 164.0
159.723938 132.0
160.092224 192.0
160.11972 1516.0
160.392365 204.0
161.095917 3056.0
161.132416 6208.0
161.171585 144.0
161.197449 180.0
161.222717 168.0
161.419907 148.0
161.490707 156.0
161.688049 212.0
161.804169 128.0
161.915909 144.0
162.100662 152.0
162.137009 1096.0
162.493851 172.0
162.557281 144.0
162.765427 180.0
162.886337 124.0
162.947296 212.0
163.005539 144.0
163.054855 180.0
163.077408 308.0
163.112091 29656.0
163.148376 2328.0
163.269577 156.0
163.450272 140.0
163.585739 140.0
163.658981 172.0
163.955063 196.0
164.003326 136.0
164.11528 3768.0
164.152008 748.0
164.289291 240.0
164.328354 164.0
164.71373 208.0
164.900253 152.0
165.040848 192.0
165.092941 1060.0
165.127396 2632.0
165.161148 336.0
165.208618 120.0
165.529922 180.0
165.61409 168.0
165.693497 156.0
166.091949 280.0
166.131531 480.0
166.737854 176.0
167.102676 404.0
167.140228 136.0
167.254837 156.0
167.736771 196.0
167.824738 200.0
168.093582 448.0
168.350571 140.0
168.428055 140.0
168.583069 200.0
169.101349 2276.0
169.315186 184.0
169.729813 140.0
169.792038 156.0
170.107224 1044.0
171.116226 4800.0
171.526276 144.0
171.914886 168.0
171.946213 152.0
172.073166 184.0
172.120163 912.0
172.175949 212.0
172.293488 148.0
172.322235 168.0
172.714355 212.0
173.097275 1008.0
173.13205 8852.0
173.193359 160.0
173.334824 172.0
173.411606 200.0
173.452759 164.0
173.52829 188.0
173.679733 200.0
173.793701 176.0
174.09819 104.0
174.135376 436.0
174.355652 168.0
174.42543 152.0
174.55806 264.0
174.805237 112.0
174.876389 144.0
175.073853 228.0
175.112198 8000.0
175.148712 7620.0
175.338776 128.0
175.408463 168.0
175.591812 172.0
175.651047 216.0
175.891174 160.0
176.116776 1432.0
176.151688 1036.0
176.472366 140.0
176.561295 156.0
176.772705 132.0
176.852692 156.0
176.895981 168.0
176.993622 140.0
177.088394 152.0
177.127228 7612.0
177.162369 644.0
177.210815 144.0
177.256226 140.0
177.958755 172.0
178.059662 156.0
178.096405 188.0
178.1315 1696.0
178.165024 280.0
178.41124 140.0
179.056992 256.0
179.109146 172.0
179.140839 968.0
179.263306 144.0
179.475372 156.0
179.699844 124.0
179.788361 216.0
180.111755 136.0
180.141388 196.0
180.610367 292.0
180.779144 96.0
180.884674 124.0
181.103973 400.0
181.119492 484.0
181.157455 144.0
181.188583 160.0
181.531662 180.0
182.108017 408.0
182.72963 140.0
182.993393 144.0
183.116074 3476.0
183.226425 148.0
183.276199 160.0
183.964584 188.0
184.120071 732.0
184.563705 144.0
184.647537 156.0
184.950562 144.0
185.06189 164.0
185.088745 108.0
185.132431 5456.0
185.164459 240.0
185.530258 160.0
185.988708 124.0
186.10051 132.0
186.134903 1308.0
186.967148 180.0
187.083572 160.0
187.112167 1840.0
187.147873 9400.0
187.188644 152.0
188.118439 204.0
188.15094 1016.0
188.461472 144.0
188.691055 156.0
188.846924 156.0
189.127625 4324.0
189.163055 3004.0
189.56694 188.0
190.130402 996.0
190.165253 172.0
190.2444 156.0
190.387177 172.0
190.895569 144.0
191.105362 164.0
191.143677 4032.0
191.175781 288.0
191.206436 144.0
191.421158 156.0
191.636002 204.0
191.682846 188.0
191.9207 96.0
192.108627 140.0
192.14566 748.0
192.179947 148.0
192.30336 192.0
192.331192 136.0
192.798325 144.0
193.016098 140.0
193.122604 1348.0
193.157822 2288.0
193.777252 140.0
193.846527 164.0
194.107437 292.0
194.160843 292.0
194.462189 176.0
195.117462 148.0
195.138 156.0
195.174133 144.0
195.791336 160.0
196.124802 404.0
196.423813 156.0
196.814529 160.0
197.074295 144.0
197.132599 3596.0
197.496414 140.0
197.835007 160.0
198.094742 152.0
198.136673 924.0
198.428925 164.0
198.502991 116.0
199.147766 2852.0
199.242813 176.0
200.11467 176.0
200.153366 468.0
200.587387 180.0
200.893753 216.0
201.079224 140.0
201.127411 2176.0
201.162903 5448.0
201.281189 128.0
201.539032 200.0
201.650482 112.0
201.731216 184.0
201.786636 152.0
202.130997 372.0
202.167496 1180.0
202.806854 200.0
203.046265 144.0
203.104568 148.0
203.143005 7200.0
203.179718 2256.0
204.068069 132.0
204.144745 768.0
204.179871 452.0
204.573669 228.0
205.120758 920.0
205.157928 2412.0
205.18898 124.0
205.389374 148.0
205.685074 176.0
206.129761 148.0
206.162018 668.0
206.222382 164.0
207.137482 936.0
207.173096 1224.0
207.361496 164.0
207.557709 152.0
208.145309 160.0
208.40892 144.0
209.032883 152.0
209.099701 164.0
209.131546 412.0
209.151749 672.0
209.289062 192.0
209.882629 184.0
210.070084 148.0
210.138947 376.0
210.696533 140.0
210.979752 176.0
210.999985 152.0
211.14827 4296.0
211.47728 192.0
211.635208 148.0
212.082642 148.0
212.152115 1108.0
212.530426 128.0
212.567413 128.0
213.163971 2484.0
213.514587 168.0
213.906784 316.0
214.020325 208.0
214.064011 264.0
214.092758 264.0
214.169479 1012.0
214.41777 128.0
214.705124 140.0
214.73645 140.0
214.78096 160.0
215.002701 164.0
215.143814 3880.0
215.179718 4504.0
215.492233 148.0
215.586838 148.0
215.665588 132.0
215.744598 172.0
215.804855 184.0
215.849548 136.0
215.874527 200.0
215.895187 104.0
215.942261 304.0
215.984024 160.0
216.017456 392.0
216.060959 260.0
216.106415 279460.0
216.184525 696.0
216.216034 332.0
216.313858 232.0
216.464096 192.0
216.505219 176.0
216.522766 108.0
216.558075 112.0
216.587433 2080.0
216.655991 96.0
216.685516 176.0
216.888474 172.0
216.981064 148.0
217.007446 144.0
217.108368 34080.0
217.157257 3292.0
217.193924 308.0
217.228333 288.0
217.368713 132.0
217.700211 128.0
217.919601 152.0
218.058441 180.0
218.102417 11228.0
218.163864 556.0
218.198349 132.0
218.457626 116.0
218.510666 164.0
218.561325 152.0
218.586456 208.0
218.709106 140.0
218.729416 268.0
218.774155 104.0
218.794693 196.0
218.850677 176.0
218.9328 96.0
219.035736 164.0
219.104797 1308.0
219.138092 740.0
219.172272 548.0
219.448792 116.0
219.635696 116.0
219.698975 116.0
220.140076 136.0
220.17543 392.0
220.209381 164.0
221.153 5696.0
221.962173 148.0
222.157761 976.0
222.480453 132.0
222.825562 144.0
223.166962 848.0
223.478607 184.0
223.715927 212.0
224.153854 312.0
225.00177 100.0
225.165237 2312.0
225.443878 120.0
225.990082 184.0
226.167175 1072.0
226.397186 252.0
226.703568 104.0
227.145279 360.0
227.17923 6556.0
228.144913 116.0
228.183472 2016.0
228.57843 120.0
228.633316 144.0
229.15744 3400.0
229.194565 4176.0
229.240005 172.0
229.43573 168.0
229.48024 156.0
229.538239 192.0
230.16394 1900.0
230.19809 944.0
230.262924 100.0
230.657532 172.0
231.175552 1556.0
231.210281 508.0
231.49559 144.0
232.179153 128.0
232.213593 252.0
233.152725 2484.0
233.190338 952.0
233.231216 152.0
234.101105 144.0
234.159164 312.0
234.191071 520.0
234.221481 160.0
234.916 176.0
235.167938 1756.0
236.067841 128.0
236.170883 428.0
236.246796 172.0
236.491592 212.0
237.161285 168.0
238.171265 348.0
238.310089 148.0
238.393051 156.0
239.17691 1740.0
239.297379 184.0
239.922791 204.0
240.181427 216.0
240.413223 140.0
241.196716 1492.0
241.704895 164.0
241.949402 200.0
242.161621 100.0
242.199814 548.0
243.174515 984.0
243.209534 1116.0
243.47496 180.0
244.057709 204.0
244.17511 404.0
244.216461 388.0
245.190445 10212.0
245.260834 176.0
245.616302 148.0
246.049118 120.0
246.075043 228.0
246.193237 2068.0
247.167191 1404.0
247.203644 1092.0
247.238525 240.0
248.173828 140.0
248.206055 112.0
249.178391 156.0
250.336319 200.0
251.035889 168.0
251.18985 108.0
251.666977 244.0
252.183167 284.0
252.232468 176.0
253.178482 160.0
254.059647 160.0
254.204529 108.0
255.206772 620.0
256.214447 268.0
257.191681 1128.0
257.225525 3800.0
257.500549 152.0
258.197388 476.0
258.228455 1340.0
259.204193 1600.0
259.349884 224.0
260.206879 564.0
260.241211 152.0
261.185852 320.0
261.289459 148.0
262.224365 120.0
263.442963 216.0
264.296509 200.0
265.102783 144.0
265.194427 116.0
266.884857 164.0
267.170563 208.0
267.210907 6424.0
268.212372 1708.0
268.421753 228.0
268.636078 96.0
269.215759 464.0
270.192963 144.0
270.221497 224.0
270.356995 136.0
270.676453 180.0
270.984344 184.0
271.490967 172.0
271.558014 144.0
271.955017 148.0
273.220367 324.0
273.967438 144.0
274.221161 276.0
275.197266 248.0
275.23764 820.0
276.241852 352.0
276.304779 180.0
276.380859 152.0
280.825775 180.0
280.979248 180.0
281.299591 148.0
281.708282 124.0
282.951508 148.0
283.205536 220.0
283.917664 140.0
284.911865 172.0
285.077606 152.0
285.109894 112.0
285.221375 13488.0
285.696259 220.0
286.162048 100.0
286.223816 3040.0
286.293793 176.0
286.960541 136.0
287.22702 656.0
287.412262 148.0
287.985077 140.0
289.280121 164.0
290.286377 172.0
292.654724 172.0
294.298157 160.0
294.445007 168.0
295.301788 116.0
296.669098 144.0
297.008575 168.0
297.042877 144.0
298.421021 172.0
299.166565 188.0
299.210327 132.0
299.831329 144.0
300.679718 224.0
301.72287 172.0
303.231873 8380.0
304.234406 2664.0
304.828461 156.0
304.916229 96.0
305.245972 116.0
305.693268 180.0
305.725647 164.0
305.764984 108.0
306.231323 116.0
306.375885 112.0
306.523102 160.0
307.310181 164.0
307.447205 192.0
308.037262 140.0
308.718811 148.0
309.30661 160.0
309.775818 152.0
309.979034 140.0
310.343567 196.0
312.880219 200.0
313.244141 212.0
314.763 144.0
315.321167 144.0
316.039032 220.0
316.145172 160.0
318.613007 172.0
319.526703 144.0
320.277802 172.0
323.083588 176.0
323.348358 172.0
324.333313 148.0
325.161835 156.0
325.685028 184.0
326.63858 196.0
327.104431 100.0
327.506042 176.0
328.374664 176.0
332.851227 172.0
333.308899 268.0
333.639648 172.0
334.487244 208.0
335.52182 160.0
337.292297 144.0
337.60672 144.0
338.216125 132.0
338.466675 176.0
339.181458 116.0
339.383026 216.0
340.244904 140.0
340.30365 156.0
343.150543 124.0
343.40213 148.0
343.948181 224.0
345.204346 172.0
345.489136 156.0
345.881378 176.0
346.914886 144.0
346.97049 164.0
347.556488 176.0
349.38446 192.0
351.376801 164.0
360.377289 164.0
361.638184 168.0
361.803131 140.0
363.383514 196.0
363.512512 168.0
365.556915 148.0
365.671112 180.0
366.22348 148.0
366.455536 148.0
367.912415 220.0
368.046051 148.0
370.202728 144.0
371.580017 208.0
371.724579 200.0
372.849762 152.0
373.038086 208.0
373.726501 204.0
375.957611 180.0
377.217438 152.0
380.447876 144.0
380.491028 208.0
381.893005 204.0
382.679077 192.0
383.933807 160.0
384.167816 296.0
385.046051 208.0
385.159332 152.0
386.666626 144.0
386.754272 132.0
387.240143 176.0
387.447754 196.0
388.419922 144.0
389.196991 176.0
389.625092 152.0
390.340424 144.0
390.801727 148.0
390.839996 172.0
393.374115 188.0
393.479004 120.0
393.626801 168.0
393.810516 124.0
394.666016 140.0
396.316528 176.0
397.451172 128.0
398.117432 168.0
398.45108 248.0
401.037628 148.0
403.77652 256.0
404.190491 144.0
404.938019 112.0
406.131561 140.0
410.648376 224.0
411.292725 144.0
411.94809 192.0
414.039215 140.0
414.282257 152.0
414.711761 184.0
414.87796 156.0
415.689148 144.0
417.956543 140.0
418.449036 148.0
418.550812 144.0
418.660767 244.0
419.728424 160.0
420.401489 144.0
422.452576 180.0
423.600525 136.0
423.957825 244.0
424.324127 164.0
424.771118 140.0
424.85318 188.0
425.071564 120.0
425.914764 176.0
426.557373 172.0
426.952087 216.0
427.24411 140.0
427.704987 152.0
428.890961 112.0
429.651428 140.0
429.802673 140.0
429.968658 144.0
430.454865 172.0
431.171295 148.0
431.295105 148.0
432.567535 152.0
432.960876 156.0
433.860016 188.0
434.075623 148.0
434.152679 244.0
435.744202 176.0
435.891724 220.0
435.972717 156.0
437.261963 204.0
437.349365 188.0
439.52478 172.0
439.604065 192.0
439.637451 168.0
440.781616 140.0
441.099243 188.0
441.287384 148.0
441.534088 156.0
441.847961 108.0
442.375092 160.0
443.032562 156.0
443.963074 168.0
444.613312 172.0
446.184265 156.0
446.222107 152.0
447.922272 160.0
448.082336 144.0
449.026581 140.0
450.575714 144.0
450.913757 160.0
451.243469 172.0
451.46759 144.0
451.597351 252.0
451.85672 144.0
452.395782 160.0
453.35141 160.0
453.44043 140.0
455.029114 108.0
456.292938 184.0
456.964905 160.0
457.914185 184.0
458.885742 164.0
459.349731 116.0
459.75592 152.0
460.738007 196.0
463.377686 168.0
463.416229 172.0
465.732758 144.0
466.305756 168.0
466.390167 152.0
467.056641 156.0
469.007172 148.0
469.084747 184.0
469.281158 108.0
469.706299 112.0
469.783356 192.0
471.156158 148.0
471.344604 188.0
471.68335 144.0
471.931519 136.0
472.003296 172.0
472.171631 116.0
472.483368 184.0
474.575256 152.0
475.455841 156.0
475.798737 140.0
475.905396 128.0
476.484924 208.0
477.664337 300.0
477.897949 216.0
479.121368 188.0
479.578888 168.0
480.075897 152.0
480.346313 168.0
481.535431 184.0
481.901031 156.0
482.897156 152.0
484.008698 168.0
484.043732 176.0
484.880463 144.0
485.946014 196.0
486.068878 176.0
488.282959 140.0
488.432495 160.0
489.493134 144.0
489.541595 168.0
489.717743 260.0
492.28891 228.0
492.688477 136.0
494.790985 164.0
495.318481 152.0
495.641907 164.0
496.846069 148.0
497.908722 148.0
498.117493 228.0
498.40625 140.0
498.595612 132.0
499.562195 156.0
500.091705 168.0
501.365448 140.0
501.851349 156.0
502.112396 236.0
503.16806 160.0
503.743591 168.0
504.079315 140.0
506.620026 180.0
506.736481 144.0
507.148773 164.0
507.31015 144.0
507.697418 288.0
507.776459 168.0
507.82132 184.0
508.608368 240.0
509.49115 164.0
510.102295 152.0
510.556427 140.0
510.857758 168.0
511.285217 216.0
511.316711 176.0
511.379791 256.0
511.466949 116.0
511.504974 136.0
511.705566 120.0
511.933289 100.0
512.034485 104.0
512.170776 108.0
512.644287 132.0
512.876343 132.0
512.954468 112.0
513.019348 200.0
513.102295 128.0
513.156006 112.0
513.439819 216.0
513.64325 100.0
513.774414 204.0
513.887939 116.0
513.934875 260.0
514.127747 120.0
514.167908 116.0
514.347107 116.0
514.42749 104.0
514.646667 100.0
514.774963 108.0
514.814331 160.0
514.870056 224.0
515.006165 128.0
515.157959 268.0
515.188232 176.0
515.315613 196.0
515.386475 220.0
515.61554 180.0
515.674438 168.0
515.760437 184.0
515.804871 116.0
515.885986 128.0
515.977844 104.0
516.032043 124.0
516.097656 240.0
516.165466 96.0
516.247681 492.0
516.297363 232.0
516.387207 208.0
516.447388 236.0
516.49884 156.0
516.545471 116.0
516.626343 168.0
516.640564 224.0
516.748657 124.0
516.827759 228.0
516.849121 152.0
516.866821 212.0
516.937927 444.0
517.022949 200.0
517.085876 336.0
517.11377 148.0
517.176453 116.0
517.262939 272.0
517.272827 296.0
517.372131 288.0
517.435547 332.0
517.511536 244.0
517.567871 180.0
517.636047 312.0
517.682007 224.0
517.712524 176.0
517.773438 464.0
517.822449 184.0
517.884033 164.0
517.935547 264.0
517.980713 164.0
517.99353 172.0
518.010498 344.0
518.041199 416.0
518.092529 312.0
518.128418 380.0
518.185669 488.0
518.245056 548.0
518.33313 241544.0
518.445618 108.0
518.492188 204.0
518.633118 312.0
518.690979 224.0
518.743958 404.0
518.817932 488.0
518.864746 492.0
518.960571 108.0
519.018433 564.0
519.080688 9104.0
519.183228 376.0
519.258362 412.0
519.334656 219836.0
519.452698 516.0
519.496216 240.0
519.61908 300.0
519.680481 200.0
519.755188 216.0
519.833252 556.0
519.886719 336.0
520.000854 176.0
520.020935 144.0
520.082092 368.0
520.116699 480.0
520.136841 780.0
520.178589 436.0
520.25592 436.0
520.332703 58952.0
520.493591 204.0
520.594604 300.0
520.723938 108.0
520.762451 160.0
520.852112 208.0
520.8927 272.0
520.915955 296.0
520.95929 272.0
521.057678 124.0
521.073364 144.0
521.091553 120.0
521.169983 268.0
521.218079 196.0
521.259338 360.0
521.33136 11860.0
521.442017 200.0
521.510132 124.0
521.620728 192.0
521.636902 164.0
521.652893 348.0
521.713989 424.0
521.769043 164.0
521.861267 160.0
521.941589 148.0
521.981934 192.0
522.016785 360.0
522.125732 324.0
522.16803 276.0
522.202148 324.0
522.255493 396.0
522.334229 1416.0
522.397827 432.0
522.44458 308.0
522.527832 184.0
522.583252 276.0
522.621826 228.0
522.669678 196.0
522.71283 204.0
522.842529 192.0
522.898743 160.0
522.980103 172.0
523.120361 184.0
523.226379 208.0
523.292175 308.0
523.307556 172.0
523.466736 152.0
523.492126 104.0
523.575256 192.0
523.839417 120.0
523.994934 100.0
524.38269 104.0
524.451416 280.0
524.519592 208.0
524.565186 120.0
524.766785 100.0
524.996948 152.0
525.11084 100.0
525.14679 188.0
525.235962 104.0
525.322449 124.0
525.546509 112.0
525.92865 112.0
526.236328 148.0
526.477173 160.0
526.659729 140.0
528.067627 148.0
528.20105 120.0
528.601074 112.0
532.371033 196.0
532.603516 148.0
534.082886 100.0
534.562561 108.0
535.542236 120.0
536.032715 168.0
536.437561 104.0
536.477356 164.0
536.8302 164.0
538.022278 164.0
538.08844 100.0
538.96875 96.0
539.609375 100.0
539.976257 108.0
546.062988 108.0
553.442627 140.0
577.340515 160.0
693.477905 156.0
695.62323 140.0
699.400208 124.0
719.611267 140.0
729.748291 220.0
767.792236 160.0
771.72113 96.0
779.421448 116.0
784.279114 104.0
810.543945 184.0
853.6745 148.0
908.600342 168.0
976.287476 100.0
1041.82373 196.0
1112.173706 164.0
1134.151733 180.0
1148.567993 140.0
1178.787231 192.0
1207.772827 188.0
1215.955444 140.0
1240.669189 196.0
1252.664917 156.0
1257.81958 156.0
1280.338013 172.0
1284.536133 160.0
1285.848999 224.0
1302.689819 208.0
1312.62207 148.0
1317.327759 252.0
1336.205688 192.0
1344.089111 156.0
1355.258179 136.0
1362.260864 192.0
1374.755493 188.0
1375.737061 176.0
1379.157227 164.0
1380.303101 188.0
1381.892334 144.0
1393.689819 264.0
1403.75354 148.0
1407.297852 156.0
1408.978271 204.0
1426.076294 176.0
1429.658203 164.0
1448.109619 188.0
1467.900391 136.0
1472.470459 188.0
1475.358765 160.0
1476.681641 192.0
1481.955933 204.0
1486.057861 232.0
1492.709717 152.0
1493.324951 156.0
1500.386108 276.0
1502.136719 152.0
1509.83728 180.0
1525.31311 168.0
1539.118164 140.0
1541.242798 184.0
1542.891846 152.0
1543.439209 160.0
1555.716187 212.0
1556.682007 156.0
1560.233398 200.0
1564.458008 152.0
1587.331177 224.0
1597.807617 180.0
1609.699585 144.0
1612.791382 172.0
1614.43042 188.0
1620.369629 184.0
1625.733887 160.0
1626.47229 164.0
1632.047607 156.0
1632.682861 164.0
1647.901733 144.0
1653.570312 164.0
1653.861694 156.0
1654.881714 148.0
1657.919312 168.0
1666.927002 152.0
1667.723389 172.0
1668.032227 260.0
1669.983765 220.0
1670.813477 204.0
1676.643555 180.0
1679.689209 224.0
1683.74939 212.0
1686.944092 140.0
1689.641235 208.0
1690.010986 216.0
1690.101074 228.0
1691.246704 220.0
1692.589355 172.0
1692.761353 172.0
1693.875122 232.0
1695.71875 176.0
1696.14502 176.0
1696.858154 184.0
1697.284546 184.0
1697.78479 244.0
1701.567505 168.0
1703.291992 156.0
1704.46936 152.0
1709.919067 140.0
1712.907837 168.0
1713.319824 140.0
1717.062012 196.0
1726.865479 180.0
1728.511719 176.0
1729.811157 172.0
1729.877441 164.0
1730.340942 156.0
1732.179443 180.0
1735.469604 200.0
1736.630493 192.0
1738.298096 144.0
1741.27002 184.0
1741.84314 204.0
1742.499512 172.0
1744.045166 152.0
1744.203003 212.0
1745.849243 156.0
1749.443726 196.0
1750.834229 212.0
1752.675171 192.0
1756.643677 140.0
1760.758545 140.0
1764.610718 212.0
1768.534058 192.0
1769.295776 212.0
1769.898682 160.0
1772.210449 160.0
1773.894897 140.0
1774.892578 184.0
1775.177734 176.0
1777.786621 140.0
1780.473022 152.0
1782.514404 228.0
1785.553467 172.0
1786.491211 200.0
1788.07312 140.0
1788.813843 188.0
1793.851196 144.0
1798.861938 168.0
1799.968018 152.0
1803.301025 112.0
1809.310791 180.0
1809.937256 156.0
1811.470215 164.0
1811.910767 184.0
1813.453003 144.0
1814.32605 244.0
1821.377808 172.0
1824.717529 152.0
1826.571411 164.0
1827.379639 244.0
1829.660522 208.0
1832.87146 180.0
1835.590576 152.0
1837.543945 172.0
1842.648926 148.0
1845.529663 160.0
1847.43689 368.0
1849.096924 156.0
1850.783325 156.0
1852.804565 204.0
1853.51709 128.0
1854.638428 140.0
1856.344482 212.0
1857.133545 160.0
1857.382202 172.0
1857.811157 204.0
1858.274414 160.0
1860.016479 164.0
1862.300537 156.0
1862.545166 116.0
1863.958618 144.0
1864.448364 156.0
1865.866699 176.0
1866.692139 176.0
1869.281372 168.0
1869.926758 148.0
1872.12207 148.0
1872.397705 144.0
1872.918213 172.0
1873.112549 148.0
1874.223877 240.0
1883.31665 380.0
1883.558594 148.0
1884.526123 156.0
1885.78772 184.0
1886.32373 172.0
1888.355591 180.0
1890.74353 192.0
1892.777832 212.0
1894.977783 196.0
1898.462402 128.0
1899.962891 172.0
1906.822754 144.0
1909.584473 152.0
1909.896362 184.0
1911.936523 140.0
1912.772095 156.0
1912.902588 148.0
1913.45105 164.0
1915.088135 164.0
1915.166504 176.0
1917.161743 156.0
1917.309814 196.0
1922.446411 160.0
1923.746826 152.0
1924.611206 148.0
1926.918213 144.0
1943.105103 168.0
1947.942261 148.0
1949.066772 176.0
1952.134644 168.0
1956.525146 172.0
1958.673828 188.0
1962.463379 144.0
1963.556763 156.0
1964.597656 144.0
1965.541626 148.0
1965.806396 188.0
1966.750732 192.0
1971.572998 152.0
1975.348389 140.0
1975.539429 212.0
1977.949951 184.0
1978.720093 160.0
1986.217163 200.0
1991.525024 140.0
1993.053101 140.0
1993.736328 196.0
1993.994995 160.0
1995.150635 220.0
1998.379028 168.0
1999.250977 144.0
1999.473511 168.0
1999.998657 180.0
2000.372437 168.0
2001.37854 168.0
2001.467529 188.0
2001.877197 172.0
2002.6698 152.0
