>compound MLS001157821-01!
>formula C20H21N3O4
>ionization [M+H]+
>parentmass 368.161835
#inchi InChI=1S/C20H21N3O4/c1-27-19(25)14-4-2-5-16(9-14)21-20(26)22-10-13-8-15(12-22)17-6-3-7-18(24)23(17)11-13/h2-7,9,13,15H,8,10-12H2,1H3,(H,21,26)/t13-,15+/m1/s1
#inchikey UHBPGAZIRSJCPQ
#Ion_Source LC-ESI
#Instrument qTof
#Compound_Source NIH Natural Product Library
#PI Dorrestein
#Data_Collector VVP/LMS
#Scan -1
#Precursor_MZ 368.161
#ExactMass 367.153
#Charge 1
#CAS_Number N/A
#Pubmed_ID N/A
#Smiles COC(=O)c1cccc(NC(=O)N2C[C@H]3C[C@@H](C2)c4cccc(=O)n4C3)c1
#INCHI_AUX N/A
#Library_Class 1
#SpectrumID CCMSLIB00000080205
#IonMode Positive
#UpdateWorkflowName UPDATE-SINGLE-ANNOTATED-GOLD
#LibraryQualityString Gold
#TaskID b1d8e8f6646f4e71acdff9ca3d919d08
##Scan# 1627
#SpectrumFile p2-E05_GE5_01_18029.mzXML
#LibraryName NIH_Natural_Products_Library.mgf
#MQScore -1
#Organism NIH_Natural_Products_Library
#TIC_Query 0
#RT_Query -1
#MZErrorPPM -1
#SharedPeaks 0
#MassDiff 0
#LibMZ -1
#SpecMZ 368.161
#SpecCharge 0
#internalFilename spec-00000.mgf

>collision 10
94.987732 120.0
95.065338 44.0
95.141037 188.0
95.242012 44.0
95.329437 136.0
95.407188 32.0
95.496635 188.0
95.512192 196.0
95.578339 48.0
95.599747 204.0
95.615318 80.0
95.7146 156.0
95.730171 136.0
95.784706 116.0
95.899666 152.0
95.936707 184.0
96.014702 192.0
96.042854 268.0
96.08297 212.0
96.117027 140.0
96.143456 208.0
96.176636 184.0
96.241058 128.0
96.303551 144.0
96.329872 208.0
96.465736 172.0
96.524391 84.0
96.639214 148.0
96.66523 64.0
96.714157 104.0
96.821838 108.0
96.882561 104.0
96.96447 196.0
97.004059 184.0
97.047188 412.0
97.060913 100.0
97.08445 144.0
97.243362 72.0
97.276726 192.0
97.294395 192.0
97.312065 204.0
97.418121 160.0
97.471169 192.0
97.530121 156.0
97.593033 112.0
97.618591 128.0
97.636292 96.0
97.657928 88.0
97.764168 172.0
97.797623 184.0
97.850777 100.0
97.864555 168.0
97.886215 144.0
97.910339 144.0
97.929543 152.0
97.963028 116.0
98.100975 80.0
98.17984 160.0
98.284393 104.0
98.341621 160.0
98.440331 152.0
98.456131 196.0
98.529991 224.0
98.594963 176.0
98.635933 100.0
98.738747 192.0
98.819847 156.0
98.845566 124.0
98.95047 164.0
98.992058 208.0
99.118828 160.0
99.241722 100.0
99.330971 136.0
99.348824 240.0
99.467888 196.0
99.531418 176.0
99.571136 132.0
99.596954 68.0
99.678406 216.0
99.70623 44.0
99.759895 196.0
99.793694 136.0
99.89711 136.0
99.918991 204.0
100.070251 116.0
100.08889 268.0
100.171822 176.0
100.20768 148.0
100.24749 188.0
100.464859 144.0
100.49279 176.0
100.588585 68.0
100.694405 128.0
100.708389 132.0
100.754333 156.0
100.820618 184.0
100.880234 348.0
100.956215 188.0
100.985153 184.0
101.020218 156.0
101.049309 152.0
101.078239 108.0
101.140282 164.0
101.176308 76.0
101.27243 52.0
101.300468 32.0
101.340538 156.0
101.36058 48.0
101.392639 192.0
101.432724 120.0
101.559052 208.0
101.629265 120.0
101.723587 284.0
101.769768 156.0
101.827171 216.0
101.856117 156.0
101.912369 124.0
101.940506 164.0
101.972656 168.0
101.990746 88.0
102.020897 88.0
102.039162 244.0
102.135521 40.0
102.153625 160.0
102.224045 188.0
102.375023 92.0
102.427391 160.0
102.465668 148.0
102.523178 184.0
102.556343 156.0
102.586578 140.0
102.655403 212.0
102.758003 124.0
102.829185 160.0
102.885147 48.0
102.95443 128.0
103.016098 184.0
103.0504 220.0
103.077026 72.0
103.215805 208.0
103.234703 104.0
103.258972 168.0
103.396545 168.0
103.426903 236.0
103.484154 128.0
103.56662 96.0
103.659813 44.0
103.70237 180.0
103.728722 192.0
103.785484 156.0
103.81974 148.0
104.009972 196.0
104.048492 992.0
104.079697 128.0
104.095947 36.0
104.266586 36.0
104.376465 156.0
104.398735 144.0
104.451614 216.0
104.500435 196.0
104.529434 176.0
104.579803 220.0
104.600159 200.0
104.659195 200.0
104.708069 160.0
104.777328 212.0
104.814003 160.0
104.883293 128.0
105.053757 324.0
105.071159 540.0
105.150482 72.0
105.221931 156.0
105.462975 184.0
105.540665 184.0
105.589737 144.0
105.735001 80.0
105.804596 144.0
105.968437 152.0
106.00737 172.0
106.021713 116.0
106.06498 1044.0
106.169319 200.0
106.286247 128.0
106.33139 164.0
106.356026 136.0
106.38681 160.0
106.418205 124.0
106.501808 192.0
106.653854 144.0
106.684692 164.0
106.719643 156.0
106.863617 220.0
106.962395 140.0
107.054199 184.0
107.102417 96.0
107.125076 160.0
107.160095 164.0
107.176582 184.0
107.250771 184.0
107.329109 208.0
107.362106 208.0
107.411606 40.0
107.473495 180.0
107.519394 200.0
107.564301 180.0
107.611786 100.0
107.645065 148.0
107.791489 140.0
107.851196 184.0
108.044029 1768.0
108.172035 116.0
108.24836 204.0
108.280312 260.0
108.325279 48.0
108.437164 168.0
108.583244 236.0
108.620842 164.0
108.667343 112.0
108.71299 140.0
108.746201 208.0
108.771103 148.0
108.78672 140.0
108.802246 164.0
108.997482 212.0
109.016182 88.0
109.051094 1196.0
109.178337 204.0
109.211761 120.0
109.301071 104.0
109.34269 128.0
109.386398 172.0
109.417625 140.0
109.43428 208.0
109.473846 144.0
109.588409 56.0
109.894905 184.0
109.932465 184.0
109.965858 160.0
110.005516 240.0
110.062744 672.0
110.087479 188.0
110.128716 132.0
110.184166 216.0
110.47361 124.0
110.557304 172.0
110.578232 136.0
110.638939 108.0
110.653595 168.0
110.702263 164.0
110.718506 148.0
110.808578 40.0
110.827431 136.0
110.850487 64.0
110.894493 232.0
110.934319 104.0
111.00351 44.0
111.037064 128.0
111.058037 220.0
111.154541 92.0
111.221703 220.0
111.236389 120.0
111.251091 176.0
111.360275 224.0
111.4254 208.0
111.445564 184.0
111.467422 60.0
111.534676 208.0
111.637016 200.0
111.858612 364.0
111.874809 208.0
111.961777 200.0
111.976524 128.0
112.086067 196.0
112.261032 164.0
112.282471 120.0
112.564903 144.0
112.626144 100.0
112.65361 160.0
112.681068 268.0
112.77594 112.0
112.809982 136.0
112.824783 172.0
112.905136 176.0
112.930511 76.0
113.053223 100.0
113.074387 160.0
113.116714 232.0
113.14212 32.0
113.241646 128.0
113.309425 136.0
113.383591 188.0
113.434464 148.0
113.463982 212.0
113.542595 180.0
113.640175 192.0
113.68261 140.0
113.756897 116.0
113.816345 92.0
113.83445 128.0
113.916473 136.0
113.941658 204.0
114.033028 196.0
114.200996 200.0
114.23716 36.0
114.320137 204.0
114.366959 108.0
114.517067 184.0
114.613998 72.0
114.652351 196.0
114.739746 160.0
114.767464 156.0
114.903969 172.0
114.940239 228.0
115.029877 184.0
115.054817 1216.0
115.119545 108.0
115.161232 172.0
115.18576 84.0
115.230621 116.0
115.266945 60.0
115.281898 224.0
115.339607 192.0
115.424202 148.0
115.50853 136.0
115.666878 84.0
115.737526 192.0
115.791061 212.0
115.821053 168.0
115.868179 204.0
115.915314 200.0
115.947464 196.0
116.05426 440.0
116.110847 172.0
116.126869 112.0
116.179039 212.0
116.202637 188.0
116.236969 204.0
116.350723 148.0
116.442871 184.0
116.468826 260.0
116.507454 208.0
116.526833 128.0
116.666527 112.0
116.692322 172.0
116.892365 128.0
116.924225 208.0
116.956924 188.0
117.057152 1656.0
117.124878 92.0
117.188614 116.0
117.205635 132.0
117.275703 176.0
117.303726 56.0
117.38781 160.0
117.435257 172.0
117.484871 132.0
117.579811 240.0
117.659676 140.0
117.692062 172.0
117.763329 76.0
117.849739 172.0
117.873505 108.0
117.979416 148.0
118.029106 1404.0
118.064804 1136.0
118.104836 88.0
118.174057 164.0
118.375359 128.0
118.481491 36.0
118.533493 124.0
118.724258 176.0
118.831932 188.0
118.850075 140.0
118.867432 176.0
118.917343 64.0
118.995491 64.0
119.02372 188.0
119.065521 240.0
119.110588 100.0
119.272278 224.0
119.360519 156.0
119.417068 136.0
119.43882 168.0
119.462746 148.0
119.491882 132.0
119.580246 92.0
119.671677 176.0
119.86335 148.0
119.914894 180.0
119.950531 104.0
120.01162 176.0
120.042908 468.0
120.078079 344.0
120.19043 188.0
120.207886 152.0
120.293007 132.0
120.317017 136.0
120.347588 88.0
120.458961 168.0
120.500473 148.0
120.69281 152.0
120.782478 132.0
120.919754 172.0
121.072174 188.0
121.416748 156.0
121.470291 136.0
121.501251 208.0
121.527328 160.0
121.57888 152.0
121.663399 328.0
121.744644 172.0
121.784172 140.0
121.799553 96.0
121.922592 100.0
121.946762 176.0
121.988739 168.0
122.021973 672.0
122.060661 1428.0
122.085274 44.0
122.188652 252.0
122.281075 40.0
122.31189 164.0
122.36692 252.0
122.410957 148.0
122.481438 208.0
122.505669 164.0
122.538712 148.0
122.566902 116.0
122.637878 156.0
122.69519 52.0
122.851768 180.0
122.890503 172.0
122.913544 172.0
123.041557 108.0
123.063065 152.0
123.127678 136.0
123.17627 208.0
123.33857 204.0
123.37294 188.0
123.399475 152.0
123.43927 124.0
123.578621 40.0
123.644852 112.0
123.726906 116.0
123.742409 200.0
123.804405 180.0
123.87085 128.0
123.950615 212.0
123.972771 152.0
124.054779 160.0
124.114639 136.0
124.208099 200.0
124.23304 188.0
124.3964 192.0
124.518524 116.0
124.671814 68.0
124.871902 172.0
124.976456 116.0
124.992035 132.0
125.067703 124.0
125.08773 112.0
125.262772 244.0
125.381737 152.0
125.595779 164.0
125.63147 180.0
125.783783 176.0
125.834557 220.0
125.910484 196.0
126.0177 144.0
126.035576 140.0
126.0532 184.0
126.078659 144.0
126.12944 140.0
126.174149 176.0
126.218864 136.0
126.238518 132.0
126.400055 136.0
126.471672 128.0
126.505241 144.0
126.715759 136.0
126.756088 108.0
126.800911 144.0
126.821083 192.0
126.841255 156.0
126.890572 136.0
126.925957 164.0
127.045578 176.0
127.060883 324.0
127.179955 184.0
127.218117 180.0
127.247307 140.0
127.336487 80.0
127.361832 156.0
127.40451 60.0
127.573059 112.0
127.598961 184.0
127.823235 148.0
127.839447 164.0
127.910484 132.0
127.989281 172.0
128.049561 876.0
128.083862 260.0
128.107712 152.0
128.225815 96.0
128.304703 132.0
128.392654 152.0
128.514465 160.0
128.541534 204.0
128.656647 112.0
128.74942 184.0
128.796646 80.0
129.004547 140.0
129.02037 132.0
129.068726 1496.0
129.099503 84.0
129.169617 104.0
129.187714 148.0
129.275955 152.0
129.325745 252.0
129.343857 104.0
129.481964 140.0
129.525009 164.0
129.604446 172.0
129.636017 348.0
129.812836 168.0
129.91037 148.0
130.067413 2440.0
130.141861 160.0
130.23497 148.0
130.268707 136.0
130.409912 100.0
130.505402 268.0
130.534958 196.0
130.605728 168.0
130.637299 160.0
130.84668 208.0
130.981033 228.0
131.026596 204.0
131.044815 76.0
131.072571 2544.0
131.154205 136.0
131.222595 220.0
131.487198 164.0
131.539154 116.0
131.720093 152.0
131.73735 232.0
131.829758 88.0
131.987488 248.0
132.044815 5452.0
132.080612 2008.0
132.193359 220.0
132.232269 168.0
132.417709 48.0
132.53772 192.0
132.593887 192.0
132.649139 48.0
132.673233 188.0
132.756897 156.0
132.869293 204.0
132.908981 160.0
133.011566 216.0
133.052505 7512.0
133.090393 180.0
133.174362 200.0
133.187088 156.0
133.232025 84.0
133.317032 188.0
133.402084 40.0
133.427734 148.0
133.454956 152.0
133.477951 92.0
133.623047 148.0
133.680374 32.0
133.7034 104.0
133.770142 152.0
133.788559 172.0
133.871445 176.0
133.892166 60.0
133.927704 148.0
133.944016 204.0
133.996399 136.0
134.023483 184.0
134.058258 2428.0
134.104492 392.0
134.179382 168.0
134.217102 152.0
134.23555 184.0
134.290634 144.0
134.373932 96.0
134.422394 148.0
134.480087 132.0
134.586273 44.0
134.641693 148.0
134.687897 132.0
134.798782 184.0
134.847321 72.0
134.914352 216.0
134.949036 144.0
134.973648 124.0
135.04277 920.0
135.065704 472.0
135.108871 184.0
135.196533 196.0
135.215057 172.0
135.291443 52.0
135.342239 140.0
135.355225 292.0
135.374786 180.0
135.483658 144.0
135.52536 176.0
135.569382 100.0
135.625015 124.0
135.673691 40.0
135.754837 136.0
135.833694 156.0
135.984161 204.0
136.039078 932.0
136.078445 252.0
136.107559 172.0
136.14238 128.0
136.209747 220.0
136.249237 32.0
136.311966 196.0
136.342178 32.0
136.393311 104.0
136.45607 168.0
136.493286 80.0
136.611893 116.0
136.630508 156.0
136.667725 232.0
136.718918 132.0
136.779434 140.0
136.802719 176.0
136.849274 108.0
136.879547 156.0
137.105515 64.0
137.128815 168.0
137.177765 156.0
137.231384 180.0
137.266357 236.0
137.313004 136.0
137.411972 188.0
137.452972 84.0
137.670074 192.0
137.796204 208.0
137.827896 240.0
137.913055 100.0
137.94577 200.0
137.968964 144.0
138.025269 128.0
138.041626 180.0
138.072037 144.0
138.144547 208.0
138.200699 172.0
138.252167 96.0
138.291962 204.0
138.329407 188.0
138.368408 128.0
138.42775 216.0
138.460526 140.0
138.533142 184.0
138.589371 112.0
138.617493 260.0
138.643265 184.0
138.837845 136.0
138.919937 192.0
138.94809 108.0
139.039276 200.0
139.06308 148.0
139.100632 156.0
139.153595 192.0
139.215668 120.0
139.241501 196.0
139.373062 168.0
139.420685 148.0
139.669281 144.0
139.711624 204.0
139.777496 164.0
139.815155 136.0
139.838684 104.0
139.864578 128.0
139.918716 168.0
139.935394 140.0
139.97522 148.0
140.01738 160.0
140.045883 172.0
140.074142 180.0
140.172668 176.0
140.19902 100.0
140.220001 164.0
140.2603 184.0
140.283875 84.0
140.302734 128.0
140.380539 128.0
140.411194 32.0
140.5466 120.0
140.588135 164.0
140.616455 172.0
140.739212 160.0
140.774811 152.0
140.942337 172.0
140.977783 132.0
141.057129 280.0
141.109146 160.0
141.16217 80.0
141.294632 116.0
141.404388 248.0
141.431885 148.0
141.646698 200.0
141.806107 128.0
141.963562 200.0
142.065094 1368.0
142.287643 164.0
142.316132 132.0
142.352005 192.0
142.451508 60.0
142.47052 124.0
142.647247 192.0
142.66539 196.0
142.743851 88.0
142.855637 192.0
142.884171 112.0
143.000778 208.0
143.071884 380.0
143.148499 164.0
143.315125 144.0
143.356796 124.0
143.393753 148.0
143.474808 112.0
143.670364 104.0
143.696594 128.0
143.804306 116.0
143.937668 156.0
143.985428 148.0
144.016479 160.0
144.050949 140.0
144.079376 1048.0
144.121597 116.0
144.163086 256.0
144.188507 200.0
144.471359 136.0
144.642944 180.0
144.721954 88.0
144.748291 176.0
144.913559 140.0
145.052963 1120.0
145.110092 36.0
145.136475 116.0
145.184433 68.0
145.229996 128.0
145.246796 76.0
145.26358 116.0
145.328552 48.0
145.436356 180.0
145.48967 188.0
145.546783 64.0
145.599609 100.0
145.63208 92.0
145.684265 164.0
145.740067 128.0
145.77739 52.0
145.809921 244.0
145.852951 252.0
145.936035 176.0
145.960068 172.0
145.981949 204.0
146.024399 55056.0
146.06041 29228.0
146.097107 1568.0
146.138062 220.0
146.160522 48.0
146.181381 68.0
146.198227 156.0
146.234329 48.0
146.264969 104.0
146.306534 172.0
146.331528 84.0
146.34903 172.0
146.36673 60.0
146.387573 56.0
146.415421 152.0
146.454849 80.0
146.47847 140.0
146.50264 112.0
146.519882 124.0
146.537735 144.0
146.621246 196.0
146.671585 136.0
146.692459 148.0
146.714661 136.0
146.749741 112.0
146.782623 140.0
146.815948 172.0
146.83992 180.0
146.883575 188.0
146.918167 136.0
146.991043 188.0
147.026459 4300.0
147.062836 3028.0
147.094147 404.0
147.123795 164.0
147.196228 72.0
147.229294 52.0
147.295242 88.0
147.384628 128.0
147.413635 136.0
147.452301 32.0
147.568329 48.0
147.585251 64.0
147.638443 356.0
147.662628 56.0
147.720001 156.0
147.741653 72.0
147.795685 84.0
147.848923 116.0
147.902161 156.0
147.920959 144.0
147.963028 228.0
147.980667 236.0
148.033646 360.0
148.075806 16432.0
148.133041 128.0
148.163193 172.0
148.199631 72.0
148.216965 112.0
148.240494 52.0
148.276047 76.0
148.296967 52.0
148.323639 164.0
148.340149 148.0
148.38739 108.0
148.440002 56.0
148.464264 92.0
148.480515 80.0
148.522461 52.0
148.570984 132.0
148.642014 104.0
148.682602 172.0
148.699982 144.0
148.793472 200.0
148.862076 224.0
148.901093 88.0
148.937531 56.0
148.95697 164.0
149.04686 188.0
149.079071 956.0
149.11174 160.0
149.1465 112.0
149.172058 116.0
149.20639 144.0
149.265625 28.0
149.309402 92.0
149.468735 144.0
149.630585 112.0
149.703644 52.0
149.755585 196.0
149.79863 88.0
149.820557 156.0
149.852219 212.0
149.927765 164.0
150.001511 104.0
150.054016 1256.0
150.084808 192.0
150.169128 132.0
150.187881 128.0
150.225235 92.0
150.25206 144.0
150.317947 48.0
150.61824 148.0
150.743256 232.0
150.772156 192.0
150.852814 136.0
150.989746 52.0
151.066849 172.0
151.20015 248.0
151.263779 212.0
151.67775 148.0
151.743942 84.0
151.914032 168.0
151.962021 148.0
151.991669 136.0
152.040756 52.0
152.116837 128.0
152.251877 172.0
152.301376 396.0
152.367325 68.0
152.414001 52.0
152.514771 96.0
152.534439 104.0
152.615555 172.0
152.667206 188.0
152.73114 212.0
152.80249 32.0
152.862106 160.0
152.910751 152.0
152.966553 96.0
153.004288 180.0
153.051071 184.0
153.346695 48.0
153.445297 120.0
153.472412 52.0
153.59079 72.0
153.75116 124.0
153.914093 104.0
154.065475 1112.0
154.192688 144.0
154.235245 108.0
154.282227 148.0
154.381119 172.0
154.400909 92.0
154.425644 140.0
154.573944 80.0
154.668121 180.0
154.732483 176.0
154.93309 104.0
155.032196 176.0
155.07019 464.0
155.25531 200.0
155.348236 224.0
155.397263 160.0
155.602692 84.0
155.667252 112.0
155.702026 84.0
155.736801 164.0
155.776535 200.0
155.914978 156.0
155.940536 164.0
156.047424 108.0
156.080734 2772.0
156.118912 144.0
156.135269 160.0
156.169281 36.0
156.203262 180.0
156.29863 44.0
156.415604 80.0
156.527634 68.0
156.672104 132.0
156.709473 136.0
157.036026 76.0
157.082458 768.0
157.150787 36.0
157.342957 144.0
157.420364 196.0
157.445343 88.0
157.510269 76.0
157.535248 136.0
157.57579 176.0
157.607712 416.0
157.650192 56.0
157.701477 200.0
157.724426 160.0
157.75766 164.0
157.802658 56.0
157.910187 140.0
158.005249 140.0
158.024933 120.0
158.059341 7720.0
158.094971 140.0
158.132858 56.0
158.197937 116.0
158.31813 64.0
158.345673 48.0
158.415817 56.0
158.628815 56.0
158.676437 132.0
159.067444 3924.0
159.16272 148.0
159.183289 96.0
159.273697 224.0
159.34404 176.0
159.479111 120.0
159.553726 156.0
159.580292 140.0
159.607956 120.0
159.638992 188.0
159.733704 124.0
159.761368 92.0
159.822342 224.0
159.840668 160.0
159.862015 92.0
159.887177 140.0
159.935837 132.0
159.972763 300.0
160.004105 156.0
160.033691 192.0
160.075912 60508.0
160.135056 164.0
160.150406 144.0
160.17308 64.0
160.204895 52.0
160.226532 152.0
160.236679 80.0
160.265778 80.0
160.2901 108.0
160.317688 92.0
160.335419 268.0
160.35701 168.0
160.411072 40.0
160.43779 120.0
160.458191 132.0
160.49115 100.0
160.551086 96.0
160.577484 68.0
160.621124 116.0
160.649094 144.0
160.659851 92.0
160.668304 148.0
160.726334 100.0
160.79689 144.0
160.825653 380.0
160.859207 160.0
160.877762 84.0
160.925735 120.0
160.953506 180.0
160.972305 72.0
160.997482 68.0
161.020065 200.0
161.080765 9788.0
161.13031 92.0
161.172058 160.0
161.19191 84.0
161.24324 104.0
161.282852 76.0
161.303238 148.0
161.340073 120.0
161.451935 152.0
161.541443 76.0
161.570206 108.0
161.592972 44.0
161.653702 128.0
161.744812 60.0
161.80603 44.0
161.881531 120.0
161.922043 60.0
161.96257 212.0
162.003098 44.0
162.088898 1820.0
162.143097 32.0
162.185547 44.0
162.208359 208.0
162.225708 176.0
162.234543 148.0
162.242386 76.0
162.251572 180.0
162.321732 84.0
162.389526 116.0
162.408676 84.0
162.458832 120.0
162.489853 32.0
162.671799 168.0
162.708115 132.0
162.778549 200.0
162.967178 36.0
163.007828 148.0
163.043411 180.0
163.090897 332.0
163.112823 220.0
163.13237 184.0
163.15271 76.0
163.189468 84.0
163.218811 116.0
163.241699 148.0
163.297653 104.0
163.330719 60.0
163.372986 116.0
163.409576 128.0
163.452835 48.0
163.478271 204.0
163.529175 76.0
163.554626 112.0
163.676834 168.0
163.735397 112.0
163.83728 60.0
164.145691 160.0
164.171188 184.0
164.265564 144.0
164.287354 172.0
164.791458 44.0
164.868118 176.0
164.919235 116.0
165.295181 72.0
165.328445 240.0
165.405228 224.0
166.343414 28.0
166.387054 56.0
166.420441 68.0
166.443542 36.0
166.512878 120.0
166.684998 144.0
166.70813 32.0
166.783432 220.0
166.929199 96.0
166.962631 56.0
167.384674 180.0
167.637115 196.0
167.94133 48.0
168.005814 168.0
168.111603 100.0
168.129669 184.0
168.204514 48.0
168.292297 216.0
168.377502 64.0
168.465332 224.0
168.52475 180.0
168.542831 180.0
168.57901 116.0
168.610031 56.0
168.639313 180.0
168.705658 48.0
168.8246 56.0
168.864136 140.0
169.000504 92.0
169.593536 160.0
169.720566 184.0
169.907303 140.0
170.047424 160.0
170.083755 124.0
170.207138 172.0
170.226242 100.0
170.556503 40.0
170.742203 216.0
170.881561 240.0
171.047409 220.0
171.056778 160.0
171.093338 560.0
171.217361 40.0
171.311127 176.0
171.363235 72.0
171.459641 108.0
171.569122 132.0
171.603012 108.0
171.689072 64.0
171.77774 148.0
171.806442 176.0
171.873169 104.0
171.960388 116.0
172.047928 184.0
172.075882 10444.0
172.15097 164.0
172.286789 52.0
172.318146 76.0
172.365173 216.0
172.420059 152.0
172.454025 136.0
172.498795 228.0
172.563828 68.0
172.665802 92.0
172.689346 68.0
172.749512 36.0
172.841324 164.0
172.917297 160.0
173.07843 1520.0
173.131638 180.0
173.280945 52.0
173.307144 60.0
173.39624 184.0
173.446045 184.0
173.464401 104.0
173.54567 180.0
173.564026 124.0
173.706787 192.0
173.760727 64.0
173.813202 180.0
173.860443 144.0
173.878815 204.0
173.923431 192.0
173.962814 32.0
174.013763 216.0
174.024261 88.0
174.033432 164.0
174.054626 696.0
174.092102 26556.0
174.180756 184.0
174.213547 52.0
174.230667 144.0
174.263718 132.0
174.305862 104.0
174.356796 68.0
174.404114 60.0
174.451416 64.0
174.477707 48.0
174.58815 40.0
174.719666 52.0
174.809128 36.0
174.83017 32.0
174.861755 108.0
174.948624 192.0
174.969681 140.0
175.017075 56.0
175.058868 160.0
175.094528 2988.0
175.193527 88.0
175.240952 152.0
175.399078 44.0
175.454437 68.0
175.599457 184.0
175.697052 80.0
175.892334 136.0
176.102386 300.0
176.262085 128.0
176.375717 104.0
176.41008 48.0
176.460312 128.0
176.502502 88.0
176.796249 96.0
176.978897 100.0
177.029205 64.0
177.058334 52.0
177.092773 164.0
177.158997 160.0
177.423996 84.0
177.47731 76.0
177.633499 216.0
177.660034 200.0
177.784729 128.0
177.831406 228.0
177.904175 144.0
177.986481 60.0
178.052704 380.0
178.626984 84.0
178.738724 140.0
178.882431 92.0
179.042191 80.0
179.060837 140.0
179.19136 96.0
179.218002 176.0
179.377914 60.0
179.436554 144.0
179.537888 120.0
179.649902 204.0
179.689926 164.0
179.756622 124.0
179.900757 168.0
180.143768 144.0
180.247955 140.0
180.322784 236.0
180.365555 160.0
180.512604 184.0
180.592834 84.0
180.667725 132.0
181.082626 208.0
181.157623 148.0
181.213882 152.0
181.243362 64.0
181.342514 220.0
181.91922 160.0
182.432312 156.0
182.608566 116.0
182.755051 172.0
182.935364 88.0
183.066101 152.0
183.331299 44.0
183.471451 68.0
183.528076 128.0
183.573914 152.0
183.638641 52.0
183.891968 148.0
184.064499 212.0
184.316238 108.0
184.370285 136.0
184.442825 124.0
184.613586 132.0
184.65686 108.0
184.984268 176.0
185.067093 172.0
185.142151 104.0
185.227966 156.0
185.274017 132.0
185.314667 56.0
185.371567 176.0
185.496231 160.0
185.597763 184.0
186.060791 224.0
186.380981 124.0
186.663681 164.0
187.001022 64.0
187.085999 480.0
187.167084 160.0
187.390427 188.0
187.491257 60.0
188.072083 2940.0
188.160248 92.0
188.181381 112.0
188.260559 176.0
188.309723 80.0
188.443573 36.0
188.500763 164.0
188.547409 76.0
188.596603 52.0
188.719635 176.0
188.823547 320.0
188.872009 72.0
188.94664 108.0
188.97702 260.0
189.023239 128.0
189.102493 19880.0
189.180267 88.0
189.255905 32.0
189.398315 80.0
189.440598 188.0
189.517761 68.0
189.608475 68.0
189.699738 40.0
189.795685 228.0
189.894409 76.0
189.919098 116.0
190.059616 128.0
190.107239 1788.0
190.226425 96.0
190.267609 88.0
190.391159 132.0
190.473557 144.0
190.530518 120.0
190.58345 96.0
190.646652 112.0
190.701614 56.0
190.789581 204.0
190.863815 220.0
190.927063 40.0
191.048096 52.0
191.082642 156.0
191.117599 4468.0
191.162994 68.0
191.221436 76.0
191.246216 76.0
191.290253 100.0
191.31778 44.0
191.425156 100.0
191.450897 104.0
191.568375 136.0
191.602036 56.0
191.832932 44.0
191.857162 116.0
191.932175 168.0
192.118347 376.0
192.225159 76.0
192.323929 204.0
192.412262 124.0
192.450912 124.0
192.517181 68.0
192.539276 120.0
192.635956 92.0
192.718826 40.0
192.859772 176.0
192.908203 152.0
192.973114 44.0
193.122437 236.0
193.144562 120.0
193.172226 60.0
193.222031 196.0
193.244156 92.0
193.263535 60.0
193.302261 100.0
193.354843 64.0
193.473877 48.0
193.781281 148.0
193.991913 212.0
194.138855 140.0
194.341354 184.0
194.585602 28.0
194.632797 76.0
194.768875 176.0
194.835922 148.0
194.857391 144.0
195.775681 228.0
195.853668 164.0
195.895447 148.0
195.992966 64.0
196.383255 148.0
196.547852 100.0
196.757172 136.0
196.888412 136.0
197.058807 76.0
197.106308 44.0
197.553635 172.0
197.94548 144.0
197.998688 72.0
198.09111 124.0
198.318085 120.0
198.469467 232.0
198.716293 44.0
198.954834 100.0
199.082962 420.0
199.168259 180.0
199.319962 176.0
199.566223 196.0
199.82045 148.0
199.994919 236.0
200.062286 124.0
200.094528 220.0
200.163086 176.0
200.268036 164.0
200.38353 56.0
200.43988 172.0
200.558243 164.0
200.857132 56.0
200.978439 116.0
201.029236 112.0
201.065308 164.0
201.269165 108.0
201.447098 96.0
201.616623 76.0
201.755127 172.0
201.774918 124.0
201.800369 260.0
201.82016 92.0
202.075211 136.0
202.510651 156.0
202.796814 68.0
202.879028 152.0
203.060501 84.0
203.142059 212.0
203.559967 180.0
203.815613 192.0
204.103043 172.0
204.170959 172.0
204.549362 208.0
204.999374 108.0
205.030716 112.0
205.13147 320.0
205.324356 68.0
205.504074 56.0
205.90657 140.0
206.040817 180.0
206.07225 164.0
206.136032 192.0
206.555389 156.0
206.652649 48.0
206.981812 92.0
207.188034 232.0
207.319839 148.0
207.371429 192.0
207.500412 128.0
207.534821 104.0
207.577835 188.0
207.729843 260.0
208.19194 128.0
208.280975 164.0
208.470596 160.0
208.555573 132.0
208.772446 212.0
208.875992 116.0
209.255859 116.0
209.419998 156.0
209.561157 152.0
210.065659 64.0
210.15799 160.0
210.680557 116.0
210.784561 40.0
211.082291 184.0
211.105438 256.0
211.524948 188.0
211.86377 80.0
212.09848 120.0
213.006714 148.0
213.070633 152.0
213.401947 192.0
214.793991 108.0
214.861084 164.0
214.886993 200.0
214.963211 140.0
215.077164 256.0
215.167526 240.0
215.272644 108.0
215.319366 80.0
215.444962 84.0
215.512161 104.0
215.550156 116.0
215.599823 100.0
215.713821 92.0
215.827148 184.0
215.854156 204.0
215.979904 68.0
216.067673 84.0
216.09108 156.0
216.149597 44.0
216.187637 132.0
216.240311 220.0
216.285889 224.0
216.357407 124.0
216.401321 120.0
216.506729 148.0
216.582886 104.0
216.606308 172.0
216.641464 148.0
216.784103 224.0
216.814331 52.0
216.870026 240.0
216.918854 224.0
216.95343 164.0
216.990219 180.0
217.0578 300.0
217.098053 64020.0
217.181625 88.0
217.210953 44.0
217.302582 224.0
217.350983 76.0
217.390808 84.0
217.427277 44.0
217.45491 96.0
217.48262 56.0
217.49292 88.0
217.540283 80.0
217.57991 20.0
217.642792 48.0
217.675095 96.0
217.708817 68.0
217.73848 108.0
217.847153 104.0
217.903564 160.0
217.9384 140.0
217.9823 40.0
218.018295 144.0
218.061005 184.0
218.100739 7004.0
218.182953 148.0
218.206085 60.0
218.228287 64.0
218.286819 88.0
218.451202 56.0
218.523331 56.0
218.554672 92.0
218.583725 68.0
218.662048 56.0
218.71756 68.0
218.787842 64.0
218.823532 68.0
218.844147 52.0
218.897141 48.0
218.964874 36.0
218.988434 96.0
219.056183 60.0
219.101166 296.0
219.182877 116.0
219.209396 68.0
219.241806 100.0
219.30307 56.0
219.322113 128.0
219.34343 104.0
219.374435 88.0
219.395081 68.0
219.453079 196.0
219.490585 92.0
219.541443 144.0
219.586746 88.0
219.623184 124.0
219.648682 52.0
219.687027 60.0
219.727188 72.0
219.754883 100.0
219.813705 128.0
219.852264 60.0
219.88768 140.0
219.943756 32.0
220.097916 200.0
220.236069 40.0
220.369003 64.0
220.431061 68.0
220.540405 64.0
220.839035 76.0
220.877487 92.0
220.9189 136.0
221.069794 180.0
221.108261 164.0
221.333252 64.0
221.57019 192.0
221.656113 96.0
221.73613 64.0
221.79245 124.0
221.999985 128.0
222.072952 132.0
222.71524 148.0
222.90538 164.0
223.076981 168.0
223.155045 56.0
223.175858 72.0
223.422714 96.0
223.473297 56.0
223.89003 124.0
225.112717 116.0
225.226196 184.0
225.262039 68.0
225.297897 44.0
226.042374 116.0
226.437546 64.0
226.743134 156.0
226.82106 172.0
226.872025 156.0
227.003937 68.0
227.1689 144.0
227.213898 88.0
227.42395 80.0
227.529022 176.0
228.079483 196.0
228.761581 100.0
228.830826 128.0
228.909103 136.0
229.403229 44.0
230.100113 104.0
230.187668 96.0
230.770828 72.0
231.11261 144.0
231.164062 92.0
231.191299 176.0
231.724213 104.0
231.824203 148.0
232.109161 96.0
232.430679 44.0
233.183807 56.0
233.697723 128.0
233.831619 92.0
234.069077 92.0
234.815704 148.0
234.90416 44.0
234.946869 56.0
235.017029 204.0
235.109238 1912.0
235.973022 96.0
236.01889 112.0
236.049469 116.0
236.111832 776.0
236.138153 212.0
236.168732 44.0
236.875809 112.0
237.120407 164.0
237.709747 36.0
238.066544 332.0
238.105759 164.0
238.148758 156.0
239.084457 564.0
239.12648 136.0
239.693115 44.0
239.757828 96.0
240.076416 176.0
240.390015 140.0
241.632141 56.0
241.694016 64.0
241.777573 68.0
241.86113 188.0
242.41861 68.0
243.420578 144.0
244.29393 220.0
244.598892 160.0
244.63002 100.0
245.555435 68.0
245.767563 36.0
246.557602 124.0
248.102356 132.0
248.37355 148.0
249.912903 152.0
250.051361 156.0
250.170975 164.0
250.35675 44.0
250.766312 148.0
250.968063 164.0
251.087891 188.0
251.113113 88.0
251.475952 96.0
251.968567 68.0
252.079147 120.0
253.088196 84.0
253.243378 84.0
253.442947 80.0
253.671143 140.0
254.094254 220.0
255.296753 168.0
255.758072 68.0
256.356812 96.0
256.490692 116.0
256.532135 188.0
257.032837 176.0
259.74585 168.0
260.195129 168.0
260.416687 180.0
260.618225 76.0
260.799042 84.0
261.162384 160.0
261.83017 132.0
262.750488 76.0
263.118378 212.0
263.250763 60.0
264.052246 220.0
264.090759 132.0
264.165436 76.0
264.323975 28.0
264.550537 176.0
264.744812 92.0
265.091248 372.0
265.138519 120.0
265.613403 92.0
265.665314 136.0
266.032013 136.0
266.061218 156.0
266.980774 196.0
267.068573 164.0
268.051758 212.0
268.237549 48.0
268.752808 124.0
268.837646 140.0
268.902924 136.0
270.23291 172.0
270.295074 104.0
270.687897 172.0
270.799225 144.0
271.41861 120.0
272.613464 120.0
273.267822 104.0
273.369812 48.0
273.666046 136.0
273.738495 36.0
274.051422 172.0
275.222321 108.0
276.124481 116.0
276.230316 232.0
276.773102 32.0
277.089264 192.0
277.210327 72.0
277.58493 136.0
278.414551 156.0
279.112061 520.0
279.514862 80.0
279.634674 116.0
279.69458 168.0
280.119202 320.0
280.141937 152.0
280.944183 140.0
281.117706 144.0
281.341309 160.0
282.072906 92.0
283.341217 148.0
284.102203 160.0
284.434418 64.0
285.363098 212.0
285.869537 216.0
286.731659 160.0
287.470215 176.0
287.713226 60.0
287.821259 164.0
288.189423 72.0
288.517273 136.0
289.915161 116.0
290.321991 144.0
290.464417 152.0
291.581482 180.0
291.958862 156.0
292.295624 48.0
292.636017 180.0
292.738159 60.0
293.089203 204.0
293.600342 108.0
293.866394 164.0
294.221344 164.0
294.95578 144.0
295.889709 152.0
295.988983 80.0
296.44458 188.0
298.181183 120.0
298.71402 44.0
299.0065 132.0
299.213013 136.0
299.440277 56.0
299.547058 180.0
299.946777 148.0
300.653839 132.0
300.6987 152.0
300.874725 164.0
300.954132 204.0
302.683014 168.0
303.570099 52.0
304.257111 104.0
304.892761 268.0
305.243866 132.0
306.347168 60.0
306.406372 48.0
307.009399 124.0
307.051239 40.0
307.132172 216.0
308.091431 124.0
308.138824 1516.0
308.294067 108.0
308.395416 116.0
309.024872 36.0
309.08786 108.0
309.142822 160.0
309.437866 76.0
309.658478 40.0
309.784576 44.0
312.406891 92.0
312.477264 108.0
313.24823 136.0
313.551239 132.0
313.656982 60.0
313.924927 68.0
314.831848 112.0
316.886993 176.0
317.379669 164.0
317.521515 208.0
317.698853 168.0
318.572144 120.0
318.909729 148.0
319.233246 128.0
319.400391 96.0
320.122864 104.0
320.550354 56.0
320.803406 184.0
321.256287 216.0
321.609558 144.0
322.280914 132.0
323.142609 52.0
323.647278 172.0
323.718872 72.0
323.890778 160.0
324.009003 80.0
324.073486 140.0
325.486694 100.0
325.845886 32.0
326.820251 160.0
327.291748 116.0
327.367371 228.0
327.561859 172.0
328.57486 120.0
328.751648 152.0
329.022369 172.0
329.665283 96.0
329.929138 92.0
330.724976 280.0
330.822693 168.0
330.951355 208.0
331.134094 188.0
331.584625 172.0
331.64859 120.0
331.677582 128.0
331.760956 168.0
332.210632 176.0
332.88208 76.0
333.022644 68.0
333.037659 48.0
333.047546 108.0
333.754181 124.0
333.932373 104.0
334.008728 192.0
334.306244 120.0
334.499969 136.0
334.747559 92.0
334.834961 160.0
335.066467 128.0
335.137299 64.0
335.366882 188.0
335.487183 120.0
335.523621 56.0
335.564941 132.0
335.59494 100.0
335.647583 60.0
335.753357 120.0
335.791443 196.0
335.851837 100.0
335.884644 144.0
335.912262 120.0
335.946655 64.0
335.99408 96.0
336.037048 144.0
336.056213 148.0
336.136261 54844.0
336.231262 164.0
336.257233 176.0
336.346619 92.0
336.353027 88.0
336.372955 68.0
336.384369 80.0
336.419678 104.0
336.480927 140.0
336.492218 132.0
336.551208 116.0
336.613068 48.0
336.678619 60.0
336.763397 100.0
336.83371 52.0
336.877533 112.0
336.98349 92.0
337.047028 124.0
337.079437 184.0
337.137665 8444.0
337.20639 128.0
337.2388 120.0
337.294983 168.0
337.326599 68.0
337.363586 72.0
337.380981 68.0
337.408295 104.0
337.495178 216.0
337.539703 92.0
337.590271 96.0
337.652435 44.0
337.841156 64.0
337.983429 60.0
338.063293 80.0
338.139832 1320.0
338.329346 72.0
338.365967 76.0
338.391602 40.0
338.450165 60.0
338.523407 56.0
338.556366 80.0
338.658905 40.0
338.69165 64.0
338.840515 84.0
338.911682 36.0
338.962982 56.0
339.012451 104.0
339.063965 152.0
339.145416 160.0
339.203766 92.0
339.263519 76.0
339.318512 144.0
339.424866 72.0
339.450531 60.0
339.500122 168.0
339.580109 168.0
339.703583 52.0
339.802643 44.0
339.868683 40.0
339.901703 48.0
340.187988 136.0
340.254059 76.0
340.320129 120.0
340.376312 112.0
340.444977 108.0
340.470703 72.0
340.522125 100.0
340.555176 76.0
340.691071 68.0
340.790283 48.0
340.832764 100.0
340.867432 120.0
340.951965 64.0
340.985046 68.0
341.054871 48.0
341.17984 44.0
341.253387 68.0
341.944946 72.0
343.072083 68.0
343.234314 76.0
344.260162 104.0
344.448517 84.0
345.757385 52.0
346.001678 172.0
346.246063 88.0
347.543488 32.0
349.040405 60.0
349.817963 88.0
352.0177 60.0
352.907013 140.0
354.231842 108.0
354.763947 64.0
354.906433 100.0
355.300232 164.0
355.397797 84.0
355.607941 100.0
359.246552 84.0
359.291809 156.0
359.918335 168.0
364.706879 96.0
365.398987 64.0
366.983368 152.0
367.360931 84.0
367.937195 76.0
368.161835 3792.0
368.217957 128.0
368.305054 96.0
368.357269 40.0
368.456573 44.0
368.494781 296.0
368.555908 80.0
368.796692 48.0
368.885651 88.0
369.162384 1128.0
369.538544 80.0
370.161713 212.0
370.334808 48.0
370.656586 96.0
370.997711 80.0
371.108887 60.0
371.538422 88.0
376.067535 100.0
377.562714 72.0
380.476562 64.0
380.596924 60.0
382.840607 112.0
383.64325 140.0
384.243835 64.0
384.493561 80.0
386.173523 72.0
386.279144 72.0
389.729126 100.0
389.913818 116.0
392.863007 76.0
396.310486 92.0
396.425415 56.0
396.465027 64.0
400.955811 68.0
406.546692 68.0
413.862946 80.0
414.122131 64.0
416.929626 72.0
419.705841 52.0
424.285004 76.0
427.850952 92.0
433.107727 120.0
439.505798 144.0
440.553711 92.0
441.025909 108.0
445.139954 60.0
454.438812 60.0
460.1633 68.0
462.416046 172.0
463.002594 48.0
470.303009 64.0
471.170959 64.0
471.507996 128.0
471.754364 48.0
474.425354 52.0
475.405609 44.0
475.883087 56.0
475.956909 84.0
480.980865 200.0
495.470917 68.0
500.992981 72.0
504.719666 68.0
505.820221 80.0
510.598663 48.0
510.738647 64.0
515.919312 56.0
522.33136 80.0
526.456116 64.0
526.666199 60.0
528.522217 28.0
529.098938 80.0
534.059387 60.0
539.130798 76.0
541.406921 88.0
562.905029 72.0
569.768066 116.0
595.006836 68.0
596.080261 80.0
600.052002 112.0
602.023254 68.0
606.78418 60.0
614.530457 52.0
623.085754 116.0
629.765747 76.0
633.35199 112.0
640.544922 60.0
646.927795 88.0
648.067322 36.0
649.157104 108.0
653.276184 60.0
655.34314 84.0
664.546326 68.0
666.055603 84.0
679.83551 44.0
686.582825 60.0
689.657959 68.0
694.54834 32.0
699.871948 96.0
706.051208 60.0
706.892334 88.0
707.209839 68.0
711.057678 56.0
720.108582 104.0
720.63208 116.0
726.912842 92.0
730.550171 92.0
731.631836 220.0
732.315735 76.0
750.62793 76.0
766.293152 112.0
788.981445 92.0
792.092773 164.0
797.372559 32.0
802.201904 56.0
821.385498 180.0
831.01355 140.0
838.373718 132.0
839.757324 108.0
850.861694 180.0
858.448975 180.0
859.026367 92.0
859.125549 208.0
859.183838 80.0
860.637085 108.0
872.618835 112.0
875.078125 88.0
876.639038 60.0
881.986084 196.0
884.351929 84.0
885.488708 188.0
898.041199 88.0
900.15979 192.0
909.121094 180.0
914.138794 180.0
917.156067 136.0
931.940247 208.0
936.453979 212.0
937.258118 88.0
941.454895 192.0
944.674011 64.0
947.31427 68.0
948.227234 204.0
949.999268 164.0
950.778503 164.0
957.615051 160.0
958.908875 204.0
962.844971 104.0
965.397217 100.0
966.17041 132.0
969.823792 136.0
974.01825 128.0
978.813232 156.0
980.850403 180.0
987.306152 256.0
988.557312 120.0
997.7146 136.0
1003.141052 172.0
1004.471558 72.0
1005.316956 176.0
1008.936157 40.0
1019.915283 232.0
1020.372986 160.0
1024.719849 92.0
1028.150391 160.0
1029.969971 156.0
1034.41394 240.0
1036.790161 124.0
1036.867065 52.0
1037.604248 156.0
1040.054688 164.0
1041.126831 192.0
1041.608521 76.0
1043.986572 232.0
1044.115234 180.0
1044.803467 128.0
1045.601318 40.0
1046.611938 176.0
1047.236572 200.0
1047.78418 52.0
1049.75 96.0
1052.169556 108.0
1055.981934 152.0
1058.549561 192.0
1058.693604 48.0
1059.140503 88.0
1061.817261 200.0
1064.12085 44.0
1067.584106 104.0
1071.040039 124.0
1074.840698 112.0
1075.395386 128.0
1075.728271 112.0
1082.364136 96.0
1084.014893 132.0
1084.283569 160.0
1086.755737 192.0
1087.123169 164.0
1087.746582 148.0
1088.114258 184.0
1088.751221 168.0
1089.07959 212.0
1089.966431 168.0
1090.41333 132.0
1091.090332 128.0
1094.544556 152.0
1098.940796 184.0
1102.605713 100.0
1104.251831 164.0
1105.508789 192.0
1107.627441 224.0
1107.998413 300.0
1114.480347 112.0
1117.751831 132.0
1119.182861 176.0
1119.262695 252.0
1119.482544 240.0
1123.841797 112.0
1124.055298 204.0
1126.425415 204.0
1126.505615 188.0
1127.400879 128.0
1128.296509 236.0
1128.971802 168.0
1129.446655 148.0
1130.503784 56.0
1137.964111 176.0
1139.945557 84.0
1140.053101 80.0
1140.174072 136.0
1140.38916 188.0
1141.202515 216.0
1150.648315 148.0
1152.782593 216.0
1154.330566 184.0
1155.378296 196.0
1157.0979 152.0
1158.371094 148.0
1159.136597 172.0
1159.550049 168.0
1161.780762 132.0
1162.466064 136.0
1163.736938 136.0
1164.047729 216.0
1164.210693 152.0
1168.105103 100.0
1168.567749 96.0
1169.921997 164.0
1170.568848 100.0
1171.270264 112.0
1171.474609 256.0
1178.262451 112.0
1178.781738 72.0
1179.089233 40.0
1179.759033 120.0
1182.091309 148.0
1182.235107 120.0
1182.878418 132.0
1183.57666 160.0
1185.60437 160.0
1186.392578 180.0
1187.853149 192.0
1188.751953 64.0
1193.415894 176.0
1193.463989 128.0
1195.383057 164.0
1196.243408 208.0
1197.517212 184.0
1201.059937 164.0
1205.050049 180.0
1206.90918 192.0
1209.032837 216.0
1210.798218 192.0
1211.262207 208.0
1212.49939 60.0
1212.897461 64.0
1213.216431 116.0
1213.271851 156.0
1213.549194 200.0
1213.687866 44.0
1215.019409 64.0
1215.775757 140.0
1216.476807 144.0
1219.407959 212.0
1220.756592 116.0
1221.145996 224.0
1223.372681 228.0
1224.041016 220.0
1225.963623 172.0
1227.329834 144.0
1228.35498 208.0
1230.057617 112.0
1230.3927 152.0
1234.403198 160.0
1234.976685 156.0
1237.621948 120.0
1239.036621 208.0
1239.604126 140.0
1241.286499 184.0
1242.640259 56.0
1245.932861 132.0
1247.710815 124.0
1248.526489 36.0
1251.981812 136.0
1253.566772 200.0
1254.518311 152.0
1255.315063 140.0
1255.801636 164.0
1257.219727 188.0
1259.217529 160.0
1260.30542 164.0
1260.941406 160.0
1261.358398 140.0
1261.733154 128.0
1261.952271 132.0
1262.001709 112.0
1264.973022 104.0
1265.249146 152.0
1268.677856 132.0
1271.295044 216.0
1271.77063 160.0
1271.841553 176.0
1272.054565 176.0
1272.260376 192.0
1272.970337 188.0
1274.511719 148.0
1274.589966 216.0
1277.893433 160.0
1278.408447 120.0
1278.799805 176.0
1279.960205 152.0
1281.228027 136.0
1281.840698 160.0
1282.232666 180.0
1282.289673 168.0
1282.988281 216.0
1283.637085 208.0
1287.041504 200.0
1291.421265 144.0
1292.651733 132.0
1293.174194 116.0
1293.904297 184.0
1294.591675 52.0
1294.677612 144.0
1295.085815 144.0
1295.157471 116.0
1296.189087 204.0
1297.256958 168.0
1297.572388 136.0
1298.002563 160.0
1298.461548 176.0
1298.942017 164.0
1302.164795 160.0
1307.758301 168.0
1308.218994 208.0
1309.270264 144.0
1309.69519 168.0
1310.265869 252.0
1310.94873 328.0
1312.051514 152.0
1312.498535 128.0
1312.54895 80.0
1313.767822 144.0
1314.070801 136.0
1314.756348 176.0
1315.348145 116.0
1316.546631 144.0
1316.655029 172.0
1318.244263 164.0
1319.306763 104.0
1321.074951 188.0
1321.440186 164.0
1321.664429 140.0
1321.895996 192.0
1322.757202 152.0
1324.002563 132.0
1324.951416 92.0
1325.907837 108.0
1328.924438 212.0
1329.592041 76.0
1330.143555 236.0
1331.268921 196.0
1331.646606 184.0
1332.614136 176.0
1333.760864 124.0
1336.371582 152.0
1336.779053 188.0
1336.83728 164.0
1337.062866 120.0
1337.34668 112.0
1337.710693 200.0
1339.312622 92.0
1339.96814 60.0
1340.623901 132.0
1341.316284 148.0
1341.440308 144.0
1341.994263 172.0
1342.089111 88.0
1342.358887 56.0
1342.577637 40.0
1343.824951 132.0
1345.65686 160.0
1346.292114 164.0
1346.547729 200.0
1346.664551 228.0
1346.883667 176.0
1347.570435 180.0
1349.463379 164.0
1350.062988 180.0
1350.403076 244.0
1350.531006 152.0
1355.457886 148.0
1356.315308 136.0
1357.11438 128.0
1357.5177 72.0
1357.591064 44.0
1358.001709 228.0
1358.295044 144.0
1358.405151 112.0
1358.599487 136.0
1360.114868 128.0
1360.43042 152.0
1360.591919 208.0
1360.760864 108.0
1362.229614 148.0
1362.523438 140.0
1363.971069 176.0
1364.419434 216.0
1364.515015 204.0
1366.037354 180.0
1366.544922 192.0
1366.898071 176.0
1367.913696 200.0
1369.533691 88.0
1369.828247 132.0
1370.454468 144.0
1371.817871 172.0
1373.019653 192.0
1374.731201 148.0
1374.93042 160.0
1375.072754 156.0
1375.727539 164.0
1376.244385 68.0
1377.270874 128.0
1378.009521 160.0
1378.083496 148.0
1378.77063 116.0
1378.851929 288.0
1379.96814 184.0
1380.123413 140.0
1381.824463 156.0
1382.216675 160.0
1382.912231 120.0
1383.215698 148.0
1383.43042 116.0
1383.587769 160.0
1385.096558 152.0
1385.570557 260.0
1385.696533 248.0
1385.792847 160.0
1385.88916 204.0
1387.786621 232.0
1387.920044 172.0
1388.491089 108.0
1388.639404 188.0
1389.907959 140.0
1390.338257 208.0
1390.479248 160.0
1391.07312 48.0
1391.61499 224.0
1392.766113 136.0
1392.944336 264.0
1393.003784 108.0
1393.315796 196.0
1393.501465 120.0
1396.303833 120.0
1396.519531 212.0
1397.806519 112.0
1399.444092 168.0
1400.248291 60.0
1400.352539 188.0
1401.156982 232.0
1402.364136 172.0
1402.475952 252.0
1404.43689 160.0
1406.429077 132.0
1406.563477 204.0
1407.145752 176.0
1407.884888 132.0
1409.393799 156.0
1409.453613 164.0
1409.662842 136.0
1411.42688 100.0
1411.583862 128.0
1411.63623 156.0
1412.615967 116.0
1413.192017 140.0
1415.130493 128.0
1416.208862 160.0
1416.733154 100.0
1417.242676 172.0
1417.519897 236.0
1418.374268 100.0
1419.911255 144.0
1420.773926 72.0
1420.916382 104.0
1422.094482 96.0
1422.732544 196.0
1422.860107 124.0
1423.025391 132.0
1423.813721 104.0
1423.98645 136.0
1426.345703 44.0
1426.834351 172.0
1427.856934 192.0
1427.939697 164.0
1428.902588 128.0
1429.421753 64.0
1429.58728 68.0
1429.647461 172.0
1429.812988 152.0
1429.918335 112.0
1430.046265 172.0
1431.664917 120.0
1432.297607 148.0
1432.433105 148.0
1433.216675 116.0
1433.729126 192.0
1434.497803 152.0
1435.206543 44.0
1436.18689 132.0
1436.247192 176.0
1436.3302 148.0
1436.714844 140.0
1436.803589 164.0
1437.001587 212.0
1437.175049 136.0
1437.575073 188.0
1437.793823 160.0
1437.997681 120.0
1438.050415 100.0
1439.016724 216.0
1439.296021 152.0
1439.666016 208.0
1439.960571 184.0
1442.552246 112.0
1442.915039 168.0
1443.308228 180.0
1443.701416 144.0
1444.362671 188.0
1444.828491 84.0
1445.123535 136.0
1445.282349 188.0
1445.516235 204.0
1446.122437 128.0
1448.530151 240.0
1449.280151 128.0
1450.348755 192.0
1451.44043 148.0
1451.546509 72.0
1451.622314 144.0
1452.077393 168.0
1452.623535 148.0
1452.706909 160.0
1453.571777 140.0
1454.095459 152.0
1454.224487 116.0
1454.414185 100.0
1455.98584 180.0
1456.084595 108.0
1456.570679 68.0
1456.904907 128.0
1457.170776 136.0
1457.498657 124.0
1457.565918 176.0
1457.634277 132.0
1457.922974 156.0
1458.485474 116.0
1459.640991 236.0
1460.568726 184.0
1460.85022 244.0
1461.025146 44.0
1461.618652 148.0
1461.877319 256.0
1462.610229 120.0
1462.821045 160.0
1463.496582 144.0
1463.612915 168.0
1464.062134 80.0
1464.549561 136.0
1464.800903 96.0
1464.854248 132.0
1465.417969 60.0
1466.355225 164.0
1467.315674 184.0
1467.689331 200.0
1467.757935 192.0
1468.413696 76.0
1468.543335 144.0
1468.749268 136.0
1469.039185 152.0
1469.573242 164.0
1469.855469 104.0
1470.206543 152.0
1470.572876 180.0
1471.07666 176.0
1471.565186 156.0
1471.710327 152.0
1472.130249 140.0
1473.764893 172.0
1475.897339 128.0
1475.989136 176.0
1476.187866 128.0
1476.272095 236.0
1476.325562 140.0
1477.205078 140.0
1477.847778 136.0
1478.115601 176.0
1479.569702 180.0
1479.7229 112.0
1480.220581 164.0
1480.519165 112.0
1480.611084 128.0
1480.87915 156.0
1482.480347 44.0
1483.422974 196.0
1484.312378 156.0
1484.68811 140.0
1485.109863 160.0
1485.424316 112.0
1486.398682 124.0
1487.073975 84.0
1487.381104 68.0
1487.595947 136.0
1488.44043 208.0
1488.947266 192.0
1489.292969 152.0
1489.454224 172.0
1490.860229 144.0
1491.259766 52.0
1491.34436 116.0
1491.482666 224.0
1492.213013 144.0
1492.616211 240.0
1492.820435 140.0
1493.058838 256.0
1493.527954 160.0
1494.974365 212.0
1495.05127 60.0
1496.005737 136.0
1497.584229 188.0
1497.85376 232.0
1498.539429 40.0
1499.194336 88.0
1499.263672 124.0
1501.530273 100.0
1503.427979 244.0
1503.597778 144.0
1503.713623 188.0
1504.060913 112.0
1504.246094 96.0
