>compound MLS001140672-01!
>formula C33H30N4O6
>ionization [M+H]+
>parentmass 579.221985
#inchi InChI=1S/C33H30N4O6/c1-43-21-12-10-19(11-13-21)29-28-24(22-6-2-4-8-25(22)34-28)18-27-31(39)37(33(42)36(27)29)26-9-5-3-7-23(26)30(38)35-16-14-20(15-17-35)32(40)41/h2-13,20,27,29,34H,14-18H2,1H3,(H,40,41)/t27-,29?/m0/s1
#inchikey XKOGKUUHPBUVBF
#Ion_Source LC-ESI
#Instrument qTof
#Compound_Source NIH Natural Product Library
#PI Dorrestein
#Data_Collector VVP/LMS
#Scan -1
#Precursor_MZ 579.224
#ExactMass 578.217
#Charge 1
#CAS_Number N/A
#Pubmed_ID N/A
#Smiles COc1ccc(cc1)C2N3[C@@H](Cc4c2[nH]c5ccccc45)C(=O)N(C3=O)c6ccccc6C(=O)N7CCC(CC7)C(=O)O
#INCHI_AUX N/A
#Library_Class 1
#SpectrumID CCMSLIB00000080561
#IonMode Positive
#UpdateWorkflowName UPDATE-SINGLE-ANNOTATED-GOLD
#LibraryQualityString Gold
#TaskID b1d8e8f6646f4e71acdff9ca3d919d08
##Scan# 2136
#SpectrumFile p2-F10_GF10_01_18046.mzXML
#LibraryName NIH_Natural_Products_Library.mgf
#MQScore -1
#Organism NIH_Natural_Products_Library
#TIC_Query 0
#RT_Query -1
#MZErrorPPM -1
#SharedPeaks 0
#MassDiff 0
#LibMZ -1
#SpecMZ 579.224
#SpecCharge 0
#internalFilename spec-00000.mgf

>collision 10
94.994522 124.0
95.230202 204.0
95.415947 148.0
95.472336 184.0
95.530685 112.0
95.672752 148.0
96.094505 192.0
96.24128 140.0
96.406151 248.0
96.458923 176.0
96.50193 56.0
96.556686 172.0
96.601265 96.0
96.629059 120.0
96.650581 172.0
96.766068 108.0
96.824814 192.0
96.920799 156.0
96.995277 240.0
97.136459 100.0
97.220833 152.0
97.248306 160.0
97.264008 120.0
97.309776 212.0
97.529182 112.0
97.721909 176.0
98.062592 64.0
98.113838 112.0
98.287407 212.0
98.433479 224.0
98.579659 88.0
98.672562 168.0
98.751663 144.0
98.797157 144.0
98.881004 168.0
99.119888 76.0
99.213043 56.0
99.334015 152.0
99.703323 140.0
99.75898 148.0
99.788803 132.0
99.928024 152.0
100.001656 176.0
100.101196 84.0
100.493881 40.0
100.523811 188.0
100.706207 244.0
100.729454 192.0
100.795387 200.0
100.823364 236.0
100.911316 160.0
101.003311 120.0
101.04332 156.0
101.177414 68.0
101.263519 52.0
101.343651 88.0
101.363686 168.0
101.379715 220.0
101.45536 200.0
101.491974 164.0
101.574203 156.0
101.835144 208.0
101.90947 168.0
102.084351 100.0
102.106468 144.0
102.160782 112.0
102.223152 232.0
102.247787 216.0
102.331848 180.0
102.549416 152.0
102.573601 188.0
102.755104 104.0
102.787384 140.0
102.87619 132.0
102.924164 200.0
102.999374 248.0
103.055939 168.0
103.100395 208.0
103.300568 52.0
103.438171 124.0
103.598152 168.0
103.644753 208.0
104.005562 176.0
104.049309 156.0
104.095078 212.0
104.19574 172.0
104.273804 176.0
104.499573 180.0
104.56266 80.0
104.613541 76.0
104.637978 192.0
104.870201 140.0
104.951752 80.0
104.999954 144.0
105.053726 148.0
105.069016 180.0
105.406944 116.0
105.44577 120.0
105.472343 164.0
105.701408 188.0
105.734146 176.0
105.891792 164.0
106.090561 136.0
106.160271 140.0
106.196144 128.0
106.23616 96.0
106.299767 112.0
106.42498 124.0
106.564651 152.0
106.638626 192.0
106.653015 136.0
106.986267 132.0
107.041626 180.0
107.078926 124.0
107.105705 112.0
107.272614 36.0
107.402527 248.0
107.478859 156.0
107.772064 44.0
107.910545 112.0
107.96431 120.0
108.042908 248.0
108.111259 124.0
108.142235 136.0
108.386612 108.0
108.637482 176.0
108.761986 204.0
108.80558 268.0
109.144257 84.0
109.175446 96.0
109.271133 84.0
109.346046 248.0
109.400162 28.0
109.445969 124.0
109.485535 180.0
109.639702 164.0
109.78923 232.0
109.896187 136.0
110.065262 64.0
110.347336 104.0
110.520935 196.0
110.774269 216.0
110.866455 128.0
110.908379 72.0
110.950302 120.0
110.96917 192.0
111.149559 136.0
111.33429 136.0
111.453529 152.0
111.733665 136.0
111.788376 52.0
111.868355 276.0
111.957512 116.0
112.032616 192.0
112.079468 236.0
112.100044 132.0
112.1717 108.0
112.28978 76.0
112.346733 84.0
112.37838 56.0
112.845161 168.0
112.980515 164.0
113.084198 128.0
113.15406 100.0
113.215752 180.0
113.450661 152.0
113.497307 48.0
113.686104 156.0
113.703079 156.0
113.868683 220.0
113.921783 168.0
113.984245 220.0
114.019424 168.0
114.074791 180.0
114.227898 168.0
114.41304 196.0
114.481178 152.0
114.538681 132.0
114.562119 136.0
114.579163 212.0
114.894264 220.0
115.016327 148.0
115.350655 140.0
115.432938 152.0
115.638321 124.0
115.693977 160.0
115.908157 124.0
116.071068 104.0
116.141838 148.0
116.184746 108.0
116.275612 184.0
116.407967 176.0
116.523743 180.0
116.840004 152.0
116.977737 200.0
117.072472 172.0
117.109085 164.0
117.184479 268.0
117.210335 228.0
117.259232 192.0
117.318108 180.0
117.503578 92.0
117.82225 212.0
117.874962 152.0
118.097641 116.0
118.331352 184.0
118.461296 132.0
118.597809 120.0
118.899292 148.0
119.046913 164.0
119.472939 148.0
119.529991 196.0
119.718895 196.0
119.738495 188.0
119.834343 176.0
119.886642 164.0
120.042824 824.0
120.078491 156.0
120.130844 128.0
120.159203 100.0
120.175171 120.0
120.257401 208.0
120.292328 164.0
120.459579 156.0
120.541313 156.0
120.687767 236.0
120.915665 112.0
120.941811 196.0
121.064621 4804.0
121.121094 48.0
121.24379 36.0
121.261322 136.0
121.35778 156.0
121.439095 200.0
121.448227 196.0
121.489372 184.0
121.50473 56.0
121.713242 44.0
121.781319 216.0
122.027443 120.0
122.067253 496.0
122.097809 156.0
122.173698 184.0
122.218803 184.0
122.247406 176.0
122.425728 248.0
122.474182 120.0
122.619598 60.0
122.772583 168.0
122.800392 144.0
122.910698 152.0
122.987938 136.0
123.184464 160.0
123.244118 120.0
123.288315 128.0
123.403259 52.0
123.445274 112.0
123.500565 108.0
123.566925 252.0
123.827293 200.0
123.921173 192.0
123.952141 160.0
124.087402 220.0
124.109581 32.0
124.156143 164.0
124.187195 60.0
124.222687 44.0
124.429077 204.0
124.466827 136.0
124.486809 192.0
124.615646 172.0
124.665215 208.0
124.760101 92.0
124.843895 152.0
124.913544 168.0
124.958038 164.0
124.975838 60.0
125.051506 200.0
125.091568 240.0
125.207138 164.0
125.213852 148.0
125.2519 140.0
125.278229 156.0
125.396729 240.0
125.617477 192.0
125.862984 116.0
126.023804 188.0
126.267464 164.0
126.46212 88.0
126.480026 140.0
126.527039 144.0
126.665878 148.0
126.690521 156.0
127.008835 172.0
127.255699 40.0
127.379219 132.0
127.822128 112.0
127.837883 116.0
127.937019 180.0
127.958504 148.0
128.018234 208.0
128.518402 104.0
128.839005 160.0
129.135132 152.0
129.307083 104.0
129.465561 132.0
129.488205 120.0
129.535767 136.0
129.64679 156.0
129.787338 52.0
129.882584 152.0
130.025528 76.0
130.064316 400.0
130.086945 152.0
130.168549 40.0
130.270767 156.0
130.293472 32.0
130.559433 188.0
130.962265 32.0
131.063522 136.0
131.155945 180.0
131.174179 196.0
131.24942 164.0
131.265381 184.0
131.285904 168.0
131.477539 80.0
131.554428 204.0
131.644196 84.0
132.046417 144.0
132.247772 136.0
132.29126 120.0
132.472168 44.0
132.653214 92.0
132.820602 160.0
133.063965 172.0
133.231964 164.0
133.378586 196.0
133.59935 48.0
133.615448 172.0
133.695984 128.0
133.89859 136.0
133.951553 140.0
134.0345 240.0
134.198151 148.0
134.382675 172.0
134.470367 184.0
134.997101 172.0
135.044113 2400.0
135.087311 100.0
135.128952 140.0
135.286331 228.0
135.427582 104.0
135.537521 184.0
135.573181 52.0
135.633804 156.0
135.770599 184.0
135.844818 60.0
135.879623 48.0
136.004929 108.0
136.052322 164.0
136.097794 104.0
136.292908 144.0
136.643997 220.0
136.660294 176.0
136.788284 68.0
136.851151 88.0
136.934982 200.0
136.974579 104.0
137.06311 196.0
137.151672 56.0
137.291565 180.0
137.50853 80.0
137.56543 204.0
137.63765 184.0
137.861191 168.0
137.971039 148.0
138.024826 172.0
138.111359 180.0
138.144104 76.0
138.254074 136.0
138.359406 184.0
138.567841 132.0
138.586594 180.0
138.727203 136.0
138.781128 36.0
138.877289 220.0
138.926544 168.0
138.973465 152.0
139.168289 72.0
139.22963 196.0
139.436081 116.0
139.464294 116.0
139.593597 168.0
139.661804 112.0
139.800613 184.0
139.838272 48.0
139.934784 116.0
140.065704 396.0
140.752975 196.0
140.842712 172.0
140.901764 120.0
140.989197 188.0
141.065689 316.0
141.128098 196.0
141.154678 28.0
141.234695 120.0
141.280029 184.0
141.348648 48.0
141.377045 212.0
141.433853 140.0
141.514343 56.0
141.958725 200.0
142.057068 52.0
142.223175 124.0
142.410751 132.0
142.515274 56.0
142.553299 120.0
142.650742 112.0
142.671951 208.0
142.680206 192.0
142.729202 240.0
142.824326 208.0
142.876663 124.0
142.914734 144.0
142.936142 152.0
143.033722 56.0
143.071808 140.0
143.319519 216.0
143.352875 96.0
143.455368 92.0
143.68808 168.0
143.741577 88.0
143.863297 144.0
143.880005 180.0
144.042465 152.0
144.077408 276.0
144.133179 120.0
144.252686 156.0
144.336365 156.0
144.568405 124.0
144.745544 100.0
144.779068 148.0
144.925201 100.0
144.973129 124.0
145.041138 192.0
145.112152 124.0
145.200882 228.0
145.396194 204.0
145.529633 84.0
145.617416 188.0
145.784256 72.0
145.877991 132.0
145.926071 200.0
146.023056 5224.0
146.095566 164.0
146.182465 92.0
146.449539 160.0
146.848389 116.0
147.02626 764.0
147.18866 136.0
147.260223 88.0
147.322983 164.0
147.398819 84.0
147.460495 100.0
147.483398 124.0
147.59462 148.0
147.809891 100.0
147.967224 108.0
147.996277 152.0
148.02533 196.0
148.081039 124.0
148.196121 220.0
148.226395 48.0
148.257904 120.0
148.32576 116.0
148.354858 108.0
148.624069 80.0
148.660461 272.0
148.701721 60.0
148.86438 132.0
149.063583 156.0
149.238586 60.0
149.28479 124.0
149.369919 68.0
149.708237 120.0
149.828323 184.0
149.98111 104.0
150.060471 180.0
150.16153 172.0
150.364044 248.0
150.500748 200.0
150.803665 156.0
150.972366 156.0
151.004166 204.0
151.082428 52.0
151.175415 132.0
151.297791 132.0
151.412888 92.0
151.687302 172.0
151.755951 120.0
151.782928 212.0
151.876114 72.0
151.922729 140.0
152.067505 96.0
152.109222 216.0
152.183624 144.0
152.261459 104.0
152.516983 188.0
152.654663 64.0
152.693604 212.0
152.702621 176.0
152.728455 148.0
153.018829 128.0
153.044037 168.0
153.144424 116.0
153.218323 120.0
153.279922 152.0
153.413025 184.0
153.539078 192.0
153.681854 228.0
153.753403 176.0
153.770691 124.0
153.807709 108.0
153.881775 56.0
153.92868 36.0
153.950912 28.0
154.064529 184.0
154.222687 208.0
154.36113 128.0
154.520782 184.0
154.70752 240.0
154.769409 176.0
154.832947 128.0
154.870956 244.0
154.905624 188.0
155.027039 112.0
155.066696 56.0
155.170258 72.0
155.384094 104.0
155.423798 128.0
155.493286 124.0
155.868271 144.0
155.937851 208.0
156.037292 80.0
156.164108 160.0
156.19397 112.0
156.298462 140.0
156.325821 200.0
156.373108 160.0
156.534927 172.0
156.681885 160.0
157.050827 192.0
157.136185 172.0
157.175568 120.0
157.227966 176.0
157.337799 160.0
157.407715 168.0
157.655029 128.0
157.73822 268.0
157.832504 144.0
158.002594 124.0
158.115189 76.0
158.388107 44.0
158.656235 144.0
158.756531 64.0
158.859375 184.0
158.969772 192.0
159.042557 120.0
159.115936 52.0
159.260086 196.0
159.341385 152.0
159.363998 216.0
159.459488 108.0
159.534912 144.0
159.635483 60.0
159.846786 236.0
160.040604 136.0
160.373138 208.0
160.43364 52.0
160.516846 156.0
160.655563 172.0
160.892792 192.0
161.12262 204.0
161.15799 224.0
161.246048 132.0
161.274231 184.0
161.360184 112.0
161.499268 168.0
161.567566 240.0
161.790283 132.0
161.810532 320.0
162.018204 132.0
162.059967 160.0
162.165176 176.0
162.314758 20.0
162.332504 176.0
162.368011 164.0
162.388306 128.0
162.530365 196.0
162.615601 136.0
162.779129 128.0
162.918823 40.0
162.969635 140.0
163.015366 100.0
163.04985 388.0
163.147537 168.0
163.193314 104.0
163.310287 48.0
163.389145 108.0
163.452759 72.0
163.521713 84.0
163.675278 96.0
163.811737 176.0
163.865234 128.0
164.104828 104.0
164.135422 64.0
164.252747 56.0
164.339478 228.0
164.382858 120.0
164.717316 184.0
164.934525 176.0
165.024002 124.0
165.064911 144.0
165.131393 208.0
165.336075 184.0
165.512711 208.0
165.607468 160.0
165.681747 212.0
165.894455 172.0
166.079086 228.0
166.268951 104.0
166.523117 164.0
166.615601 156.0
166.666992 164.0
166.782639 144.0
166.821198 180.0
166.84433 68.0
166.985764 140.0
167.073761 172.0
167.243057 156.0
167.513428 76.0
167.665451 80.0
167.773712 176.0
168.333603 100.0
168.584183 96.0
168.684982 60.0
168.938416 44.0
168.9617 96.0
168.997925 112.0
169.044495 80.0
169.079208 484.0
169.321503 164.0
169.541718 144.0
169.572815 296.0
169.6091 132.0
169.754288 88.0
169.793198 92.0
169.83728 216.0
169.886566 224.0
170.057831 196.0
170.174652 136.0
170.470154 168.0
170.650131 204.0
170.811371 164.0
170.925842 176.0
171.136673 184.0
171.178345 140.0
171.298874 116.0
171.352859 168.0
171.498795 76.0
171.745346 172.0
171.775192 52.0
171.858673 52.0
171.892593 56.0
172.020477 204.0
172.238327 160.0
172.375153 156.0
172.665863 152.0
172.727203 124.0
172.770508 120.0
172.901337 140.0
173.06102 368.0
173.152664 212.0
173.270538 176.0
173.296738 120.0
173.370117 48.0
173.412048 112.0
173.503799 160.0
173.62442 140.0
173.746078 168.0
173.931396 136.0
174.214996 280.0
174.251785 136.0
174.37529 168.0
174.40683 196.0
174.63559 76.0
174.730286 212.0
175.069839 120.0
175.109344 180.0
175.275314 152.0
175.607483 152.0
175.829102 100.0
175.924026 200.0
175.956894 176.0
175.995407 144.0
176.37056 184.0
176.550339 188.0
176.719635 176.0
176.814896 100.0
176.83873 184.0
176.929947 136.0
177.302216 132.0
177.625687 208.0
177.699966 60.0
177.880432 160.0
177.997253 128.0
178.08223 128.0
178.278839 144.0
178.305328 136.0
178.432999 64.0
178.467575 20.0
178.568619 72.0
178.587234 192.0
178.693649 80.0
178.736221 180.0
178.786774 144.0
178.853806 108.0
179.026382 140.0
179.087631 156.0
179.119598 148.0
179.159561 44.0
179.247482 56.0
179.271469 216.0
179.367416 160.0
179.396744 144.0
179.447388 84.0
179.511383 104.0
179.540726 152.0
179.572723 196.0
179.62352 176.0
180.010406 56.0
180.071823 92.0
180.165314 140.0
180.229446 220.0
180.296249 116.0
180.486053 116.0
180.544876 84.0
180.598373 132.0
180.732132 116.0
180.774948 200.0
180.812408 216.0
180.930191 200.0
181.439224 116.0
181.551575 208.0
181.989227 76.0
182.02951 108.0
182.263214 180.0
182.382339 196.0
182.440598 104.0
182.478241 64.0
182.556213 120.0
182.717606 132.0
183.159088 140.0
183.177948 96.0
183.253387 176.0
183.412384 212.0
183.652359 112.0
183.941467 112.0
184.025467 296.0
184.205719 92.0
184.338104 136.0
184.416489 172.0
184.689575 116.0
184.770721 124.0
184.888763 172.0
184.954742 132.0
185.03508 204.0
185.065735 144.0
185.106354 40.0
185.409775 248.0
185.455841 184.0
185.733078 164.0
185.774399 140.0
185.976624 104.0
186.003769 160.0
186.058487 176.0
186.127029 200.0
186.726517 196.0
186.824661 152.0
186.887024 104.0
186.960846 184.0
187.014923 172.0
187.268143 140.0
187.382553 120.0
187.412521 172.0
187.529709 148.0
187.589676 156.0
187.761459 224.0
187.908752 80.0
188.067841 480.0
188.118896 48.0
188.20636 212.0
188.299118 176.0
188.495804 108.0
188.68837 192.0
188.722687 140.0
188.922333 140.0
189.01947 192.0
189.064621 192.0
189.223389 192.0
189.390427 124.0
189.442474 160.0
189.612366 112.0
189.667175 120.0
189.722 120.0
189.754898 160.0
190.015457 92.0
190.245987 180.0
190.279861 212.0
190.919174 128.0
191.034698 108.0
191.081772 152.0
191.172272 116.0
191.24382 112.0
191.411758 196.0
191.552216 112.0
191.83606 108.0
191.957367 176.0
192.004257 136.0
192.10907 120.0
192.219437 160.0
192.44577 104.0
192.55899 128.0
192.780014 156.0
192.81041 152.0
193.037094 188.0
193.095169 152.0
193.230713 96.0
193.621017 148.0
193.723511 136.0
193.826019 104.0
194.010483 180.0
194.167007 396.0
194.194733 132.0
194.252991 84.0
194.386154 204.0
194.683197 200.0
194.79985 140.0
194.902649 208.0
194.983231 160.0
195.061722 68.0
195.067337 356.0
195.222717 168.0
195.333572 140.0
195.450424 348.0
195.478256 208.0
195.508865 140.0
195.570099 152.0
195.664749 132.0
195.723221 172.0
195.798401 88.0
195.993408 64.0
196.015701 160.0
196.072937 148.0
196.110443 112.0
196.266571 172.0
196.368103 88.0
196.503647 56.0
196.671082 84.0
196.793915 112.0
197.058502 44.0
197.089996 176.0
197.18222 204.0
197.302414 120.0
197.352737 112.0
197.724792 132.0
197.943146 212.0
198.080383 136.0
198.116806 100.0
198.34288 112.0
198.397049 108.0
198.517609 72.0
198.601761 132.0
198.716309 48.0
198.753906 172.0
198.848663 144.0
198.899185 40.0
198.991821 168.0
199.022705 120.0
199.045181 108.0
199.331696 152.0
199.491898 160.0
199.615616 140.0
199.815323 168.0
199.950394 136.0
200.195312 132.0
200.271362 156.0
200.403763 152.0
200.440399 116.0
200.479843 124.0
200.544662 248.0
200.61795 192.0
200.776474 204.0
200.857651 224.0
200.877396 156.0
200.993073 156.0
201.038223 144.0
201.272522 68.0
201.362885 84.0
201.427856 160.0
201.475876 76.0
201.752838 136.0
201.809387 196.0
201.984726 168.0
202.256363 120.0
202.298828 224.0
202.516861 148.0
202.791702 140.0
203.052551 284.0
203.370316 168.0
203.421417 168.0
203.512268 216.0
203.569046 144.0
203.705383 128.0
203.745163 60.0
203.824707 160.0
203.981033 52.0
204.036102 236.0
204.078888 1000.0
204.208694 228.0
204.259705 196.0
204.347885 192.0
204.791977 124.0
204.997482 120.0
205.079742 336.0
205.313553 120.0
205.413376 172.0
205.44191 176.0
205.69873 132.0
205.887177 148.0
205.992859 56.0
206.012863 120.0
206.096878 1360.0
206.141434 64.0
206.194443 116.0
206.255417 148.0
206.367249 128.0
206.696182 40.0
206.8078 160.0
207.104324 308.0
207.225906 132.0
207.334793 248.0
207.615753 224.0
207.94281 228.0
208.073471 168.0
208.301727 160.0
208.618851 224.0
208.68396 212.0
208.729965 176.0
208.787476 140.0
208.819107 152.0
208.856506 136.0
208.893906 132.0
208.948563 196.0
209.06366 76.0
209.204697 80.0
209.316986 140.0
209.363052 160.0
209.512833 152.0
209.602158 188.0
209.728958 112.0
209.775085 100.0
210.005768 116.0
210.091278 632.0
210.181747 216.0
210.26416 200.0
210.291412 224.0
210.424194 164.0
210.486465 156.0
210.603241 188.0
210.648956 208.0
211.0952 84.0
211.204453 100.0
211.233383 104.0
211.490921 212.0
211.65593 164.0
211.760193 184.0
211.916611 84.0
212.026733 164.0
212.296341 124.0
212.316071 100.0
212.320999 80.0
212.377548 152.0
212.560333 184.0
212.68512 120.0
212.711243 240.0
212.766403 192.0
212.795441 124.0
213.062637 196.0
213.138184 140.0
213.194351 72.0
213.251175 192.0
213.274765 100.0
213.318375 148.0
213.361984 172.0
213.39978 108.0
213.466644 196.0
213.492828 104.0
213.649887 128.0
213.931534 160.0
214.045731 136.0
214.066116 156.0
214.14183 152.0
214.702515 212.0
214.804916 148.0
214.832672 136.0
215.404831 84.0
215.425278 96.0
215.553833 200.0
215.682434 152.0
215.717514 136.0
215.78183 180.0
215.900024 216.0
216.084946 320.0
216.261581 140.0
216.287918 180.0
216.308411 104.0
216.683273 176.0
216.71843 88.0
216.820984 132.0
216.902618 160.0
216.935303 140.0
217.087524 3844.0
217.13176 36.0
217.17868 116.0
217.249084 168.0
217.294617 56.0
217.338867 164.0
217.35878 104.0
217.42514 80.0
217.527878 148.0
217.6577 288.0
217.722412 172.0
217.856766 92.0
217.924347 180.0
217.947845 196.0
217.981735 324.0
218.038956 136.0
218.097 60812.0
218.133728 300.0
218.173233 300.0
218.192886 156.0
218.214874 52.0
218.288834 104.0
218.309418 44.0
218.337143 84.0
218.374115 32.0
218.395386 192.0
218.421173 88.0
218.441223 64.0
218.489288 52.0
218.51532 44.0
218.541794 72.0
218.578827 368.0
218.610703 48.0
218.698578 88.0
218.750748 68.0
218.815384 88.0
218.862625 44.0
218.88324 88.0
218.921524 40.0
218.983368 40.0
219.013336 140.0
219.035599 164.0
219.062897 60.0
219.099976 11704.0
219.160126 84.0
219.188416 60.0
219.210999 156.0
219.233795 52.0
219.26622 96.0
219.306259 116.0
219.355103 132.0
219.37822 100.0
219.406631 88.0
219.477203 84.0
219.583817 64.0
219.628876 84.0
219.773804 124.0
219.820633 84.0
219.873199 104.0
219.928589 76.0
219.949493 140.0
220.027252 156.0
220.10199 984.0
220.222153 60.0
220.308594 156.0
220.328491 100.0
220.360992 108.0
220.393494 28.0
220.443726 44.0
220.479187 68.0
220.508743 80.0
220.628677 140.0
220.668381 92.0
220.709274 144.0
220.740707 52.0
220.759048 96.0
220.816223 164.0
220.872421 52.0
220.901581 56.0
220.964722 80.0
221.004547 140.0
221.09137 136.0
221.132812 56.0
221.153519 52.0
221.446655 56.0
221.553284 52.0
221.642181 100.0
221.684509 84.0
221.713303 76.0
221.749878 76.0
221.779984 96.0
221.819992 60.0
221.858536 124.0
221.932663 104.0
221.956375 108.0
222.047867 136.0
222.09874 112.0
222.273773 128.0
222.407318 96.0
222.438782 160.0
222.609207 140.0
222.742859 324.0
222.846848 80.0
222.885468 112.0
222.915176 60.0
223.001373 68.0
223.064682 480.0
223.173782 40.0
223.378998 100.0
223.813522 104.0
224.001144 136.0
224.066681 144.0
224.230576 244.0
224.569321 184.0
224.612228 60.0
224.7435 152.0
224.803177 176.0
224.865845 128.0
224.961365 156.0
225.028824 148.0
225.087509 64.0
225.221161 144.0
225.254013 136.0
225.30481 84.0
225.415359 288.0
225.771927 244.0
225.833908 112.0
226.04631 116.0
226.243866 136.0
226.267807 36.0
226.306732 168.0
226.348648 236.0
226.447479 60.0
226.591263 36.0
226.685898 96.0
226.834015 56.0
226.947937 196.0
227.154877 56.0
227.319885 164.0
227.355896 100.0
227.379913 88.0
227.496979 52.0
227.788269 172.0
227.809296 108.0
227.912674 168.0
227.962524 44.0
228.061707 108.0
228.10463 228.0
228.17894 44.0
228.458633 44.0
228.557922 80.0
228.578979 108.0
228.672272 72.0
228.78064 136.0
229.096848 196.0
229.220383 176.0
229.436142 192.0
229.473572 88.0
229.641037 64.0
229.74501 216.0
229.835526 176.0
229.950195 116.0
230.113205 32.0
230.397095 76.0
230.514938 200.0
230.581421 128.0
230.690231 112.0
230.838394 84.0
230.871658 60.0
230.977509 152.0
231.010788 68.0
231.093491 204.0
231.1772 140.0
231.264969 176.0
231.389084 168.0
231.431473 112.0
231.455688 196.0
231.513229 192.0
232.074921 1196.0
232.102554 160.0
232.246689 116.0
232.456024 204.0
232.516724 64.0
232.577423 132.0
232.629028 32.0
232.668488 196.0
233.083374 1552.0
233.175766 204.0
233.412888 48.0
233.726196 188.0
233.841843 52.0
234.051636 332.0
234.090668 8720.0
234.155441 84.0
234.190735 68.0
234.212296 184.0
234.310791 44.0
234.353439 60.0
234.405243 124.0
234.432663 136.0
234.62291 164.0
234.874756 36.0
234.937607 92.0
234.966278 148.0
235.092361 1952.0
235.347794 148.0
235.497437 260.0
235.595184 64.0
235.671555 40.0
235.839645 64.0
235.89772 140.0
236.106369 936.0
236.267761 44.0
236.357208 84.0
236.567657 76.0
236.772812 136.0
236.846329 72.0
236.870834 148.0
236.892273 132.0
236.940292 352.0
236.995728 172.0
237.027084 160.0
237.077576 108.0
237.110016 156.0
237.20932 148.0
237.385727 132.0
237.444 168.0
237.594299 140.0
237.713974 208.0
237.766144 120.0
237.842865 36.0
237.9104 184.0
237.984085 192.0
238.049042 204.0
238.086243 11276.0
238.191666 108.0
238.223648 120.0
238.254364 56.0
238.32196 64.0
238.361176 136.0
238.469467 48.0
238.50943 212.0
238.55246 144.0
238.583206 76.0
238.717667 144.0
238.74469 192.0
238.884583 84.0
238.952255 68.0
238.989182 56.0
239.038406 72.0
239.088852 1860.0
239.241547 64.0
239.284653 132.0
239.401657 312.0
239.424484 124.0
239.484818 76.0
239.54335 64.0
239.608032 116.0
239.66658 164.0
239.869614 164.0
240.045731 136.0
240.096985 212.0
240.362183 176.0
240.3974 148.0
240.508499 164.0
240.573318 100.0
240.682526 76.0
240.744308 96.0
240.903763 48.0
241.075607 148.0
241.286972 128.0
241.648834 108.0
242.103867 132.0
242.18129 40.0
242.227753 56.0
242.550018 180.0
242.810471 100.0
242.8694 120.0
242.94075 124.0
242.974075 172.0
243.052444 76.0
243.088898 176.0
243.139328 156.0
243.164154 160.0
243.539841 76.0
243.682739 96.0
243.726242 112.0
243.804413 104.0
243.956238 112.0
244.040421 100.0
244.082108 208.0
244.098312 92.0
244.103882 180.0
244.31076 208.0
244.593933 48.0
244.743378 256.0
244.985214 160.0
245.08287 972.0
245.132751 68.0
245.160797 160.0
245.216339 160.0
245.282349 128.0
245.50029 200.0
245.569214 144.0
245.628479 252.0
245.687744 120.0
245.773392 168.0
245.818787 144.0
245.903046 60.0
245.956116 72.0
245.999817 192.0
246.025574 128.0
246.091141 1192.0
246.149673 144.0
246.287094 248.0
246.383942 108.0
246.474548 64.0
246.504578 216.0
246.649551 148.0
246.671448 56.0
246.843399 116.0
246.990387 60.0
247.099991 3832.0
247.171844 164.0
247.241165 160.0
247.300156 96.0
247.486557 184.0
247.57254 204.0
247.597244 140.0
247.625778 224.0
247.67276 148.0
247.694687 132.0
247.754211 164.0
247.794937 128.0
247.892792 140.0
247.942215 100.0
247.976685 232.0
248.004608 84.0
248.028763 104.0
248.040909 164.0
248.068649 268.0
248.10791 44348.0
248.194199 200.0
248.232071 104.0
248.265121 124.0
248.29538 192.0
248.352661 84.0
248.461029 160.0
248.497482 104.0
248.534897 60.0
248.570984 84.0
248.591248 92.0
248.623901 76.0
248.657043 52.0
248.709473 108.0
248.741013 124.0
248.768051 208.0
248.801453 112.0
248.839355 84.0
248.860672 76.0
248.909927 232.0
248.972321 176.0
249.022537 144.0
249.114334 43872.0
249.186249 116.0
249.259323 68.0
249.281235 80.0
249.305466 148.0
249.344772 76.0
249.374039 172.0
249.397018 108.0
249.440353 92.0
249.468536 124.0
249.505402 68.0
249.541397 144.0
249.585724 44.0
249.599335 64.0
249.608475 36.0
249.641403 220.0
249.68779 76.0
249.719238 60.0
249.747543 84.0
249.914276 52.0
249.958328 64.0
249.986649 64.0
250.033859 88.0
250.11821 7184.0
250.164749 160.0
250.231445 52.0
250.2668 92.0
250.288849 60.0
250.358124 52.0
250.380173 52.0
250.41246 64.0
250.474655 44.0
250.512466 84.0
250.546448 120.0
250.572327 200.0
250.616425 48.0
250.638489 32.0
250.690796 120.0
250.75322 64.0
250.807144 116.0
250.846497 136.0
250.909546 236.0
250.932755 200.0
250.951508 104.0
250.994675 36.0
251.01857 120.0
251.053833 200.0
251.119049 1108.0
251.163681 68.0
251.278549 140.0
251.335342 48.0
251.392136 112.0
251.51207 72.0
251.772552 140.0
251.796234 40.0
251.82782 80.0
251.89415 168.0
251.932068 80.0
251.955231 128.0
252.001572 180.0
252.054947 148.0
252.18486 36.0
252.238586 172.0
252.273361 56.0
252.314468 92.0
252.472565 180.0
252.497864 68.0
252.608566 80.0
252.649689 72.0
252.741455 36.0
252.890579 96.0
252.966156 132.0
252.991486 156.0
253.124466 76.0
253.171967 136.0
253.244812 96.0
253.495087 88.0
253.583832 112.0
253.625031 184.0
253.827927 88.0
253.875504 56.0
253.910385 128.0
254.079926 152.0
254.20224 148.0
254.26889 152.0
254.300629 128.0
254.72612 60.0
254.770584 172.0
254.802353 180.0
255.097229 168.0
255.399994 172.0
255.431808 44.0
255.5177 56.0
255.581329 160.0
255.644974 104.0
255.711807 108.0
255.800934 112.0
256.027008 140.0
256.087524 112.0
256.259521 104.0
256.587799 60.0
256.839752 144.0
257.00882 128.0
257.082367 328.0
257.200317 236.0
257.35675 172.0
257.379089 164.0
257.401428 124.0
257.615448 88.0
257.717682 124.0
257.759216 60.0
258.085358 128.0
258.142792 100.0
258.1716 148.0
258.317841 148.0
258.728333 160.0
259.087036 136.0
259.272888 88.0
259.308136 120.0
259.372223 108.0
259.443909 112.0
259.510468 68.0
259.583832 44.0
259.734558 48.0
259.894989 128.0
260.051941 92.0
260.106964 12340.0
260.191742 148.0
260.233154 88.0
260.280151 32.0
260.437531 72.0
260.563965 244.0
260.63028 148.0
260.704193 132.0
260.845612 164.0
261.044952 344.0
261.11084 2960.0
261.157501 160.0
261.299072 92.0
261.430969 140.0
261.485687 84.0
261.586334 168.0
261.627319 76.0
261.66275 184.0
261.698975 144.0
261.83017 40.0
261.895172 92.0
261.955811 208.0
262.016724 136.0
262.086304 1236.0
262.116425 512.0
262.174896 48.0
262.465027 108.0
262.548859 220.0
262.671417 108.0
262.718475 76.0
262.741516 88.0
263.09198 444.0
263.12323 180.0
263.229797 84.0
263.439728 160.0
263.48172 116.0
263.55603 40.0
263.674164 76.0
263.782257 68.0
263.868408 112.0
263.966553 68.0
264.01181 164.0
264.063568 60.0
264.103241 152.0
264.188385 188.0
264.25766 60.0
264.400055 44.0
264.422699 96.0
265.096191 2240.0
265.138458 52.0
265.272949 88.0
265.628052 112.0
265.748077 124.0
265.832458 28.0
265.864899 140.0
265.90863 268.0
265.96875 140.0
266.008972 216.0
266.081543 22460.0
266.166809 44.0
266.262451 96.0
266.355164 168.0
266.3974 176.0
266.517609 80.0
266.55011 48.0
266.605347 68.0
266.69635 60.0
266.749115 220.0
266.790619 160.0
266.849121 92.0
266.896454 152.0
266.925964 80.0
266.972687 100.0
267.018219 52.0
267.083038 5432.0
267.129486 156.0
267.197144 56.0
267.298004 44.0
267.569244 96.0
267.659332 48.0
267.736816 96.0
267.916626 56.0
268.039429 64.0
268.082977 440.0
268.317474 132.0
268.715393 100.0
268.783905 52.0
268.819794 76.0
268.862213 108.0
268.949188 176.0
268.978851 76.0
269.009094 108.0
269.058075 176.0
269.090393 144.0
269.129913 136.0
269.191956 148.0
269.224609 140.0
269.335632 28.0
269.659119 76.0
269.78006 72.0
270.080902 156.0
270.112976 176.0
270.385193 112.0
270.666718 104.0
270.928741 84.0
270.994812 176.0
271.020477 84.0
271.087219 1216.0
271.508911 100.0
271.559021 116.0
271.715576 116.0
271.90918 132.0
272.017487 72.0
272.093567 540.0
272.306427 44.0
273.068939 136.0
273.09491 212.0
273.470337 112.0
273.539459 92.0
273.615173 172.0
273.717255 88.0
273.746887 108.0
273.783112 160.0
274.07843 224.0
274.112549 116.0
274.343262 100.0
274.512756 276.0
274.83139 104.0
275.032684 80.0
275.115723 420.0
275.478485 144.0
275.670105 176.0
276.105347 484.0
276.549835 156.0
276.619354 216.0
277.099274 144.0
277.15918 192.0
277.354736 148.0
277.477386 208.0
277.795746 112.0
277.918518 32.0
278.081909 152.0
278.110992 212.0
278.140869 100.0
278.652283 112.0
279.124268 112.0
279.423615 68.0
279.490173 64.0
279.639923 56.0
279.869629 68.0
280.036133 120.0
280.069427 124.0
280.312653 172.0
280.425964 116.0
280.769348 48.0
280.956146 88.0
281.169708 128.0
281.573669 160.0
281.727325 28.0
282.549744 156.0
282.80072 224.0
282.919647 112.0
283.471863 140.0
283.624695 72.0
283.748718 184.0
283.822479 48.0
283.956635 108.0
284.14447 112.0
284.856201 120.0
285.044342 132.0
285.074219 184.0
285.086792 164.0
285.393921 176.0
285.494781 108.0
285.736969 92.0
286.036499 56.0
286.081604 352.0
286.329437 128.0
286.430481 124.0
287.078796 420.0
287.119995 404.0
287.141022 164.0
287.14563 240.0
287.418274 44.0
287.846985 228.0
287.911133 60.0
288.10199 8844.0
288.232056 160.0
288.279358 80.0
288.319916 76.0
289.103638 1600.0
289.270355 108.0
289.327911 192.0
289.40918 108.0
289.612366 160.0
289.722839 72.0
289.768188 136.0
289.848389 144.0
289.94101 96.0
290.029144 120.0
290.081512 740.0
290.264343 168.0
290.502167 112.0
290.568329 68.0
290.863556 132.0
291.023132 36.0
291.084015 424.0
291.28125 76.0
291.607422 44.0
291.78418 116.0
291.811401 96.0
291.848785 148.0
291.937195 76.0
292.08374 96.0
292.151489 96.0
292.28894 80.0
292.484985 148.0
293.09079 344.0
293.527496 188.0
296.104858 132.0
296.234406 36.0
297.012512 160.0
297.256104 144.0
297.623413 60.0
297.801971 88.0
298.099213 156.0
298.169617 52.0
299.043182 172.0
299.080536 1968.0
299.446014 80.0
299.728516 84.0
299.949097 172.0
300.084961 504.0
300.283539 44.0
300.606201 164.0
300.654663 120.0
301.091156 288.0
301.229309 120.0
302.089325 188.0
302.273438 140.0
302.990173 148.0
303.056 148.0
303.111786 3036.0
303.36792 144.0
303.704285 100.0
303.770782 164.0
304.115082 956.0
304.238678 60.0
304.537292 72.0
304.606781 76.0
305.041138 52.0
305.091217 240.0
305.114258 188.0
305.451477 116.0
305.646301 140.0
305.928223 124.0
306.070953 156.0
306.286896 132.0
306.879333 68.0
307.064972 168.0
307.079254 132.0
307.086395 212.0
307.266479 60.0
307.318787 140.0
307.674805 108.0
307.720184 104.0
308.068268 176.0
308.130829 132.0
309.044861 172.0
309.170837 72.0
309.510376 180.0
309.618958 128.0
311.03894 152.0
311.095123 180.0
311.593811 96.0
311.6922 40.0
311.987427 72.0
312.648712 188.0
313.190918 148.0
313.895752 208.0
313.920441 176.0
313.952179 128.0
314.092438 840.0
314.506104 136.0
314.61554 120.0
314.830933 216.0
315.075867 1360.0
315.187714 32.0
315.215973 48.0
315.307861 92.0
315.343201 96.0
315.445709 144.0
315.824066 100.0
316.084808 188.0
316.167267 116.0
316.276978 44.0
316.46106 88.0
316.903809 140.0
317.059723 156.0
317.091614 104.0
317.396484 60.0
317.715088 96.0
317.94278 84.0
318.340393 56.0
318.436279 116.0
318.496674 44.0
318.923065 160.0
320.139832 180.0
320.282288 40.0
321.062683 184.0
321.085632 280.0
321.137726 88.0
321.987183 152.0
322.047882 196.0
322.08371 144.0
322.912842 124.0
323.072418 252.0
323.309967 52.0
323.345734 40.0
323.958038 144.0
324.094604 140.0
324.187347 72.0
324.248291 136.0
325.934937 84.0
326.053528 108.0
326.560455 116.0
326.851837 140.0
327.136169 132.0
328.096436 152.0
328.758148 216.0
329.501953 136.0
329.60675 244.0
329.928436 124.0
330.085205 232.0
330.112823 132.0
331.097168 208.0
331.151489 212.0
331.223938 36.0
331.50293 128.0
331.807373 92.0
332.107697 196.0
332.790619 64.0
333.008118 192.0
333.084839 7832.0
333.196564 52.0
333.223816 56.0
333.419067 100.0
333.634766 140.0
333.764404 168.0
333.877136 108.0
333.92804 76.0
333.99353 52.0
334.088654 1876.0
334.415588 112.0
334.630371 92.0
334.754181 64.0
335.016418 92.0
335.093475 232.0
335.129364 136.0
335.369873 112.0
335.876709 64.0
336.132202 128.0
336.289032 132.0
336.347443 104.0
336.785583 136.0
337.09613 60.0
337.129028 100.0
338.024963 52.0
338.094727 168.0
338.167694 124.0
338.56308 144.0
339.237274 128.0
339.948822 88.0
340.095642 68.0
340.48114 188.0
341.079193 172.0
341.322693 132.0
341.965363 144.0
342.087036 1856.0
342.22049 72.0
342.397247 136.0
342.562988 56.0
342.62561 80.0
342.834778 140.0
343.012573 108.0
343.088165 324.0
343.125183 152.0
343.42923 64.0
343.484558 52.0
343.993805 124.0
344.067627 48.0
344.097168 276.0
344.444305 88.0
344.643799 140.0
344.754669 172.0
345.279633 152.0
345.938232 104.0
345.97525 80.0
346.112823 300.0
346.175201 156.0
346.434479 48.0
346.608612 124.0
347.115112 628.0
347.242523 100.0
347.565277 196.0
347.75827 108.0
347.806519 148.0
348.126556 172.0
348.415527 52.0
348.861481 96.0
348.917236 228.0
349.05481 120.0
349.15152 104.0
350.085602 100.0
350.368683 144.0
350.5289 132.0
351.11792 72.0
351.147736 240.0
351.811951 108.0
352.088257 140.0
352.319855 140.0
352.379608 96.0
353.392853 116.0
353.565002 172.0
353.628601 208.0
356.03183 84.0
356.099426 92.0
356.471344 136.0
356.70813 56.0
357.087341 164.0
357.716278 144.0
357.859344 176.0
358.108948 384.0
358.145538 84.0
358.367828 212.0
358.593903 140.0
359.110535 188.0
359.733063 244.0
360.114441 140.0
360.17865 144.0
360.208862 228.0
360.601837 64.0
361.040375 124.0
361.098328 108.0
361.144043 176.0
361.800934 124.0
362.047058 156.0
362.092499 108.0
362.138519 328.0
362.543335 100.0
363.116455 336.0
363.14566 440.0
363.19165 84.0
363.559692 40.0
363.69632 88.0
363.80127 196.0
364.057007 124.0
364.083588 48.0
364.11969 484.0
364.158295 124.0
365.132812 348.0
365.292267 72.0
365.646118 116.0
365.745087 104.0
365.794556 68.0
366.122009 216.0
366.148651 124.0
366.259125 60.0
366.400055 112.0
366.464966 116.0
366.884064 84.0
367.086151 172.0
367.189117 164.0
367.231079 160.0
367.257782 44.0
367.452332 84.0
367.658386 84.0
367.979034 60.0
368.506104 52.0
369.350952 112.0
369.461884 56.0
370.143188 128.0
371.131775 132.0
371.18161 168.0
371.407898 108.0
371.730164 88.0
372.129211 280.0
372.571045 112.0
372.732391 228.0
372.884491 188.0
372.974518 148.0
373.102386 212.0
373.130615 140.0
373.651337 96.0
374.06311 144.0
374.102386 324.0
374.151672 188.0
374.459717 96.0
374.563721 40.0
375.110443 564.0
375.373077 76.0
375.519623 104.0
376.055908 168.0
376.121216 660.0
376.551636 104.0
377.123718 148.0
377.350037 188.0
377.845062 36.0
378.123688 144.0
378.150757 116.0
378.493256 180.0
379.006622 88.0
379.144897 2336.0
379.584167 48.0
380.149567 1100.0
380.200989 120.0
381.154083 120.0
381.486633 84.0
382.155579 100.0
382.420197 124.0
383.039307 60.0
383.08606 160.0
383.212982 124.0
384.517059 148.0
384.665375 36.0
384.993347 44.0
385.09491 140.0
385.356628 120.0
385.567657 180.0
385.638 92.0
386.14801 2808.0
386.224487 192.0
386.447479 44.0
386.560944 180.0
386.635315 100.0
387.149719 992.0
388.00235 204.0
388.153534 72.0
388.245453 76.0
388.335663 104.0
388.41803 116.0
388.794708 148.0
388.833954 180.0
388.884979 92.0
388.97525 100.0
389.126862 1388.0
389.183319 156.0
389.269714 72.0
389.379669 128.0
389.505371 40.0
389.54071 76.0
390.016174 152.0
390.133453 368.0
390.498596 208.0
390.558807 156.0
390.845978 52.0
391.104156 280.0
391.156891 136.0
391.263184 68.0
391.511261 40.0
391.775146 44.0
392.115784 1036.0
392.173157 172.0
392.300903 184.0
392.768555 52.0
392.973694 92.0
393.120361 412.0
393.423615 196.0
393.534149 56.0
394.142426 168.0
394.185883 108.0
394.903503 132.0
395.70874 80.0
395.985931 172.0
396.814117 132.0
396.885498 136.0
397.674957 196.0
398.135498 76.0
398.854645 204.0
398.989807 172.0
399.315857 144.0
399.490875 160.0
400.370514 144.0
400.729034 124.0
400.908356 88.0
401.087708 116.0
401.123566 96.0
401.231201 164.0
402.113403 216.0
403.159119 156.0
403.438904 88.0
403.734802 112.0
404.136322 292.0
404.855347 104.0
404.995514 80.0
405.02356 108.0
405.146362 116.0
405.428223 132.0
405.544464 92.0
405.632629 152.0
405.763306 148.0
406.122284 216.0
406.226135 36.0
406.254211 100.0
406.281219 200.0
406.350494 124.0
406.531067 152.0
406.563171 60.0
406.667511 172.0
406.743317 100.0
406.838898 172.0
406.884277 116.0
406.964569 160.0
407.016785 96.0
407.051422 236.0
407.139862 21152.0
407.269775 200.0
407.300079 104.0
407.350128 144.0
407.422424 44.0
407.451355 176.0
407.478149 48.0
407.569 76.0
407.651459 40.0
407.763977 44.0
407.835449 72.0
407.891144 104.0
408.013214 100.0
408.059662 96.0
408.142609 5244.0
408.238373 36.0
408.294678 36.0
408.367065 52.0
408.42337 112.0
408.608429 40.0
408.644653 48.0
408.714386 108.0
408.753296 92.0
408.853882 28.0
408.886078 44.0
408.970612 48.0
409.014893 60.0
409.04306 52.0
409.14444 944.0
409.264496 48.0
409.405426 44.0
409.804199 72.0
409.860626 32.0
410.152924 460.0
410.406738 132.0
410.525757 124.0
410.584381 104.0
410.79599 48.0
410.993652 112.0
411.062256 144.0
411.118774 140.0
411.639526 92.0
411.780853 112.0
411.829315 92.0
412.023224 68.0
412.127106 192.0
412.249512 72.0
412.351501 64.0
412.78714 60.0
413.029816 40.0
413.160828 248.0
413.207794 88.0
413.624634 132.0
414.009277 60.0
414.148407 488.0
414.552124 80.0
414.62912 96.0
414.779083 36.0
415.168304 164.0
415.618591 200.0
416.012268 76.0
416.140839 132.0
416.564545 68.0
416.87738 144.0
418.182892 136.0
418.956543 52.0
419.518951 48.0
419.673859 120.0
420.11026 100.0
420.21225 56.0
420.477478 124.0
421.098083 92.0
421.13974 196.0
421.310486 76.0
421.371765 88.0
422.150879 2388.0
422.508331 96.0
422.65152 64.0
422.860229 160.0
423.149292 616.0
423.400665 108.0
423.503052 96.0
423.859467 96.0
424.14679 180.0
424.310333 80.0
425.225098 148.0
425.598663 52.0
426.214783 56.0
426.370941 44.0
426.662781 108.0
427.152161 144.0
427.234436 128.0
427.415466 168.0
427.699432 88.0
428.183441 136.0
428.453003 176.0
429.170166 80.0
429.61145 96.0
430.226349 152.0
430.358459 72.0
430.701233 48.0
430.730164 72.0
430.944977 88.0
431.056549 148.0
431.08548 176.0
431.167053 380.0
431.263184 252.0
431.403717 132.0
431.746918 92.0
431.957855 112.0
432.06955 128.0
432.15274 6596.0
432.272278 180.0
432.53302 52.0
432.665497 52.0
432.868378 116.0
432.90979 148.0
432.988464 32.0
433.154419 2400.0
433.315735 60.0
433.377869 60.0
433.473175 132.0
433.564331 80.0
433.987152 100.0
434.15686 348.0
434.33139 76.0
435.111542 180.0
435.168152 172.0
435.447906 84.0
435.547577 52.0
435.620544 124.0
435.713745 76.0
436.145935 132.0
436.474365 160.0
436.811218 224.0
436.979553 192.0
437.447906 120.0
437.864288 44.0
438.161835 224.0
438.881073 80.0
438.985321 100.0
439.160492 148.0
439.460846 80.0
439.874023 68.0
441.133118 96.0
441.654083 136.0
443.14859 188.0
444.003723 60.0
444.440002 72.0
445.174591 112.0
445.905609 104.0
446.132568 156.0
446.628784 60.0
446.690216 92.0
447.167358 60.0
447.546204 152.0
448.019318 132.0
448.051636 80.0
448.15274 104.0
448.346588 72.0
448.477234 92.0
448.5466 88.0
448.671143 108.0
448.772339 56.0
449.102753 80.0
449.160309 136.0
449.206726 80.0
449.320618 68.0
449.35437 112.0
449.796509 120.0
449.869263 132.0
449.898651 120.0
449.914948 116.0
449.932587 100.0
450.000122 128.0
450.145203 22484.0
450.261932 180.0
450.309753 136.0
450.350616 132.0
450.422424 64.0
450.467163 68.0
450.502686 40.0
450.565033 148.0
450.604553 76.0
450.657867 44.0
450.747742 72.0
450.786621 180.0
450.864349 88.0
450.92453 116.0
450.984802 180.0
451.054962 180.0
451.148438 7260.0
451.263428 36.0
451.314148 172.0
451.352051 96.0
451.44101 52.0
451.479065 64.0
451.521362 84.0
451.639801 48.0
451.715942 44.0
451.893616 152.0
451.940155 52.0
452.016327 40.0
452.050171 64.0
452.148621 1588.0
452.304108 64.0
452.469208 176.0
452.529541 64.0
452.562347 72.0
452.617401 64.0
452.782562 164.0
452.885742 100.0
452.977386 56.0
453.062134 76.0
453.151062 288.0
453.234619 84.0
453.28244 160.0
453.409576 100.0
453.48587 152.0
453.625732 84.0
453.799255 112.0
453.851746 108.0
453.913513 64.0
453.986145 76.0
454.049744 88.0
454.123047 268.0
454.280823 92.0
454.333954 32.0
454.448517 84.0
454.724335 140.0
454.766785 76.0
454.834686 72.0
454.945068 108.0
455.072418 96.0
455.157471 140.0
456.117493 64.0
456.321564 208.0
456.364075 108.0
456.432098 72.0
457.125488 32.0
457.419159 52.0
457.632019 96.0
457.785309 84.0
458.573456 40.0
458.726898 60.0
458.863342 40.0
460.00238 144.0
460.121918 44.0
460.173157 64.0
460.519043 92.0
460.608734 52.0
461.023193 44.0
461.262543 104.0
463.256653 68.0
463.376617 84.0
463.676575 116.0
464.418304 112.0
465.113403 52.0
465.156342 152.0
465.529877 84.0
466.131287 120.0
468.816528 148.0
473.154175 200.0
473.434662 104.0
473.69455 68.0
474.127838 64.0
477.810028 80.0
479.011566 48.0
479.133545 132.0
482.498383 108.0
484.077942 56.0
486.471832 56.0
488.128235 132.0
488.924469 80.0
489.888763 68.0
491.17514 132.0
492.107117 108.0
494.635864 136.0
495.867188 136.0
497.481781 124.0
499.10788 136.0
499.187927 124.0
502.81424 72.0
504.051239 144.0
506.973389 96.0
507.018188 112.0
509.158173 48.0
512.126587 88.0
512.955688 56.0
514.611389 84.0
514.945557 108.0
516.337585 108.0
517.22644 184.0
518.207092 92.0
521.11084 76.0
521.897156 64.0
522.074524 112.0
523.530762 68.0
523.917969 120.0
524.232361 88.0
530.870056 72.0
533.219727 164.0
533.289551 76.0
533.749268 68.0
533.969971 52.0
534.006775 120.0
534.214233 164.0
534.614075 68.0
535.115784 80.0
535.228699 236.0
535.269165 144.0
536.253601 88.0
537.125061 104.0
537.157349 60.0
538.168091 148.0
542.164734 104.0
543.65802 84.0
545.12085 80.0
545.67395 64.0
546.042114 92.0
546.757812 72.0
548.620972 44.0
551.337524 60.0
552.211792 84.0
554.229431 168.0
556.199158 96.0
556.748474 72.0
560.851135 72.0
561.48291 144.0
564.543152 60.0
568.289978 72.0
570.327271 112.0
571.254517 116.0
572.182556 60.0
572.472961 168.0
572.730164 76.0
574.107544 92.0
575.777893 100.0
578.015137 132.0
578.187439 84.0
578.326233 136.0
578.747498 40.0
578.943848 72.0
578.989258 100.0
579.066284 140.0
579.11145 68.0
579.221985 4420.0
579.299988 100.0
579.341858 156.0
579.398865 164.0
579.60968 60.0
579.705505 40.0
579.820557 52.0
579.892456 128.0
579.959534 116.0
580.079346 152.0
580.151306 44.0
580.222107 1968.0
580.323853 48.0
580.395813 64.0
580.438965 96.0
580.475586 120.0
580.525269 84.0
580.592407 68.0
580.630798 52.0
581.033691 64.0
581.115234 84.0
581.223999 420.0
581.355164 80.0
581.465576 124.0
582.238159 152.0
582.93988 72.0
582.973511 148.0
583.309998 148.0
583.641724 168.0
584.315063 48.0
584.738525 72.0
585.258423 40.0
590.470154 80.0
590.997437 104.0
594.064209 132.0
595.175659 80.0
595.357971 152.0
596.55542 52.0
596.94928 116.0
603.874451 64.0
605.185974 108.0
606.704773 48.0
607.387207 120.0
609.748047 88.0
610.726501 112.0
617.16217 148.0
620.271179 56.0
628.951172 100.0
629.725098 96.0
629.770081 140.0
631.379395 72.0
632.770447 112.0
632.94574 60.0
633.020813 84.0
636.767029 44.0
648.198669 76.0
649.674072 52.0
650.034302 52.0
658.704834 92.0
659.021545 100.0
659.982483 100.0
660.673889 112.0
662.029358 44.0
666.065735 72.0
671.815735 40.0
674.82666 76.0
690.730103 104.0
690.960266 96.0
696.564331 60.0
700.114563 52.0
705.871887 72.0
707.141541 52.0
713.719727 56.0
714.006836 60.0
718.758667 88.0
720.376343 60.0
725.921265 40.0
730.868469 84.0
740.358398 32.0
743.991272 48.0
746.012146 100.0
746.920288 64.0
756.102966 36.0
762.893494 76.0
767.402466 124.0
767.496216 48.0
768.229736 48.0
768.676636 52.0
783.408203 56.0
785.069153 76.0
786.346741 84.0
794.841858 136.0
798.943298 48.0
799.821167 128.0
805.426025 76.0
811.305481 56.0
812.40564 52.0
813.903992 52.0
819.449585 72.0
832.112305 108.0
840.013794 76.0
845.931152 108.0
846.57959 116.0
861.23584 72.0
891.543518 96.0
897.353149 112.0
907.265564 52.0
928.169128 52.0
936.750732 44.0
939.750183 68.0
980.487854 52.0
983.519043 96.0
985.854858 148.0
992.835022 96.0
994.893066 64.0
997.770386 200.0
1003.840149 88.0
1018.974304 68.0
1024.71936 68.0
1027.716064 108.0
1032.244873 100.0
1032.596558 20.0
1035.835327 44.0
1045.678467 64.0
1056.803589 124.0
1063.296631 20.0
1070.109009 32.0
1071.164062 116.0
1073.249512 44.0
1074.469116 52.0
1078.896973 56.0
1080.813354 140.0
1086.001831 64.0
1091.413086 120.0
1095.131226 68.0
1104.636353 88.0
1105.522827 120.0
1106.912964 192.0
1109.576538 144.0
1113.863525 48.0
1114.375 56.0
1115.857178 144.0
1124.683838 100.0
1136.146606 148.0
1139.825928 52.0
1147.263184 68.0
1149.32019 56.0
1152.642334 184.0
1154.156372 80.0
1159.890625 36.0
1166.073975 172.0
1175.997314 36.0
1178.927246 96.0
1195.502319 200.0
1204.748413 128.0
1207.354248 88.0
1208.564819 100.0
1215.99353 64.0
1216.319702 40.0
1227.297729 56.0
1227.472046 100.0
1232.742432 72.0
1234.930664 124.0
1239.446045 96.0
1241.780396 76.0
1245.711182 164.0
1247.341431 64.0
1250.837402 104.0
1252.921875 144.0
1262.118286 88.0
1273.115967 184.0
1280.077881 108.0
1292.748657 204.0
1292.991943 116.0
1296.214478 132.0
1296.888184 132.0
1299.606079 92.0
1301.687622 128.0
1307.489014 128.0
1313.606201 192.0
1325.825317 84.0
1327.543457 68.0
1341.065918 200.0
1344.267456 108.0
1345.67627 220.0
1351.925903 144.0
1352.07959 148.0
1352.306519 60.0
1352.694458 44.0
1355.118408 48.0
1363.696899 140.0
1366.013062 180.0
1374.212524 216.0
1377.859741 144.0
1388.81543 208.0
1394.190674 224.0
1400.522095 152.0
1416.177368 120.0
1419.084961 148.0
1422.536011 204.0
1423.737305 228.0
1424.225464 192.0
1427.764282 140.0
1429.691284 172.0
1432.740723 164.0
1433.803223 160.0
1434.632324 128.0
1435.363647 176.0
1439.815918 116.0
1439.899048 96.0
1441.659302 152.0
1443.753296 28.0
1446.893433 184.0
1460.552734 116.0
1461.085205 200.0
1471.427124 184.0
1472.106689 192.0
1474.192139 148.0
1474.467285 164.0
1476.844971 212.0
1477.854858 124.0
1479.523315 124.0
1482.587036 176.0
1483.376465 100.0
1487.733765 176.0
1487.902588 64.0
1494.058472 128.0
1494.904785 184.0
1495.027954 116.0
1496.051636 172.0
1498.331177 96.0
1498.577637 132.0
1498.739502 176.0
1498.962891 148.0
1503.937256 152.0
