>compound MLS001074203-01!
>formula C18H20FN3O4
>ionization [M+H]+
>parentmass 362.15106079209056
#inchi InChI=1S/C18H20FN3O4/c1-10-9-26-17-14-11(16(23)12(18(24)25)8-22(10)14)7-13(19)15(17)21-5-3-20(2)4-6-21/h7-8,10H,3-6,9H2,1-2H3,(H,24,25)
#inchikey GSDSWSVVBLHKDQ
#Ion_Source LC-ESI
#Instrument qTof
#Compound_Source NIH Pharmacologically Active Library
#PI Dorrestein
#Data_Collector VP/LMS
#Scan -1
#Precursor_MZ 362.156
#ExactMass 361.144
#Charge 1
#CAS_Number N/A
#Pubmed_ID N/A
#Smiles CC1COc2c(N3CCN(C)CC3)c(F)cc4c(=O)c(cn1c24)C(=O)O
#INCHI_AUX N/A
#Library_Class 1
#SpectrumID CCMSLIB00000085846
#IonMode Positive
#UpdateWorkflowName UPDATE-SINGLE-ANNOTATED-GOLD
#LibraryQualityString Gold
#TaskID d252d724072548979f1f6f1ced849daf
##Scan# 1266
#SpectrumFile p4-G03_GG3_01_18399.mzXML
#LibraryName Pharm_Active_Library.mgf
#MQScore -1
#Organism Pharm_Active_Library
#TIC_Query 0
#RT_Query -1
#MZErrorPPM -1
#SharedPeaks 0
#MassDiff 0
#LibMZ -1
#SpecMZ 362.156
#SpecCharge 0
#internalFilename spec-00000.mgf

>collision 10
44.921703 192.0
44.947567 120.0
44.960911 144.0
45.029003 44.0
45.111851 96.0
45.240471 140.0
45.263042 120.0
45.301884 92.0
45.372913 124.0
45.397049 224.0
45.438633 132.0
45.503059 164.0
45.517826 236.0
45.534489 168.0
45.578278 160.0
45.603527 188.0
45.719479 128.0
45.77198 116.0
45.836643 196.0
45.864944 96.0
45.894604 120.0
45.904045 320.0
45.931019 172.0
45.960083 412.0
45.98904 104.0
46.084927 160.0
46.141602 176.0
46.16468 124.0
46.187241 220.0
46.236385 164.0
46.294601 216.0
46.336594 152.0
46.365051 168.0
46.387096 212.0
46.404362 144.0
46.424702 256.0
46.492535 164.0
46.525112 132.0
46.569927 180.0
46.591209 192.0
46.629711 128.0
46.644119 200.0
46.682732 152.0
46.696331 156.0
46.733063 156.0
46.869228 164.0
46.900093 88.0
46.97694 100.0
47.117558 168.0
47.168125 96.0
47.187263 132.0
47.214611 180.0
47.258747 152.0
47.411762 112.0
47.422726 48.0
47.461113 176.0
47.598335 128.0
47.701382 116.0
47.715126 156.0
47.728409 212.0
47.752258 140.0
47.815548 156.0
47.829311 196.0
47.84996 152.0
47.967709 160.0
48.016705 184.0
48.084309 116.0
48.096733 204.0
48.168537 112.0
48.267166 136.0
48.283833 120.0
48.32338 48.0
48.339333 136.0
48.350254 124.0
48.414322 172.0
48.43552 144.0
48.4757 200.0
48.49926 128.0
48.519131 144.0
48.539467 184.0
48.608826 48.0
48.639362 204.0
48.661518 204.0
48.757668 160.0
48.781055 240.0
48.794956 172.0
48.813034 200.0
48.826942 120.0
48.872849 108.0
48.884869 176.0
48.904858 144.0
48.971691 100.0
49.014881 140.0
49.126423 56.0
49.136189 164.0
49.228317 176.0
49.253456 120.0
49.282795 208.0
49.293976 100.0
49.328918 128.0
49.372589 188.0
49.398838 88.0
49.431019 160.0
49.443825 108.0
49.508018 80.0
49.578064 96.0
49.600491 288.0
49.627129 128.0
49.698666 204.0
49.738461 180.0
49.829384 124.0
49.844704 128.0
49.882652 96.0
49.914989 148.0
49.97266 132.0
50.029804 140.0
50.139301 144.0
50.161381 212.0
50.199654 180.0
50.217197 144.0
50.245464 204.0
50.258698 188.0
50.361759 164.0
50.38295 284.0
50.46875 136.0
50.510181 180.0
50.546967 160.0
50.661655 132.0
50.674404 132.0
50.701328 56.0
50.800587 104.0
50.810516 48.0
50.892841 156.0
50.929764 144.0
51.027824 120.0
51.0392 136.0
51.111744 224.0
51.125977 124.0
51.167255 144.0
51.190636 160.0
51.214252 152.0
51.27552 172.0
51.336823 100.0
51.377666 152.0
51.44241 204.0
51.463825 96.0
51.489532 132.0
51.499527 164.0
51.543819 164.0
51.569542 148.0
51.651047 88.0
51.708603 160.0
51.732616 112.0
51.765549 112.0
51.827145 72.0
51.903118 140.0
51.917458 192.0
51.927498 116.0
51.947109 208.0
51.995945 204.0
52.061001 188.0
52.085388 228.0
52.114124 92.0
52.127056 232.0
52.21619 128.0
52.233143 244.0
52.344276 172.0
52.467518 240.0
52.533089 112.0
52.544632 60.0
52.606163 208.0
52.641342 152.0
52.702015 120.0
52.715019 156.0
52.790192 140.0
52.872654 232.0
52.998646 156.0
53.016476 192.0
53.049374 116.0
53.069672 84.0
53.084171 168.0
53.139294 180.0
53.16325 204.0
53.188637 80.0
53.198795 116.0
53.280125 240.0
53.304829 36.0
53.325172 76.0
53.353443 148.0
53.409508 168.0
53.4226 124.0
53.434921 168.0
53.466251 96.0
53.507011 92.0
53.533222 136.0
53.549244 148.0
53.566429 160.0
53.585663 116.0
53.601688 204.0
53.614807 232.0
53.625008 164.0
53.681118 148.0
53.724926 192.0
53.737926 176.0
53.763565 104.0
53.783997 188.0
53.820496 192.0
53.881844 116.0
53.924423 144.0
53.9944 164.0
54.022194 140.0
54.045605 168.0
54.067554 120.0
54.088047 88.0
54.104149 148.0
54.115864 160.0
54.14222 144.0
54.202286 164.0
54.212543 60.0
54.247295 124.0
54.262383 124.0
54.279976 116.0
54.310287 416.0
54.353325 316.0
54.366531 180.0
54.397354 160.0
54.412037 132.0
54.436085 180.0
54.45462 164.0
54.48988 220.0
54.503101 136.0
54.526581 172.0
54.550133 112.0
54.641117 148.0
54.732574 40.0
54.75172 128.0
54.762028 140.0
54.782654 156.0
54.835701 120.0
54.875504 160.0
54.915321 172.0
54.996475 108.0
55.018616 180.0
55.086552 184.0
55.119057 144.0
55.148613 256.0
55.253609 52.0
55.312805 124.0
55.330303 200.0
55.389809 92.0
55.430664 320.0
55.478725 52.0
55.504982 164.0
55.548424 180.0
55.563259 188.0
55.647861 148.0
55.691868 228.0
55.748871 240.0
55.890144 180.0
55.924374 180.0
55.938934 128.0
55.991375 48.0
56.125496 196.0
56.155323 148.0
56.190536 172.0
56.213509 180.0
56.233807 180.0
56.253807 168.0
56.271725 128.0
56.300098 188.0
56.338932 132.0
56.404686 172.0
56.415962 180.0
56.476463 96.0
56.501896 56.0
56.546787 160.0
56.557266 156.0
56.581219 112.0
56.632133 100.0
56.678143 124.0
56.699558 168.0
56.774517 184.0
56.822521 164.0
56.833023 72.0
56.852531 132.0
56.863037 216.0
56.887054 160.0
56.902069 128.0
56.919392 208.0
56.942612 200.0
56.957634 212.0
56.970669 148.0
57.005714 144.0
57.049301 184.0
57.132019 204.0
57.142548 132.0
57.303654 164.0
57.318722 56.0
57.383404 180.0
57.415203 168.0
57.42878 228.0
57.455933 156.0
57.502712 144.0
57.573673 164.0
57.600861 176.0
57.634098 124.0
57.652233 240.0
57.700603 144.0
57.758072 164.0
57.791355 336.0
57.825275 204.0
57.917873 204.0
57.969402 200.0
57.985195 168.0
58.001869 160.0
58.036739 136.0
58.06707 248.0
58.080719 132.0
58.282257 220.0
58.308475 176.0
58.360165 164.0
58.379932 108.0
58.402748 172.0
58.416435 160.0
58.446865 84.0
58.497093 104.0
58.509209 192.0
58.579327 200.0
58.631134 124.0
58.660095 140.0
58.70126 168.0
58.730732 148.0
58.759224 188.0
58.782112 204.0
58.805004 136.0
58.831573 124.0
58.918285 176.0
58.971493 80.0
59.011353 160.0
59.023472 224.0
59.096893 136.0
59.136684 32.0
59.162708 172.0
59.173462 168.0
59.220898 176.0
59.277584 144.0
59.381836 56.0
59.41098 244.0
59.421722 136.0
59.451012 224.0
59.51614 156.0
59.544529 136.0
59.562962 168.0
59.616737 144.0
59.627495 60.0
59.638256 212.0
59.73513 60.0
59.754837 188.0
59.778214 152.0
59.960361 132.0
60.053993 28.0
60.089474 84.0
60.191349 172.0
60.254677 144.0
60.27322 144.0
60.343636 144.0
60.361332 160.0
60.37989 84.0
60.424751 216.0
60.454151 112.0
60.466534 120.0
60.519165 128.0
60.557423 296.0
60.625206 208.0
60.773987 116.0
60.784233 112.0
60.79665 188.0
60.815273 32.0
60.838558 220.0
60.859306 212.0
60.889889 144.0
60.951942 160.0
60.97818 112.0
61.000126 176.0
61.011005 148.0
61.051434 112.0
61.088764 136.0
61.147224 176.0
61.172585 124.0
61.185257 60.0
61.196156 168.0
61.261566 132.0
61.347282 164.0
61.361313 208.0
61.426815 140.0
61.4627 124.0
61.480186 156.0
61.539185 156.0
61.576664 140.0
61.639153 160.0
61.687607 112.0
61.732948 128.0
61.756409 116.0
61.788219 176.0
61.853008 180.0
61.956783 164.0
61.969318 144.0
62.046116 148.0
62.08532 124.0
62.250099 168.0
62.278702 208.0
62.342789 76.0
62.363712 64.0
62.443409 128.0
62.460712 60.0
62.492176 140.0
62.504765 224.0
62.544109 100.0
62.608536 184.0
62.722111 120.0
62.739452 176.0
62.774139 168.0
62.82777 180.0
62.892471 236.0
62.924046 128.0
62.969841 200.0
63.031452 120.0
63.042515 36.0
63.088921 156.0
63.134209 164.0
63.146862 140.0
63.202232 148.0
63.235466 160.0
63.256042 192.0
63.279793 124.0
63.302071 216.0
63.335896 156.0
63.379581 196.0
63.406521 76.0
63.430298 140.0
63.444565 108.0
63.487377 156.0
63.5191 80.0
63.580982 212.0
63.642895 204.0
63.757549 160.0
63.800053 232.0
63.886066 176.0
63.900738 200.0
63.932213 140.0
63.967228 84.0
63.992702 64.0
64.027451 132.0
64.070747 144.0
64.234947 152.0
64.282814 124.0
64.39138 136.0
64.423325 164.0
64.495239 132.0
64.52401 148.0
64.571983 160.0
64.594376 204.0
64.739548 128.0
64.807312 176.0
64.861801 164.0
64.93396 80.0
65.014175 128.0
65.05912 176.0
65.092842 124.0
65.123352 212.0
65.218155 76.0
65.229408 192.0
65.245483 80.0
65.27121 152.0
65.337158 168.0
65.390259 212.0
65.425674 140.0
65.48526 140.0
65.537766 128.0
65.552925 144.0
65.625458 116.0
65.660942 148.0
65.67868 88.0
65.723068 140.0
65.734619 220.0
65.790466 192.0
65.809402 60.0
65.943489 148.0
65.991989 184.0
66.009773 144.0
66.025948 184.0
66.055061 160.0
66.089035 128.0
66.139206 108.0
66.166733 104.0
66.211937 148.0
66.260666 164.0
66.299561 144.0
66.329903 200.0
66.499916 152.0
66.518524 248.0
66.547752 216.0
66.650085 184.0
66.673325 172.0
66.705345 116.0
66.729729 152.0
66.741112 128.0
66.85498 92.0
66.88591 48.0
66.905441 248.0
66.998276 120.0
67.024345 116.0
67.0439 92.0
67.055305 136.0
67.078133 96.0
67.089539 176.0
67.125412 96.0
67.18335 180.0
67.220024 160.0
67.23098 188.0
67.280418 148.0
67.295113 208.0
67.339211 168.0
67.387192 192.0
67.412552 168.0
67.457123 224.0
67.479744 160.0
67.514084 128.0
67.533714 68.0
67.587059 152.0
67.600426 160.0
67.644989 172.0
67.667908 144.0
67.69574 164.0
67.718071 120.0
67.748161 76.0
67.815628 184.0
67.828453 108.0
67.862885 108.0
67.89061 180.0
67.91375 220.0
67.939972 96.0
67.954735 136.0
67.987556 92.0
68.005608 176.0
68.064713 84.0
68.07621 168.0
68.145203 164.0
68.17971 224.0
68.21151 184.0
68.293159 88.0
68.304672 148.0
68.321121 208.0
68.365547 132.0
68.390236 128.0
68.464325 76.0
68.52198 124.0
68.560478 156.0
68.596146 208.0
68.610985 108.0
68.624176 176.0
68.642586 144.0
68.668701 164.0
68.703339 104.0
68.71489 116.0
68.731392 108.0
68.7743 188.0
68.823044 168.0
68.838692 140.0
68.878326 168.0
68.926239 192.0
69.030388 116.0
69.101509 164.0
69.159431 116.0
69.207443 156.0
69.303513 176.0
69.328369 164.0
69.379303 176.0
69.396339 132.0
69.416237 124.0
69.444397 188.0
69.51577 88.0
69.548965 192.0
69.580505 52.0
69.645058 156.0
69.675461 164.0
69.718376 144.0
69.811478 108.0
69.901451 144.0
69.926277 236.0
69.99453 184.0
70.022842 96.0
70.0345 160.0
70.089928 180.0
70.116142 148.0
70.149483 112.0
70.174492 152.0
70.257408 168.0
70.284203 196.0
70.294594 260.0
70.336319 120.0
70.373047 92.0
70.429825 168.0
70.454887 60.0
70.493317 140.0
70.528412 244.0
70.541786 40.0
70.578568 104.0
70.620377 136.0
70.67057 124.0
70.688972 100.0
70.79612 224.0
70.871498 100.0
70.891609 144.0
70.91507 188.0
70.938538 60.0
71.003937 116.0
71.051826 216.0
71.069557 236.0
71.11467 184.0
71.133133 112.0
71.199005 176.0
71.231491 176.0
71.278946 152.0
71.440674 48.0
71.460716 188.0
71.467201 172.0
71.499046 156.0
71.605202 156.0
71.608536 116.0
71.616776 124.0
71.619705 192.0
71.683128 188.0
71.701668 124.0
71.725266 112.0
71.803009 184.0
71.816322 152.0
71.86042 196.0
71.892242 136.0
71.91185 104.0
71.946259 56.0
72.05687 184.0
72.075226 180.0
72.170975 192.0
72.204796 60.0
72.258926 200.0
72.274155 88.0
72.291077 180.0
72.372444 120.0
72.390961 124.0
72.428879 176.0
72.46888 184.0
72.502777 128.0
72.520309 92.0
72.554787 200.0
72.573975 144.0
72.606194 108.0
72.679138 96.0
72.722252 248.0
72.738541 128.0
72.79287 212.0
72.828537 224.0
72.898201 40.0
73.003601 144.0
73.063133 228.0
73.132416 168.0
73.148224 64.0
73.165459 160.0
73.178406 236.0
73.214844 224.0
73.245285 336.0
73.26062 112.0
73.28447 136.0
73.313438 140.0
73.349785 124.0
73.367989 96.0
73.420845 180.0
73.461784 136.0
73.511269 176.0
73.632477 104.0
73.673477 108.0
73.707649 40.0
73.719612 116.0
73.741829 44.0
73.774307 168.0
73.835747 208.0
73.844078 40.0
73.847496 200.0
73.873497 140.0
73.894028 68.0
73.914558 180.0
73.967621 128.0
74.078484 104.0
74.176605 148.0
74.188606 48.0
74.245903 232.0
74.300087 160.0
74.327538 72.0
74.413567 132.0
74.449425 144.0
74.463158 132.0
74.497513 152.0
74.547348 140.0
74.609222 160.0
74.640762 140.0
74.679733 144.0
74.805344 176.0
74.839783 84.0
74.853951 104.0
74.898338 100.0
74.917282 156.0
74.94593 140.0
75.047409 116.0
75.058617 248.0
75.072411 196.0
75.087128 68.0
75.139687 152.0
75.260506 160.0
75.32959 140.0
75.355507 188.0
75.367607 340.0
75.403893 144.0
75.435005 144.0
75.462669 164.0
75.486877 184.0
75.519737 212.0
75.56472 264.0
75.576828 104.0
75.601059 204.0
75.642601 68.0
75.699738 248.0
75.810608 176.0
75.841805 28.0
75.88829 152.0
75.944107 72.0
75.990234 236.0
76.108978 172.0
76.194084 84.0
76.256645 100.0
76.291412 128.0
76.329666 84.0
76.349602 216.0
76.442223 176.0
76.489731 164.0
76.541962 224.0
76.582016 140.0
76.623825 28.0
76.641251 160.0
76.670876 200.0
76.740608 64.0
76.79467 188.0
76.813042 128.0
76.859215 220.0
76.897614 188.0
76.91507 188.0
76.994942 184.0
77.051285 252.0
77.065262 212.0
77.156151 164.0
77.173973 164.0
77.189728 156.0
77.202156 180.0
77.26458 112.0
77.294708 128.0
77.334579 208.0
77.420372 368.0
77.431541 152.0
77.453651 36.0
77.574562 132.0
77.616646 196.0
77.641197 144.0
77.695572 132.0
77.71312 164.0
77.756989 88.0
77.790344 160.0
77.835991 68.0
77.86882 200.0
77.893951 116.0
77.913277 164.0
77.958069 228.0
78.052132 204.0
78.113686 144.0
78.17527 104.0
78.201668 168.0
78.226311 172.0
78.312599 152.0
78.36248 268.0
78.388359 108.0
78.404221 156.0
78.428894 216.0
78.492363 216.0
78.580292 184.0
78.594673 288.0
78.625114 144.0
78.665268 208.0
78.727074 120.0
78.78006 72.0
78.845436 104.0
78.877258 164.0
78.932526 200.0
79.03643 108.0
79.066513 140.0
79.080673 52.0
79.110764 188.0
79.146179 100.0
79.310944 76.0
79.323349 344.0
79.378311 204.0
79.488297 108.0
79.605858 180.0
79.633881 148.0
79.660522 56.0
79.777283 200.0
79.81871 120.0
79.866623 140.0
79.904495 228.0
79.925491 128.0
79.959251 144.0
80.016212 140.0
80.037582 128.0
80.050049 100.0
80.094604 212.0
80.151588 176.0
80.168198 148.0
80.238922 148.0
80.31382 140.0
80.361992 116.0
80.426239 168.0
80.524445 144.0
80.54052 144.0
80.624496 80.0
80.665604 124.0
80.762169 144.0
80.787209 184.0
81.002037 112.0
81.020958 156.0
81.079079 148.0
81.098801 60.0
81.150131 180.0
81.209969 152.0
81.242256 156.0
81.283127 288.0
81.289581 224.0
81.366089 124.0
81.384697 176.0
81.416367 244.0
81.47744 104.0
81.515175 160.0
81.545074 276.0
81.619438 144.0
81.641014 152.0
81.655403 104.0
81.689583 60.0
81.717361 172.0
81.73996 104.0
81.811958 212.0
81.835365 132.0
81.898392 108.0
81.912804 88.0
81.957848 140.0
81.990288 152.0
82.033546 136.0
82.084999 224.0
82.157982 180.0
82.172417 96.0
82.188652 112.0
82.221138 172.0
82.305984 124.0
82.34391 152.0
82.369194 136.0
82.48304 304.0
82.542709 164.0
82.575256 220.0
82.603027 240.0
82.651237 136.0
82.783745 184.0
82.799301 168.0
82.872147 144.0
82.886642 168.0
82.912018 196.0
83.053444 92.0
83.094406 276.0
83.162987 140.0
83.204063 216.0
83.254906 164.0
83.299446 112.0
83.416618 80.0
83.469345 104.0
83.487534 176.0
83.502083 144.0
83.533005 180.0
83.598511 200.0
83.612251 152.0
83.639687 128.0
83.653114 208.0
83.691345 124.0
83.722305 132.0
83.753265 116.0
83.773308 116.0
83.802452 160.0
83.888115 204.0
83.928223 176.0
83.951004 196.0
83.967445 160.0
84.052269 152.0
84.075989 188.0
84.094238 140.0
84.14959 212.0
84.203789 244.0
84.227448 252.0
84.247635 64.0
84.333519 156.0
84.358665 164.0
84.505424 56.0
84.5951 124.0
84.620735 140.0
84.666153 184.0
84.68219 336.0
84.697647 256.0
84.717804 56.0
84.763603 160.0
84.829849 200.0
84.933655 160.0
84.957962 152.0
85.013008 200.0
85.042374 120.0
85.066048 196.0
85.238884 88.0
85.305016 176.0
85.347839 148.0
85.398834 40.0
85.413551 216.0
85.477943 168.0
85.496346 156.0
85.512917 172.0
85.724709 120.0
85.777153 176.0
85.791069 176.0
85.826096 100.0
85.922012 184.0
86.067825 172.0
86.108452 168.0
86.132462 136.0
86.158325 132.0
86.173111 68.0
86.237785 192.0
86.287704 168.0
86.337631 112.0
86.367226 140.0
86.448631 132.0
86.494904 108.0
86.568962 120.0
86.646759 120.0
86.68396 156.0
86.72274 200.0
86.861809 132.0
86.885925 60.0
86.923035 172.0
86.970245 128.0
86.991714 96.0
87.013992 192.0
87.04184 128.0
87.166306 236.0
87.268539 176.0
87.44899 128.0
87.462021 116.0
87.495255 164.0
87.53463 208.0
87.634323 116.0
87.754509 140.0
87.834702 224.0
87.849625 92.0
87.864555 148.0
87.879478 200.0
87.914932 200.0
88.038147 136.0
88.068031 116.0
88.118469 116.0
88.148369 32.0
88.198074 200.0
88.260529 152.0
88.294189 180.0
88.383987 160.0
88.447617 184.0
88.501915 164.0
88.533745 232.0
88.581612 224.0
88.726753 164.0
88.76403 172.0
88.820518 176.0
88.848656 156.0
88.873047 144.0
88.898521 300.0
89.034492 172.0
89.093567 284.0
89.111511 208.0
89.158485 60.0
89.203598 156.0
89.216759 176.0
89.248726 200.0
89.270218 180.0
89.32058 260.0
89.348412 160.0
89.397331 160.0
89.438736 112.0
89.459442 100.0
89.488251 188.0
89.5084 160.0
89.555481 204.0
89.581856 116.0
89.600693 220.0
89.632729 132.0
89.657227 116.0
89.696808 140.0
89.713776 144.0
89.753365 180.0
89.81723 144.0
89.866539 196.0
89.887985 188.0
89.934479 140.0
89.977257 140.0
89.992294 244.0
90.053436 132.0
90.072914 160.0
90.101669 164.0
90.136566 120.0
90.185699 116.0
90.244308 56.0
90.263214 124.0
90.340767 128.0
90.399422 240.0
90.437271 264.0
90.471077 160.0
90.522469 152.0
90.543304 64.0
90.565186 192.0
90.655083 148.0
90.703224 120.0
90.802956 92.0
90.816238 76.0
90.837105 48.0
90.89402 160.0
90.954758 136.0
91.040192 228.0
91.064888 188.0
91.118752 168.0
91.16748 212.0
91.239716 96.0
91.304367 180.0
91.32148 136.0
91.3367 192.0
91.355721 128.0
91.40139 168.0
91.466095 44.0
91.492744 160.0
91.511787 204.0
91.53083 64.0
91.603203 84.0
91.71373 144.0
91.740417 152.0
91.851021 156.0
91.86628 228.0
91.915886 104.0
91.953217 308.0
91.986511 140.0
92.026855 240.0
92.051949 160.0
92.072433 172.0
92.09726 120.0
92.13929 132.0
92.231018 148.0
92.267342 156.0
92.292198 196.0
92.395485 220.0
92.535202 40.0
92.562004 192.0
92.625206 208.0
92.644363 112.0
92.751678 104.0
92.834129 132.0
92.883995 176.0
92.989532 144.0
93.024078 120.0
93.039436 152.0
93.066322 100.0
93.123932 220.0
93.14698 112.0
93.166191 172.0
93.195274 184.0
93.352638 180.0
93.45459 200.0
93.564301 68.0
93.616287 176.0
93.737656 168.0
93.816681 148.0
93.872597 168.0
93.886101 84.0
93.913101 116.0
93.984055 144.0
94.012604 112.0
94.080116 80.0
94.102226 128.0
94.123466 160.0
94.258064 200.0
94.328262 176.0
94.353394 160.0
94.366928 192.0
94.401733 188.0
94.426094 176.0
94.453957 188.0
94.477173 160.0
94.535217 176.0
94.577797 124.0
94.645866 128.0
94.653244 120.0
94.660675 124.0
94.676544 148.0
94.703659 52.0
94.751076 180.0
94.768768 164.0
94.786964 136.0
94.810226 224.0
94.841583 176.0
94.89164 148.0
94.905327 136.0
94.975029 204.0
95.01577 116.0
95.039047 196.0
95.058456 192.0
95.095329 264.0
95.19046 208.0
95.248421 304.0
95.285637 196.0
95.310898 152.0
95.345238 148.0
95.400307 56.0
95.46447 184.0
95.493645 116.0
95.591171 124.0
95.624008 208.0
95.703819 184.0
95.723816 208.0
95.820686 64.0
95.877197 228.0
95.914772 172.0
96.001968 196.0
96.024544 164.0
96.23951 140.0
96.253708 128.0
96.350121 228.0
96.378723 104.0
96.424446 152.0
96.443222 240.0
96.523376 180.0
96.537064 204.0
96.556625 172.0
96.575531 204.0
96.603569 148.0
96.674011 232.0
96.703362 184.0
96.762093 192.0
96.801254 124.0
96.826714 172.0
96.842384 104.0
96.867851 124.0
96.889397 136.0
96.920746 208.0
96.980492 116.0
97.009972 176.0
97.024628 376.0
97.081497 188.0
97.140335 208.0
97.17157 196.0
97.209007 176.0
97.281631 204.0
97.375885 132.0
97.490715 116.0
97.521286 116.0
97.552734 164.0
97.60582 64.0
97.639252 96.0
97.672691 72.0
97.738937 148.0
97.762749 236.0
97.803406 196.0
97.853745 140.0
97.88131 116.0
97.938431 72.0
98.017235 160.0
98.083611 396.0
98.123077 172.0
98.212418 152.0
98.23214 248.0
98.249901 184.0
98.28936 136.0
98.304497 304.0
98.374229 140.0
98.425568 172.0
98.451233 140.0
98.469009 140.0
98.546051 144.0
98.587555 220.0
98.634987 152.0
98.723961 232.0
98.770325 172.0
98.884216 60.0
98.905991 52.0
98.959442 112.0
99.07354 160.0
99.094131 120.0
99.098785 160.0
99.165382 180.0
99.258652 128.0
99.335999 88.0
99.420891 204.0
99.472931 224.0
99.554337 152.0
99.57618 100.0
99.631805 176.0
99.677147 156.0
99.729179 160.0
99.832565 60.0
99.894218 144.0
99.98774 56.0
100.065376 84.0
100.095245 156.0
100.158981 136.0
100.174911 160.0
100.220741 128.0
100.28109 212.0
100.29982 188.0
100.316406 92.0
100.372231 104.0
100.402611 172.0
100.43605 92.0
100.503883 200.0
100.533821 152.0
100.56575 176.0
100.587708 120.0
100.601685 204.0
100.673569 128.0
100.699532 256.0
100.729492 104.0
100.748451 360.0
100.859383 152.0
100.917358 120.0
101.029358 272.0
101.093948 200.0
101.11953 128.0
101.150948 180.0
101.183464 40.0
101.203484 184.0
101.229523 168.0
101.25956 144.0
101.365738 164.0
101.381775 52.0
101.398628 208.0
101.425865 108.0
101.471977 184.0
101.58429 116.0
101.665146 188.0
101.68586 156.0
101.720749 152.0
101.742828 56.0
101.758888 32.0
101.910828 192.0
101.953743 132.0
102.017174 72.0
102.033607 148.0
102.058273 144.0
102.126656 188.0
102.14476 256.0
102.171555 100.0
102.242401 192.0
102.305748 108.0
102.327896 148.0
102.468697 128.0
102.537399 144.0
102.589806 192.0
102.626099 172.0
102.712326 164.0
102.765274 84.0
102.842201 168.0
102.916656 148.0
102.932816 96.0
102.989365 124.0
103.033806 116.0
103.098465 60.0
103.197517 40.0
103.215721 180.0
103.270325 128.0
103.284485 164.0
103.312805 168.0
103.362213 304.0
103.381599 56.0
103.454468 120.0
103.543564 188.0
103.650581 136.0
103.689438 128.0
103.709709 164.0
103.887848 156.0
103.951057 160.0
103.97541 100.0
104.050041 468.0
104.109978 128.0
104.249588 176.0
104.310562 176.0
104.355286 32.0
104.406128 116.0
104.461044 244.0
104.583138 120.0
104.605141 252.0
104.664574 104.0
104.689011 136.0
104.762337 196.0
104.817581 212.0
105.041626 96.0
105.06395 144.0
105.086456 172.0
105.129356 224.0
105.169273 208.0
105.206924 208.0
105.262054 152.0
105.280434 120.0
105.34375 332.0
105.406242 96.0
105.474533 40.0
105.542007 164.0
105.572678 148.0
105.636086 152.0
105.707695 192.0
105.799805 112.0
105.836662 32.0
105.898102 100.0
105.961601 32.0
105.998489 132.0
106.012833 148.0
106.031578 192.0
106.080467 168.0
106.131729 164.0
106.304039 156.0
106.349495 188.0
106.402565 96.0
106.499084 124.0
106.525787 160.0
106.589478 112.0
106.621223 224.0
106.681976 104.0
106.712814 204.0
106.731316 180.0
106.766678 184.0
106.78154 132.0
106.799187 180.0
106.943222 176.0
106.967918 180.0
107.012703 96.0
107.043053 188.0
107.097649 180.0
107.182121 132.0
107.227455 64.0
107.346245 136.0
107.375908 128.0
107.410973 124.0
107.483185 72.0
107.567802 172.0
107.58638 120.0
107.6315 312.0
107.75367 180.0
107.823929 172.0
107.87767 168.0
107.898346 192.0
107.925224 104.0
107.95211 120.0
107.987267 288.0
108.035759 184.0
108.110695 232.0
108.21698 196.0
108.241829 148.0
108.286057 180.0
108.362198 140.0
108.37767 176.0
108.453148 172.0
108.475342 136.0
108.614883 144.0
108.700226 180.0
108.754684 172.0
108.780899 56.0
108.820343 232.0
108.903412 108.0
108.917953 52.0
108.959503 52.0
109.011452 152.0
109.04821 264.0
109.109337 172.0
109.151466 180.0
109.169441 144.0
109.184006 144.0
109.212784 196.0
109.242378 188.0
109.258888 88.0
109.273453 136.0
109.296341 96.0
109.341003 148.0
109.379593 228.0
109.404572 160.0
109.491837 252.0
109.520409 196.0
109.592018 160.0
109.664963 176.0
109.70665 152.0
109.727501 104.0
109.815918 140.0
109.840118 152.0
109.86515 216.0
109.883369 120.0
109.921486 200.0
109.950401 168.0
109.973663 132.0
110.103111 136.0
110.134438 156.0
110.174133 64.0
110.287994 156.0
110.314148 232.0
110.351784 96.0
110.385239 188.0
110.476364 156.0
110.491913 140.0
110.571106 308.0
110.59446 156.0
110.623764 160.0
110.675232 192.0
110.724274 136.0
110.761917 140.0
110.843689 100.0
110.883507 128.0
111.033096 160.0
111.078209 140.0
111.11982 100.0
111.143547 104.0
111.204208 128.0
111.229599 184.0
111.28418 176.0
111.355583 228.0
111.378685 132.0
111.401794 132.0
111.565079 184.0
111.595535 264.0
111.620384 56.0
111.635109 224.0
111.748695 76.0
111.804489 132.0
111.812424 184.0
111.832878 240.0
111.912872 116.0
111.961304 120.0
112.003433 132.0
112.026764 156.0
112.062424 156.0
112.100349 112.0
112.127747 40.0
112.172012 124.0
112.203636 244.0
112.220505 116.0
112.317513 136.0
112.336502 148.0
112.406128 172.0
112.492661 168.0
112.537003 148.0
112.594017 176.0
112.624413 132.0
112.644714 156.0
112.741905 80.0
112.763039 120.0
112.792633 168.0
112.821465 44.0
112.856056 44.0
112.887779 176.0
112.993538 140.0
113.010468 252.0
113.02951 280.0
113.080299 56.0
113.108719 132.0
113.242149 200.0
113.283585 164.0
113.30265 120.0
113.374695 208.0
113.448883 244.0
113.489395 112.0
113.610062 76.0
113.669472 128.0
113.688568 104.0
113.741631 124.0
113.873283 152.0
113.930634 160.0
113.994377 84.0
114.085777 164.0
114.145309 156.0
114.16658 132.0
114.206985 120.0
114.243149 136.0
114.292091 116.0
114.311241 104.0
114.33252 104.0
114.424988 128.0
114.513237 132.0
114.531258 176.0
114.639191 152.0
114.666901 112.0
114.844421 156.0
114.935608 56.0
114.963348 284.0
114.992462 200.0
115.028 124.0
115.052895 248.0
115.129868 160.0
115.157639 92.0
115.195053 264.0
115.241585 188.0
115.320023 112.0
115.364914 168.0
115.418541 144.0
115.495773 144.0
115.548843 188.0
115.56382 128.0
115.621597 184.0
115.648354 176.0
115.707222 192.0
115.850449 196.0
115.872139 112.0
115.93428 144.0
115.98616 176.0
116.047264 232.0
116.227074 176.0
116.247383 152.0
116.274254 160.0
116.36544 132.0
116.449196 120.0
116.541573 148.0
116.562378 240.0
116.638283 152.0
116.786652 116.0
116.803856 64.0
116.818916 152.0
116.866249 168.0
116.904984 72.0
116.920052 112.0
116.956642 120.0
117.003616 248.0
117.038452 164.0
117.064293 144.0
117.103058 132.0
117.146141 172.0
117.167778 92.0
117.195694 156.0
117.383232 344.0
117.409981 256.0
117.426361 128.0
117.475975 120.0
117.50618 48.0
117.538544 152.0
117.573074 88.0
117.615181 204.0
117.652939 88.0
117.692696 396.0
117.734398 160.0
117.771713 172.0
117.819237 180.0
117.927284 136.0
117.955383 36.0
117.99646 124.0
118.024567 264.0
118.06414 272.0
118.114571 280.0
118.147858 152.0
118.223587 220.0
118.301514 168.0
118.325325 172.0
118.357803 204.0
118.392456 116.0
118.431442 108.0
118.494263 52.0
118.552773 180.0
118.704521 124.0
118.791275 168.0
118.841179 196.0
118.89109 172.0
119.045227 156.0
119.069115 160.0
119.176514 160.0
119.20816 48.0
119.238586 220.0
119.314667 132.0
119.336411 168.0
119.373375 188.0
119.403824 208.0
119.437408 236.0
119.527824 236.0
119.650017 176.0
119.678413 156.0
119.778748 224.0
119.814079 100.0
119.860428 200.0
119.904579 184.0
119.926376 64.0
119.944122 172.0
119.991776 160.0
120.039085 236.0
120.124809 212.0
120.257919 172.0
120.299393 208.0
120.369263 148.0
120.385277 120.0
120.413864 180.0
120.450142 264.0
120.495949 140.0
120.537468 84.0
120.603035 136.0
120.638008 64.0
120.653313 176.0
120.820961 140.0
120.948639 192.0
120.974907 80.0
121.012131 60.0
121.044975 124.0
121.112869 204.0
121.226799 144.0
121.261864 144.0
121.303513 156.0
121.40876 248.0
121.487724 120.0
121.520004 264.0
121.551353 124.0
121.573296 44.0
121.628166 180.0
121.74234 116.0
121.796257 204.0
121.882805 132.0
121.955383 120.0
121.992828 176.0
122.038933 2692.0
122.063461 252.0
122.098373 96.0
122.151161 184.0
122.195168 200.0
122.23793 212.0
122.268692 228.0
122.311806 204.0
122.359428 164.0
122.419159 164.0
122.443916 200.0
122.484718 156.0
122.514404 148.0
122.532028 156.0
122.634743 184.0
122.688507 176.0
122.719376 212.0
122.756859 160.0
122.78994 136.0
122.882591 104.0
122.904663 152.0
122.996429 160.0
123.040886 428.0
123.070206 180.0
123.091621 152.0
123.108368 200.0
123.169594 236.0
123.266808 172.0
123.299957 92.0
123.387314 160.0
123.49572 252.0
123.521065 148.0
123.550301 132.0
123.609566 152.0
123.775589 136.0
123.821548 160.0
123.901848 108.0
123.939514 224.0
123.997131 56.0
124.052391 596.0
124.083588 300.0
124.27655 148.0
124.292084 28.0
124.347565 132.0
124.367538 168.0
124.467445 236.0
124.507423 172.0
124.531853 188.0
124.604462 204.0
124.691826 104.0
124.760735 148.0
124.827438 144.0
124.889717 240.0
125.003181 152.0
125.029106 172.0
125.054367 76.0
125.093559 152.0
125.134514 112.0
125.212448 128.0
125.243637 176.0
125.30529 148.0
125.328293 228.0
125.42907 164.0
125.488586 200.0
125.516136 148.0
125.533371 184.0
125.721321 372.0
125.745323 144.0
125.798889 124.0
125.83461 104.0
125.870338 208.0
125.888206 108.0
125.946274 60.0
126.029991 200.0
126.091507 72.0
126.113861 280.0
126.174683 192.0
126.207756 148.0
126.227882 104.0
126.303925 200.0
126.358864 172.0
126.426987 60.0
126.476227 56.0
126.594887 172.0
126.652145 212.0
126.724045 188.0
126.778587 164.0
126.86171 124.0
126.87439 76.0
126.877823 104.0
126.904472 128.0
127.014015 264.0
127.149788 164.0
127.3013 144.0
127.317024 204.0
127.355209 172.0
127.449562 84.0
127.510239 104.0
127.529381 200.0
127.555199 164.0
127.587402 256.0
127.647377 232.0
127.696854 144.0
127.746346 48.0
127.766586 40.0
127.831841 160.0
127.847595 80.0
127.870102 144.0
127.93763 124.0
127.955643 228.0
128.054733 188.0
128.081757 160.0
128.175735 168.0
128.290146 212.0
128.331909 128.0
128.458221 156.0
128.501083 148.0
128.533417 188.0
128.557495 184.0
128.592529 164.0
128.64119 248.0
128.673019 180.0
128.731323 64.0
128.747131 188.0
128.774231 348.0
128.885101 160.0
128.943695 164.0
128.975281 188.0
129.037552 188.0
129.059784 148.0
129.081589 152.0
129.099686 156.0
129.149445 116.0
129.278412 208.0
129.334991 176.0
129.371216 240.0
129.391586 100.0
129.40744 196.0
129.445923 172.0
129.525208 192.0
129.584106 120.0
129.656616 56.0
129.681549 160.0
129.722351 232.0
129.769958 108.0
129.792633 72.0
129.819855 204.0
129.837997 140.0
129.894699 68.0
129.924194 208.0
130.029007 404.0
130.064285 432.0
130.083054 196.0
130.103485 124.0
130.244278 156.0
130.35733 164.0
130.481766 232.0
130.545685 164.0
130.562485 148.0
130.605698 160.0
130.644379 352.0
130.670532 208.0
130.701248 148.0
130.745071 204.0
130.858307 52.0
130.907272 152.0
130.931183 180.0
130.965347 88.0
131.032089 188.0
131.048813 160.0
131.055695 252.0
131.090652 116.0
131.106613 140.0
131.190948 208.0
131.260895 88.0
131.37764 176.0
131.414459 148.0
131.462372 84.0
131.49205 176.0
131.5103 196.0
131.615326 48.0
131.660995 152.0
131.692978 108.0
131.752365 112.0
131.814056 176.0
131.830048 176.0
131.862045 184.0
131.894043 180.0
131.910049 228.0
131.932907 156.0
131.972351 112.0
132.00119 284.0
132.045013 412.0
132.09169 404.0
132.224747 124.0
132.270615 112.0
132.301239 88.0
132.349335 104.0
132.372223 120.0
132.397415 196.0
132.445511 172.0
132.505081 416.0
132.546326 124.0
132.573822 104.0
132.635712 220.0
132.722824 136.0
132.764099 128.0
132.867325 108.0
132.883392 96.0
132.962189 188.0
132.979767 48.0
133.018799 148.0
133.045624 152.0
133.083084 136.0
133.126709 196.0
133.195618 240.0
133.262238 128.0
133.282913 168.0
133.316132 160.0
133.400131 124.0
133.44841 196.0
133.466812 140.0
133.487503 112.0
133.507095 232.0
133.618622 152.0
133.660034 92.0
133.699158 96.0
133.809647 220.0
133.945526 128.0
133.980255 156.0
134.042572 196.0
134.111435 184.0
134.132172 224.0
134.164459 112.0
134.205948 228.0
134.238235 196.0
134.263611 84.0
134.279755 352.0
134.376633 128.0
134.434326 172.0
134.522034 120.0
134.55928 180.0
134.588989 164.0
134.676758 36.0
134.716019 272.0
134.736816 160.0
134.752991 96.0
134.847733 168.0
134.875473 188.0
134.903214 108.0
135.037186 316.0
135.115982 208.0
135.176147 140.0
135.222427 116.0
135.243256 204.0
135.342804 156.0
135.382172 120.0
135.420258 208.0
135.453979 116.0
135.573578 188.0
135.613861 36.0
135.650955 128.0
135.668091 104.0
135.785446 128.0
135.81575 180.0
135.908859 156.0
135.922791 156.0
135.979996 180.0
136.031403 156.0
136.054169 496.0
136.096405 152.0
136.131882 160.0
136.183777 368.0
136.245056 112.0
136.261322 132.0
136.277588 116.0
136.296173 168.0
136.314758 64.0
136.415176 180.0
136.551895 92.0
136.6147 124.0
136.666656 184.0
136.69516 244.0
136.713989 144.0
136.756653 180.0
136.835297 184.0
136.887024 240.0
136.930359 196.0
136.95224 116.0
136.991837 164.0
137.022125 180.0
137.051407 160.0
137.096115 192.0
137.184601 168.0
137.227234 124.0
137.273865 100.0
137.3414 212.0
137.425491 176.0
137.44931 156.0
137.500168 164.0
137.593536 176.0
137.609894 136.0
137.689285 192.0
137.74556 172.0
137.862167 208.0
137.885193 108.0
137.960342 196.0
138.010849 196.0
138.031998 284.0
138.064224 292.0
138.098312 128.0
138.154449 220.0
138.241028 100.0
138.257401 184.0
138.365082 236.0
138.414246 180.0
138.447037 176.0
138.541718 116.0
138.563583 212.0
138.66362 280.0
138.703094 184.0
138.812622 120.0
138.927551 116.0
138.991089 292.0
139.035614 324.0
139.054276 176.0
139.143478 244.0
139.162262 148.0
139.199829 276.0
139.226578 160.0
139.298477 128.0
139.32431 172.0
139.350159 116.0
139.397156 188.0
139.481766 164.0
139.514679 176.0
139.557007 68.0
139.58287 224.0
139.632248 148.0
139.665176 164.0
139.766342 196.0
139.919342 148.0
139.945831 192.0
139.994827 140.0
140.021912 168.0
140.043961 152.0
140.079483 160.0
140.117172 164.0
140.147812 192.0
140.19014 124.0
140.218063 216.0
140.276276 172.0
140.324585 280.0
140.357666 136.0
140.42363 168.0
140.581696 148.0
140.614746 104.0
140.846146 148.0
140.868774 248.0
140.912292 80.0
140.931183 128.0
141.045441 184.0
141.068268 176.0
141.151016 124.0
141.195953 124.0
141.264557 164.0
141.282928 208.0
141.304016 188.0
141.543839 208.0
141.56041 88.0
141.595932 136.0
141.693054 72.0
141.762512 180.0
141.82814 140.0
141.866074 212.0
141.906372 164.0
141.928726 132.0
141.937866 184.0
142.014221 344.0
142.061523 440.0
142.092529 172.0
142.131714 204.0
142.254349 220.0
142.32399 208.0
142.399979 212.0
142.516388 164.0
142.537247 228.0
142.55249 184.0
142.620956 120.0
142.678009 156.0
142.727936 112.0
142.806412 220.0
142.846863 176.0
142.868271 208.0
142.884918 288.0
143.061188 408.0
143.187729 192.0
143.208679 140.0
143.256317 148.0
143.346863 208.0
143.373077 152.0
143.411209 128.0
143.439819 196.0
143.455276 156.0
143.47319 72.0
143.509644 208.0
143.556641 188.0
143.594803 188.0
143.639175 172.0
143.66008 164.0
143.68306 240.0
143.745102 132.0
143.773956 136.0
143.790451 168.0
143.826248 180.0
143.856674 252.0
143.885925 136.0
143.905029 188.0
143.938461 220.0
143.959961 188.0
144.044907 316.0
144.078552 192.0
144.105667 180.0
144.156403 104.0
144.197815 148.0
144.215591 152.0
144.284927 96.0
144.390137 72.0
144.42601 164.0
144.454498 128.0
144.562393 148.0
144.677277 164.0
144.696442 184.0
144.751511 96.0
144.850067 136.0
144.955124 108.0
145.044968 196.0
145.070175 432.0
145.180481 116.0
145.197266 148.0
145.257233 136.0
145.308151 404.0
145.3508 300.0
145.499619 152.0
145.550034 144.0
145.590866 160.0
145.739807 144.0
145.763824 144.0
145.79747 72.0
145.816696 96.0
145.868866 80.0
146.020035 252.0
146.054977 448.0
146.242432 112.0
146.266022 320.0
146.290573 128.0
146.367615 216.0
146.388 164.0
146.444687 64.0
146.516953 68.0
146.592438 148.0
146.721756 156.0
146.768906 152.0
146.801651 180.0
146.827911 140.0
146.854446 204.0
146.880981 88.0
146.919571 204.0
146.943695 40.0
146.975067 132.0
147.03923 284.0
147.04541 268.0
147.177826 136.0
147.255112 148.0
147.308258 148.0
147.334457 156.0
147.383148 192.0
147.482239 124.0
147.549088 228.0
147.601929 220.0
147.629715 116.0
147.755508 80.0
147.796631 168.0
147.907303 160.0
147.91095 208.0
147.985443 360.0
148.013901 312.0
148.057144 652.0
148.189621 200.0
148.331238 208.0
148.351273 212.0
148.375519 120.0
148.585907 332.0
148.863235 188.0
148.89238 368.0
148.911819 152.0
148.965256 148.0
148.987122 188.0
149.029221 220.0
149.048813 608.0
149.067841 408.0
149.096466 160.0
149.11348 160.0
149.157227 416.0
149.211609 256.0
149.228867 60.0
149.266876 192.0
149.304596 224.0
149.361496 112.0
149.380951 184.0
149.444214 184.0
149.488007 208.0
149.524521 204.0
149.570755 132.0
149.614578 148.0
149.677887 152.0
149.718613 244.0
149.747223 76.0
149.821594 112.0
149.84108 176.0
149.909302 76.0
149.928802 164.0
149.962921 132.0
149.987305 168.0
150.033661 4092.0
150.121399 172.0
150.186066 196.0
150.214081 180.0
150.240112 112.0
150.444214 132.0
150.484985 168.0
150.612656 336.0
150.67305 168.0
150.70726 116.0
150.726807 196.0
150.81723 100.0
150.915024 36.0
150.964142 180.0
151.040924 1680.0
151.113144 156.0
151.172607 188.0
151.23381 192.0
151.292282 188.0
151.379959 88.0
151.402512 168.0
151.424042 168.0
151.45343 152.0
151.497528 208.0
151.520126 144.0
151.561234 224.0
151.642685 184.0
151.685425 172.0
151.762222 116.0
151.784302 112.0
151.81015 148.0
151.840698 144.0
151.879944 176.0
151.89711 104.0
151.921646 184.0
151.983627 76.0
152.048233 788.0
152.091827 220.0
152.1241 180.0
152.172943 144.0
152.235825 28.0
152.275131 112.0
152.316879 104.0
152.380753 112.0
152.439728 136.0
152.461853 168.0
152.597046 96.0
152.640503 160.0
152.668365 112.0
152.705246 152.0
152.722473 156.0
152.749527 216.0
152.793808 68.0
152.847687 196.0
152.877472 148.0
152.948853 216.0
152.98584 152.0
153.019394 244.0
153.055878 136.0
153.09166 196.0
153.25177 208.0
153.291199 144.0
153.313126 200.0
153.382385 108.0
153.431702 56.0
153.471146 200.0
153.505661 208.0
153.552521 152.0
153.591995 100.0
153.638855 196.0
153.703018 132.0
153.73262 196.0
153.787964 200.0
153.91217 196.0
153.937531 100.0
153.979507 52.0
154.028091 188.0
154.065887 148.0
154.204346 48.0
154.226593 204.0
154.263672 100.0
154.315598 104.0
154.379883 96.0
154.429352 188.0
154.464142 176.0
154.486237 116.0
154.567322 192.0
154.617386 148.0
154.65451 148.0
154.674133 156.0
154.742477 176.0
154.773682 88.0
154.812973 240.0
154.872253 124.0
155.061142 436.0
155.122696 168.0
155.156982 232.0
155.206985 156.0
155.231781 208.0
155.273941 132.0
155.307907 156.0
155.330994 176.0
155.46994 236.0
155.507172 140.0
155.53447 36.0
155.626328 48.0
155.663574 152.0
155.692245 160.0
155.795227 136.0
155.827515 184.0
155.862305 164.0
155.902374 164.0
155.955505 200.0
156.0383 228.0
156.070343 456.0
156.110901 132.0
156.135773 236.0
156.179611 108.0
156.206711 176.0
156.272583 144.0
156.312393 88.0
156.352219 88.0
156.372131 168.0
156.40448 48.0
156.426895 172.0
156.476685 180.0
156.533951 108.0
156.578293 164.0
156.58519 224.0
156.631088 136.0
156.775604 252.0
156.803757 232.0
156.839813 120.0
156.877792 56.0
156.904068 164.0
156.922668 148.0
156.977524 204.0
157.038742 604.0
157.075684 328.0
157.2099 196.0
157.40271 224.0
157.420258 136.0
157.451706 172.0
157.474182 144.0
157.506653 208.0
157.646561 48.0
157.676559 148.0
157.701553 148.0
157.740326 156.0
157.780548 120.0
157.819046 88.0
157.848663 224.0
157.871567 184.0
157.949097 76.0
158.022171 3596.0
158.055344 384.0
158.089066 228.0
158.138016 184.0
158.180756 168.0
158.219376 120.0
158.261932 204.0
158.317032 384.0
158.342072 136.0
158.37146 180.0
158.426849 152.0
158.582611 128.0
158.607666 148.0
158.650284 184.0
158.75058 144.0
158.768143 144.0
158.814743 152.0
158.837219 100.0
158.881012 188.0
158.918655 56.0
158.958054 216.0
158.981384 100.0
159.0327 304.0
159.057465 268.0
159.079285 240.0
159.096848 112.0
159.189758 60.0
159.327316 172.0
159.346115 176.0
159.417389 196.0
159.449982 160.0
159.501312 40.0
159.554092 164.0
159.669769 72.0
159.702469 164.0
159.727615 68.0
159.755295 176.0
159.791199 164.0
159.898727 136.0
159.984314 164.0
160.004456 148.0
160.053101 1600.0
160.104904 112.0
160.213486 116.0
160.278992 136.0
160.317749 72.0
160.341995 84.0
160.436523 136.0
160.488205 156.0
160.537231 136.0
160.60675 172.0
160.667282 164.0
160.710175 196.0
160.744278 208.0
160.764984 192.0
160.798508 216.0
160.83757 160.0
160.876755 136.0
160.983902 184.0
161.048904 420.0
161.086365 200.0
161.22113 200.0
161.298325 132.0
161.382065 136.0
161.409882 108.0
161.546463 172.0
161.617294 132.0
161.68309 164.0
161.700806 132.0
161.718536 104.0
161.751434 148.0
161.779282 132.0
161.857773 192.0
161.883636 132.0
161.964142 212.0
162.032211 276.0
162.059418 488.0
162.20488 160.0
162.346466 52.0
162.514282 128.0
162.742722 124.0
162.763046 200.0
162.813828 192.0
162.839233 40.0
162.859543 152.0
162.98912 64.0
163.039246 756.0
163.068039 464.0
163.098404 188.0
163.126358 156.0
163.156876 100.0
163.265106 184.0
163.282471 208.0
163.353195 60.0
163.400665 252.0
163.44429 192.0
163.514023 180.0
163.579178 192.0
163.602097 132.0
163.701401 236.0
163.719223 172.0
163.800034 220.0
163.841492 96.0
163.930664 188.0
164.047913 2808.0
164.089859 424.0
164.172852 92.0
164.22641 144.0
164.267227 88.0
164.3004 136.0
164.318253 88.0
164.341217 148.0
164.364182 76.0
164.391678 160.0
164.428345 212.0
164.43689 164.0
164.443939 128.0
164.456955 196.0
164.489243 144.0
164.514771 156.0
164.545715 136.0
164.565842 48.0
164.58371 28.0
164.604141 140.0
164.652664 96.0
164.678207 80.0
164.872375 120.0
164.915833 88.0
164.972061 124.0
164.997635 56.0
165.043991 1788.0
165.078583 192.0
165.102737 152.0
165.202225 124.0
165.271301 144.0
165.314804 228.0
165.340454 176.0
165.3797 204.0
165.453033 156.0
165.470947 152.0
165.524719 72.0
165.588745 160.0
165.634857 232.0
165.657501 176.0
165.753265 132.0
165.827026 148.0
165.852661 128.0
165.870605 144.0
165.909058 152.0
165.937271 112.0
166.030991 548.0
166.055923 268.0
166.064636 352.0
166.19632 104.0
166.232254 68.0
166.267242 188.0
166.291275 192.0
166.365723 192.0
166.439194 312.0
166.49411 180.0
166.607132 120.0
166.655945 112.0
166.776352 248.0
166.861572 52.0
166.884705 160.0
166.953918 92.0
167.059113 508.0
167.10849 112.0
167.205841 120.0
167.278336 152.0
167.316956 80.0
167.337555 144.0
167.367813 192.0
167.50441 132.0
167.525558 168.0
167.553909 100.0
167.595123 116.0
167.760086 132.0
167.783279 120.0
167.811646 128.0
167.837433 232.0
167.889008 136.0
167.922531 148.0
167.984436 56.0
168.013306 188.0
168.054596 212.0
168.128937 88.0
168.221863 152.0
168.274963 200.0
168.295013 204.0
168.317383 52.0
168.335464 184.0
168.353363 180.0
168.363571 168.0
168.397446 80.0
168.493912 232.0
168.59639 140.0
168.645111 132.0
168.649094 112.0
168.659363 176.0
168.723282 168.0
168.805786 108.0
168.880798 84.0
168.898895 112.0
169.023087 36.0
169.043411 320.0
169.073013 432.0
169.149902 136.0
169.256058 60.0
169.325928 196.0
169.344208 200.0
169.367416 144.0
169.386337 164.0
169.414642 140.0
169.491776 96.0
169.522308 92.0
169.580826 168.0
169.61618 108.0
169.636002 224.0
169.670624 100.0
169.732849 136.0
169.813248 128.0
169.891068 128.0
169.919601 144.0
170.057098 552.0
170.082428 284.0
170.124634 48.0
170.179153 100.0
170.24408 160.0
170.332336 248.0
170.373947 100.0
170.451904 216.0
170.488281 160.0
170.509079 136.0
170.587051 112.0
170.662445 120.0
170.72226 232.0
170.790161 184.0
170.849716 132.0
170.920212 176.0
170.94339 88.0
170.972015 208.0
170.990234 144.0
171.008453 192.0
171.054657 3868.0
171.159653 100.0
171.206329 72.0
171.31572 156.0
171.337646 192.0
171.397141 160.0
171.440796 96.0
171.499405 88.0
171.518982 76.0
171.54245 128.0
171.565918 160.0
171.636307 248.0
171.670212 112.0
171.69368 176.0
171.74585 124.0
171.784973 148.0
172.064529 816.0
172.173904 152.0
172.202621 112.0
172.228745 132.0
172.2836 120.0
172.364609 176.0
172.516205 152.0
172.610321 96.0
172.631241 156.0
172.695328 176.0
172.741104 136.0
172.830048 88.0
172.848373 88.0
172.882385 168.0
172.908569 204.0
173.040451 312.0
173.065659 872.0
173.115387 148.0
173.152054 212.0
173.180634 180.0
173.296127 172.0
173.395065 176.0
173.437653 48.0
173.458618 44.0
173.555634 104.0
173.642166 136.0
173.722015 108.0
173.773178 140.0
173.815323 176.0
173.867126 224.0
173.924637 128.0
173.951797 148.0
174.027267 172.0
174.063766 588.0
174.121399 108.0
174.190765 164.0
174.232803 200.0
174.31163 96.0
174.337906 152.0
174.398361 168.0
174.561356 52.0
174.647324 152.0
174.70076 104.0
174.736038 148.0
174.756943 124.0
174.838913 128.0
174.91655 176.0
174.948151 180.0
175.031448 620.0
175.063522 888.0
175.143021 156.0
175.193161 104.0
175.290558 124.0
175.366989 136.0
175.513535 340.0
175.612198 144.0
175.667587 168.0
175.752014 144.0
175.778412 124.0
175.839111 192.0
175.873428 148.0
175.910294 124.0
175.944702 144.0
175.96846 108.0
176.048492 740.0
176.075378 308.0
176.161255 128.0
176.192963 52.0
176.273102 96.0
176.296005 124.0
176.383224 192.0
176.409668 120.0
176.535141 176.0
176.584183 104.0
176.607986 168.0
176.639877 144.0
176.684708 208.0
176.790558 180.0
176.835831 152.0
176.859375 152.0
176.877899 92.0
176.903107 148.0
176.925552 120.0
176.945526 176.0
177.010086 240.0
177.051285 1160.0
177.116302 128.0
177.230133 172.0
177.267242 160.0
177.297318 184.0
177.341293 252.0
177.40506 80.0
177.430008 152.0
177.447479 136.0
177.487259 36.0
177.585388 96.0
177.619873 52.0
177.691498 116.0
177.774414 240.0
177.802948 176.0
177.838577 264.0
177.869308 204.0
177.898788 240.0
177.977509 196.0
178.028885 9920.0
178.108292 160.0
178.142822 164.0
178.164078 64.0
178.189407 248.0
178.21608 204.0
178.302261 164.0
178.379333 52.0
178.408585 96.0
178.481262 208.0
178.508804 140.0
178.541534 144.0
178.580658 208.0
178.689529 164.0
178.717102 188.0
178.751694 72.0
178.786301 124.0
178.809662 200.0
178.906082 128.0
178.939987 212.0
179.036346 9504.0
179.1138 128.0
179.14006 116.0
179.157867 220.0
179.201706 72.0
179.310974 96.0
179.3479 128.0
179.372559 148.0
179.404266 132.0
179.438919 60.0
179.462921 112.0
179.516251 208.0
179.54129 124.0
179.585556 228.0
179.62561 68.0
179.712387 204.0
179.753677 116.0
179.804382 196.0
179.948593 176.0
179.999268 104.0
180.04277 4880.0
180.105835 200.0
180.172882 164.0
180.1996 96.0
180.218307 68.0
180.293121 196.0
180.347778 268.0
180.371933 132.0
180.450836 104.0
180.506561 124.0
180.55629 148.0
180.597931 68.0
180.629532 152.0
180.686203 44.0
180.737045 60.0
180.80394 48.0
180.847717 148.0
180.93779 152.0
180.957535 180.0
180.975266 180.0
181.015442 180.0
181.04538 216.0
181.066956 188.0
181.157394 132.0
181.176147 168.0
181.213654 72.0
181.243484 152.0
181.40126 108.0
181.476334 128.0
181.49733 240.0
181.548737 116.0
181.574585 92.0
181.59668 260.0
181.650665 152.0
181.702179 232.0
181.755295 120.0
181.781006 124.0
181.897476 152.0
181.991501 132.0
182.055847 192.0
182.075012 488.0
182.184891 72.0
182.206375 132.0
182.225189 472.0
182.257431 220.0
182.296982 128.0
182.328995 196.0
182.356873 64.0
182.375687 36.0
182.412552 168.0
182.467087 208.0
182.601532 144.0
182.65802 104.0
182.709137 172.0
182.739075 160.0
182.872391 156.0
182.993332 224.0
183.028564 172.0
183.034637 116.0
183.055115 308.0
183.088867 176.0
183.22876 48.0
183.276733 208.0
183.4767 52.0
183.589966 136.0
183.614227 184.0
183.633118 48.0
183.662781 144.0
183.724823 44.0
183.81926 160.0
183.846252 200.0
183.975815 200.0
184.019012 184.0
184.061752 472.0
184.107224 216.0
184.186447 172.0
184.21077 112.0
184.230774 212.0
184.272903 96.0
184.330231 224.0
184.372879 224.0
184.510742 136.0
184.555481 176.0
184.613495 184.0
184.65947 152.0
184.720001 244.0
184.788498 184.0
184.824493 156.0
184.843445 156.0
184.894867 208.0
184.930054 132.0
184.975998 176.0
185.034317 868.0
185.065308 596.0
185.104538 296.0
185.2453 104.0
185.341019 160.0
185.406738 156.0
185.455521 184.0
185.479919 32.0
185.507019 120.0
185.526001 180.0
185.577133 232.0
185.646881 240.0
185.699554 172.0
185.729385 108.0
185.767365 160.0
185.83049 180.0
185.995789 112.0
186.056747 164.0
186.091522 732.0
186.114761 180.0
186.182663 140.0
186.228836 132.0
186.266861 164.0
186.342926 164.0
186.36467 84.0
186.446182 96.0
186.503265 208.0
186.601135 132.0
186.62561 52.0
186.663681 128.0
186.800034 176.0
186.826874 148.0
186.861832 128.0
187.017365 116.0
187.065781 516.0
187.169815 188.0
187.221558 88.0
187.311447 200.0
187.466751 160.0
187.485825 128.0
187.526703 112.0
187.570312 100.0
187.589401 156.0
187.62825 112.0
187.676651 208.0
187.709366 128.0
187.750275 212.0
187.865829 132.0
187.89212 180.0
187.911224 180.0
187.994812 220.0
188.008133 132.0
188.048798 3276.0
188.121368 132.0
188.200546 160.0
188.320709 168.0
188.372604 108.0
188.462448 136.0
188.621277 88.0
188.670486 196.0
188.812683 124.0
188.832657 172.0
188.919357 56.0
188.982285 200.0
189.015121 152.0
189.044678 804.0
189.075333 168.0
189.126312 140.0
189.171127 148.0
189.214935 104.0
189.236832 160.0
189.258743 176.0
189.349121 152.0
189.377319 168.0
189.462555 164.0
189.507996 164.0
189.561371 176.0
189.650513 188.0
189.735489 200.0
189.754684 124.0
189.869003 208.0
189.91983 144.0
189.949402 164.0
189.976837 112.0
190.02652 224.0
190.058075 1000.0
190.089447 380.0
190.127411 200.0
190.163422 152.0
190.182648 120.0
190.221069 48.0
190.333633 132.0
190.39566 156.0
190.44899 132.0
190.492935 168.0
190.534149 164.0
190.558868 180.0
190.795242 188.0
190.828232 228.0
190.940979 152.0
190.984985 116.0
191.034256 1516.0
191.06189 1704.0
191.139053 132.0
191.158325 92.0
191.229874 136.0
191.288635 184.0
191.373032 176.0
191.441864 116.0
191.535522 128.0
191.56633 172.0
191.612656 156.0
191.64296 72.0
191.711853 104.0
191.750992 160.0
191.844162 184.0
191.888275 152.0
191.924118 112.0
191.959961 116.0
191.987534 100.0
192.043304 5856.0
192.095428 212.0
192.133728 220.0
192.161331 88.0
192.230301 176.0
192.307587 108.0
192.326904 164.0
192.354507 216.0
192.405014 176.0
192.495316 144.0
192.520172 136.0
192.573883 120.0
192.64447 116.0
192.688431 180.0
192.699249 164.0
192.705322 152.0
192.716705 168.0
192.783783 144.0
192.809738 148.0
192.851715 68.0
192.88765 152.0
192.936172 116.0
192.969574 120.0
193.040451 10144.0
193.073654 540.0
193.142059 180.0
193.201279 176.0
193.227814 188.0
193.310837 168.0
193.349579 176.0
193.390686 468.0
193.463058 68.0
193.490753 40.0
193.518433 176.0
193.540588 172.0
193.57724 168.0
193.654129 160.0
193.702377 164.0
193.78157 156.0
193.80928 204.0
193.879623 260.0
193.919006 136.0
193.976257 128.0
194.024338 7660.0
194.049881 4948.0
194.114197 116.0
194.135712 200.0
194.168823 208.0
194.219589 120.0
194.2612 152.0
194.295288 168.0
194.347198 60.0
194.438156 124.0
194.458206 100.0
194.488739 80.0
194.513153 176.0
194.560165 132.0
194.633652 132.0
194.658096 148.0
194.713654 64.0
194.738647 44.0
194.763641 136.0
194.858093 164.0
194.884491 152.0
194.905975 76.0
194.969254 156.0
195.029434 1084.0
195.054321 2860.0
195.093719 344.0
195.135284 128.0
195.167923 200.0
195.233368 28.0
195.272293 196.0
195.316803 68.0
195.348984 148.0
195.433655 188.0
195.461472 156.0
195.525482 132.0
195.570709 144.0
195.611771 64.0
195.636826 116.0
195.695297 32.0
195.737061 96.0
195.763458 200.0
195.826187 160.0
195.884674 168.0
196.034912 152.0
196.057846 372.0
196.074615 396.0
196.11438 176.0
196.125061 76.0
196.133255 116.0
196.156113 164.0
196.177292 148.0
196.225067 200.0
196.267929 188.0
196.334793 320.0
196.356583 200.0
196.380844 156.0
196.435516 148.0
196.487869 112.0
196.533554 168.0
196.544052 72.0
196.554916 132.0
196.608292 248.0
196.665451 68.0
196.731354 172.0
196.754791 164.0
196.793869 232.0
196.83017 200.0
196.947479 40.0
196.992172 104.0
197.031281 500.0
197.064575 380.0
197.088043 280.0
197.279205 180.0
197.391861 136.0
197.467361 144.0
197.5289 204.0
197.558884 256.0
197.711273 68.0
197.786346 96.0
197.822739 68.0
197.937531 176.0
197.997467 268.0
198.077682 908.0
198.182373 152.0
198.245682 140.0
198.31015 156.0
198.33432 152.0
198.354996 256.0
198.455917 112.0
198.503586 32.0
198.576508 160.0
198.607361 168.0
198.646027 184.0
198.688721 232.0
198.756058 40.0
198.927261 156.0
198.95253 132.0
199.048553 6360.0
199.079422 896.0
199.102295 216.0
199.256882 184.0
199.289566 96.0
199.326981 164.0
199.365433 172.0
199.387924 164.0
199.517227 180.0
199.539719 144.0
199.640945 172.0
199.674545 152.0
199.684311 144.0
199.849106 56.0
199.877258 48.0
199.970123 80.0
200.055328 3048.0
200.086426 256.0
200.192535 84.0
200.21788 176.0
200.291122 160.0
200.364365 40.0
200.417892 184.0
200.58136 176.0
200.682861 164.0
200.754486 208.0
200.792831 128.0
200.818161 204.0
201.062836 3364.0
201.144348 196.0
201.207642 124.0
201.255646 56.0
201.28389 168.0
201.332596 112.0
201.411591 188.0
201.43689 116.0
201.486649 168.0
201.563538 100.0
201.586151 92.0
201.611588 32.0
201.704865 112.0
201.72464 164.0
201.755737 160.0
201.792496 164.0
201.832092 144.0
201.849762 132.0
201.959351 120.0
201.998947 152.0
202.064285 2920.0
202.140427 132.0
202.170547 124.0
202.222488 100.0
202.247971 168.0
202.301758 60.0
202.374069 156.0
202.437668 164.0
202.511307 68.0
202.558075 156.0
202.621994 160.0
202.652954 120.0
202.743622 136.0
202.842834 148.0
202.977005 184.0
203.032104 2124.0
203.059265 2772.0
203.164825 192.0
203.191666 28.0
203.21344 112.0
203.26593 92.0
203.395981 160.0
203.419922 120.0
203.447083 112.0
203.486832 128.0
203.532272 132.0
203.605789 164.0
203.658127 216.0
203.683823 132.0
203.725403 136.0
203.748123 100.0
203.819168 68.0
203.964111 132.0
204.044739 5112.0
204.143234 120.0
204.183044 312.0
204.235138 88.0
204.297989 196.0
204.333817 132.0
204.365112 104.0
204.418518 192.0
204.476089 56.0
204.564331 176.0
204.605331 60.0
204.652588 96.0
204.683426 188.0
204.76651 160.0
204.792801 104.0
204.821533 200.0
204.846268 132.0
204.905533 200.0
204.928879 116.0
204.988541 192.0
205.039581 24972.0
205.076111 13324.0
205.134644 320.0
205.174744 128.0
205.219238 208.0
205.227646 44.0
205.270615 104.0
205.305161 212.0
205.344116 164.0
205.369751 80.0
205.402313 200.0
205.437424 76.0
205.493439 76.0
205.554443 116.0
205.597382 140.0
205.621857 132.0
205.656097 108.0
205.684647 76.0
205.713196 56.0
205.745346 76.0
205.810257 140.0
205.847382 232.0
205.870239 128.0
205.894531 204.0
205.918396 88.0
205.927048 76.0
205.981628 44.0
206.046158 4520.0
206.077057 1744.0
206.161102 192.0
206.227371 56.0
206.258804 68.0
206.278824 136.0
206.310272 56.0
206.337997 132.0
206.36792 100.0
206.407486 60.0
206.444077 216.0
206.467529 280.0
206.49614 68.0
206.524734 40.0
206.573364 108.0
206.59935 96.0
206.633453 84.0
206.670639 60.0
206.714188 240.0
206.808014 92.0
206.832901 100.0
206.856674 116.0
206.879578 32.0
207.054214 2668.0
207.089279 360.0
207.125854 68.0
207.183151 88.0
207.20607 148.0
207.231857 84.0
207.269104 68.0
207.324753 216.0
207.379227 208.0
207.417114 100.0
207.442307 84.0
207.478348 212.0
207.554276 124.0
207.5905 168.0
207.61821 180.0
207.668869 164.0
207.707764 100.0
207.733582 52.0
207.879913 80.0
207.948792 104.0
208.054764 512.0
208.146881 160.0
208.183044 128.0
208.207184 228.0
208.253143 188.0
208.327454 152.0
208.365189 40.0
208.480118 64.0
208.523224 92.0
208.586472 44.0
208.707214 204.0
208.727341 152.0
208.802124 52.0
208.853897 56.0
208.894165 84.0
208.925812 172.0
208.954575 104.0
208.986237 116.0
209.06517 532.0
209.199203 200.0
209.285583 112.0
209.432465 92.0
209.472794 152.0
209.556335 108.0
209.584625 152.0
209.642792 72.0
209.726364 192.0
209.812851 100.0
209.835922 124.0
209.86763 136.0
209.891006 148.0
209.942612 152.0
210.07373 148.0
210.105591 176.0
210.126312 164.0
210.23111 124.0
210.275757 192.0
210.297485 52.0
210.409363 212.0
210.462036 156.0
210.753784 148.0
210.857025 168.0
210.996567 132.0
211.05336 692.0
211.08226 292.0
211.137482 148.0
211.156357 108.0
211.193222 132.0
211.253967 132.0
211.436249 44.0
211.470993 36.0
211.49704 136.0
211.578094 52.0
211.676544 180.0
211.863312 176.0
211.957535 248.0
212.064331 164.0
212.088318 332.0
212.137222 112.0
212.201019 192.0
212.227112 120.0
212.401123 128.0
212.621994 160.0
212.669525 320.0
212.714523 192.0
212.795807 124.0
212.923584 112.0
213.064133 800.0
213.102173 800.0
213.124023 144.0
213.211212 152.0
213.255035 104.0
213.289688 200.0
213.432144 120.0
213.561966 132.0
213.725677 184.0
213.772491 108.0
213.89183 152.0
213.96347 92.0
214.064316 896.0
214.139328 144.0
214.222076 88.0
214.255844 80.0
214.287903 96.0
214.367157 180.0
214.40155 132.0
214.442352 108.0
214.465668 128.0
214.500641 428.0
214.54538 160.0
214.573532 160.0
214.611832 204.0
214.716415 260.0
214.738693 200.0
214.785049 144.0
214.917709 84.0
215.060471 972.0
215.157043 148.0
215.227112 232.0
215.263168 196.0
215.287415 136.0
215.360016 236.0
215.399429 76.0
215.639038 180.0
215.72966 148.0
215.79982 256.0
215.846603 180.0
215.91774 172.0
215.98114 128.0
216.007462 140.0
216.066849 844.0
216.21228 60.0
216.33522 100.0
216.358643 152.0
216.46405 132.0
216.51091 204.0
216.689606 156.0
216.730621 180.0
216.815613 168.0
216.862503 248.0
216.894745 132.0
216.915268 152.0
217.003799 200.0
217.040543 2828.0
217.081009 1268.0
217.164505 104.0
217.214371 176.0
217.261414 116.0
217.308258 32.0
217.380753 164.0
217.464783 212.0
217.505966 184.0
217.610565 64.0
217.704544 52.0
217.730057 168.0
217.750061 136.0
217.834839 204.0
217.869034 172.0
217.954239 168.0
217.992432 112.0
218.053223 2816.0
218.161331 116.0
218.186432 160.0
218.242844 152.0
218.289352 104.0
218.336411 192.0
218.436417 252.0
218.462891 44.0
218.569916 204.0
218.606354 132.0
218.64418 308.0
218.698303 200.0
218.765747 224.0
218.810165 280.0
218.834015 160.0
218.884933 256.0
218.907272 220.0
218.946304 120.0
218.978012 32.0
219.056091 37736.0
219.15773 80.0
219.183655 60.0
219.236176 160.0
219.282745 180.0
219.315582 196.0
219.345367 36.0
219.377838 76.0
219.414154 80.0
219.464279 120.0
219.49823 128.0
219.526031 96.0
219.565536 200.0
219.651627 152.0
219.747437 76.0
219.773941 228.0
219.785156 168.0
219.796646 124.0
219.844803 72.0
219.867218 276.0
219.898331 148.0
219.939926 152.0
219.970627 248.0
220.007828 232.0
220.062592 15468.0
220.147049 84.0
220.216324 48.0
220.264923 168.0
220.305435 116.0
220.384277 140.0
220.459076 300.0
220.483887 112.0
220.525391 128.0
220.559433 88.0
220.586716 340.0
220.607849 116.0
220.639389 72.0
220.68541 160.0
220.713211 128.0
220.722549 192.0
220.762375 88.0
220.815018 56.0
220.840485 104.0
220.862579 216.0
220.905563 192.0
220.961761 188.0
220.997116 188.0
221.07132 54876.0
221.137772 160.0
221.158173 76.0
221.173355 48.0
221.181595 100.0
221.192108 48.0
221.218262 60.0
221.253784 176.0
221.281418 60.0
221.305679 164.0
221.336258 160.0
221.363647 172.0
221.397659 204.0
221.457855 76.0
221.467453 44.0
221.478989 112.0
221.541656 120.0
221.624786 212.0
221.660614 136.0
221.683014 132.0
221.739426 204.0
221.774719 100.0
221.795029 76.0
221.828598 196.0
221.850891 112.0
221.892944 60.0
221.996872 292.0
222.022049 64.0
222.027939 96.0
222.073547 7172.0
222.151901 56.0
222.205353 104.0
222.24176 84.0
222.27417 128.0
222.344528 96.0
222.372696 132.0
222.400009 112.0
222.464355 64.0
222.5923 132.0
222.641891 172.0
222.710831 36.0
222.751236 80.0
222.791031 80.0
222.892059 28.0
223.001007 164.0
223.079941 628.0
223.123489 236.0
223.170517 112.0
223.21904 140.0
223.246689 136.0
223.294189 60.0
223.326065 164.0
223.37294 108.0
223.378174 80.0
223.389954 148.0
223.44101 152.0
223.486755 68.0
223.525452 68.0
223.590485 192.0
223.625839 184.0
223.654419 96.0
223.682388 92.0
223.692352 52.0
223.703003 152.0
223.731689 136.0
223.794769 100.0
223.835037 144.0
223.854889 108.0
223.894592 176.0
223.958496 88.0
223.969849 120.0
224.010757 64.0
224.0728 520.0
224.13887 68.0
224.174637 64.0
224.210403 52.0
224.321777 76.0
224.356461 140.0
224.407135 284.0
224.43367 152.0
224.491409 192.0
224.628616 168.0
224.672592 68.0
224.701538 108.0
224.735245 168.0
224.765076 88.0
224.794922 176.0
224.923264 224.0
224.945801 152.0
224.98938 136.0
225.01207 80.0
225.023773 60.0
225.032227 120.0
225.066223 452.0
225.092239 444.0
225.156158 204.0
225.221863 40.0
225.365799 160.0
225.434006 152.0
225.477676 96.0
225.528976 180.0
225.562515 40.0
225.777802 176.0
225.819672 168.0
225.876511 60.0
225.915009 212.0
225.960266 196.0
226.069778 1372.0
226.199692 180.0
226.223648 40.0
226.276474 148.0
226.321182 172.0
226.430252 80.0
226.475174 220.0
226.533768 136.0
226.57196 156.0
226.672913 132.0
226.738846 144.0
226.804794 220.0
226.834763 160.0
226.882736 132.0
226.930695 252.0
226.956665 152.0
227.029816 156.0
227.057816 576.0
227.080582 468.0
227.173416 132.0
227.22464 124.0
227.245636 116.0
227.308655 60.0
227.385696 220.0
227.563797 56.0
227.595398 176.0
227.629852 160.0
227.665894 104.0
227.822083 72.0
227.975327 64.0
228.030426 108.0
228.068008 1152.0
228.212799 188.0
228.309036 64.0
228.357162 104.0
228.459427 132.0
228.519608 128.0
228.576782 124.0
228.707413 148.0
228.74231 216.0
228.850693 172.0
228.892853 124.0
228.932007 80.0
229.045273 368.0
229.079071 680.0
229.139847 40.0
229.212158 96.0
229.314621 128.0
229.411087 140.0
229.521652 168.0
229.582962 212.0
229.688522 100.0
229.74147 148.0
229.779022 148.0
229.815231 156.0
229.859283 72.0
229.90274 156.0
230.00235 128.0
230.051666 448.0
230.083496 676.0
230.111786 144.0
230.207489 148.0
230.298264 192.0
230.358673 28.0
230.394928 140.0
230.524857 88.0
230.549042 156.0
230.576859 196.0
230.636688 52.0
230.657852 100.0
230.685059 112.0
230.727386 96.0
230.884613 180.0
230.951157 164.0
230.986252 192.0
231.020081 584.0
231.054871 3760.0
231.091766 2544.0
231.162949 140.0
231.186981 144.0
231.248184 48.0
231.320328 76.0
231.359695 36.0
231.418503 132.0
231.461304 128.0
231.551361 200.0
231.608002 244.0
231.695862 68.0
231.82312 96.0
231.850403 144.0
231.899445 176.0
231.935272 180.0
232.001083 180.0
232.069412 3636.0
232.117172 192.0
232.137772 172.0
232.262756 80.0
232.306259 100.0
232.347702 88.0
232.375 52.0
232.418396 124.0
232.572266 156.0
232.602356 176.0
232.654221 124.0
232.814667 172.0
232.869827 300.0
232.921463 44.0
232.942734 80.0
233.030548 208.0
233.072678 11100.0
233.158798 108.0
233.187469 88.0
233.239319 212.0
233.332428 248.0
233.385086 80.0
233.429703 144.0
233.530914 104.0
233.596313 140.0
233.620651 96.0
233.671021 84.0
233.714981 60.0
233.755692 144.0
233.839752 152.0
233.898254 164.0
233.937149 88.0
233.982819 64.0
234.004135 176.0
234.025452 156.0
234.078049 2512.0
234.132034 200.0
234.180756 28.0
234.223404 120.0
234.259964 92.0
234.314804 100.0
234.342224 44.0
234.470215 232.0
234.503738 112.0
234.576889 140.0
234.653107 80.0
234.723236 104.0
234.772034 44.0
234.884232 148.0
234.945908 116.0
234.967255 276.0
234.994278 140.0
235.040024 160.0
235.084137 1532.0
235.144241 156.0
235.166534 172.0
235.232773 120.0
235.442551 148.0
235.466797 292.0
235.623672 100.0
235.676132 72.0
235.797852 72.0
235.855927 76.0
235.877335 132.0
235.914017 96.0
235.959869 168.0
236.014908 72.0
236.075607 160.0
236.080994 180.0
236.253479 148.0
236.274887 172.0
236.486511 132.0
236.547272 140.0
236.629929 100.0
236.820389 184.0
236.884125 184.0
237.05542 424.0
237.102859 332.0
237.14151 80.0
237.233475 96.0
237.31517 180.0
237.435852 164.0
237.575333 196.0
237.596863 156.0
237.643707 132.0
237.70488 144.0
237.920776 140.0
237.965469 156.0
238.012421 160.0
238.061935 316.0
238.091354 264.0
238.132782 212.0
238.372208 60.0
238.449036 168.0
238.482086 212.0
238.589233 112.0
238.696152 200.0
238.743576 204.0
238.864136 188.0
239.051468 104.0
239.100677 484.0
239.120209 176.0
239.190323 140.0
239.239578 80.0
239.261124 208.0
239.38121 164.0
239.475708 164.0
239.517197 160.0
239.593018 68.0
239.778229 212.0
239.871109 192.0
239.914261 172.0
239.979019 196.0
240.074371 576.0
240.110764 500.0
240.143555 284.0
240.239487 132.0
240.278198 156.0
240.349167 92.0
240.420135 152.0
240.496597 176.0
240.534332 360.0
240.62355 196.0
240.698044 164.0
240.926544 112.0
241.043945 176.0
241.095367 4056.0
241.198486 56.0
241.229401 152.0
241.380905 172.0
241.433472 32.0
241.493271 72.0
241.55101 32.0
241.609787 188.0
241.637634 100.0
241.699509 128.0
241.731461 124.0
241.814026 100.0
241.848068 84.0
241.880295 144.0
241.934753 48.0
241.971283 200.0
242.005951 116.0
242.058914 280.0
242.095963 476.0
242.175797 140.0
242.215271 176.0
242.266113 216.0
242.411743 176.0
242.441635 56.0
242.50473 164.0
242.548126 136.0
242.625626 56.0
242.693832 188.0
242.811768 132.0
242.839584 168.0
242.879013 180.0
242.904724 132.0
242.949875 116.0
243.021713 96.0
243.061417 160.0
243.091248 1364.0
243.345795 100.0
243.386169 132.0
243.474518 148.0
243.500702 152.0
243.578354 128.0
243.621841 100.0
243.643585 88.0
243.671555 188.0
243.930634 132.0
243.992706 192.0
244.025879 180.0
244.07605 2356.0
244.14093 244.0
244.162598 160.0
244.206253 36.0
244.23735 80.0
244.389801 116.0
244.430252 128.0
244.541061 132.0
244.598312 128.0
244.626328 192.0
244.788239 140.0
244.827332 124.0
244.897247 192.0
244.939957 56.0
245.070541 5860.0
245.119385 184.0
245.255569 68.0
245.308563 108.0
245.344818 172.0
245.390564 200.0
245.5737 148.0
245.683029 212.0
245.776398 108.0
245.857529 120.0
245.90451 188.0
245.941467 180.0
246.002426 124.0
246.07814 2220.0
246.176727 180.0
246.34903 196.0
246.492416 160.0
246.532104 128.0
246.59462 68.0
246.63652 236.0
246.655106 148.0
246.732162 108.0
246.816589 196.0
246.860367 152.0
246.913528 296.0
246.947937 76.0
246.994858 128.0
247.086578 15884.0
247.162231 32.0
247.182571 176.0
247.224075 108.0
247.339066 60.0
247.394241 128.0
247.420456 40.0
247.442368 40.0
247.467422 120.0
247.519882 376.0
247.568787 172.0
247.617737 84.0
247.683517 56.0
247.705444 72.0
247.786896 32.0
247.843292 268.0
247.87236 116.0
247.921509 96.0
248.0 104.0
248.038483 100.0
248.087067 1948.0
248.177567 124.0
248.223419 132.0
248.279037 184.0
248.307266 80.0
248.335495 148.0
248.432739 136.0
248.475052 140.0
248.533142 184.0
248.558243 84.0
248.595901 56.0
248.684799 232.0
248.70668 108.0
248.760208 172.0
248.786163 156.0
248.896652 188.0
248.923889 168.0
248.953781 164.0
249.02916 88.0
249.089951 300.0
249.151672 148.0
249.227081 88.0
249.325745 272.0
249.406219 156.0
249.500534 168.0
249.528824 180.0
249.720657 184.0
249.915695 44.0
250.04158 160.0
250.126556 184.0
250.164337 116.0
250.277679 104.0
250.331223 172.0
250.362701 284.0
250.504456 44.0
250.614716 168.0
250.718704 172.0
250.781097 156.0
250.81012 120.0
250.86055 48.0
250.929916 116.0
250.955139 72.0
250.986664 84.0
251.04805 300.0
251.073288 144.0
251.103592 156.0
251.439865 152.0
251.531219 160.0
251.560898 192.0
251.696655 144.0
251.725143 196.0
251.882996 140.0
251.971451 96.0
252.079819 68.0
252.108276 300.0
252.18634 192.0
252.224274 148.0
252.736618 128.0
252.898026 176.0
252.923355 160.0
252.961334 128.0
253.05336 116.0
253.115753 1616.0
253.300171 172.0
253.737518 244.0
253.819962 148.0
253.892899 148.0
254.00708 56.0
254.056305 228.0
254.091492 928.0
254.123505 240.0
254.283142 40.0
254.322571 104.0
254.413284 184.0
254.441864 260.0
254.505356 60.0
254.78804 104.0
254.870651 124.0
254.962814 144.0
255.100555 1876.0
255.361816 184.0
255.41748 68.0
255.462021 160.0
255.530792 216.0
255.753235 224.0
255.843918 72.0
255.939438 216.0
255.99675 200.0
256.022247 144.0
256.073669 184.0
256.103943 1380.0
256.248413 220.0
256.286621 48.0
256.318512 40.0
256.401367 220.0
256.563934 72.0
256.662476 172.0
256.723358 144.0
256.930695 116.0
256.956207 116.0
257.048737 144.0
257.083252 152.0
257.119049 412.0
257.371155 164.0
257.422241 128.0
257.706543 92.0
257.75766 120.0
257.827972 144.0
257.950775 148.0
257.992584 64.0
258.029358 88.0
258.074646 412.0
258.134583 296.0
258.214844 56.0
258.329987 188.0
258.416382 116.0
258.483551 104.0
258.566772 108.0
258.589172 84.0
258.776794 156.0
258.851685 184.0
258.970184 204.0
259.012695 144.0
259.086945 972.0
259.176056 200.0
259.196259 120.0
259.364471 88.0
259.396362 180.0
259.48999 40.0
259.527832 64.0
259.56311 112.0
259.61441 36.0
259.662659 208.0
259.688171 212.0
259.735901 96.0
259.796356 160.0
259.817596 92.0
259.879364 148.0
259.932007 160.0
259.960876 60.0
260.012238 296.0
260.089386 560.0
260.161926 144.0
260.20163 80.0
260.252991 88.0
260.34613 176.0
260.375031 108.0
260.431885 160.0
260.454559 132.0
260.462555 176.0
260.494141 88.0
260.530823 224.0
260.562042 220.0
260.634979 192.0
260.653412 144.0
260.682739 148.0
260.714203 212.0
260.740784 100.0
260.785278 156.0
260.812286 236.0
260.854553 168.0
260.893616 376.0
260.92691 212.0
260.978394 524.0
261.025269 372.0
261.058777 464.0
261.103119 222296.0
261.197174 176.0
261.226959 88.0
261.256897 148.0
261.286774 108.0
261.325928 32.0
261.366119 200.0
261.389679 52.0
261.399933 180.0
261.411224 164.0
261.471161 260.0
261.510162 104.0
261.540924 204.0
261.594574 100.0
261.63324 1712.0
261.705627 172.0
261.745026 156.0
261.771881 112.0
261.813324 168.0
261.869995 304.0
261.910706 104.0
261.923401 112.0
261.950073 200.0
261.991425 92.0
262.038696 68.0
262.105377 40584.0
262.161316 176.0
262.203217 100.0
262.234711 52.0
262.275909 92.0
262.315033 96.0
262.379242 48.0
262.401733 120.0
262.427643 52.0
262.449677 232.0
262.47522 100.0
262.522461 64.0
262.547455 32.0
262.583954 76.0
262.636322 116.0
262.666504 92.0
262.709778 96.0
262.766785 64.0
262.792603 124.0
262.836639 112.0
262.901367 80.0
262.977722 160.0
263.026764 108.0
263.063934 168.0
263.105682 4160.0
263.174438 92.0
263.218689 40.0
263.256744 132.0
263.33316 116.0
263.346893 52.0
263.352661 100.0
263.400208 80.0
263.447693 128.0
263.485565 84.0
263.520233 80.0
263.580627 132.0
263.612946 84.0
263.651581 156.0
263.680573 116.0
263.715424 68.0
263.731506 60.0
263.777527 80.0
263.833618 128.0
263.859314 192.0
263.871246 84.0
263.883087 252.0
263.929504 172.0
263.966187 300.0
263.998138 208.0
264.042114 116.0
264.083923 204.0
264.111237 272.0
264.142517 192.0
264.180542 124.0
264.208008 112.0
264.348846 92.0
264.394348 36.0
264.426727 72.0
264.460175 52.0
264.524902 36.0
264.611084 96.0
264.642639 68.0
264.664124 248.0
264.722412 48.0
264.824127 168.0
264.846832 116.0
264.873291 68.0
264.932953 112.0
264.963806 108.0
265.005219 116.0
265.052063 332.0
265.137085 176.0
265.175995 96.0
265.197662 132.0
265.242065 196.0
265.376984 164.0
265.441833 60.0
265.506683 40.0
265.552399 124.0
265.594269 128.0
265.672119 52.0
265.76297 200.0
265.811646 76.0
265.913635 84.0
265.960938 56.0
265.983643 136.0
266.016113 36.0
266.042084 56.0
266.08725 116.0
266.126923 292.0
266.188202 56.0
266.279114 96.0
266.444794 52.0
266.496796 96.0
266.630188 72.0
266.695038 72.0
266.829407 84.0
267.065552 480.0
267.115082 408.0
267.299957 72.0
267.57663 112.0
267.7948 84.0
267.817596 156.0
268.067474 376.0
268.108368 1260.0
268.140564 700.0
268.391205 116.0
268.462952 52.0
268.511871 48.0
268.570587 44.0
268.624237 64.0
268.720642 80.0
268.743469 168.0
268.80661 80.0
268.893585 68.0
269.070953 180.0
269.115112 1160.0
269.360535 68.0
269.657867 36.0
269.765747 60.0
269.847473 92.0
269.870361 180.0
270.12558 2856.0
270.173248 132.0
270.253052 132.0
270.380676 120.0
270.442871 48.0
270.498535 156.0
270.577087 40.0
270.730988 48.0
270.757202 168.0
270.796509 140.0
270.829254 44.0
270.884949 104.0
271.03894 128.0
271.121979 596.0
271.183136 108.0
271.209351 28.0
271.248688 76.0
271.366699 76.0
271.422455 92.0
271.514282 28.0
271.543793 60.0
271.586426 56.0
271.674988 76.0
271.740631 128.0
271.832489 72.0
271.983795 124.0
272.047241 268.0
272.076691 280.0
272.110992 184.0
272.135132 256.0
272.239563 36.0
272.2724 236.0
272.45636 36.0
272.784149 200.0
272.893494 48.0
272.939392 84.0
272.978973 100.0
273.101929 5716.0
273.284912 92.0
273.337555 192.0
273.390198 68.0
273.535034 64.0
273.660126 104.0
273.803101 120.0
273.900543 148.0
273.971436 108.0
274.052094 176.0
274.102753 1000.0
274.155762 96.0
274.200409 148.0
274.266327 52.0
274.391602 68.0
274.471863 60.0
274.599487 88.0
274.714783 84.0
274.800568 80.0
274.873169 116.0
274.916077 56.0
275.034882 144.0
275.068329 352.0
275.117126 1688.0
275.223053 36.0
275.275909 84.0
275.45755 104.0
275.781403 116.0
275.882355 148.0
275.999603 92.0
276.119873 720.0
276.17157 176.0
276.264191 52.0
276.4263 84.0
276.479279 152.0
276.605042 52.0
276.750702 96.0
276.94278 72.0
277.118286 148.0
277.174713 188.0
277.539337 164.0
277.827881 120.0
277.851105 80.0
277.907532 104.0
277.997101 188.0
278.106628 72.0
278.138702 140.0
278.281616 108.0
278.468567 44.0
278.96698 80.0
279.073395 116.0
279.881958 120.0
279.961884 176.0
280.005157 212.0
280.073242 312.0
280.138947 148.0
280.464966 108.0
280.581665 188.0
280.738373 140.0
280.83844 52.0
280.961853 188.0
280.995239 220.0
281.081421 272.0
281.111877 580.0
281.158722 56.0
281.726379 112.0
281.829956 168.0
281.853363 84.0
282.00708 116.0
282.083374 160.0
282.130127 396.0
282.344788 124.0
282.582275 180.0
282.652557 116.0
282.816528 40.0
283.082153 188.0
283.11615 140.0
283.23175 36.0
283.918854 124.0
284.128113 272.0
284.563141 128.0
284.717621 76.0
284.761292 52.0
284.841888 136.0
285.098938 264.0
285.295563 132.0
285.436798 80.0
286.058624 508.0
286.097229 560.0
286.184784 156.0
286.358917 116.0
286.594727 144.0
286.678986 56.0
286.753143 56.0
286.938538 112.0
287.01947 176.0
287.078339 872.0
287.11145 848.0
287.231934 28.0
287.289276 44.0
287.99826 148.0
288.059906 180.0
288.068909 136.0
288.080994 160.0
288.108612 616.0
288.14682 128.0
288.177246 56.0
288.217773 64.0
288.407043 92.0
288.616638 184.0
288.766785 256.0
288.951508 32.0
288.998871 128.0
289.056396 124.0
289.082916 144.0
289.134308 288.0
289.28656 192.0
289.37796 136.0
289.526978 96.0
289.709869 116.0
289.865723 108.0
290.115875 160.0
290.153748 208.0
290.320007 104.0
290.425903 112.0
290.655853 120.0
291.073364 128.0
291.569366 184.0
291.807312 132.0
292.069183 132.0
292.096405 72.0
292.153442 192.0
292.166473 148.0
292.590302 152.0
292.700378 184.0
292.99173 76.0
293.087128 156.0
293.250732 116.0
293.78952 132.0
294.064941 184.0
294.07428 132.0
294.130768 132.0
294.158081 44.0
294.291229 60.0
294.451233 112.0
294.550781 184.0
294.646423 140.0
295.089478 172.0
295.159149 104.0
295.330139 48.0
295.50119 88.0
295.549103 172.0
295.703094 68.0
295.740753 124.0
296.099274 556.0
296.138947 960.0
296.24411 100.0
296.381165 108.0
296.6828 88.0
296.727356 88.0
296.871368 64.0
296.929688 160.0
297.096375 256.0
297.138794 152.0
297.193817 208.0
297.4375 168.0
297.770569 128.0
297.804901 116.0
297.856445 124.0
297.938873 188.0
298.06601 104.0
298.154175 3740.0
298.217224 212.0
298.258484 184.0
298.392548 80.0
298.457886 192.0
298.588562 96.0
298.708954 76.0
299.077148 56.0
299.160828 680.0
299.369812 108.0
299.531677 40.0
299.983124 68.0
300.075439 128.0
300.109619 372.0
300.157898 172.0
300.400391 156.0
300.507355 100.0
300.626801 128.0
300.755829 140.0
300.804138 28.0
300.842133 76.0
300.918396 124.0
301.121277 6236.0
301.201263 68.0
301.398193 112.0
301.432739 64.0
301.526062 104.0
301.927124 48.0
302.085724 448.0
302.122223 604.0
302.453033 76.0
302.917053 92.0
303.020996 36.0
303.125122 292.0
303.201172 140.0
303.280884 172.0
303.481964 160.0
303.540924 64.0
303.686584 68.0
303.724731 168.0
303.891266 136.0
303.919037 168.0
303.943298 100.0
304.123779 72.0
304.1604 132.0
304.252228 116.0
304.971313 92.0
305.093109 108.0
305.59729 136.0
305.927917 208.0
306.091583 216.0
306.593231 56.0
306.739624 184.0
306.809357 32.0
307.280182 120.0
307.510498 96.0
307.660614 128.0
307.859192 128.0
308.030792 172.0
308.090179 140.0
308.114624 100.0
308.268372 96.0
308.334778 160.0
309.573242 48.0
309.846466 212.0
309.955078 68.0
310.512482 76.0
310.642273 124.0
310.901917 104.0
311.144135 140.0
311.646393 44.0
311.737762 124.0
311.867798 172.0
312.099823 200.0
312.205322 152.0
312.322876 132.0
313.000641 92.0
313.125244 136.0
313.412781 60.0
313.694733 44.0
313.962708 160.0
314.080322 140.0
314.088501 48.0
314.105408 124.0
314.129578 400.0
314.424896 132.0
314.516663 92.0
314.664917 64.0
314.887421 132.0
314.989838 80.0
315.098236 104.0
315.136902 148.0
315.187683 220.0
315.212433 136.0
315.301361 104.0
315.35379 180.0
315.394257 104.0
315.419495 204.0
315.679047 128.0
315.82309 100.0
315.895538 120.0
315.919586 232.0
315.963318 132.0
316.000946 132.0
316.042236 156.0
316.063171 160.0
316.144775 12820.0
316.246399 144.0
316.312897 56.0
316.42215 68.0
316.46817 168.0
316.531891 116.0
316.560242 44.0
316.616882 88.0
316.648773 48.0
316.771454 152.0
316.867706 124.0
316.907379 68.0
316.951874 108.0
317.034943 104.0
317.066833 152.0
317.148468 2932.0
317.226349 108.0
317.26181 60.0
317.316803 264.0
317.353973 136.0
317.422668 228.0
317.5242 64.0
317.563782 144.0
317.627075 32.0
317.683838 92.0
317.746552 164.0
317.777374 240.0
317.808258 456.0
317.836243 92.0
317.903809 80.0
317.958923 144.0
317.996094 160.0
318.033966 232.0
318.160645 85276.0
318.286011 36.0
318.291901 112.0
318.308502 48.0
318.330872 160.0
318.410309 168.0
318.474426 232.0
318.499329 64.0
318.546478 40.0
318.585541 72.0
318.633118 96.0
318.657623 80.0
318.697968 132.0
318.746185 216.0
318.813843 48.0
318.871338 76.0
318.907776 148.0
318.942688 176.0
318.975769 40.0
319.008453 88.0
319.044006 160.0
319.071106 212.0
319.100891 296.0
319.162537 15840.0
319.264465 100.0
319.296997 160.0
319.371185 40.0
319.399628 124.0
319.457886 96.0
319.676422 60.0
319.744751 52.0
319.819519 44.0
319.912933 100.0
319.999512 64.0
320.032043 80.0
320.082977 64.0
320.120483 104.0
320.164978 1740.0
320.289551 92.0
320.335846 60.0
320.412445 88.0
320.458893 88.0
320.492615 44.0
320.61734 68.0
320.649414 72.0
320.710632 156.0
320.764679 104.0
320.791992 96.0
320.94342 84.0
320.984528 80.0
321.116821 132.0
321.157623 156.0
321.199615 132.0
321.230713 80.0
321.336304 128.0
321.389008 112.0
321.433899 140.0
321.475189 132.0
321.511902 116.0
321.644012 52.0
321.680267 144.0
321.718201 132.0
321.801666 48.0
321.905212 44.0
322.017914 56.0
322.040924 84.0
322.237396 116.0
322.268921 112.0
322.372498 104.0
322.441101 88.0
322.530457 92.0
322.71637 100.0
322.916626 48.0
323.120514 36.0
323.364471 92.0
323.495209 104.0
323.768433 52.0
323.961853 48.0
324.022766 68.0
324.130066 816.0
324.244934 76.0
324.481537 76.0
325.084137 172.0
325.141907 180.0
325.270782 68.0
325.895691 96.0
326.132874 180.0
326.30545 56.0
327.132904 60.0
327.626282 60.0
327.701965 28.0
328.105621 120.0
328.156097 68.0
328.722412 84.0
329.094238 164.0
329.885468 104.0
329.983063 72.0
330.106018 156.0
330.489441 180.0
330.634216 72.0
330.69574 88.0
331.112122 92.0
331.358429 52.0
331.796997 96.0
332.366425 88.0
332.475311 44.0
332.936371 92.0
333.095276 108.0
333.168854 64.0
333.256042 112.0
333.357788 36.0
333.634033 80.0
333.986786 68.0
334.05954 56.0
334.095917 164.0
334.212341 84.0
334.296051 92.0
335.031555 72.0
335.348602 76.0
335.681366 72.0
336.760651 60.0
338.270844 56.0
338.355042 112.0
339.993591 68.0
340.301941 28.0
340.8125 44.0
340.893341 60.0
341.683899 64.0
342.135376 156.0
342.589569 68.0
342.707489 104.0
342.773804 124.0
343.116608 124.0
343.300964 36.0
343.396851 212.0
343.887573 124.0
344.050018 204.0
344.082092 152.0
344.137817 6692.0
344.242676 68.0
344.323273 52.0
344.600311 68.0
344.744446 96.0
344.907043 32.0
344.962494 136.0
345.043854 132.0
345.143066 1136.0
345.228729 44.0
345.377106 56.0
345.55426 40.0
345.617157 76.0
345.92804 104.0
346.136871 240.0
346.2724 64.0
346.946838 72.0
347.032104 92.0
347.087708 108.0
347.150757 168.0
347.251953 112.0
347.306549 104.0
347.44751 152.0
347.503143 44.0
347.725037 96.0
347.981964 40.0
348.011658 48.0
348.186188 48.0
349.290131 108.0
349.578186 144.0
349.960022 108.0
350.030792 88.0
350.243073 108.0
351.033203 60.0
352.526459 116.0
354.109009 152.0
354.150208 28.0
356.048065 56.0
357.91333 88.0
358.135529 96.0
358.372864 32.0
359.149475 108.0
359.183441 180.0
359.255127 92.0
359.379608 52.0
360.040253 56.0
360.145996 88.0
360.625854 92.0
360.675018 104.0
360.814697 88.0
361.102264 124.0
361.128754 124.0
361.46167 104.0
361.616852 160.0
361.946198 160.0
362.047028 180.0
362.148926 7392.0
362.206421 176.0
362.241638 112.0
362.56369 48.0
362.620544 76.0
362.681213 28.0
362.768402 48.0
362.863159 40.0
362.901093 40.0
362.950378 112.0
362.99588 52.0
363.146973 936.0
363.428314 112.0
363.637054 112.0
364.043274 40.0
364.152161 136.0
365.130219 80.0
365.160645 56.0
365.248108 84.0
365.63623 144.0
365.777069 116.0
365.822754 56.0
365.997864 64.0
366.439728 56.0
366.493073 52.0
366.969513 156.0
367.461548 100.0
369.130768 72.0
369.157532 40.0
369.226379 96.0
369.903656 44.0
370.435944 72.0
373.776245 48.0
373.880157 64.0
374.276672 76.0
378.230133 204.0
378.268829 88.0
378.810974 64.0
379.419434 128.0
382.14209 60.0
382.667542 88.0
382.702576 36.0
383.3414 68.0
384.406036 48.0
387.628326 104.0
387.922302 52.0
388.789154 76.0
390.411682 36.0
390.502136 40.0
391.265564 52.0
392.99585 84.0
396.971344 92.0
400.791504 124.0
402.024628 88.0
402.646515 100.0
403.997589 76.0
405.976318 88.0
406.610199 84.0
406.65036 112.0
407.336975 96.0
408.080475 92.0
408.434387 84.0
410.932159 104.0
411.08551 116.0
411.937439 84.0
412.353638 124.0
413.506348 120.0
415.179626 100.0
416.145416 108.0
416.616547 144.0
417.804718 92.0
419.281799 88.0
421.191345 76.0
422.18045 32.0
422.64682 92.0
423.719574 44.0
424.764984 84.0
425.195801 112.0
427.596069 68.0
428.881165 68.0
429.549164 48.0
429.743073 44.0
430.135132 80.0
430.630646 36.0
431.130554 92.0
431.279358 136.0
432.43338 88.0
432.553406 64.0
433.506042 80.0
435.152832 116.0
435.210968 104.0
438.543304 44.0
441.750275 96.0
442.997803 112.0
443.580292 48.0
445.746002 96.0
446.570038 76.0
447.356934 116.0
449.6922 76.0
454.652588 60.0
457.675079 92.0
458.160645 104.0
458.258636 112.0
459.175171 44.0
459.328735 92.0
459.426849 96.0
459.623108 56.0
460.613617 40.0
460.814423 108.0
460.895599 48.0
461.558167 84.0
462.238312 72.0
463.128845 80.0
463.403015 68.0
463.702972 96.0
466.140656 72.0
466.84137 72.0
474.740173 64.0
474.887634 52.0
477.324066 64.0
477.652344 108.0
478.899536 32.0
479.134766 92.0
479.365692 60.0
480.198395 84.0
481.831024 76.0
482.560944 88.0
482.775208 92.0
484.149414 80.0
484.188812 84.0
484.854767 32.0
486.341644 80.0
487.158997 92.0
487.478424 120.0
488.362854 64.0
488.442047 120.0
489.088898 112.0
495.545502 68.0
496.471985 124.0
499.496735 44.0
500.324493 68.0
501.39801 136.0
502.869843 92.0
504.182953 100.0
506.106537 52.0
509.214355 56.0
509.389557 100.0
510.715607 56.0
513.030212 44.0
513.526245 100.0
513.661621 72.0
513.769836 56.0
515.070007 68.0
518.250488 108.0
520.114441 64.0
520.7229 44.0
521.186279 64.0
523.164795 76.0
526.840576 72.0
530.043396 64.0
530.85022 132.0
535.257202 108.0
535.699341 124.0
538.702576 40.0
543.248657 144.0
543.59198 56.0
544.195435 92.0
544.645935 80.0
546.840576 124.0
548.312378 48.0
550.472412 72.0
550.528442 132.0
551.3302 52.0
552.20166 44.0
553.441772 64.0
553.760254 56.0
554.458313 60.0
554.5849 40.0
554.800537 104.0
555.996643 68.0
558.364563 116.0
559.592773 48.0
562.492188 84.0
565.04895 112.0
565.858276 48.0
567.189514 104.0
567.573547 72.0
568.493835 84.0
570.64093 100.0
572.087219 76.0
572.391968 108.0
573.044556 64.0
573.325684 84.0
574.555908 120.0
576.22699 72.0
576.36554 100.0
577.240295 64.0
578.082275 64.0
580.866028 140.0
580.899597 72.0
585.355103 140.0
585.408081 84.0
585.711487 52.0
585.947571 68.0
586.357178 76.0
586.974243 72.0
587.582031 124.0
589.209045 52.0
591.21582 104.0
591.956482 76.0
593.992126 40.0
595.419189 72.0
595.856384 48.0
604.565369 88.0
605.657227 48.0
607.52002 108.0
607.981262 44.0
608.324829 76.0
609.179321 64.0
611.628235 96.0
612.731384 128.0
612.982666 72.0
615.908386 60.0
625.473816 92.0
632.852722 84.0
634.240479 112.0
634.526245 84.0
634.626526 68.0
635.6297 120.0
635.765198 52.0
638.80011 100.0
639.977783 84.0
642.90155 116.0
646.130493 88.0
647.76062 56.0
651.296265 56.0
651.509644 92.0
652.312561 80.0
653.467041 76.0
656.314331 60.0
658.493469 32.0
660.205627 108.0
664.523926 88.0
666.583008 52.0
684.257996 88.0
689.249756 108.0
693.467896 72.0
693.688049 48.0
698.219543 52.0
700.498657 108.0
710.893738 48.0
711.37677 88.0
711.49884 48.0
713.14563 72.0
713.693237 56.0
715.16687 40.0
715.374512 80.0
715.88031 36.0
716.343689 64.0
716.908508 100.0
719.960083 64.0
721.916077 76.0
722.408203 96.0
722.75061 128.0
732.053589 100.0
733.950439 56.0
736.092712 68.0
743.949158 72.0
746.807434 40.0
747.090332 56.0
753.39801 80.0
754.93396 88.0
755.109009 48.0
755.480957 60.0
759.951721 60.0
774.423218 100.0
776.340881 60.0
777.478149 64.0
785.741516 76.0
787.170471 96.0
789.305115 84.0
795.259583 120.0
796.147644 64.0
804.289246 64.0
804.622314 140.0
813.516479 80.0
818.058716 52.0
820.32605 40.0
852.595642 84.0
854.892822 52.0
863.281921 120.0
868.606018 72.0
872.487854 32.0
875.023621 48.0
875.571228 64.0
881.973083 156.0
884.179321 88.0
886.0979 52.0
888.617798 48.0
900.416443 76.0
900.482178 64.0
904.560181 88.0
905.051147 128.0
907.357971 48.0
913.676208 92.0
928.566711 32.0
929.950073 72.0
940.425415 180.0
950.014343 168.0
950.615662 212.0
956.436096 84.0
957.29187 52.0
958.326782 64.0
959.984985 92.0
960.681946 124.0
965.295837 68.0
967.591492 100.0
969.765869 128.0
977.025208 96.0
980.599548 128.0
980.761597 40.0
981.341431 48.0
982.900818 100.0
983.443787 168.0
990.115112 148.0
1001.256775 84.0
1002.756287 80.0
1008.538025 176.0
1012.32782 40.0
1013.76593 148.0
1019.604614 44.0
1022.912231 92.0
1031.38855 92.0
1032.432129 64.0
1032.860718 60.0
1036.311401 192.0
1039.287231 180.0
1042.291748 120.0
1042.948364 68.0
1044.053101 64.0
1045.384888 96.0
1051.752686 152.0
1052.895508 120.0
1074.75354 80.0
1080.581909 124.0
1086.524414 120.0
1087.193726 152.0
1094.905518 76.0
1100.372192 64.0
1102.875977 100.0
1105.68042 144.0
1107.18335 52.0
1108.084229 100.0
1115.430908 200.0
1117.346191 116.0
1124.343018 184.0
1128.384399 216.0
1129.407593 36.0
1136.341309 128.0
1142.973267 80.0
1145.067017 152.0
1150.400757 120.0
1150.562866 144.0
1151.278564 164.0
1159.715576 80.0
1160.630859 180.0
1161.200439 80.0
1164.281738 140.0
1164.451538 72.0
1169.394653 92.0
1170.279663 128.0
1174.425537 124.0
1175.944702 68.0
1183.512695 152.0
1186.657715 192.0
1188.948853 148.0
1189.099854 124.0
1192.004883 172.0
1192.946533 68.0
1196.386353 136.0
1197.970337 92.0
1198.266602 56.0
1198.700684 100.0
1200.286133 148.0
1200.54126 196.0
1200.713745 208.0
1208.540649 104.0
1209.46814 156.0
1230.553833 152.0
1233.502075 60.0
1237.636841 176.0
1241.771606 48.0
1244.649048 120.0
1244.859619 88.0
1246.327881 128.0
1247.66333 116.0
1249.442627 160.0
1257.595947 92.0
1257.730103 176.0
1260.095947 188.0
1262.987305 228.0
1263.567505 76.0
1266.533691 164.0
1266.746216 72.0
1268.078369 84.0
1269.326172 180.0
1270.730591 132.0
1272.192627 112.0
1275.581299 140.0
1275.694946 176.0
1276.982056 136.0
1277.600952 224.0
1278.00647 32.0
1278.782227 140.0
1280.049438 48.0
1282.550171 176.0
1283.890625 72.0
1285.338745 36.0
1288.137573 124.0
1289.44519 164.0
1290.302979 48.0
1290.989502 188.0
1292.2771 144.0
1292.44165 188.0
1293.57959 176.0
1294.352905 236.0
1296.050537 52.0
1298.129395 72.0
1300.288818 184.0
1305.648682 176.0
1305.75647 148.0
1307.432861 196.0
1309.218262 108.0
1310.911255 168.0
1311.329346 132.0
1313.781006 196.0
1314.668579 136.0
1316.170166 124.0
1317.390747 120.0
1319.443237 144.0
1319.573364 172.0
1320.050659 152.0
1321.005371 64.0
1321.236816 112.0
1327.125366 148.0
1333.419312 196.0
1334.38623 144.0
1335.077026 208.0
1335.258789 152.0
1336.473755 104.0
1336.670166 36.0
1337.601807 148.0
1338.526489 160.0
1340.442261 136.0
1341.229492 48.0
1341.943848 112.0
1344.818237 136.0
1346.607056 160.0
1352.96167 136.0
1358.957031 124.0
1361.842163 144.0
1363.061768 112.0
1365.062988 120.0
1367.165283 236.0
1367.297729 40.0
1371.496094 196.0
1371.975342 84.0
1374.29126 48.0
1375.427734 140.0
1377.355103 100.0
1381.072266 132.0
1382.042358 88.0
1382.449341 176.0
1382.797241 164.0
1384.159424 164.0
1384.426025 52.0
1385.107422 56.0
1386.21875 168.0
1390.498047 168.0
1390.579712 80.0
1391.351318 176.0
1393.037476 160.0
1394.062866 116.0
1397.721558 32.0
1399.314453 184.0
1402.674438 80.0
1402.845947 56.0
1403.308105 80.0
1403.628784 180.0
1404.135864 64.0
1404.523804 160.0
1405.799561 244.0
1406.740112 156.0
1407.860107 172.0
1408.420288 192.0
1409.085205 124.0
1409.854858 220.0
1410.176147 168.0
1411.088257 128.0
1411.948242 36.0
1412.287109 188.0
1412.830811 184.0
1412.898193 220.0
1417.105957 140.0
1420.419678 176.0
1420.884888 92.0
1421.477661 148.0
1422.625977 84.0
1426.885864 200.0
1427.336914 180.0
1427.517456 176.0
1428.171753 140.0
1428.593018 144.0
1430.737915 80.0
1431.07666 212.0
1434.806274 48.0
1435.341675 188.0
1435.779053 204.0
1437.642456 228.0
1439.892334 140.0
1441.085938 184.0
1442.241943 132.0
1443.860229 116.0
1443.996338 124.0
1445.108398 204.0
1446.046753 48.0
1446.1604 104.0
1451.941406 104.0
1452.502686 196.0
1453.192993 44.0
1454.832397 52.0
1455.196899 132.0
1455.667603 136.0
1459.289307 144.0
1459.459473 148.0
1461.07959 120.0
1461.908936 192.0
1462.845215 196.0
1464.76416 164.0
1466.737793 84.0
1467.721313 48.0
1468.453491 136.0
1469.010376 168.0
1469.376587 232.0
1470.765503 200.0
1472.041504 124.0
1472.918823 148.0
1473.018188 204.0
1473.331299 196.0
1475.196045 140.0
1475.509521 128.0
1476.090698 172.0
1476.251221 164.0
1477.819458 100.0
1478.906128 108.0
1479.319458 200.0
1480.873901 124.0
1482.29895 188.0
1482.352539 176.0
1483.186035 200.0
1484.767456 212.0
1484.936279 72.0
1485.611328 116.0
1486.324829 52.0
1488.612427 120.0
1488.70459 116.0
1489.471313 240.0
1490.986328 224.0
1491.309082 72.0
1491.439819 160.0
1491.593506 48.0
1493.431274 44.0
1494.185181 172.0
1495.685913 40.0
1496.617432 148.0
1497.557007 92.0
1498.966919 80.0
1500.801514 132.0
1501.14856 128.0
1501.403076 172.0
1502.675781 60.0
1502.799316 196.0
1503.902832 136.0
1504.528198 224.0
1505.014526 116.0
