>compound HONOKIOL
>formula C18H18O2
>ionization [M+H]+
>parentmass 267.138611
#inchi InChI=1S/C18H18O2/c1-3-5-13-7-9-18(20)16(11-13)14-8-10-17(19)15(12-14)6-4-2/h3-4,7-12,19-20H,1-2,5-6H2
#inchikey FVYXIJYOAGAUQK
#Ion_Source LC-ESI
#Instrument qTof
#Compound_Source Commercial
#PI Dorrestein
#Data_Collector Garg_Neha
#Scan -1
#Precursor_MZ 267.138
#ExactMass 266.131
#Charge 1
#CAS_Number N/A
#Pubmed_ID N/A
#Smiles Oc1ccc(cc1CC=C)c2cc(CC=C)ccc2O
#INCHI_AUX N/A
#Library_Class 1
#SpectrumID CCMSLIB00000078980
#IonMode Positive
#UpdateWorkflowName UPDATE-SINGLE-ANNOTATED-GOLD
#LibraryQualityString Gold
#TaskID 278b19f5865741e282cec7349aa7e7a1
##Scan# 2158
#SpectrumFile NCP003352_A2_B11_BC4_01_15718.mzXML
#LibraryName NIHcollectionI_05062014.mgf
#MQScore -1
#Organism NIHcollectionI_05062014
#TIC_Query 0
#RT_Query -1
#MZErrorPPM -1
#SharedPeaks 0
#MassDiff 0
#LibMZ -1
#SpecMZ 267.138
#SpecCharge 0
#internalFilename spec-00000.mgf

>collision 10
47.679165 168.0
53.027161 160.0
59.882099 156.0
66.436241 148.0
76.887169 204.0
93.842888 176.0
95.897743 164.0
119.580055 212.0
134.066925 144.0
142.026199 144.0
152.05986 156.0
154.073517 172.0
165.015717 160.0
165.07019 172.0
166.077072 148.0
168.06189 176.0
169.113663 184.0
170.071991 212.0
178.767181 160.0
179.086548 188.0
180.089523 148.0
181.059601 132.0
182.071411 148.0
182.100967 172.0
183.083237 372.0
184.081558 112.0
193.062531 268.0
194.073196 196.0
195.076324 160.0
197.05954 1144.0
197.096237 132.0
198.065704 512.0
199.073685 488.0
202.039688 156.0
203.97937 148.0
204.687775 208.0
207.078506 288.0
208.088669 140.0
209.103622 376.0
210.071869 276.0
210.104889 140.0
211.076065 1160.0
211.107147 192.0
211.512192 276.0
219.081436 176.0
222.105453 152.0
223.076447 160.0
224.080444 356.0
225.090759 1396.0
225.121948 180.0
225.147217 204.0
226.099121 4464.0
227.101105 732.0
228.106384 224.0
231.111221 192.0
232.132019 160.0
234.110291 144.0
237.097351 236.0
238.094482 160.0
239.008072 184.0
239.103683 1828.0
240.111923 312.0
249.087646 160.0
250.131607 152.0
251.197906 164.0
252.109406 140.0
265.112366 256.0
265.134521 148.0
265.254974 172.0
266.130737 164.0
267.076935 144.0
267.138611 2352.0
268.141998 388.0
301.093597 144.0
335.809235 200.0
397.862183 228.0
1990.984375 160.0
