>compound 3',4',5',6'-tetrahydro-6',6'-dimethyl-spiro[isobenzofuran-1(3H),2'-[2H]pyran]-3-one
>formula C14H16O3
>ionization [M+Na]+
>parentmass 255.0991650720905
#inchi InChI=1S/C14H16O3/c1-13(2)8-5-9-14(17-13)11-7-4-3-6-10(11)12(15)16-14/h3-4,6-7H,5,8-9H2,1-2H3
#inchikey JYMSPANBDPOHPX
#Ion_Source DI-ESI
#Instrument qTof
#Compound_Source Isolated
#PI Norberto Lopes
#Data_Collector Niege Furtado
#Scan -1
#Precursor_MZ 255.097
#ExactMass 232.11
#Charge 1
#CAS_Number 1143502-33-3
#Pubmed_ID  
#Smiles O=C1OC2(OC(C)(C)CCC2)C3=CC=CC=C31
#INCHI_AUX  
#Library_Class 3
#SpectrumID CCMSLIB00000081252
#IonMode Positive
#UpdateWorkflowName UPDATE-SINGLE-ANNOTATED-BRONZE
#LibraryQualityString Bronze
#TaskID 1245fb93f4534765a0d841b204eca52a
##Scan# 1
#SpectrumFile gnps_3_4_5_6_tetrahydro_6_6_dimethyl_spiro_isobenzofuran_1_3H_2_2H_pyran_3_one_pos_MplusNa.mgf
#LibraryName gnps_library.mgf
#MQScore -1
#Organism gnps_library
#TIC_Query 0
#RT_Query -1
#MZErrorPPM -1
#SharedPeaks 0
#MassDiff 0
#LibMZ -1
#SpecMZ 255.097
#SpecCharge 0
#internalFilename spec-00000.mgf

>collision 10
131.04631 367.0
133.026596 179.0
147.041229 649.0
149.019547 3168.0
159.041016 2937.0
160.044647 376.0
175.036835 430.0
177.020294 500.0
179.082077 642.0
187.036133 420.0
189.062485 207.0
191.021225 327.0
195.029327 1141.0
197.094315 896.0
199.034485 11504.0
200.036514 1221.0
203.031738 168.0
207.029556 677.0
209.032303 444.0
213.040756 1784.0
221.009323 268.0
225.040024 1350.0
233.010147 290.0
239.020813 1048.0
243.098587 220.0
245.079666 188.0
251.01915 1328.0
255.097076 33657.0
