>compound Dronedarone HCl (Multaq)
>formula C31H44N2O5S
>ionization [M+H]+
>parentmass 557.303894
#inchi InChI=1S/C31H44N2O5S/c1-5-8-12-29-30(27-23-25(32-39(4,35)36)15-18-28(27)38-29)31(34)24-13-16-26(17-14-24)37-22-11-21-33(19-9-6-2)20-10-7-3/h13-18,23,32H,5-12,19-22H2,1-4H3
#inchikey ZQTNQVWKHCQYLQ
#origInchi InChI=1S/C31H44N2O5S.ClH/c1-5-8-12-29-30(27-23-25(32-39(4,35)36)15-18-28(27)38-29)31(34)24-13-16-26(17-14-24)37-22-11-21-33(19-9-6-2)20-10-7-3;/h13-18,23,32H,5-12,19-22H2,1-4H3;1H
#Ion_Source LC-ESI
#Instrument qTof
#Compound_Source Commercial
#PI Dorrestein
#Data_Collector Garg_Neha
#Scan -1
#Precursor_MZ 557.304
#ExactMass 556.297
#Charge 1
#CAS_Number 141625-93-6
#Pubmed_ID N/A
#Smiles C1(=CC=C2C(=C1)C(=C(O2)CCCC)C(=O)C3=CC=C(C=C3)OCCCN(CCCC)CCCC)NS(=O)(C)=O.Cl
#INCHI_AUX N/A
#Library_Class 1
#SpectrumID CCMSLIB00000078444
#IonMode Positive
#UpdateWorkflowName UPDATE-SINGLE-ANNOTATED-GOLD
#LibraryQualityString Gold
#TaskID 77f51c88eb8b467eb4a01dd2d0cb90d2
##Scan# 1760
#SpectrumFile Plate7_1_20_GD2_01_15767.mzXML
#LibraryName FDALibrary_2_04302014.mgf
#MQScore -1
#Organism FDALibrary_2_04302014
#TIC_Query 0
#RT_Query -1
#MZErrorPPM -1
#SharedPeaks 0
#MassDiff 0
#LibMZ -1
#SpecMZ 557.304
#SpecCharge 0
#internalFilename spec-00000.mgf

>collision 10
47.17065 216.0
47.846992 160.0
55.940399 224.0
58.655121 264.0
65.750755 160.0
69.948959 148.0
79.917496 220.0
80.343315 220.0
84.957024 220.0
89.369949 240.0
99.767647 164.0
100.112328 1560.0
100.900047 172.0
101.115181 176.0
103.663742 208.0
112.111725 180.0
114.125313 1128.0
116.892509 160.0
117.597237 144.0
121.030006 156.0
128.141449 552.0
129.142883 164.0
129.962967 140.0
142.060516 196.0
142.157196 3004.0
143.1595 340.0
146.220657 180.0
151.04689 160.0
155.447311 176.0
158.973495 160.0
161.05806 172.0
162.300781 140.0
166.067535 180.0
170.188522 1416.0
171.193466 132.0
175.031693 148.0
181.786636 152.0
190.088287 292.0
190.107483 180.0
198.723938 140.0
207.279114 180.0
208.073639 140.0
210.082428 148.0
213.302628 156.0
215.092575 276.0
216.101883 152.0
226.951157 184.0
233.609436 156.0
238.079956 172.0
249.064362 144.0
252.030655 156.0
263.228729 148.0
266.075134 144.0
268.968903 152.0
279.106659 148.0
288.095978 168.0
288.927643 152.0
292.102966 140.0
293.168671 156.0
294.080261 1040.0
294.144745 152.0
295.078308 312.0
295.117798 160.0
296.088806 180.0
298.921875 168.0
304.863037 144.0
306.108429 160.0
309.136414 212.0
310.142181 164.0
311.140076 120.0
314.07132 152.0
320.598633 140.0
321.131866 232.0
324.153198 180.0
325.159058 240.0
332.171936 208.0
333.138611 156.0
335.165161 164.0
336.157318 384.0
337.167908 148.0
338.156097 176.0
340.069336 148.0
343.129944 184.0
349.171112 132.0
350.16394 132.0
352.883667 164.0
355.749725 160.0
364.208466 156.0
366.201843 108.0
379.201294 356.0
380.208038 216.0
388.117035 208.0
389.13205 156.0
393.207916 264.0
393.238647 256.0
394.011841 148.0
394.216675 248.0
413.422241 144.0
419.327393 144.0
421.254944 176.0
421.956268 172.0
422.249268 276.0
423.266937 164.0
427.065887 176.0
428.14447 264.0
430.003601 148.0
430.783997 156.0
435.261627 4332.0
436.266418 1700.0
437.259674 240.0
449.278778 140.0
471.151428 160.0
474.020111 164.0
476.84967 192.0
485.239807 188.0
491.520874 184.0
501.238739 940.0
502.240906 132.0
503.233063 124.0
504.24115 172.0
507.965271 196.0
510.120758 148.0
510.741302 192.0
513.884949 152.0
516.867981 144.0
551.133484 148.0
551.5354 160.0
554.582886 100.0
554.968872 116.0
555.152893 152.0
555.272217 124.0
555.478149 148.0
556.576355 176.0
557.029541 312.0
557.110474 208.0
557.223267 164.0
557.303894 64960.0
557.495239 152.0
557.579285 140.0
557.618408 152.0
557.940125 168.0
558.20459 192.0
558.307129 18344.0
558.510559 108.0
558.606689 220.0
559.125916 196.0
559.206482 172.0
559.305176 6204.0
559.418335 176.0
560.308228 1060.0
560.624146 108.0
560.672852 156.0
561.234314 148.0
561.302368 240.0
561.463074 268.0
561.565613 120.0
561.626038 116.0
561.740967 268.0
562.054199 132.0
562.347351 112.0
562.737671 172.0
572.749695 120.0
774.575562 164.0
1028.703857 144.0
1187.973999 148.0
1340.161133 232.0
1406.31604 152.0
1527.7146 220.0
1585.729858 184.0
1620.811157 192.0
1632.7323 228.0
1639.075806 172.0
1662.275757 220.0
1725.421631 168.0
1949.383057 168.0
