>compound MLS002154000-01!Hexylcaine hydrochloride532-76-3
>formula C16H23NO2
>ionization [M+H]+
>parentmass 262.181244
#inchi InChI=1S/C16H23NO2/c1-13(12-17-15-10-6-3-7-11-15)19-16(18)14-8-4-2-5-9-14/h2,4-5,8-9,13,15,17H,3,6-7,10-12H2,1H3
#inchikey DKLKMKYDWHYZTD
#origInchi InChI=1S/C16H23NO2.ClH/c1-13(12-17-15-10-6-3-7-11-15)19-16(18)14-8-4-2-5-9-14;/h2,4-5,8-9,13,15,17H,3,6-7,10-12H2,1H3;1H
#Ion_Source LC-ESI
#Instrument qTof
#Compound_Source NIH Pharmacologically Active Library
#PI Dorrestein
#Data_Collector VP/LMS
#Scan -1
#Precursor_MZ 262.187
#ExactMass 261.173
#Charge 1
#CAS_Number N/A
#Pubmed_ID N/A
#Smiles CC(CNC1CCCCC1)OC(=O)c2ccccc2.Cl
#INCHI_AUX N/A
#Library_Class 1
#SpectrumID CCMSLIB00000085551
#IonMode Positive
#UpdateWorkflowName UPDATE-SINGLE-ANNOTATED-GOLD
#LibraryQualityString Gold
#TaskID d252d724072548979f1f6f1ced849daf
##Scan# 1571
#SpectrumFile p4-C06_GC6_01_18354.mzXML
#LibraryName Pharm_Active_Library.mgf
#MQScore -1
#Organism Pharm_Active_Library
#TIC_Query 0
#RT_Query -1
#MZErrorPPM -1
#SharedPeaks 0
#MassDiff 0
#LibMZ -1
#SpecMZ 262.187
#SpecCharge 0
#internalFilename spec-00000.mgf

>collision 10
45.015995 92.0
45.142944 184.0
45.236603 156.0
45.366543 144.0
45.632359 140.0
45.723755 216.0
45.849075 204.0
45.974495 136.0
46.133873 128.0
46.407349 160.0
46.544392 164.0
46.591927 272.0
46.702034 176.0
46.810909 228.0
46.951271 228.0
46.970367 112.0
47.015388 136.0
47.101406 176.0
47.131462 136.0
47.192966 168.0
47.217583 224.0
47.250412 40.0
47.38184 68.0
47.395542 148.0
47.48053 228.0
47.513451 192.0
47.547756 120.0
47.778599 208.0
47.812996 52.0
47.910759 104.0
48.090019 124.0
48.109341 208.0
48.164577 148.0
48.192207 204.0
48.244724 112.0
48.326321 128.0
48.398296 112.0
48.614536 208.0
48.68256 224.0
48.788155 192.0
48.89526 156.0
49.051254 140.0
49.148876 160.0
49.214478 92.0
49.34861 116.0
49.555752 204.0
49.698765 248.0
49.798435 208.0
49.865875 176.0
49.927982 136.0
50.01778 160.0
50.081142 84.0
50.203754 40.0
50.385838 196.0
50.469223 212.0
50.538532 156.0
50.605053 64.0
50.619846 212.0
50.643288 192.0
50.732559 104.0
51.116035 176.0
51.326851 196.0
51.359653 224.0
51.421005 216.0
51.430996 244.0
51.453835 104.0
51.466686 60.0
51.610996 192.0
51.87299 156.0
51.88876 124.0
51.977684 180.0
52.004951 160.0
52.093975 216.0
52.135643 188.0
52.256428 156.0
52.391758 108.0
52.433544 136.0
52.453812 200.0
52.843639 152.0
52.9478 184.0
53.008705 188.0
53.069584 152.0
53.088432 144.0
53.189995 164.0
53.397766 148.0
53.451591 48.0
53.557392 184.0
53.567104 188.0
53.584087 164.0
53.639465 176.0
53.87495 204.0
53.91824 72.0
53.947475 188.0
54.306221 236.0
54.444176 188.0
54.504402 196.0
54.529385 184.0
54.636726 284.0
54.798676 124.0
54.943157 32.0
55.092258 108.0
55.139542 164.0
55.219376 176.0
55.36145 188.0
55.47702 140.0
55.508156 164.0
55.591225 180.0
56.032829 152.0
56.347626 168.0
56.467209 156.0
56.699261 184.0
56.907768 176.0
56.92128 192.0
56.943806 176.0
57.009911 244.0
57.059513 180.0
57.11515 196.0
57.128124 64.0
57.137451 228.0
57.169315 164.0
57.20092 156.0
57.488789 168.0
57.562756 128.0
57.642815 156.0
57.741077 180.0
57.765278 164.0
57.794022 200.0
57.881813 228.0
58.101582 152.0
58.209347 212.0
58.236683 172.0
58.44799 160.0
58.553028 204.0
58.57283 152.0
58.655113 104.0
58.734402 140.0
58.853439 224.0
58.961895 128.0
59.006222 84.0
59.195953 176.0
59.229645 148.0
59.298595 152.0
59.36298 212.0
59.444283 256.0
59.485722 156.0
59.726261 252.0
60.008781 100.0
60.255718 80.0
60.436615 128.0
60.706139 140.0
60.91256 184.0
61.113106 196.0
61.12711 208.0
61.479286 92.0
61.538605 184.0
61.604195 140.0
61.638569 188.0
61.694832 196.0
61.735485 180.0
61.838741 156.0
61.90136 164.0
62.048641 196.0
62.225925 168.0
62.285599 160.0
62.452213 196.0
62.754566 204.0
62.948643 156.0
62.967594 164.0
62.994446 256.0
63.035522 208.0
63.054485 124.0
63.270493 168.0
63.431187 124.0
63.486679 192.0
63.529503 92.0
63.56282 196.0
63.654888 116.0
63.697769 148.0
63.987198 124.0
64.006302 72.0
64.1465 192.0
64.178871 172.0
64.278877 192.0
64.336334 92.0
64.358688 192.0
64.675217 156.0
64.771286 168.0
64.923546 204.0
64.970062 144.0
65.039062 96.0
65.104889 144.0
65.233429 124.0
65.439346 220.0
65.542427 208.0
65.647209 148.0
65.784348 188.0
66.18206 128.0
66.355415 156.0
66.418663 148.0
66.608574 168.0
66.785751 136.0
66.89151 228.0
67.064171 136.0
67.122856 124.0
67.292549 212.0
67.312141 184.0
67.333176 168.0
67.397079 164.0
67.433029 256.0
67.563843 92.0
67.606384 196.0
67.635849 200.0
67.729179 200.0
67.743919 140.0
67.764236 168.0
67.853722 228.0
67.899635 164.0
67.989861 248.0
68.163933 96.0
68.185295 204.0
68.198441 128.0
68.310257 212.0
68.710564 180.0
68.836006 132.0
69.034302 124.0
69.246132 56.0
69.836998 240.0
69.865273 216.0
69.953468 80.0
70.013412 180.0
70.096703 56.0
70.403648 148.0
70.508896 176.0
70.672768 204.0
70.701218 252.0
70.783241 212.0
70.806686 152.0
70.856941 120.0
70.892128 156.0
71.076576 128.0
71.135315 228.0
71.262955 204.0
71.341942 144.0
71.410881 164.0
71.555595 132.0
71.729111 212.0
71.796555 68.0
71.972046 276.0
72.012573 168.0
72.272911 176.0
72.306755 160.0
72.620186 168.0
72.716896 164.0
72.813667 204.0
73.068642 212.0
73.208214 64.0
73.364967 88.0
73.76265 240.0
73.786636 124.0
73.967972 156.0
74.224953 184.0
74.24382 112.0
74.296989 176.0
74.345032 204.0
74.453186 108.0
74.532204 176.0
75.141708 240.0
75.227989 96.0
75.615173 148.0
75.720779 160.0
75.998138 192.0
76.086266 164.0
76.135269 196.0
76.269043 140.0
76.726868 188.0
76.751274 112.0
76.964149 164.0
77.469582 120.0
77.497612 196.0
77.697479 168.0
77.758896 240.0
78.043678 172.0
79.070137 176.0
79.243668 148.0
79.261383 172.0
79.42981 40.0
79.575325 88.0
79.713867 124.0
79.786743 168.0
79.83831 248.0
80.114189 176.0
80.226456 112.0
80.253204 52.0
80.408394 248.0
80.492302 32.0
80.533371 148.0
80.590538 204.0
80.78183 144.0
80.801506 172.0
80.892776 264.0
81.057549 204.0
81.473793 40.0
81.727295 200.0
81.941551 156.0
82.154282 176.0
82.18856 176.0
82.246307 132.0
82.437752 124.0
82.681885 132.0
82.754288 180.0
82.781448 136.0
82.933632 116.0
82.949944 180.0
83.082321 156.0
83.411003 44.0
83.481911 92.0
83.538292 160.0
83.64019 168.0
83.66568 148.0
83.685707 204.0
83.703323 172.0
83.734871 176.0
83.764015 136.0
83.88063 148.0
83.984566 68.0
84.044769 144.0
84.267578 228.0
84.315025 156.0
84.712067 156.0
84.77803 216.0
84.880684 160.0
84.950378 156.0
84.983398 156.0
85.415115 176.0
85.450066 156.0
85.464783 60.0
85.78524 204.0
85.999207 276.0
86.021355 176.0
86.038132 156.0
86.111832 84.0
86.261497 156.0
86.796539 140.0
87.002487 188.0
87.10276 72.0
87.121338 176.0
87.177078 168.0
87.279312 196.0
87.614319 232.0
87.71122 220.0
88.004112 44.0
88.256348 108.0
88.342377 124.0
88.383537 124.0
88.439682 200.0
88.495842 88.0
88.803162 60.0
88.840675 208.0
89.000206 144.0
89.126053 224.0
89.575684 40.0
89.628441 44.0
90.00946 156.0
90.075562 212.0
90.264549 180.0
90.599556 80.0
90.658287 184.0
90.980736 148.0
91.007927 176.0
91.035797 176.0
91.053535 364.0
91.423599 164.0
91.457855 164.0
91.627335 136.0
91.770279 180.0
91.9076 244.0
92.011673 192.0
92.220787 104.0
92.402451 236.0
92.509621 136.0
92.683907 164.0
92.712646 68.0
92.879448 80.0
92.98497 144.0
93.236557 144.0
93.29422 160.0
93.449997 228.0
93.528641 128.0
93.706062 176.0
93.879539 156.0
93.898827 212.0
93.918999 140.0
94.074409 196.0
94.126541 212.0
94.213455 100.0
94.24823 36.0
94.397064 164.0
94.683472 56.0
94.743523 96.0
94.762894 180.0
94.79583 228.0
94.931526 188.0
95.067314 172.0
95.178642 228.0
95.231659 184.0
95.284889 152.0
95.42083 84.0
95.467499 148.0
95.566696 200.0
95.722412 112.0
95.769157 92.0
95.813957 56.0
95.841232 176.0
96.01667 216.0
96.120064 136.0
96.209671 184.0
96.340683 176.0
96.354362 152.0
96.833603 112.0
97.102104 128.0
97.117798 176.0
97.170761 124.0
97.198227 152.0
97.235512 148.0
97.42598 84.0
97.563538 208.0
97.594994 156.0
97.642189 156.0
97.703163 96.0
97.919685 116.0
98.094162 552.0
98.171944 172.0
98.643814 184.0
98.744652 100.0
98.817848 232.0
99.053421 140.0
99.164383 224.0
99.265488 208.0
99.340851 144.0
99.624725 68.0
99.644592 172.0
99.704201 296.0
99.755882 152.0
99.773773 64.0
99.837402 132.0
100.23951 196.0
100.349136 52.0
100.456833 148.0
100.686363 152.0
100.784508 184.0
100.808228 184.0
101.236313 168.0
101.257919 208.0
101.396584 168.0
101.44268 140.0
101.661301 224.0
101.966553 184.0
102.326614 68.0
102.46759 76.0
102.699409 128.0
102.981979 116.0
103.014297 212.0
103.202248 108.0
103.360016 48.0
103.376205 216.0
103.761047 136.0
103.832016 192.0
103.945618 204.0
103.988235 228.0
104.049133 164.0
104.345749 204.0
104.373329 312.0
104.414879 172.0
104.445389 84.0
104.469803 256.0
104.516594 152.0
104.616318 172.0
104.636681 64.0
104.671028 156.0
104.684669 112.0
104.692451 184.0
104.720169 148.0
104.771088 136.0
104.799751 172.0
104.852959 156.0
104.866859 196.0
104.928627 120.0
104.933083 172.0
104.989235 392.0
105.004799 304.0
105.034775 73632.0
105.083015 172.0
105.116554 72.0
105.137085 80.0
105.152138 32.0
105.188248 92.0
105.254463 140.0
105.310242 64.0
105.343781 60.0
105.369751 500.0
105.391312 52.0
105.420181 216.0
105.436272 196.0
105.491318 116.0
105.518654 92.0
105.55381 80.0
105.636642 76.0
105.675949 144.0
105.712341 88.0
105.726669 40.0
105.743042 72.0
105.853432 52.0
105.949852 84.0
105.990829 88.0
106.037155 5324.0
106.103554 60.0
106.119957 112.0
106.185577 152.0
106.199936 52.0
106.240959 48.0
106.288147 56.0
106.302505 112.0
106.337395 52.0
106.443726 272.0
106.469643 144.0
106.528351 100.0
106.554001 144.0
106.637253 60.0
106.707146 124.0
106.737984 84.0
106.766777 208.0
106.784927 184.0
106.799683 108.0
106.818192 152.0
106.869629 136.0
106.90049 172.0
106.914894 124.0
107.037453 172.0
107.054878 144.0
107.184654 64.0
107.283585 128.0
107.417625 72.0
107.446503 48.0
107.463005 40.0
107.504898 172.0
107.529037 108.0
107.56826 168.0
107.737587 80.0
108.449196 192.0
108.611137 100.0
108.868492 64.0
109.767456 84.0
110.224586 120.0
110.452469 124.0
110.560516 180.0
111.143814 48.0
111.549141 152.0
111.668991 148.0
111.759445 72.0
111.889938 84.0
112.685028 84.0
113.336693 44.0
113.599586 248.0
113.892509 208.0
114.024239 92.0
114.302818 148.0
115.051949 192.0
115.226036 104.0
115.643013 72.0
116.809998 96.0
117.07196 192.0
117.271042 44.0
117.292603 184.0
118.342514 56.0
119.079803 208.0
119.147141 160.0
119.229706 64.0
119.35144 168.0
119.610321 56.0
120.705521 128.0
120.965874 140.0
121.309784 68.0
121.3339 128.0
121.599319 92.0
121.963913 172.0
122.511833 152.0
122.652863 172.0
123.001373 92.0
123.042671 448.0
123.682167 140.0
123.697662 60.0
123.852661 172.0
124.39592 96.0
124.498055 148.0
124.695778 196.0
124.835831 68.0
125.056076 172.0
125.577431 252.0
125.662201 168.0
125.711288 112.0
126.612198 100.0
126.663712 88.0
126.710754 76.0
127.473625 180.0
127.489357 80.0
127.635468 132.0
128.610947 192.0
128.990417 104.0
129.32518 100.0
130.384323 148.0
130.402512 240.0
131.598434 84.0
131.909134 132.0
132.087494 148.0
132.937485 184.0
133.1418 80.0
133.548599 108.0
134.032028 172.0
135.044144 448.0
135.089432 76.0
136.055771 172.0
136.322876 56.0
137.100128 240.0
137.501251 84.0
138.061935 152.0
138.125092 48.0
139.29007 140.0
139.790848 148.0
139.882629 68.0
139.983871 248.0
140.009781 244.0
140.087509 260.0
140.1436 14796.0
140.192154 168.0
140.269669 92.0
140.467026 192.0
140.530716 64.0
140.719528 96.0
140.747864 72.0
140.790375 204.0
140.965179 28.0
141.146149 2200.0
141.470032 132.0
141.904861 52.0
142.068497 172.0
142.127808 124.0
142.15213 464.0
142.218872 172.0
142.265472 100.0
142.315323 68.0
142.372314 112.0
142.519592 56.0
143.462036 64.0
143.991745 188.0
144.359772 140.0
145.068436 344.0
145.478683 164.0
146.81163 132.0
146.845398 212.0
146.970825 188.0
147.291916 204.0
148.155502 168.0
149.417908 40.0
150.683426 236.0
150.974091 192.0
151.054794 56.0
151.076813 112.0
156.083633 116.0
157.029938 180.0
157.624084 180.0
158.101715 208.0
158.119232 196.0
162.092316 136.0
162.389725 52.0
162.648056 176.0
162.831329 152.0
162.930389 140.0
162.977432 224.0
163.037109 324.0
163.075897 14088.0
163.128616 72.0
163.187088 84.0
163.281158 72.0
163.304062 84.0
163.334579 56.0
163.44397 40.0
163.808029 92.0
163.843704 76.0
163.897202 40.0
164.078949 1968.0
164.139343 136.0
164.175049 64.0
164.220963 60.0
164.412292 36.0
164.611252 60.0
164.662491 92.0
165.015121 56.0
165.084579 168.0
165.137863 28.0
165.288803 68.0
165.391159 124.0
165.42189 96.0
165.865021 48.0
166.444824 104.0
166.632324 116.0
167.087372 64.0
167.787872 72.0
171.505173 76.0
172.991455 168.0
176.942993 172.0
178.25325 68.0
180.105148 128.0
180.136871 32.0
181.075699 144.0
181.097122 216.0
189.7117 160.0
190.221939 112.0
191.260956 72.0
192.402191 88.0
196.621323 72.0
204.854874 60.0
206.001633 112.0
210.028915 48.0
212.902878 108.0
216.94104 184.0
219.87059 128.0
227.856903 148.0
234.170013 32.0
235.087265 160.0
239.872253 52.0
241.388138 124.0
242.840576 84.0
249.771591 44.0
254.569214 100.0
260.808777 120.0
262.181244 340.0
262.857025 84.0
263.188324 188.0
264.447021 80.0
264.608856 124.0
276.607452 116.0
279.544678 180.0
280.663879 112.0
286.569702 80.0
290.470947 76.0
294.798248 156.0
300.629272 80.0
334.288086 68.0
335.497284 56.0
343.248138 44.0
349.779755 80.0
366.250519 140.0
377.867004 100.0
451.513885 88.0
518.265503 112.0
536.501648 44.0
574.821411 60.0
577.936829 56.0
625.797729 92.0
656.098816 44.0
660.648987 36.0
748.765503 72.0
760.767456 44.0
797.60437 180.0
841.564941 184.0
841.628479 148.0
844.541077 208.0
846.931519 88.0
856.439758 156.0
872.920227 136.0
877.453918 176.0
879.481628 76.0
879.666199 128.0
880.038086 44.0
888.940491 180.0
893.027771 160.0
898.788452 136.0
901.212585 188.0
902.0672 160.0
910.557495 216.0
917.290344 152.0
921.031433 44.0
922.203613 156.0
922.31842 176.0
923.303955 156.0
935.262329 204.0
937.649841 144.0
940.070862 164.0
941.438293 60.0
949.706604 204.0
950.436646 176.0
950.737305 72.0
955.813049 192.0
957.438232 108.0
960.371887 144.0
965.275391 176.0
969.329895 148.0
970.117004 116.0
970.631592 200.0
976.643127 216.0
981.220093 156.0
983.078857 196.0
984.071289 44.0
988.778259 72.0
991.684326 192.0
992.104248 136.0
993.069946 180.0
994.054871 156.0
996.993774 184.0
1004.132935 96.0
1004.70697 176.0
1005.186462 208.0
1005.87439 60.0
1006.93512 100.0
1009.949951 92.0
1015.618774 116.0
1017.19873 188.0
1017.319336 180.0
1017.763794 104.0
1021.201721 204.0
1023.683716 160.0
1024.588135 172.0
1027.699463 60.0
1029.116333 136.0
1032.151367 148.0
1035.780029 132.0
1036.651367 228.0
1040.101807 44.0
1041.064819 172.0
1041.880615 168.0
1045.185303 36.0
1045.64856 144.0
1046.788086 92.0
1049.055908 164.0
1050.210205 200.0
1052.714233 208.0
1053.624878 172.0
1055.156616 128.0
1056.973999 188.0
1057.388184 144.0
1058.456299 140.0
1058.702393 228.0
1059.084473 108.0
1059.687012 68.0
1062.046631 128.0
1063.123535 68.0
1064.006348 184.0
1064.265991 156.0
1066.695801 152.0
1066.760742 128.0
1068.321411 264.0
1069.310547 212.0
1070.098145 148.0
1070.163208 136.0
1070.599487 68.0
1076.462036 192.0
1078.539551 220.0
1080.00415 156.0
1080.193848 188.0
1080.586304 112.0
1081.973877 176.0
1083.271484 156.0
1084.987427 28.0
1086.062866 88.0
1087.375 176.0
1089.062378 196.0
1090.685303 52.0
1090.974487 220.0
1093.526733 180.0
1093.875488 152.0
1094.90271 192.0
1097.752197 200.0
1100.316162 108.0
1100.362427 132.0
1100.811401 132.0
1101.082153 168.0
1101.405762 140.0
1103.77832 164.0
1104.770386 168.0
1105.425415 176.0
1106.034302 132.0
1109.008301 160.0
1112.132935 180.0
1116.344238 136.0
1118.626343 140.0
1119.858154 152.0
1119.978027 156.0
1123.224121 132.0
1126.18103 184.0
1130.2323 160.0
1131.778442 64.0
1132.963867 152.0
1133.88855 88.0
1135.081787 172.0
1136.389771 136.0
1140.47937 160.0
1142.389038 232.0
1143.209961 132.0
1144.940063 188.0
1146.314209 168.0
1149.955933 148.0
1150.279907 56.0
1157.974487 124.0
1158.462158 156.0
1159.634399 152.0
1160.115723 200.0
1162.306274 160.0
1162.442017 68.0
1163.215698 212.0
1163.656982 176.0
1164.865845 140.0
1165.789795 172.0
1165.88501 132.0
1167.115356 188.0
1167.394165 172.0
1168.768188 160.0
1169.258179 168.0
1169.816284 180.0
1170.224731 132.0
1170.463013 148.0
1170.783081 228.0
1170.84436 76.0
1170.89209 40.0
1172.187744 184.0
1173.372314 76.0
1173.447388 140.0
1173.64502 360.0
1175.213867 224.0
1175.923584 156.0
1176.496948 112.0
1177.999268 244.0
1178.832764 200.0
1180.261353 184.0
1181.506226 228.0
1183.374512 100.0
1184.31958 196.0
1184.942993 240.0
1186.230103 188.0
1187.835938 156.0
1189.901489 44.0
1190.965942 80.0
1191.577271 204.0
1191.652832 172.0
1194.445068 260.0
1196.212402 104.0
1197.355347 112.0
1198.312744 136.0
1199.139648 168.0
1200.25647 128.0
1201.401367 44.0
1201.760132 188.0
1202.637451 148.0
1203.105957 156.0
1206.677612 176.0
1207.189819 148.0
1210.400024 240.0
1211.452759 72.0
1211.716064 180.0
1212.609985 168.0
1213.199097 116.0
1213.421021 136.0
1213.906372 116.0
1214.1698 168.0
1214.537476 164.0
1218.271973 148.0
1219.036255 196.0
1219.891113 168.0
1221.233154 112.0
1222.304443 152.0
1224.622681 76.0
1225.611938 188.0
1226.015991 176.0
1227.542725 196.0
1227.856567 76.0
1227.975098 156.0
1228.777222 120.0
1229.363403 112.0
1229.607666 132.0
1230.333618 180.0
1230.766479 176.0
1231.087646 104.0
1231.541626 300.0
1233.183472 164.0
1233.358276 80.0
1235.805908 272.0
1236.155762 148.0
1236.603638 120.0
1237.163574 192.0
1238.206909 204.0
1238.921387 308.0
1240.526123 48.0
1242.047729 164.0
1242.209106 172.0
1242.80542 124.0
1245.768066 152.0
1246.091309 184.0
1247.257812 176.0
1249.125366 160.0
1249.733276 180.0
1249.923218 232.0
1251.675903 140.0
1252.197021 204.0
1253.28186 140.0
1254.155762 128.0
1254.698486 56.0
1255.558716 128.0
1256.376953 112.0
1257.265991 228.0
1257.675293 96.0
1258.225952 180.0
1258.381226 176.0
1258.670776 200.0
1259.46167 200.0
1260.860596 152.0
1261.666382 80.0
1262.68457 232.0
1263.292969 112.0
1263.703247 128.0
1264.255127 172.0
1267.292847 164.0
1267.555054 200.0
1268.164551 168.0
1268.377197 156.0
1268.483521 68.0
1269.731323 176.0
1269.788086 92.0
1270.930176 180.0
1271.796021 220.0
1272.030273 120.0
1272.449097 176.0
1273.02417 116.0
1274.707764 204.0
1275.626465 212.0
1276.484863 224.0
1277.772217 144.0
1277.999878 160.0
1278.946411 144.0
1278.996216 200.0
1281.517212 160.0
1282.400879 164.0
1283.363159 156.0
1285.367554 220.0
1285.467407 172.0
1286.088257 160.0
1286.281006 132.0
1288.201904 208.0
1288.501953 148.0
1289.009277 88.0
1291.096558 164.0
1291.890503 84.0
1291.997803 128.0
1292.241089 176.0
1292.77063 188.0
1293.314453 216.0
1293.851318 160.0
1294.080444 224.0
1295.598755 164.0
1296.958008 228.0
1298.265137 108.0
1298.566284 148.0
1298.709717 152.0
1298.989502 104.0
1301.759888 144.0
1302.671997 212.0
1303.800049 80.0
1306.654663 80.0
1307.0 192.0
1307.072021 140.0
1307.964355 188.0
1308.583496 244.0
1308.749023 180.0
1309.361206 144.0
1309.512451 168.0
1309.74292 224.0
1312.863647 136.0
1313.541626 204.0
1314.32373 204.0
1314.479492 56.0
1314.667114 100.0
1314.782593 176.0
1315.489868 144.0
1316.262451 196.0
1317.165161 208.0
1317.627441 208.0
1318.111572 84.0
1318.516235 196.0
1320.077759 252.0
1320.309204 76.0
1322.428955 164.0
1322.971802 188.0
1323.152832 132.0
1324.057983 196.0
1324.666382 164.0
1325.318359 152.0
1326.028564 180.0
1326.920166 232.0
1328.522827 152.0
1328.921875 88.0
1329.074219 176.0
1329.284668 160.0
1329.458862 192.0
1330.896118 152.0
1331.135742 184.0
1331.244629 168.0
1332.414062 80.0
1333.01709 84.0
1333.249634 212.0
1334.078247 224.0
1335.56897 156.0
1337.475342 188.0
1337.679077 168.0
1339.936646 136.0
1340.512207 176.0
1340.985962 156.0
1342.414795 164.0
1342.947266 120.0
1344.012329 160.0
1344.114624 136.0
1345.048584 204.0
1346.180298 112.0
1347.655762 88.0
1348.554565 180.0
1352.328613 136.0
1353.192383 152.0
1353.939209 208.0
1354.913452 188.0
1355.11853 124.0
1355.7854 216.0
1356.078491 200.0
1356.239746 108.0
1356.386353 168.0
1358.872437 156.0
1359.562134 156.0
1359.987793 140.0
1360.192383 156.0
1360.736572 220.0
1361.522217 172.0
1361.603027 216.0
1362.164673 200.0
1362.660767 112.0
1363.042847 200.0
1363.167847 144.0
1364.182007 100.0
1364.534912 152.0
1364.983398 180.0
1366.130737 176.0
1366.292603 84.0
1366.940063 216.0
1366.999023 168.0
1371.115601 180.0
1371.4104 188.0
1372.0 172.0
1372.479248 64.0
1373.467529 236.0
1373.659302 224.0
1373.939575 48.0
1374.374878 160.0
1374.537231 180.0
1379.019897 144.0
1379.25647 144.0
1379.315552 208.0
1379.818237 204.0
1380.239624 224.0
1381.43042 236.0
1381.926025 172.0
1382.044434 192.0
1382.177612 160.0
1382.518066 128.0
1383.147095 200.0
1383.421021 188.0
1383.62085 152.0
1385.279663 188.0
1385.835327 100.0
1386.235474 160.0
1386.317017 176.0
1387.072998 208.0
1388.088623 248.0
1388.214722 48.0
1389.037964 280.0
1389.445923 212.0
1391.137939 156.0
1391.286499 284.0
1393.603638 184.0
1395.14209 168.0
1395.290771 52.0
1395.513794 124.0
1396.148804 200.0
1396.852417 160.0
1397.76001 244.0
1400.060303 204.0
1401.229736 204.0
1404.56189 208.0
1405.994385 200.0
1408.219238 168.0
1408.279053 160.0
1409.324829 148.0
1409.668579 176.0
1411.387817 172.0
1412.262817 188.0
1412.816284 112.0
1413.018311 184.0
1413.302612 172.0
1413.407349 212.0
1414.155762 56.0
1415.847778 232.0
1416.027466 168.0
1416.59668 136.0
1417.03125 184.0
1417.368408 172.0
1417.510742 148.0
1421.657593 156.0
1422.197998 168.0
1423.113892 168.0
1424.307861 196.0
1425.682861 164.0
1426.66748 108.0
1426.834717 188.0
1427.69751 152.0
1428.795654 248.0
1429.209473 184.0
1432.092773 196.0
1432.205688 168.0
1432.514526 212.0
1432.763184 128.0
1432.838501 104.0
1434.134521 64.0
1434.59436 168.0
1434.692383 128.0
1434.978882 116.0
1436.049683 164.0
1436.343872 216.0
1437.777344 148.0
1438.267944 176.0
1439.611816 124.0
1440.450195 212.0
1441.062012 144.0
1441.228271 156.0
1441.409668 200.0
1441.636353 160.0
1441.984009 216.0
1442.210693 176.0
1442.656738 216.0
1443.087646 96.0
1443.88916 136.0
1444.668213 224.0
1445.95459 72.0
1448.036499 96.0
1448.392578 144.0
1448.574341 140.0
1448.960693 48.0
1449.847168 192.0
1450.650635 204.0
1450.88562 180.0
1453.312622 152.0
1453.396118 108.0
1453.957642 184.0
1454.375 172.0
1456.242798 44.0
1457.146729 72.0
1459.305298 172.0
1459.639771 164.0
1459.94397 176.0
1461.244629 88.0
1461.79248 184.0
1462.690552 184.0
1462.804688 44.0
1464.19043 188.0
1464.66272 144.0
1466.476074 240.0
1468.427856 156.0
1468.549927 140.0
1469.129639 192.0
1471.045044 240.0
1471.274048 244.0
1471.755005 152.0
1472.091064 176.0
1473.366577 228.0
1475.422363 112.0
1476.477539 232.0
1478.282959 248.0
1479.048218 144.0
1479.254883 128.0
1480.43396 156.0
1480.648438 152.0
1480.824585 188.0
1481.927734 32.0
1482.47168 188.0
1483.575439 196.0
1484.050781 176.0
1484.602783 116.0
1484.702515 172.0
1485.339111 128.0
1487.702637 352.0
1489.092407 212.0
1489.276733 236.0
1489.72998 172.0
1492.98291 88.0
1493.065796 80.0
1493.534912 192.0
1493.696411 168.0
1494.17334 248.0
1494.304199 136.0
1494.511963 132.0
1496.651611 164.0
1497.129028 144.0
1500.079956 216.0
1500.912598 176.0
1501.498657 192.0
1503.609253 168.0
1503.851807 216.0
1504.0448 260.0
1505.048462 160.0
1505.202881 180.0
1505.264648 36.0
