>compound MLS002637723-01!
>formula C20H14O4
>ionization [M+H]+
>parentmass 319.097
#inchi InChI=1S/C20H14O4/c21-19(23-15-9-3-1-4-10-15)17-13-7-8-14-18(17)20(22)24-16-11-5-2-6-12-16/h1-14H
#inchikey DWNAQMUDCDVSLT
#Ion_Source LC-ESI
#Instrument qTof
#Compound_Source NIH Natural Product Library
#PI Dorrestein
#Data_Collector VVP/LMS
#Scan -1
#Precursor_MZ 319.097
#ExactMass 318.089
#Charge 1
#CAS_Number N/A
#Pubmed_ID N/A
#Smiles O=C(Oc1ccccc1)c2ccccc2C(=O)Oc3ccccc3
#INCHI_AUX N/A
#Library_Class 1
#SpectrumID CCMSLIB00000080028
#IonMode Positive
#UpdateWorkflowName UPDATE-SINGLE-ANNOTATED-GOLD
#LibraryQualityString Gold
#TaskID b1d8e8f6646f4e71acdff9ca3d919d08
##Scan# 2624
#SpectrumFile p2-B03_GB3_01_17991.mzXML
#LibraryName NIH_Natural_Products_Library.mgf
#MQScore -1
#Organism NIH_Natural_Products_Library
#TIC_Query 0
#RT_Query -1
#MZErrorPPM -1
#SharedPeaks 0
#MassDiff 0
#LibMZ -1
#SpecMZ 319.097
#SpecCharge 0
#internalFilename spec-00000.mgf

>collision 10
97.90065 148.0
97.971558 256.0
98.342278 296.0
99.149216 196.0
100.952881 212.0
101.439415 168.0
102.049721 52.0
102.335426 156.0
102.740524 84.0
102.803078 72.0
103.190903 116.0
105.034264 684.0
105.549538 212.0
105.60067 152.0
105.944557 40.0
106.036766 128.0
106.061356 212.0
107.136086 180.0
107.426758 172.0
108.481415 96.0
110.15451 196.0
110.532928 32.0
112.500198 152.0
112.956642 116.0
113.592133 252.0
113.889305 152.0
114.574272 88.0
115.056007 440.0
115.387405 80.0
116.493233 124.0
116.996452 116.0
117.104118 224.0
118.545113 124.0
120.485977 212.0
122.039902 196.0
122.62767 160.0
124.288475 188.0
125.170937 228.0
125.592148 100.0
125.902382 124.0
126.365089 200.0
127.051773 404.0
127.713318 212.0
128.555923 128.0
129.276123 252.0
129.507736 164.0
129.661804 172.0
131.041138 124.0
131.057083 200.0
131.469818 240.0
132.276627 164.0
132.849518 168.0
134.758087 188.0
135.51004 168.0
136.873474 56.0
136.999237 156.0
138.527039 120.0
139.463287 156.0
140.870041 188.0
140.919647 164.0
141.01889 164.0
141.044891 96.0
141.071457 1540.0
141.139465 68.0
141.225189 60.0
141.24115 48.0
141.958771 48.0
142.075592 192.0
142.274353 60.0
142.987442 136.0
143.158859 96.0
143.401855 280.0
143.45668 276.0
143.540131 116.0
144.069992 152.0
144.481186 184.0
145.017563 124.0
145.199783 112.0
145.590973 48.0
146.105347 128.0
146.476074 208.0
147.888626 176.0
149.018082 208.0
149.098877 156.0
150.028687 180.0
150.04422 144.0
150.148178 100.0
150.243301 228.0
151.0578 460.0
152.03685 200.0
152.062531 2156.0
152.316742 196.0
152.631332 80.0
152.722321 160.0
152.909302 168.0
153.069992 3516.0
153.13089 168.0
153.224503 80.0
153.670746 144.0
154.072922 756.0
154.263458 140.0
155.044159 244.0
155.080307 148.0
155.189392 184.0
155.439911 52.0
156.354416 60.0
156.426605 72.0
156.957275 116.0
157.08696 168.0
160.379364 196.0
160.616394 68.0
161.930725 148.0
162.813309 192.0
163.252945 144.0
163.683014 140.0
168.061111 176.0
168.613724 228.0
169.066177 484.0
169.154312 32.0
169.301895 100.0
169.483215 52.0
169.615784 188.0
169.994049 40.0
170.069321 132.0
170.471863 148.0
171.098724 128.0
171.585907 68.0
174.252838 136.0
174.739243 188.0
176.612213 108.0
177.621414 76.0
178.601562 180.0
178.66806 36.0
179.055847 224.0
180.038116 156.0
180.227783 88.0
181.069977 452.0
182.888123 188.0
183.041473 928.0
184.043732 288.0
184.395828 168.0
185.736084 144.0
187.868774 128.0
188.204468 216.0
188.354675 216.0
190.172791 212.0
193.765945 164.0
194.420334 168.0
195.988693 196.0
197.059723 2480.0
197.08963 148.0
197.101059 116.0
197.108963 224.0
197.132767 152.0
197.275299 72.0
197.627686 96.0
198.028 212.0
198.063034 248.0
198.09523 120.0
198.123245 72.0
198.456421 132.0
198.566132 56.0
199.079697 156.0
199.144302 124.0
199.242615 48.0
199.554581 56.0
200.593399 164.0
200.731552 220.0
201.245102 148.0
201.951584 120.0
202.172256 140.0
203.342728 180.0
205.748032 128.0
206.020554 196.0
206.9431 116.0
206.966003 72.0
207.049713 196.0
208.549576 68.0
209.360901 84.0
210.424911 164.0
210.679062 200.0
210.962265 156.0
212.889053 144.0
213.124329 48.0
213.328339 104.0
213.84845 156.0
215.75032 204.0
216.886124 180.0
217.854477 144.0
217.957306 164.0
221.305099 148.0
223.355774 152.0
223.477753 96.0
223.736679 116.0
223.852798 88.0
223.876633 92.0
223.95108 152.0
224.323547 76.0
224.427902 180.0
224.576996 76.0
224.914169 144.0
224.961929 188.0
225.056488 24488.0
225.203796 48.0
225.237366 152.0
225.299393 48.0
225.394989 124.0
225.430847 88.0
225.526489 48.0
225.57132 60.0
225.725876 92.0
225.831467 148.0
225.924194 84.0
225.990021 48.0
226.059982 3212.0
226.113281 184.0
226.139633 84.0
226.178558 52.0
226.20549 100.0
226.247406 56.0
226.394119 56.0
226.427063 52.0
226.485214 68.0
226.558853 64.0
226.65773 72.0
226.688599 132.0
226.930481 100.0
227.060654 360.0
227.116409 76.0
227.212402 72.0
227.236404 72.0
227.335434 52.0
227.431473 60.0
227.455475 88.0
227.488495 80.0
227.530533 68.0
227.563553 100.0
227.608597 44.0
227.632614 48.0
227.659637 104.0
228.134369 56.0
228.308762 96.0
228.985916 72.0
229.031097 40.0
230.04126 88.0
230.624237 120.0
232.887604 100.0
233.440735 60.0
236.057144 40.0
238.372787 108.0
239.205017 52.0
241.915359 36.0
242.810837 80.0
246.065704 72.0
254.577072 60.0
275.154816 132.0
299.325195 44.0
308.0271 132.0
335.514923 76.0
347.586609 48.0
349.392334 96.0
386.144806 72.0
391.186859 48.0
410.89502 76.0
453.390198 56.0
490.80249 108.0
553.803833 40.0
595.953003 108.0
644.691467 88.0
653.356812 48.0
702.047607 100.0
709.603638 52.0
807.859863 28.0
886.03363 64.0
914.042603 64.0
922.661438 180.0
936.630737 180.0
948.570618 236.0
978.639099 72.0
1112.057251 112.0
1127.187866 172.0
1157.606689 184.0
1199.37854 164.0
1206.785889 176.0
1224.153564 192.0
1229.584229 120.0
1238.897705 108.0
1240.733887 148.0
1264.974365 140.0
1292.288208 180.0
1314.512451 196.0
1343.826538 200.0
1383.276733 192.0
1383.469238 184.0
1407.453735 212.0
1417.64917 72.0
1429.355957 104.0
1429.581665 132.0
1430.974121 204.0
1462.906982 192.0
1466.974731 180.0
1483.900513 120.0
1491.369629 164.0
1494.915039 212.0
1498.487671 220.0
