>compound Clemastine Fumarate
>formula C21H26ClNO
>ionization [M+H]+
>parentmass 344.177399
#inchi InChI=1S/C21H26ClNO/c1-21(17-7-4-3-5-8-17,18-10-12-19(22)13-11-18)24-16-14-20-9-6-15-23(20)2/h3-5,7-8,10-13,20H,6,9,14-16H2,1-2H3/t20-,21-/m1/s1
#inchikey YNNUSGIPVFPVBX
#origInchi InChI=1S/C21H26ClNO.C4H4O4/c1-21(17-7-4-3-5-8-17,18-10-12-19(22)13-11-18)24-16-14-20-9-6-15-23(20)2;5-3(6)1-2-4(7)8/h3-5,7-8,10-13,20H,6,9,14-16H2,1-2H3;1-2H,(H,5,6)(H,7,8)/b;2-1+/t20-,21-;/m1./s1
#Ion_Source LC-ESI
#Instrument qTof
#Compound_Source Commercial
#PI Dorrestein
#Data_Collector Garg_Neha
#Scan -1
#Precursor_MZ 344.178
#ExactMass 343.17
#Charge 1
#CAS_Number 14976-57-9, 15686-51-8 (free base)
#Pubmed_ID N/A
#Smiles C1(=C(C=CC(=C1)Cl)[C@](OCC[C@@H]2N(CCC2)C)(C3=CC=CC=C3)C).OC(/C=C/C(O)=O)=O
#INCHI_AUX N/A
#Library_Class 1
#SpectrumID CCMSLIB00000078312
#IonMode Positive
#UpdateWorkflowName UPDATE-SINGLE-ANNOTATED-GOLD
#LibraryQualityString Gold
#TaskID 77f51c88eb8b467eb4a01dd2d0cb90d2
##Scan# 1319
#SpectrumFile Plate5_21_40_GH7_01_16509.mzXML
#LibraryName FDALibrary_2_04302014.mgf
#MQScore -1
#Organism FDALibrary_2_04302014
#TIC_Query 0
#RT_Query -1
#MZErrorPPM -1
#SharedPeaks 0
#MassDiff 0
#LibMZ -1
#SpecMZ 344.178
#SpecCharge 0
#internalFilename spec-00000.mgf

>collision 10
44.891491 192.0
44.914574 160.0
44.961346 140.0
44.974815 180.0
44.992672 196.0
45.019646 120.0
45.055443 212.0
45.079937 96.0
45.128437 220.0
45.179661 148.0
45.19315 140.0
45.2159 168.0
45.279362 188.0
45.286987 204.0
45.322395 296.0
45.349281 176.0
45.359482 304.0
45.37262 168.0
45.39183 344.0
45.419418 196.0
45.459801 164.0
45.471882 140.0
45.520943 176.0
45.551369 160.0
45.571815 124.0
45.622322 168.0
45.63459 160.0
45.651901 172.0
45.687477 204.0
45.724861 120.0
45.78109 176.0
45.803986 148.0
45.890236 148.0
45.930691 180.0
45.94688 312.0
45.960373 172.0
46.000862 188.0
46.029644 188.0
46.043827 180.0
46.087143 180.0
46.101608 304.0
46.136093 224.0
46.170372 208.0
46.223915 204.0
46.275047 152.0
46.298122 168.0
46.33218 144.0
46.363342 164.0
46.380058 204.0
46.433842 156.0
46.443336 152.0
46.458103 180.0
46.477947 148.0
46.493946 132.0
46.53323 164.0
46.54512 268.0
46.612995 128.0
46.627792 168.0
46.674206 336.0
46.689083 136.0
46.716606 160.0
46.739494 204.0
46.772343 148.0
46.822533 224.0
46.833431 168.0
46.848148 184.0
46.867489 144.0
46.893379 160.0
47.005703 304.0
47.019852 268.0
47.060387 160.0
47.099518 148.0
47.151329 204.0
47.233364 152.0
47.316841 160.0
47.346966 168.0
47.363987 224.0
47.390797 192.0
47.410545 292.0
47.463444 232.0
47.473404 156.0
47.523796 252.0
47.596035 184.0
47.610275 224.0
47.665222 176.0
47.705555 220.0
47.731274 152.0
47.741505 160.0
47.772461 156.0
47.790348 168.0
47.804108 160.0
47.821999 164.0
47.864674 188.0
47.906681 140.0
47.944572 176.0
47.988148 268.0
48.012897 148.0
48.050747 164.0
48.10733 172.0
48.134941 208.0
48.152271 124.0
48.169003 204.0
48.190807 144.0
48.210918 168.0
48.239246 420.0
48.357517 244.0
48.419819 168.0
48.460842 156.0
48.529823 156.0
48.540382 172.0
48.572281 152.0
48.588928 160.0
48.605469 156.0
48.644436 144.0
48.670815 144.0
48.690258 168.0
48.703392 176.0
48.741158 192.0
48.78125 336.0
48.818218 156.0
48.855663 180.0
48.894623 428.0
48.911678 204.0
48.935375 232.0
49.001171 124.0
49.015778 216.0
49.059258 224.0
49.095474 164.0
49.134354 176.0
49.152615 240.0
49.166344 148.0
49.255741 180.0
49.269268 104.0
49.297653 284.0
49.311222 164.0
49.326054 264.0
49.346577 164.0
49.367718 168.0
49.406715 172.0
49.422287 152.0
49.493488 208.0
49.526146 176.0
49.576134 152.0
49.606236 340.0
49.643204 152.0
49.659908 180.0
49.697929 140.0
49.746792 184.0
49.782959 176.0
49.809448 164.0
49.834461 204.0
49.849781 140.0
49.892773 204.0
49.92569 176.0
49.952885 168.0
49.998096 180.0
50.024181 172.0
50.060917 180.0
50.116123 140.0
50.131004 220.0
50.146214 268.0
50.187458 152.0
50.216106 172.0
50.227161 164.0
50.246841 204.0
50.271667 184.0
50.377583 184.0
50.414547 140.0
50.444553 244.0
50.45586 308.0
50.497261 216.0
50.536366 200.0
50.551319 320.0
50.597046 136.0
50.612419 208.0
50.65823 192.0
50.674099 120.0
50.6894 156.0
50.791477 164.0
50.813725 212.0
50.87508 144.0
50.883972 156.0
50.906437 184.0
50.937683 168.0
50.977463 236.0
51.030056 148.0
51.057072 184.0
51.072716 184.0
51.093502 216.0
51.144329 212.0
51.172333 140.0
51.204948 168.0
51.222176 184.0
51.263493 192.0
51.27684 236.0
51.313381 196.0
51.364605 152.0
51.44463 188.0
51.496613 208.0
51.594631 168.0
51.608929 168.0
51.623226 176.0
51.680588 104.0
51.723377 180.0
51.762032 156.0
51.782082 256.0
51.793537 144.0
51.81216 232.0
51.837952 208.0
51.871246 184.0
51.911495 184.0
51.988289 164.0
52.013752 256.0
52.039215 204.0
52.068752 172.0
52.091324 200.0
52.175041 248.0
52.230801 216.0
52.255348 136.0
52.3004 172.0
52.339764 128.0
52.365192 172.0
52.442993 204.0
52.472832 200.0
52.535278 172.0
52.546822 148.0
52.562691 204.0
52.584766 152.0
52.641483 288.0
52.680984 140.0
52.71648 124.0
52.729 172.0
52.753334 212.0
52.774521 196.0
52.827087 252.0
52.850235 212.0
52.895512 168.0
52.924351 444.0
52.967499 168.0
52.997921 160.0
53.026905 156.0
53.086716 156.0
53.103745 152.0
53.160858 320.0
53.181259 152.0
53.248882 164.0
53.299728 152.0
53.316395 336.0
53.461136 192.0
53.471325 224.0
53.498981 200.0
53.515282 164.0
53.623417 372.0
53.662754 116.0
53.69627 220.0
53.710102 136.0
53.736763 176.0
53.778851 172.0
53.818268 192.0
53.847687 136.0
53.935604 204.0
53.954144 236.0
53.984241 232.0
54.048851 164.0
54.07848 196.0
54.098553 168.0
54.132645 160.0
54.142979 144.0
54.179771 216.0
54.235886 196.0
54.29678 328.0
54.36573 176.0
54.383381 144.0
54.410942 180.0
54.471809 176.0
54.521397 204.0
54.580002 152.0
54.614021 184.0
54.638092 160.0
54.671494 172.0
54.683174 184.0
54.7533 180.0
54.781826 164.0
54.807587 132.0
54.827015 412.0
54.852425 176.0
54.910923 212.0
54.972023 168.0
54.992313 212.0
55.017906 140.0
55.038448 184.0
55.067276 184.0
55.08157 120.0
55.09457 156.0
55.172897 176.0
55.251278 144.0
55.268539 144.0
55.279388 204.0
55.289749 152.0
55.30011 152.0
55.314911 140.0
55.34449 200.0
55.375458 264.0
55.387466 332.0
55.401237 256.0
55.460072 444.0
55.495651 148.0
55.519375 180.0
55.579517 184.0
55.61668 116.0
55.635582 276.0
55.684841 144.0
55.737591 172.0
55.803131 168.0
55.846825 152.0
55.88628 140.0
55.93539 148.0
55.960434 204.0
55.97084 320.0
56.012722 180.0
56.066551 168.0
56.084343 140.0
56.106918 248.0
56.179031 312.0
56.224541 184.0
56.254391 196.0
56.2738 200.0
56.294464 176.0
56.316261 156.0
56.33741 180.0
56.365646 276.0
56.426193 176.0
56.44862 164.0
56.469067 208.0
56.521297 244.0
56.534149 160.0
56.598141 160.0
56.631199 140.0
56.688663 180.0
56.701366 144.0
56.732697 120.0
56.746586 164.0
56.775078 160.0
56.800575 144.0
56.844082 168.0
56.865742 168.0
56.889492 188.0
56.906223 160.0
56.96199 192.0
56.985165 164.0
57.007572 256.0
57.034775 176.0
57.094955 140.0
57.174168 308.0
57.210815 160.0
57.238281 132.0
57.249962 192.0
57.290001 192.0
57.320267 204.0
57.337341 196.0
57.369514 392.0
57.382561 184.0
57.426292 172.0
57.438358 192.0
57.448917 196.0
57.543003 164.0
57.556076 168.0
57.621445 128.0
57.668053 160.0
57.69054 148.0
57.758587 152.0
57.778252 156.0
57.805485 140.0
57.855656 328.0
57.870575 168.0
57.897156 108.0
57.97509 356.0
58.00692 152.0
58.041203 228.0
58.052402 164.0
58.07394 100.0
58.08577 200.0
58.107525 224.0
58.160122 188.0
58.190548 184.0
58.216297 140.0
58.236649 160.0
58.313526 160.0
58.378315 408.0
58.409824 156.0
58.479309 240.0
58.576756 196.0
58.593147 216.0
58.633339 148.0
58.693748 180.0
58.717369 228.0
58.75359 168.0
58.800037 148.0
58.828369 172.0
58.857376 160.0
58.869591 140.0
58.890972 412.0
58.915413 176.0
58.96278 160.0
58.983692 188.0
59.036163 148.0
59.05048 188.0
59.088615 96.0
59.129482 168.0
59.140198 140.0
59.157749 188.0
59.189186 196.0
59.210625 164.0
59.230537 192.0
59.26424 184.0
59.284161 180.0
59.297951 192.0
59.309975 232.0
59.375858 152.0
59.448246 184.0
59.515785 220.0
59.531139 184.0
59.574146 164.0
59.59626 112.0
59.633488 168.0
59.64637 152.0
59.661743 160.0
59.698643 156.0
59.746323 156.0
59.765633 192.0
59.797104 164.0
59.818653 224.0
59.840088 156.0
59.857052 136.0
59.889099 224.0
59.907166 300.0
59.948025 300.0
59.978851 168.0
60.014832 424.0
60.052891 348.0
60.076454 176.0
60.092422 124.0
60.125793 176.0
60.173225 176.0
60.186317 164.0
60.203991 160.0
60.217865 132.0
60.234997 164.0
60.296799 172.0
60.36018 180.0
60.376656 208.0
60.418026 120.0
60.440014 220.0
60.476208 236.0
60.502132 168.0
60.568806 304.0
60.610943 172.0
60.661278 156.0
60.672905 184.0
60.704521 216.0
60.736034 180.0
60.748333 324.0
60.762051 148.0
60.794319 172.0
60.807888 196.0
60.820305 312.0
60.831974 116.0
60.894833 156.0
60.979614 196.0
60.997383 152.0
61.047707 196.0
61.062508 188.0
61.142029 200.0
61.156036 152.0
61.207329 152.0
61.227417 208.0
61.253716 164.0
61.285576 132.0
61.321133 220.0
61.410004 172.0
61.45631 152.0
61.476414 232.0
61.510689 212.0
61.598869 144.0
61.619179 140.0
61.642483 188.0
61.658123 156.0
61.675434 192.0
61.794357 256.0
61.822449 288.0
61.841942 148.0
61.869408 320.0
61.897991 156.0
61.928909 184.0
61.968792 200.0
62.011002 172.0
62.044868 148.0
62.142551 224.0
62.180206 156.0
62.194019 148.0
62.219006 208.0
62.295956 200.0
62.357239 188.0
62.37907 204.0
62.398106 156.0
62.453144 172.0
62.48214 148.0
62.498768 160.0
62.565697 152.0
62.615257 164.0
62.631649 196.0
62.645184 232.0
62.662514 152.0
62.682316 200.0
62.780495 160.0
62.837517 176.0
62.852543 260.0
62.974854 220.0
63.017506 180.0
63.064911 192.0
63.077988 132.0
63.090202 140.0
63.105618 160.0
63.124268 184.0
63.149754 212.0
63.197498 152.0
63.215157 196.0
63.238895 172.0
63.288189 144.0
63.319397 292.0
63.35638 184.0
63.369339 160.0
63.419773 260.0
63.476528 148.0
63.556503 172.0
63.574821 108.0
63.646404 276.0
63.690781 176.0
63.703487 212.0
63.736195 136.0
63.806385 184.0
63.838692 180.0
63.860851 148.0
63.871983 156.0
63.970043 224.0
64.014183 376.0
64.067169 104.0
64.110237 108.0
64.12674 176.0
64.140282 168.0
64.208847 164.0
64.228783 184.0
64.241547 208.0
64.2575 164.0
64.291595 212.0
64.303772 144.0
64.397972 204.0
64.411217 164.0
64.428955 244.0
64.4767 160.0
64.503433 180.0
64.525612 148.0
64.622101 156.0
64.658218 180.0
64.669098 204.0
64.719093 124.0
64.734558 104.0
64.762642 164.0
64.915802 152.0
64.942505 148.0
64.961113 208.0
64.985428 144.0
65.035599 392.0
65.104538 172.0
65.123528 140.0
65.154152 192.0
65.176048 220.0
65.20726 176.0
65.266556 172.0
65.28746 200.0
65.305038 180.0
65.372459 176.0
65.438126 164.0
65.459564 152.0
65.486076 116.0
65.519806 132.0
65.651802 216.0
65.68132 144.0
65.715935 160.0
65.737541 200.0
65.770584 164.0
65.802811 180.0
65.828918 184.0
65.842628 96.0
65.870911 240.0
65.933235 140.0
65.948471 156.0
65.96949 156.0
66.090782 212.0
66.142738 192.0
66.175201 180.0
66.200859 172.0
66.228386 168.0
66.241699 164.0
66.255898 224.0
66.274025 188.0
66.312408 196.0
66.349922 140.0
66.416405 140.0
66.501534 120.0
66.557877 144.0
66.575172 136.0
66.617775 152.0
66.654991 192.0
66.686798 176.0
66.71032 196.0
66.752075 176.0
66.77861 172.0
66.794098 192.0
66.83197 244.0
66.887627 140.0
66.951126 176.0
66.982628 164.0
67.006508 160.0
67.087296 188.0
67.13295 120.0
67.191559 136.0
67.220261 164.0
67.240639 164.0
67.26078 164.0
67.303345 184.0
67.31472 152.0
67.329475 216.0
67.352341 176.0
67.370308 200.0
67.398087 216.0
67.409523 268.0
67.512413 140.0
67.533768 152.0
67.545219 156.0
67.558304 172.0
67.61721 176.0
67.641762 148.0
67.674507 244.0
67.724243 140.0
67.780724 144.0
67.81633 136.0
67.917877 116.0
67.932655 116.0
67.953133 152.0
67.971184 184.0
68.020416 168.0
68.078842 272.0
68.122231 204.0
68.133728 148.0
68.171516 196.0
68.194527 152.0
68.208481 176.0
68.222473 184.0
68.350754 180.0
68.382027 156.0
68.408966 404.0
68.432693 220.0
68.448975 120.0
68.460327 144.0
68.49234 140.0
68.51046 180.0
68.586258 168.0
68.634071 152.0
68.696739 192.0
68.723137 328.0
68.781387 204.0
68.807442 256.0
68.858498 180.0
68.870064 180.0
68.896492 140.0
68.908058 160.0
68.954285 160.0
68.972504 296.0
68.99234 176.0
69.005569 164.0
69.033264 112.0
69.055916 232.0
69.10984 180.0
69.172653 136.0
69.200089 400.0
69.218307 244.0
69.24054 144.0
69.305984 244.0
69.316032 288.0
69.329002 172.0
69.348228 272.0
69.482552 164.0
69.524033 180.0
69.547264 216.0
69.571266 180.0
69.595406 172.0
69.629585 144.0
69.663498 144.0
69.67543 200.0
69.719994 348.0
69.771523 200.0
69.794006 180.0
69.822327 324.0
69.85804 148.0
69.885353 144.0
69.997803 172.0
70.019447 140.0
70.064423 144.0
70.077751 200.0
70.097504 164.0
70.127747 156.0
70.148094 192.0
70.219444 164.0
70.231117 144.0
70.249466 160.0
70.295853 328.0
70.321213 168.0
70.359612 140.0
70.415222 132.0
70.428078 148.0
70.475838 216.0
70.503448 212.0
70.535011 168.0
70.555313 168.0
70.695061 104.0
70.781624 208.0
70.797691 212.0
70.817787 264.0
70.832863 144.0
70.868759 168.0
70.930054 184.0
70.953018 148.0
70.97364 148.0
71.023949 352.0
71.148209 344.0
71.195145 148.0
71.23774 144.0
71.279839 156.0
71.334908 172.0
71.367661 228.0
71.50309 160.0
71.529724 164.0
71.541512 188.0
71.593704 148.0
71.672722 176.0
71.708267 236.0
71.723434 232.0
71.771545 208.0
71.820229 108.0
71.833984 200.0
71.862999 184.0
71.925385 176.0
71.946106 200.0
71.961296 316.0
72.00351 180.0
72.034111 140.0
72.060234 160.0
72.147141 180.0
72.197861 144.0
72.284134 224.0
72.297791 172.0
72.32869 208.0
72.357353 188.0
72.433121 148.0
72.491936 168.0
72.560219 164.0
72.597527 252.0
72.625206 148.0
72.669533 196.0
72.727997 460.0
72.763809 176.0
72.780785 160.0
72.826637 164.0
72.879852 136.0
72.916687 164.0
73.01091 160.0
73.060242 160.0
73.153114 140.0
73.185463 144.0
73.222923 172.0
73.279137 152.0
73.29747 200.0
73.434219 156.0
73.521271 188.0
73.565651 176.0
73.580116 120.0
73.599792 172.0
73.616776 104.0
73.657631 236.0
73.68808 168.0
73.730515 312.0
73.760384 208.0
73.783646 160.0
73.825356 156.0
73.888145 124.0
73.917725 144.0
73.939919 124.0
73.967964 148.0
74.023148 164.0
74.052216 172.0
74.069824 148.0
74.100777 128.0
74.265503 232.0
74.298096 168.0
74.325546 184.0
74.378746 160.0
74.410477 132.0
74.431747 176.0
74.452965 140.0
74.53331 204.0
74.616745 172.0
74.641808 204.0
74.687553 228.0
74.724159 140.0
74.741135 136.0
74.794945 180.0
74.818153 332.0
74.844315 356.0
74.890999 172.0
74.956604 144.0
74.977287 216.0
75.000992 212.0
75.020378 204.0
75.044365 144.0
75.063477 188.0
75.092361 252.0
75.122116 436.0
75.144646 280.0
75.18338 168.0
75.22393 360.0
75.29554 320.0
75.388329 152.0
75.417259 160.0
75.451996 208.0
75.495193 216.0
75.510292 184.0
75.566109 160.0
75.585197 120.0
75.603729 200.0
75.668297 156.0
75.701553 192.0
75.752464 224.0
75.775604 172.0
75.804749 124.0
75.853851 312.0
75.869492 136.0
75.914268 156.0
75.976707 188.0
76.011414 144.0
76.02356 208.0
76.054008 172.0
76.094727 364.0
76.140625 156.0
76.21109 216.0
76.266701 204.0
76.293236 136.0
76.319702 148.0
76.366348 180.0
76.428436 136.0
76.456413 156.0
76.470757 112.0
76.550385 136.0
76.59552 152.0
76.621696 324.0
76.643509 152.0
76.665253 160.0
76.790779 148.0
76.846474 224.0
76.873901 124.0
76.933212 140.0
76.958305 152.0
76.975845 176.0
77.007668 208.0
77.033722 188.0
77.117462 148.0
77.220146 148.0
77.25016 216.0
77.321899 180.0
77.349907 148.0
77.385353 176.0
77.412933 156.0
77.447433 196.0
77.47599 192.0
77.499886 200.0
77.582893 152.0
77.612007 328.0
77.645523 200.0
77.677895 180.0
77.699745 152.0
77.736298 320.0
77.758293 196.0
77.781113 156.0
77.825005 140.0
77.844986 156.0
77.861877 220.0
77.90052 172.0
77.945747 172.0
77.960258 192.0
77.976944 196.0
78.00631 160.0
78.046394 212.0
78.080742 284.0
78.122017 152.0
78.184578 180.0
78.226936 200.0
78.250488 180.0
78.269859 332.0
78.317406 152.0
78.352699 236.0
78.384354 160.0
78.40197 180.0
78.421181 116.0
78.442513 152.0
78.48719 188.0
78.504219 176.0
78.587036 164.0
78.604767 160.0
78.631241 208.0
78.645363 204.0
78.678566 232.0
78.693718 172.0
78.699821 188.0
78.769165 308.0
78.800758 180.0
78.864716 168.0
78.90979 180.0
78.926788 172.0
78.984421 132.0
79.006981 188.0
79.055382 180.0
79.106712 280.0
79.126183 168.0
79.140343 152.0
79.159821 212.0
79.21447 168.0
79.237755 152.0
79.2537 168.0
79.342323 176.0
79.396904 240.0
79.501961 164.0
79.6138 156.0
79.65287 364.0
79.720383 188.0
79.779037 196.0
79.814598 148.0
79.866173 176.0
79.89061 148.0
79.920555 192.0
79.965912 140.0
79.981827 300.0
80.057999 184.0
80.085098 156.0
80.142105 168.0
80.169014 160.0
80.198021 112.0
80.255501 260.0
80.302544 164.0
80.327515 164.0
80.346588 156.0
80.366875 192.0
80.411781 212.0
80.463142 168.0
80.477425 156.0
80.492432 148.0
80.544952 216.0
80.559578 192.0
80.590942 316.0
80.632362 140.0
80.665009 144.0
80.701454 176.0
80.740105 144.0
80.756203 140.0
80.80043 132.0
80.829544 364.0
80.856392 172.0
80.895767 168.0
80.910088 188.0
80.926201 152.0
80.952553 180.0
80.967827 164.0
81.011353 184.0
81.053955 184.0
81.095192 144.0
81.146622 156.0
81.17347 184.0
81.244537 228.0
81.268539 192.0
81.293663 160.0
81.309814 208.0
81.374435 292.0
81.394188 160.0
81.406754 232.0
81.484467 144.0
81.50103 124.0
81.550476 172.0
81.568451 148.0
81.60791 160.0
81.66774 184.0
81.676262 188.0
81.708717 184.0
81.8311 212.0
81.854515 152.0
81.877151 196.0
81.949974 140.0
81.975204 140.0
82.074646 96.0
82.140884 228.0
82.229874 148.0
82.287247 160.0
82.341278 204.0
82.358971 384.0
82.375397 128.0
82.397293 176.0
82.458855 140.0
82.502068 164.0
82.549431 152.0
82.599297 148.0
82.625359 100.0
82.652351 160.0
82.72052 156.0
82.733376 208.0
82.762764 180.0
82.77755 120.0
82.812653 184.0
82.836235 100.0
82.862381 200.0
82.878609 184.0
82.896805 176.0
82.920364 164.0
82.985626 164.0
83.018074 196.0
83.043327 112.0
83.055138 132.0
83.121468 152.0
83.145142 168.0
83.203026 164.0
83.222321 156.0
83.24675 136.0
83.360115 176.0
83.378479 160.0
83.405724 156.0
83.443153 232.0
83.461334 144.0
83.523781 200.0
83.568192 176.0
83.582069 212.0
83.621101 160.0
83.651573 204.0
83.685738 108.0
83.703339 272.0
83.723175 188.0
83.774582 152.0
83.808983 152.0
83.851257 200.0
83.88961 184.0
83.922699 236.0
83.958916 176.0
83.993111 160.0
84.036583 168.0
84.208488 152.0
84.276703 108.0
84.290695 280.0
84.307144 160.0
84.334557 220.0
84.377739 244.0
84.42231 140.0
84.443848 160.0
84.481567 176.0
84.575996 208.0
84.588806 312.0
84.629082 196.0
84.693176 156.0
84.72982 172.0
84.748779 216.0
84.765144 132.0
84.797615 140.0
84.816322 136.0
84.851807 156.0
84.926315 148.0
84.953476 192.0
84.988335 140.0
85.010353 180.0
85.096619 172.0
85.12281 212.0
85.149872 164.0
85.171913 160.0
85.194656 176.0
85.295403 136.0
85.322601 204.0
85.401421 148.0
85.447845 160.0
85.503845 232.0
85.578331 144.0
85.654053 172.0
85.682289 220.0
85.708351 188.0
85.772163 168.0
85.797287 180.0
85.877602 200.0
85.913277 168.0
85.946175 196.0
85.978577 156.0
86.026329 148.0
86.042946 164.0
86.057716 172.0
86.096489 312.0
86.131584 148.0
86.172279 140.0
86.242027 196.0
86.271095 152.0
86.308998 384.0
86.3256 168.0
86.39537 160.0
86.425529 164.0
86.478928 168.0
86.556946 200.0
86.572128 160.0
86.725533 240.0
86.763855 160.0
86.806961 156.0
86.840385 144.0
86.855904 180.0
86.874863 316.0
86.888786 204.0
86.960854 96.0
87.011536 248.0
87.035339 200.0
87.052055 152.0
87.08548 144.0
87.22757 128.0
87.256439 160.0
87.270012 140.0
87.284332 164.0
87.304787 152.0
87.338264 180.0
87.380173 204.0
87.47596 152.0
87.52623 192.0
87.555214 296.0
87.629974 148.0
87.670128 224.0
87.705536 176.0
87.742355 148.0
87.775917 288.0
87.839325 168.0
87.858192 180.0
87.900894 280.0
87.941711 156.0
87.962486 168.0
88.037163 148.0
88.085724 156.0
88.1017 160.0
88.139908 140.0
88.162788 196.0
88.190361 160.0
88.245415 468.0
88.310028 192.0
88.382217 244.0
88.527122 140.0
88.552551 176.0
88.57077 224.0
88.613647 180.0
88.645134 236.0
88.68824 156.0
88.707237 148.0
88.796051 176.0
88.871284 112.0
88.894539 252.0
88.942574 148.0
89.019432 180.0
89.051285 152.0
89.135834 208.0
89.15654 172.0
89.185837 152.0
89.219025 168.0
89.273468 184.0
89.277992 132.0
89.32666 192.0
89.347107 300.0
89.376709 168.0
89.39962 292.0
89.419319 248.0
89.462952 172.0
89.481094 200.0
89.501968 160.0
89.559975 164.0
89.653435 180.0
89.678772 144.0
89.725899 144.0
89.789253 220.0
89.814529 196.0
89.831505 252.0
89.938446 196.0
90.009789 148.0
90.044579 176.0
90.156258 188.0
90.222412 240.0
90.271194 252.0
90.315071 168.0
90.354614 160.0
90.388695 96.0
90.407776 156.0
90.441566 136.0
90.485077 252.0
90.540291 144.0
90.596298 176.0
90.747177 168.0
90.798035 176.0
90.843559 160.0
90.877373 296.0
91.019295 308.0
91.034904 152.0
91.118828 176.0
91.166878 580.0
91.234276 116.0
91.273376 180.0
91.358261 140.0
91.465416 188.0
91.482559 136.0
91.513489 228.0
91.546799 144.0
91.575363 172.0
91.602028 148.0
91.708199 120.0
91.74836 208.0
91.782135 204.0
91.819717 152.0
91.851738 236.0
91.937599 164.0
91.974518 268.0
91.992859 164.0
92.028366 160.0
92.048317 172.0
92.129616 208.0
92.165489 188.0
92.189369 224.0
92.210167 200.0
92.247948 148.0
92.273781 140.0
92.297081 256.0
92.328194 148.0
92.358597 124.0
92.384079 172.0
92.44426 156.0
92.459099 172.0
92.495262 180.0
92.570526 180.0
92.591064 256.0
92.63739 180.0
92.689117 148.0
92.715874 104.0
92.762367 164.0
92.799942 220.0
92.838638 164.0
92.886589 272.0
92.946671 176.0
93.013931 232.0
93.107224 176.0
93.196449 188.0
93.257484 148.0
93.320091 104.0
93.347527 168.0
93.362335 160.0
93.398285 204.0
93.415085 128.0
93.43985 200.0
93.503349 212.0
93.539871 148.0
93.561775 288.0
93.649673 164.0
93.709389 188.0
93.740318 308.0
93.817924 200.0
93.839058 216.0
93.867256 220.0
93.892929 188.0
93.922485 200.0
93.940369 188.0
93.958221 428.0
93.984009 224.0
94.004616 296.0
94.078583 176.0
94.12439 176.0
94.175713 132.0
94.222588 164.0
94.294083 144.0
94.30761 280.0
94.332825 188.0
94.348206 196.0
94.460365 220.0
94.477776 184.0
94.514534 204.0
94.580078 208.0
94.646156 140.0
94.66552 224.0
94.749939 200.0
94.797249 144.0
94.81469 436.0
94.876022 156.0
94.894165 208.0
94.909676 184.0
94.94458 228.0
95.043266 128.0
95.062729 164.0
95.105614 160.0
95.351532 156.0
95.385323 148.0
95.41024 156.0
95.439217 232.0
95.49469 208.0
95.539986 216.0
95.662514 120.0
95.743317 148.0
95.758896 188.0
95.771492 160.0
95.794609 216.0
95.813438 184.0
95.837059 124.0
95.885536 156.0
95.906067 120.0
95.926231 332.0
95.979111 176.0
96.058868 192.0
96.080528 220.0
96.12545 176.0
96.158577 316.0
96.180046 172.0
96.19371 144.0
96.211281 168.0
96.226791 144.0
96.24633 164.0
96.308922 176.0
96.336266 208.0
96.405655 272.0
96.49041 192.0
96.557686 128.0
96.584518 188.0
96.619827 160.0
96.652641 208.0
96.716965 192.0
96.736 148.0
96.754768 144.0
96.810722 132.0
96.858551 164.0
96.921249 156.0
96.947212 176.0
96.978516 232.0
96.993759 192.0
97.010201 268.0
97.046692 200.0
97.064827 176.0
97.193443 276.0
97.245346 272.0
97.298889 128.0
97.33905 252.0
97.435295 148.0
97.461456 164.0
97.519791 152.0
97.561066 232.0
97.582695 148.0
97.609047 188.0
97.630753 200.0
97.665779 160.0
97.702103 196.0
97.718681 180.0
97.740593 200.0
97.801048 152.0
97.900345 220.0
97.921158 256.0
97.942352 220.0
97.961067 212.0
97.99157 160.0
98.074837 180.0
98.15728 220.0
98.240425 156.0
98.27961 168.0
98.346786 132.0
98.369255 384.0
98.41153 148.0
98.463631 176.0
98.499451 184.0
98.572166 164.0
98.67495 212.0
98.708557 284.0
98.786789 144.0
98.804794 324.0
98.885025 180.0
98.992683 184.0
99.010086 140.0
99.04071 192.0
99.09803 172.0
99.108955 184.0
99.126228 168.0
99.186691 152.0
99.209267 152.0
99.247147 184.0
99.275414 204.0
99.312386 196.0
99.342773 180.0
99.378052 252.0
99.457245 168.0
99.542801 228.0
99.574181 140.0
99.628204 172.0
99.644096 164.0
99.677879 140.0
99.692451 180.0
99.723015 140.0
99.743462 228.0
99.838898 160.0
99.888618 148.0
99.906372 208.0
99.939804 124.0
99.978767 168.0
100.015457 156.0
100.029961 140.0
100.043289 220.0
100.162491 164.0
100.189209 164.0
100.23703 184.0
100.288841 276.0
100.324722 168.0
100.359261 124.0
100.406479 220.0
100.448364 144.0
100.495544 164.0
100.538216 108.0
100.59919 168.0
100.686348 288.0
100.729622 248.0
100.796501 148.0
100.857704 156.0
100.881691 416.0
100.908424 320.0
100.949669 192.0
100.965668 336.0
101.038544 420.0
101.144569 172.0
101.245842 192.0
101.299919 160.0
101.361252 124.0
101.396095 156.0
101.440193 204.0
101.457283 176.0
101.527306 268.0
101.55159 204.0
101.576553 172.0
101.596611 144.0
101.623329 188.0
101.643082 200.0
101.678879 160.0
101.702965 184.0
101.791298 168.0
101.809669 188.0
101.891724 148.0
101.923477 288.0
101.970352 156.0
101.993141 248.0
102.045692 2340.0
102.089508 220.0
102.113281 164.0
102.134132 172.0
102.14904 220.0
102.167145 196.0
102.200676 144.0
102.276428 156.0
102.312042 156.0
102.329597 184.0
102.358505 156.0
102.489799 124.0
102.537643 232.0
102.626343 144.0
102.660622 196.0
102.704445 484.0
102.735245 184.0
102.756973 208.0
102.777107 168.0
102.796173 204.0
102.813934 208.0
102.851723 200.0
102.876381 372.0
102.959991 208.0
103.009003 164.0
103.054131 19912.0
103.111153 120.0
103.154549 144.0
103.201591 132.0
103.229324 148.0
103.244331 276.0
103.272087 208.0
103.381805 144.0
103.395973 156.0
103.473671 160.0
103.500092 176.0
103.54541 128.0
103.602501 180.0
103.691658 176.0
103.70787 140.0
103.757225 184.0
103.790993 204.0
103.831978 188.0
103.8591 192.0
103.878197 236.0
103.912689 196.0
103.991302 144.0
104.057121 1120.0
104.081146 144.0
104.270073 120.0
104.304626 200.0
104.409828 156.0
104.438316 144.0
104.481133 180.0
104.605865 172.0
104.652504 184.0
104.70137 232.0
104.720451 196.0
104.790871 180.0
104.852493 112.0
104.903091 144.0
104.931625 144.0
104.952385 132.0
104.999023 156.0
105.044945 184.0
105.131523 172.0
105.230728 144.0
105.248055 140.0
105.263069 188.0
105.303017 176.0
105.368378 256.0
105.396988 224.0
105.415504 128.0
105.439896 184.0
105.590225 348.0
105.607552 200.0
105.629112 192.0
105.668869 160.0
105.727165 152.0
105.750732 216.0
105.775337 164.0
105.797852 160.0
105.81218 228.0
105.928909 168.0
105.977379 212.0
106.009132 188.0
106.032532 176.0
106.049431 188.0
106.115814 120.0
106.144905 144.0
106.215889 140.0
106.243149 180.0
106.262749 332.0
106.277435 192.0
106.387314 140.0
106.421165 140.0
106.44236 192.0
106.456017 260.0
106.47908 244.0
106.527733 144.0
106.550499 148.0
106.570511 160.0
106.635704 160.0
106.671745 156.0
106.686134 152.0
106.705505 208.0
106.727257 260.0
106.766327 288.0
106.784836 164.0
106.804718 216.0
106.830086 176.0
106.855682 244.0
106.91465 200.0
107.007072 204.0
107.080231 152.0
107.105919 396.0
107.153351 184.0
107.24337 204.0
107.271576 184.0
107.365616 160.0
107.45816 148.0
107.491447 204.0
107.568314 148.0
107.685509 240.0
107.716248 220.0
107.769264 168.0
107.848991 200.0
107.895813 144.0
108.02449 168.0
108.065865 176.0
108.115532 200.0
108.130013 208.0
108.214531 300.0
108.249863 168.0
108.273399 156.0
108.33651 200.0
108.378098 180.0
108.409592 168.0
108.523392 120.0
108.553474 192.0
108.594109 188.0
108.612778 216.0
108.63559 196.0
108.657059 196.0
108.703568 236.0
108.741882 164.0
108.803688 208.0
108.845215 188.0
108.865814 240.0
108.915825 176.0
108.949059 288.0
108.990288 152.0
109.02124 168.0
109.046722 252.0
109.071869 164.0
109.102844 308.0
109.144424 156.0
109.174744 172.0
109.196419 164.0
109.254944 176.0
109.339966 196.0
109.430313 356.0
109.512772 148.0
109.562767 160.0
109.615387 204.0
109.631523 164.0
109.649437 248.0
109.682503 136.0
109.704475 220.0
109.781807 168.0
109.812904 232.0
109.831566 224.0
109.904694 188.0
109.929733 140.0
109.944336 200.0
109.960037 136.0
109.996521 148.0
110.039299 276.0
110.09465 152.0
110.1679 156.0
110.190056 160.0
110.266151 112.0
110.314972 156.0
110.3433 212.0
110.372574 228.0
110.398712 168.0
110.447136 116.0
110.502129 136.0
110.547913 180.0
110.577583 184.0
110.619644 124.0
110.700813 232.0
110.745079 244.0
110.759743 196.0
110.824158 192.0
110.84481 308.0
110.864494 160.0
110.880714 200.0
110.885452 148.0
110.937073 188.0
110.968254 152.0
111.046722 168.0
111.075928 180.0
111.104965 304.0
111.141289 188.0
111.185593 144.0
111.221535 176.0
111.27562 356.0
111.295929 160.0
111.328339 184.0
111.383728 148.0
111.465111 128.0
111.583191 172.0
111.614288 172.0
111.660156 216.0
111.714684 104.0
111.767448 160.0
111.801949 208.0
111.834785 180.0
111.862152 232.0
111.885307 160.0
111.991745 172.0
112.022194 272.0
112.05658 124.0
112.070175 180.0
112.110313 1140.0
112.213966 212.0
112.266685 240.0
112.291992 224.0
112.308861 172.0
112.33342 156.0
112.356384 220.0
112.372345 380.0
112.41288 156.0
112.452507 152.0
112.568451 212.0
112.640259 168.0
112.695183 204.0
112.72477 176.0
112.797272 208.0
112.924805 164.0
113.01445 172.0
113.050331 184.0
113.113914 160.0
113.138725 184.0
113.206131 224.0
113.249435 176.0
113.27314 104.0
113.353241 192.0
113.425301 176.0
113.627892 96.0
113.64373 164.0
113.72419 192.0
113.766953 204.0
113.85688 220.0
113.922729 116.0
113.975296 132.0
114.0168 168.0
114.147133 144.0
114.167747 176.0
114.199577 176.0
114.220634 136.0
114.308723 108.0
114.336464 180.0
114.36512 112.0
114.427284 156.0
114.466187 124.0
114.525955 140.0
114.572899 108.0
114.617882 160.0
114.645813 140.0
114.736916 188.0
114.760941 104.0
114.789238 156.0
114.820206 128.0
114.851723 224.0
115.032303 200.0
115.054787 192.0
115.115677 116.0
115.137245 104.0
115.162682 288.0
115.189323 212.0
115.231064 164.0
115.293869 172.0
115.345314 192.0
115.385933 200.0
115.421394 152.0
115.484299 176.0
115.529213 144.0
115.69828 152.0
115.715408 180.0
115.732536 164.0
115.757149 208.0
115.786072 176.0
115.816055 248.0
115.876038 144.0
115.940857 176.0
115.99353 116.0
116.019325 372.0
116.05822 156.0
116.134911 168.0
116.160103 156.0
116.220047 132.0
116.236252 164.0
116.311363 208.0
116.328537 164.0
116.345711 176.0
116.43589 240.0
116.463478 204.0
116.506165 336.0
116.522774 184.0
116.615517 192.0
116.657532 320.0
116.732452 160.0
116.765762 172.0
116.790466 152.0
116.817368 216.0
116.913849 160.0
116.936829 228.0
116.960732 116.0
117.098717 104.0
117.186127 172.0
117.20472 200.0
117.231743 200.0
117.255577 172.0
117.278229 132.0
117.339645 200.0
117.372795 224.0
117.399109 212.0
117.452942 104.0
117.505714 144.0
117.559654 164.0
117.57476 168.0
117.633041 212.0
117.677513 96.0
117.706444 204.0
117.745316 140.0
117.800423 140.0
117.838318 148.0
117.87709 208.0
117.978477 172.0
118.016602 184.0
118.108421 156.0
118.156685 168.0
118.251221 192.0
118.380165 236.0
118.413605 152.0
118.463417 188.0
118.489418 140.0
118.515228 140.0
118.586014 180.0
118.608604 284.0
118.630676 152.0
118.647621 192.0
118.667137 140.0
118.764603 152.0
118.780434 148.0
118.810272 152.0
118.840645 164.0
118.872597 188.0
118.966118 128.0
118.983894 168.0
119.007721 216.0
119.044937 144.0
119.079437 208.0
119.132011 204.0
119.179169 136.0
119.20414 168.0
119.248444 172.0
119.318916 216.0
119.42659 140.0
119.44355 144.0
119.485924 148.0
119.527046 160.0
119.65757 148.0
119.701401 200.0
119.740601 144.0
119.780113 168.0
119.802841 188.0
119.825554 292.0
119.904984 332.0
119.928169 180.0
119.946999 172.0
119.965347 140.0
119.986481 332.0
120.0457 148.0
120.090446 180.0
120.126396 208.0
120.143852 188.0
120.200478 168.0
120.393227 192.0
120.436356 208.0
120.549965 156.0
120.626457 160.0
120.748901 140.0
120.772285 196.0
120.834999 156.0
120.930496 148.0
120.980667 168.0
121.074997 256.0
121.092514 144.0
121.136322 160.0
121.19101 220.0
121.208023 308.0
121.256828 184.0
121.278748 148.0
121.333549 208.0
121.3489 292.0
121.39399 196.0
121.506607 132.0
121.533051 100.0
121.592384 212.0
121.625305 148.0
121.64994 180.0
121.698318 140.0
121.748253 300.0
121.775848 144.0
121.808052 160.0
121.890167 212.0
121.940247 144.0
122.097687 216.0
122.170273 408.0
122.205467 152.0
122.254448 180.0
122.293137 148.0
122.487259 192.0
122.509712 164.0
122.540131 144.0
122.557846 160.0
122.594139 160.0
122.685585 164.0
122.74752 176.0
122.78701 160.0
122.808304 140.0
122.831039 104.0
122.890167 208.0
122.929741 296.0
122.977142 136.0
123.017639 128.0
123.054878 200.0
123.076096 280.0
123.168846 168.0
123.248383 184.0
123.310257 228.0
123.330147 164.0
123.4039 176.0
123.483963 152.0
123.518234 192.0
123.532867 408.0
123.58551 144.0
123.619232 208.0
123.650848 188.0
123.72168 148.0
123.798073 280.0
123.865623 164.0
123.893646 196.0
123.923882 188.0
123.966354 324.0
124.076126 336.0
124.107018 108.0
124.143753 144.0
124.171417 492.0
124.198891 148.0
124.258003 172.0
124.306488 188.0
124.350578 200.0
124.383919 204.0
124.441368 200.0
124.508827 152.0
124.529617 128.0
124.555473 160.0
124.573112 152.0
124.632256 164.0
124.671005 204.0
124.744354 264.0
124.788345 380.0
124.825073 196.0
124.844284 148.0
124.920029 212.0
124.982315 172.0
125.01738 148.0
125.071335 156.0
125.086922 204.0
125.102501 228.0
125.15757 120.0
125.186142 188.0
125.202698 192.0
125.307388 144.0
125.323967 208.0
125.347496 364.0
125.376465 208.0
125.393456 192.0
125.444489 224.0
125.471909 156.0
125.526611 196.0
125.554634 148.0
125.662056 156.0
125.719894 172.0
125.768997 144.0
125.816704 140.0
125.84713 144.0
125.867226 140.0
125.888626 168.0
125.907448 180.0
125.927048 168.0
126.119263 196.0
126.17556 200.0
126.204178 180.0
126.248947 208.0
126.314209 168.0
126.355415 180.0
126.38356 280.0
126.419479 236.0
126.452934 160.0
126.495461 192.0
126.536385 200.0
126.564865 140.0
126.604012 224.0
126.719406 164.0
126.772659 204.0
126.800079 188.0
126.874046 276.0
126.975853 268.0
127.017563 232.0
127.081718 148.0
127.10955 148.0
127.263435 112.0
127.30484 172.0
127.375313 160.0
127.397705 128.0
127.442986 216.0
127.474197 216.0
127.511856 220.0
127.583458 284.0
127.63353 176.0
127.779335 184.0
127.801361 144.0
127.880379 148.0
127.930908 128.0
128.105057 440.0
128.15097 248.0
128.200119 184.0
128.261826 168.0
128.321945 188.0
128.400818 184.0
128.483246 176.0
128.566635 216.0
128.612411 332.0
128.674606 156.0
128.706055 196.0
128.736404 148.0
128.794632 156.0
128.814758 152.0
128.868378 156.0
128.942551 176.0
129.021606 116.0
129.042801 308.0
129.078934 112.0
129.120834 212.0
129.148407 208.0
129.204498 200.0
129.259064 148.0
129.301239 276.0
129.340729 296.0
129.373917 212.0
129.430405 156.0
129.462753 160.0
129.508286 212.0
129.52626 196.0
129.584641 136.0
129.642456 184.0
129.682007 132.0
129.714401 192.0
129.753662 252.0
129.813492 324.0
129.866806 420.0
129.892426 176.0
129.914673 220.0
129.954712 112.0
129.991135 132.0
130.012802 260.0
130.041824 244.0
130.09761 532.0
130.123047 156928.0
130.185059 148.0
130.204727 200.0
130.311798 316.0
130.350677 120.0
130.406723 204.0
130.440613 144.0
130.468521 272.0
130.494995 344.0
130.526779 168.0
130.546097 140.0
130.600464 256.0
130.642059 392.0
130.686691 124.0
130.732803 188.0
130.756256 160.0
130.8013 256.0
130.824692 120.0
130.890961 172.0
130.919266 196.0
130.963776 172.0
130.997543 176.0
131.125214 9028.0
131.174133 156.0
131.198212 116.0
131.246964 252.0
131.307129 196.0
131.335205 236.0
131.373047 144.0
131.408356 96.0
131.459579 152.0
131.578064 188.0
131.603622 196.0
131.634705 160.0
131.675751 148.0
131.735153 128.0
131.758377 296.0
131.833435 212.0
131.859695 164.0
131.89827 276.0
131.936127 256.0
131.957748 300.0
132.014771 220.0
132.057495 264.0
132.127121 1264.0
132.156219 204.0
132.213928 128.0
132.296005 200.0
132.373688 196.0
132.39621 148.0
132.444885 316.0
132.562836 168.0
132.625031 152.0
132.71701 204.0
132.743378 156.0
132.76976 180.0
132.799576 188.0
132.846878 184.0
132.895325 280.0
132.953293 164.0
132.976242 144.0
133.015259 168.0
133.046799 148.0
133.066818 156.0
133.093307 160.0
133.128403 184.0
133.176224 152.0
133.250519 164.0
133.286209 128.0
133.314514 204.0
133.379028 176.0
133.440247 144.0
133.467896 192.0
133.490845 188.0
133.523041 160.0
133.552933 248.0
133.603546 144.0
133.677307 128.0
133.704788 148.0
133.738724 352.0
133.805206 108.0
133.838303 160.0
133.891266 156.0
133.913132 204.0
133.982239 368.0
134.008743 236.0
134.045883 136.0
134.079529 144.0
134.133179 168.0
134.185089 160.0
134.245346 192.0
134.315765 176.0
134.384552 180.0
134.414719 108.0
134.465317 156.0
134.48378 180.0
134.546112 164.0
134.589981 156.0
134.60614 172.0
134.665756 272.0
134.74704 168.0
134.856445 152.0
134.87645 164.0
134.986404 200.0
135.105377 188.0
135.125107 188.0
135.21434 132.0
135.278931 224.0
135.310089 208.0
135.339706 144.0
135.357651 164.0
135.397018 140.0
135.445663 176.0
135.716263 172.0
135.795654 172.0
135.830444 168.0
135.848999 140.0
136.001709 128.0
136.02536 196.0
136.041611 172.0
136.082718 356.0
136.145721 200.0
136.173965 148.0
136.200104 376.0
136.23436 140.0
136.344833 168.0
136.365494 212.0
136.466522 152.0
136.52475 128.0
136.5392 200.0
136.685577 168.0
136.755905 108.0
136.798096 104.0
136.804398 160.0
136.831741 128.0
136.857346 380.0
136.901093 156.0
136.946457 172.0
137.015121 62512.0
137.092911 176.0
137.118195 132.0
137.208969 132.0
137.266632 168.0
137.310623 124.0
137.355774 188.0
137.41156 164.0
137.501038 144.0
137.528366 124.0
137.579727 388.0
137.601852 228.0
137.642303 144.0
137.662582 352.0
137.766907 276.0
137.862335 124.0
137.927475 124.0
137.984558 212.0
138.018402 5944.0
138.093323 156.0
138.167297 208.0
138.267593 208.0
138.304871 176.0
138.318466 176.0
138.338882 252.0
138.373016 100.0
138.411041 188.0
138.515778 156.0
138.544861 144.0
138.614182 204.0
138.664459 132.0
138.743652 148.0
138.786789 200.0
138.820816 140.0
138.898911 248.0
138.931793 172.0
138.953064 376.0
138.986801 240.0
139.011948 14700.0
139.108292 188.0
139.125473 140.0
139.142731 116.0
139.173309 120.0
139.303574 176.0
139.327438 164.0
139.413834 188.0
139.467926 164.0
139.514206 140.0
139.539337 196.0
139.610474 204.0
139.646103 184.0
139.67923 136.0
139.719849 216.0
139.790634 140.0
139.838593 116.0
139.914398 124.0
139.935486 172.0
140.014725 664.0
140.129227 132.0
140.176147 184.0
140.220261 224.0
140.274857 176.0
140.308502 152.0
140.325699 172.0
140.416046 148.0
140.45929 164.0
140.515411 180.0
140.547867 136.0
140.686356 132.0
140.732788 332.0
140.829102 164.0
140.955383 144.0
140.97374 204.0
141.016968 156.0
141.247681 172.0
141.31958 360.0
141.414322 224.0
141.478226 224.0
141.508667 196.0
141.57045 160.0
141.601349 144.0
141.617935 184.0
141.709381 172.0
141.727707 204.0
141.760086 184.0
141.844971 216.0
141.876221 228.0
141.952087 140.0
142.017715 208.0
142.034576 128.0
142.12059 164.0
142.236786 340.0
142.37027 136.0
142.423767 140.0
142.470383 280.0
142.498016 152.0
142.598419 144.0
142.647736 224.0
142.755096 296.0
142.802292 160.0
142.842728 244.0
142.883163 212.0
142.923615 172.0
143.125931 304.0
143.19017 148.0
143.267746 200.0
143.498489 176.0
143.521469 172.0
143.538162 148.0
143.586716 256.0
143.614471 140.0
143.631165 188.0
143.649094 180.0
143.67099 136.0
143.726593 184.0
143.809509 160.0
143.877457 116.0
143.942413 164.0
144.044128 148.0
144.082474 176.0
144.1241 320.0
144.148331 220.0
144.183838 152.0
144.221802 144.0
144.240067 176.0
144.271545 312.0
144.547607 244.0
144.608963 120.0
144.743744 100.0
144.790588 208.0
144.955658 164.0
145.015579 140.0
145.068314 168.0
145.099594 156.0
145.169006 228.0
145.285538 308.0
145.319122 164.0
145.334854 148.0
145.368103 228.0
145.416733 184.0
145.488113 156.0
145.659241 168.0
145.703766 156.0
145.773941 164.0
145.810623 132.0
145.831619 176.0
145.887344 344.0
145.932587 180.0
146.064072 160.0
146.091309 156.0
146.130936 228.0
146.291458 212.0
146.333145 164.0
146.363266 168.0
146.543915 176.0
146.563187 152.0
146.602951 232.0
146.663345 184.0
146.890259 216.0
146.96344 204.0
146.992401 216.0
147.041809 144.0
147.14209 124.0
147.16861 152.0
147.199127 200.0
147.232635 160.0
147.26741 144.0
147.306686 160.0
147.36908 148.0
147.422241 152.0
147.465729 180.0
147.516418 136.0
147.582977 176.0
147.605957 168.0
147.661026 152.0
147.677612 376.0
147.896484 220.0
148.090317 160.0
148.132233 124.0
148.184433 156.0
148.303177 144.0
148.406754 176.0
148.477997 148.0
148.507233 148.0
148.568405 180.0
148.616165 184.0
148.701935 324.0
148.79068 140.0
148.819885 280.0
148.849609 224.0
148.917023 236.0
149.092743 244.0
149.15271 152.0
149.179443 224.0
149.31012 172.0
149.476166 140.0
149.577164 168.0
149.648483 116.0
149.79567 172.0
149.81459 192.0
149.846344 120.0
149.88768 184.0
149.920914 144.0
149.95105 144.0
150.020691 132.0
150.044479 456.0
150.070496 204.0
150.11438 328.0
150.171555 260.0
150.257233 220.0
150.340454 160.0
150.394943 148.0
150.469223 168.0
150.517014 156.0
150.551193 160.0
150.568298 148.0
150.600555 172.0
150.667664 156.0
150.761292 156.0
150.969086 180.0
151.054626 188.0
151.087433 124.0
151.121262 352.0
151.168869 352.0
151.196594 208.0
151.243103 188.0
151.278534 160.0
151.456589 168.0
151.532059 172.0
151.557373 180.0
151.628265 184.0
151.679092 176.0
151.720352 232.0
151.800583 156.0
151.863297 128.0
151.885071 188.0
151.931473 184.0
152.029602 136.0
152.05896 284.0
152.085358 276.0
152.120636 172.0
152.287338 180.0
152.326904 248.0
152.491531 148.0
152.539062 132.0
152.604507 264.0
152.659012 188.0
152.823944 224.0
152.921448 160.0
152.956406 144.0
153.013016 144.0
153.070572 332.0
153.094284 156.0
153.113495 164.0
153.149643 180.0
153.260178 196.0
153.286423 148.0
153.509369 164.0
153.568222 116.0
153.629135 148.0
153.750031 200.0
153.767303 172.0
153.799728 176.0
153.821609 164.0
153.856171 184.0
153.88826 168.0
154.026566 140.0
154.043854 176.0
154.105606 144.0
154.154861 180.0
154.215424 212.0
154.293365 136.0
154.395859 144.0
154.422028 164.0
154.502396 128.0
154.527328 188.0
154.55809 196.0
154.5793 188.0
154.753632 144.0
154.88736 176.0
154.952438 148.0
155.008743 168.0
155.036697 116.0
155.072678 332.0
155.116425 156.0
155.137634 152.0
155.199615 172.0
155.256638 140.0
155.300339 208.0
155.348862 212.0
155.394836 180.0
155.519623 184.0
155.575684 144.0
155.652725 212.0
155.771866 192.0
155.848648 156.0
155.934402 172.0
155.957306 112.0
156.023895 160.0
156.053726 160.0
156.095993 148.0
156.118378 204.0
156.228851 344.0
156.280228 176.0
156.354401 124.0
156.39183 140.0
156.461884 148.0
156.493912 144.0
156.573792 232.0
156.593338 336.0
156.649979 212.0
156.721588 204.0
156.750671 140.0
156.776459 148.0
156.805176 100.0
156.872787 356.0
156.972702 164.0
157.009369 188.0
157.052322 280.0
157.086227 108.0
157.179932 372.0
157.224335 144.0
157.255859 208.0
157.29686 164.0
157.331802 200.0
157.486618 156.0
157.716492 156.0
157.816498 256.0
157.837372 148.0
157.8815 144.0
157.921524 208.0
157.959045 172.0
157.97905 176.0
158.026581 272.0
158.122528 176.0
158.161865 144.0
158.191757 168.0
158.238495 204.0
158.258469 168.0
158.289124 308.0
158.367035 188.0
158.422424 176.0
158.532394 144.0
158.552231 144.0
158.587173 196.0
158.64267 188.0
158.72229 180.0
158.789749 240.0
158.841995 196.0
158.893982 192.0
159.080322 184.0
159.119858 208.0
159.14444 148.0
159.20668 208.0
159.257446 200.0
159.327774 216.0
159.353867 240.0
159.41069 188.0
159.708237 192.0
159.749802 132.0
159.772751 176.0
159.848236 172.0
159.920074 228.0
159.976593 152.0
160.000366 144.0
160.08989 168.0
160.130188 140.0
160.17308 140.0
160.248581 204.0
160.280182 140.0
160.330612 160.0
160.398941 168.0
160.467514 164.0
160.493515 180.0
160.514374 220.0
160.584442 156.0
160.606552 148.0
160.624207 152.0
160.69989 208.0
160.720871 192.0
160.820328 132.0
161.000275 152.0
161.019913 124.0
161.108429 196.0
161.118988 156.0
161.168015 168.0
161.239838 392.0
161.316101 184.0
161.336395 156.0
161.362656 384.0
161.388306 136.0
161.414703 196.0
161.452377 152.0
161.532379 160.0
161.811951 152.0
161.847397 180.0
161.888702 152.0
162.00322 160.0
162.027649 116.0
162.070297 164.0
162.087524 116.0
162.130173 184.0
162.204086 156.0
162.240097 140.0
162.346588 148.0
162.366638 124.0
162.437897 140.0
162.514572 212.0
162.564438 176.0
162.628204 180.0
162.700165 128.0
162.759277 296.0
162.865005 228.0
162.892273 260.0
162.964981 148.0
162.983734 188.0
163.023026 336.0
163.054047 408.0
163.07518 228.0
163.090759 192.0
163.157318 176.0
163.19017 172.0
163.260452 268.0
163.301071 168.0
163.48027 120.0
163.538391 164.0
163.694077 200.0
163.789581 176.0
163.847702 244.0
163.892319 144.0
163.91124 188.0
164.041962 160.0
164.109116 168.0
164.142715 248.0
164.322998 308.0
164.368912 236.0
164.411133 100.0
164.44548 156.0
164.57782 176.0
164.753204 148.0
164.78511 168.0
164.807007 196.0
164.828537 192.0
164.856644 180.0
164.888275 160.0
164.915436 152.0
164.992111 172.0
165.02951 288.0
165.039932 164.0
165.069229 46572.0
165.129196 196.0
165.176666 96.0
165.210983 268.0
165.270264 96.0
165.302307 160.0
165.330948 272.0
165.355347 176.0
165.387375 140.0
165.441086 124.0
165.499725 140.0
165.58577 144.0
165.642105 340.0
165.776733 124.0
165.825272 288.0
165.849655 168.0
165.8862 172.0
165.907745 140.0
165.944519 172.0
166.025406 336.0
166.073425 4732.0
166.218964 156.0
166.342896 152.0
166.3685 176.0
166.412598 304.0
166.464584 216.0
166.542435 228.0
166.620468 200.0
166.670883 200.0
166.688873 152.0
166.732559 152.0
166.819717 180.0
166.873428 288.0
166.935638 224.0
166.996216 192.0
167.077377 788.0
167.104935 176.0
167.130173 128.0
167.174881 252.0
167.198578 176.0
167.240768 140.0
167.27121 176.0
167.293274 152.0
167.374176 128.0
167.418457 208.0
167.476105 180.0
167.639236 188.0
167.71405 148.0
167.743698 160.0
167.888794 124.0
167.956604 124.0
168.02861 156.0
168.057266 256.0
168.110199 164.0
168.192917 196.0
168.213562 152.0
168.319412 140.0
168.365891 168.0
168.388626 160.0
168.452469 144.0
168.500214 156.0
168.538315 176.0
168.607956 212.0
168.660431 240.0
168.698624 212.0
168.766418 192.0
168.825897 156.0
168.875031 172.0
168.900894 176.0
168.933182 260.0
168.990234 100.0
169.055817 196.0
169.104782 200.0
169.210983 272.0
169.250275 144.0
169.289108 148.0
169.352509 140.0
169.381882 152.0
169.462662 204.0
169.547058 112.0
169.618149 144.0
169.650192 112.0
169.81781 156.0
169.910583 208.0
169.987961 160.0
170.064987 148.0
170.174942 200.0
170.194092 176.0
170.235641 204.0
170.297958 208.0
170.441147 304.0
170.505814 148.0
170.526611 328.0
170.5578 164.0
170.723694 376.0
170.82164 436.0
170.946106 280.0
171.004425 168.0
171.080063 160.0
171.169174 240.0
171.192612 152.0
171.263443 380.0
171.317627 176.0
171.339798 172.0
171.37233 148.0
171.407578 220.0
171.444778 476.0
171.492584 168.0
171.528748 220.0
171.566498 160.0
171.609116 128.0
171.65506 164.0
171.765472 360.0
171.818161 160.0
171.877014 192.0
171.966904 152.0
172.03476 148.0
172.277634 180.0
172.299561 192.0
172.347076 200.0
172.442245 216.0
172.570343 156.0
172.627869 180.0
172.720779 148.0
172.76387 196.0
172.813644 144.0
172.860672 220.0
172.894699 140.0
172.919876 200.0
172.937332 152.0
173.047394 136.0
173.125076 172.0
173.17337 136.0
173.21521 212.0
173.287476 156.0
173.350357 348.0
173.371323 156.0
173.634888 240.0
173.670731 176.0
173.7043 152.0
173.946793 136.0
173.998215 152.0
174.024475 148.0
174.046829 160.0
174.17392 180.0
174.258224 276.0
174.281586 184.0
174.321289 172.0
174.351135 100.0
174.468475 184.0
174.52037 184.0
174.544724 248.0
174.631973 204.0
174.702896 208.0
174.763031 144.0
174.834076 260.0
174.863037 148.0
174.91304 140.0
175.028214 332.0
175.062057 140.0
175.114075 204.0
175.196213 184.0
175.390259 164.0
175.500916 164.0
175.559967 184.0
175.728226 120.0
175.773224 124.0
175.820862 144.0
175.890976 164.0
175.912857 164.0
175.974304 232.0
176.06366 308.0
176.115402 156.0
176.194656 300.0
176.247757 208.0
176.281845 180.0
176.345276 140.0
176.414001 156.0
176.458939 140.0
176.5224 188.0
176.548843 168.0
176.567352 176.0
176.675812 140.0
176.712845 140.0
176.756683 132.0
176.914734 156.0
176.95369 156.0
176.999252 152.0
177.06958 576.0
177.148956 176.0
177.235962 196.0
177.27684 376.0
177.388153 160.0
177.45311 144.0
177.491272 300.0
177.52594 128.0
177.569107 180.0
177.608292 148.0
177.655991 144.0
177.679871 184.0
177.705658 312.0
177.830582 280.0
177.862976 280.0
177.897476 184.0
177.917648 136.0
177.950577 192.0
177.987717 148.0
178.076996 12612.0
178.132385 164.0
178.218826 156.0
178.269318 144.0
178.305283 128.0
178.394531 176.0
178.467346 128.0
178.548447 244.0
178.568405 148.0
178.602219 208.0
178.646866 168.0
178.724579 172.0
178.774979 160.0
178.793365 168.0
178.840408 424.0
178.859222 212.0
178.93927 376.0
178.988861 232.0
179.017548 184.0
179.043381 440.0
179.048065 372.0
179.085693 122200.0
179.150726 132.0
179.244202 248.0
179.277023 184.0
179.321869 164.0
179.358063 188.0
179.382858 284.0
179.42778 144.0
179.49025 156.0
179.557236 184.0
179.610519 208.0
179.640396 332.0
179.681305 120.0
179.728394 220.0
179.763306 172.0
179.796356 184.0
179.908127 316.0
179.944519 400.0
179.968765 108.0
180.004929 164.0
180.040955 668.0
180.093338 157324.0
180.169556 416.0
180.203995 172.0
180.252594 104.0
180.317368 164.0
180.355026 280.0
180.391678 380.0
180.450394 232.0
180.492126 132.0
180.532562 316.0
180.555756 236.0
180.603729 144.0
180.645142 192.0
180.666321 140.0
180.685043 152.0
180.708694 144.0
180.770538 180.0
180.799637 124.0
180.964218 128.0
181.001892 156.0
181.064941 168.0
181.096542 20416.0
181.182434 248.0
181.210144 136.0
181.262955 208.0
181.308014 228.0
181.362778 184.0
181.404083 368.0
181.450333 324.0
181.482483 156.0
181.506195 184.0
181.540527 172.0
181.611267 168.0
181.653641 192.0
181.692368 176.0
181.737198 228.0
181.780106 108.0
181.880493 152.0
181.912415 184.0
181.998337 204.0
182.021225 160.0
182.068817 124.0
182.099289 1396.0
182.175323 120.0
182.196106 224.0
182.226135 140.0
182.251266 308.0
182.278702 148.0
182.342468 264.0
182.382111 128.0
182.412918 112.0
182.43483 248.0
182.494415 192.0
182.513489 232.0
182.573914 148.0
182.634796 172.0
182.680206 140.0
182.721329 156.0
182.839722 164.0
182.870514 136.0
182.933929 148.0
182.953644 160.0
183.014877 168.0
183.068649 108.0
183.091492 200.0
183.222198 176.0
183.264877 212.0
183.284103 176.0
183.316376 144.0
183.460434 188.0
183.496857 180.0
183.532684 196.0
183.65416 208.0
183.707321 196.0
183.766022 200.0
183.843979 172.0
183.878662 120.0
183.939438 324.0
184.017685 240.0
184.081833 168.0
184.11908 164.0
184.20224 188.0
184.231033 168.0
184.271561 160.0
184.293594 156.0
184.38504 172.0
184.575607 140.0
184.675659 112.0
184.701385 152.0
184.810684 140.0
185.137131 204.0
185.180466 140.0
185.23735 172.0
185.296936 208.0
185.412903 176.0
185.555008 216.0
185.719269 192.0
185.95752 152.0
186.021027 160.0
186.155167 168.0
186.208374 168.0
186.249283 128.0
186.276276 172.0
186.382233 140.0
186.436584 156.0
186.553452 140.0
186.582001 120.0
186.602386 168.0
186.643173 168.0
186.759506 196.0
186.893417 212.0
186.91246 176.0
187.089828 220.0
187.164352 208.0
187.22966 120.0
187.259476 104.0
187.364761 128.0
187.432541 144.0
187.509445 128.0
187.537094 132.0
187.997009 172.0
188.066223 176.0
188.106171 168.0
188.160782 208.0
188.248154 148.0
188.409668 180.0
188.543182 212.0
188.60498 216.0
188.633377 148.0
188.677124 188.0
188.802399 348.0
188.890427 144.0
189.041275 176.0
189.079208 192.0
189.271561 136.0
189.298218 184.0
189.520096 144.0
189.57489 192.0
189.626968 160.0
189.65126 148.0
189.676147 140.0
189.685349 132.0
189.777725 140.0
189.906006 140.0
189.968094 184.0
189.995865 236.0
190.069946 116.0
190.095917 212.0
190.137085 172.0
190.235886 152.0
190.286774 188.0
190.321686 144.0
190.482956 136.0
190.565933 184.0
190.649414 228.0
190.752319 160.0
190.839096 264.0
190.879517 152.0
190.906296 160.0
191.04657 148.0
191.093338 160.0
191.125549 164.0
191.549484 196.0
191.719681 232.0
191.781784 144.0
191.803833 212.0
191.83873 140.0
191.952713 148.0
191.972015 144.0
192.05191 140.0
192.281677 224.0
192.3927 136.0
192.477783 112.0
192.534973 144.0
192.612 172.0
192.805725 172.0
192.940491 140.0
192.965942 116.0
193.01857 224.0
193.075729 144.0
193.191757 184.0
193.302979 148.0
193.391983 180.0
193.461441 172.0
193.500015 160.0
193.635696 232.0
193.655075 208.0
193.71048 200.0
193.993576 176.0
194.014938 212.0
194.045059 180.0
194.101257 176.0
194.151169 140.0
194.317596 152.0
194.596802 228.0
194.631241 152.0
194.678436 164.0
194.792313 144.0
194.82402 136.0
194.869507 188.0
194.997925 156.0
195.045181 140.0
195.077499 140.0
195.161072 180.0
195.242584 156.0
195.356171 172.0
195.398346 196.0
195.504089 192.0
195.527176 148.0
195.596008 156.0
195.656677 180.0
195.762985 168.0
195.829575 368.0
195.963531 340.0
196.005325 144.0
196.236664 160.0
196.521149 172.0
196.579758 156.0
196.632782 152.0
196.772339 248.0
196.800262 160.0
196.833771 164.0
196.85611 224.0
196.89473 140.0
196.990173 172.0
197.094437 1528.0
197.173233 132.0
197.280792 200.0
197.314346 200.0
197.333908 140.0
197.378647 188.0
197.470932 300.0
197.514023 148.0
197.547684 168.0
197.569168 200.0
197.729614 252.0
197.770309 164.0
197.817764 164.0
197.9077 156.0
198.004211 132.0
198.052658 148.0
198.095215 496.0
198.137802 156.0
198.195938 156.0
198.232407 152.0
198.302475 204.0
198.54805 188.0
198.6931 180.0
198.737137 144.0
198.760162 136.0
198.826935 168.0
198.882797 172.0
198.936401 192.0
199.03035 980.0
199.099594 284.0
199.130142 196.0
199.273331 168.0
199.318558 164.0
199.37175 172.0
199.41391 180.0
199.451584 208.0
199.49823 240.0
199.525024 180.0
199.594131 164.0
199.654053 144.0
199.681 156.0
199.708008 188.0
199.755737 252.0
199.828445 192.0
199.861511 160.0
200.037338 3836.0
200.106155 132.0
200.258835 156.0
200.391113 152.0
200.556625 168.0
200.584808 156.0
200.649658 252.0
200.706558 244.0
200.820358 112.0
200.902527 96.0
201.034775 488.0
201.095337 152.0
201.140549 228.0
201.288589 204.0
201.331024 108.0
201.394623 180.0
201.445465 140.0
201.529251 128.0
201.558487 152.0
201.788162 244.0
201.827011 308.0
202.00235 220.0
202.033371 1552.0
202.123291 204.0
202.307159 152.0
202.437424 172.0
202.477859 176.0
202.5177 164.0
202.581253 96.0
202.75267 200.0
202.813522 152.0
202.863205 180.0
203.036514 136.0
203.079483 116.0
203.143097 148.0
203.406082 160.0
203.436234 192.0
203.469467 336.0
203.527084 240.0
203.592392 192.0
203.652817 116.0
203.68045 164.0
203.758408 108.0
203.886627 176.0
203.997116 144.0
204.090271 152.0
204.172134 220.0
204.194901 224.0
204.229309 144.0
204.747009 228.0
204.813766 284.0
204.83168 452.0
204.878036 164.0
204.930878 136.0
204.984589 152.0
205.031906 144.0
205.081223 304.0
205.12674 408.0
205.154465 212.0
205.220032 208.0
205.314072 168.0
205.345505 196.0
205.379044 144.0
205.510818 176.0
205.660828 364.0
205.693604 224.0
205.773544 152.0
205.847778 208.0
205.966599 212.0
206.013443 192.0
206.122009 152.0
206.290802 136.0
206.342087 148.0
206.413574 176.0
206.467896 188.0
206.498062 228.0
206.576584 164.0
206.756851 184.0
206.894241 160.0
206.931458 148.0
206.997314 148.0
207.091629 4436.0
207.15184 168.0
207.249374 160.0
207.276031 344.0
207.336578 176.0
207.455017 208.0
207.504456 208.0
207.596222 164.0
207.657135 200.0
207.699631 212.0
207.779785 152.0
207.884567 136.0
207.953583 120.0
208.096756 380.0
208.144302 140.0
208.281906 160.0
208.408463 116.0
208.526627 140.0
208.557999 140.0
208.785126 140.0
208.816696 200.0
208.894424 148.0
208.95195 200.0
209.009491 152.0
209.118851 248.0
209.196014 188.0
209.296875 228.0
209.334335 212.0
209.395248 200.0
209.433105 112.0
209.519501 116.0
209.61116 152.0
209.680466 196.0
209.931274 144.0
209.991837 160.0
210.017807 228.0
210.166946 264.0
210.361176 164.0
210.462219 156.0
210.527985 124.0
210.595062 164.0
210.703827 172.0
210.889771 148.0
210.94339 152.0
211.071899 180.0
211.09671 172.0
211.164444 180.0
211.191025 144.0
211.246902 228.0
211.370834 180.0
211.560852 180.0
211.731689 148.0
211.877319 336.0
211.930145 180.0
212.027191 144.0
212.05957 212.0
212.088867 184.0
212.151825 204.0
212.297745 148.0
212.395889 192.0
212.427322 232.0
212.576935 196.0
212.692764 184.0
212.737823 208.0
212.789459 256.0
212.904358 212.0
212.9328 136.0
213.044617 1168.0
213.135712 180.0
213.241776 192.0
213.296799 216.0
213.326096 196.0
213.350388 176.0
213.379929 156.0
213.452255 152.0
213.512482 164.0
213.542694 160.0
213.567902 176.0
213.686111 148.0
213.746475 224.0
213.830719 180.0
213.851807 348.0
213.873337 216.0
213.922699 140.0
213.990829 228.0
214.047379 560.0
214.154343 104.0
214.193924 296.0
214.305161 364.0
214.341568 224.0
214.384995 284.0
214.408676 124.0
214.441803 268.0
214.481308 216.0
214.522964 500.0
214.570251 344.0
214.615189 328.0
214.651093 276.0
214.695892 120.0
214.716324 328.0
214.727478 232.0
214.739288 292.0
214.770584 472.0
214.80072 420.0
214.824738 396.0
214.870224 464.0
214.905869 364.0
214.960709 524.0
214.981491 456.0
214.986771 800.0
215.063721 420320.0
215.171906 292.0
215.22551 296.0
215.261963 256.0
215.30127 392.0
215.335785 428.0
215.373825 296.0
215.415421 496.0
215.441269 364.0
215.508926 608.0
215.542984 16564.0
215.580917 552.0
215.619019 348.0
215.653214 212.0
215.67038 296.0
215.70401 152.0
215.732819 120.0
215.768509 132.0
215.830399 260.0
215.852402 508.0
215.91066 376.0
215.950668 364.0
215.981339 424.0
216.013092 392.0
216.065826 130536.0
216.144623 240.0
216.184891 156.0
216.221436 184.0
216.251785 316.0
216.281128 276.0
216.328903 156.0
216.355103 196.0
216.391876 200.0
216.467468 256.0
216.515594 176.0
216.547867 220.0
216.678833 244.0
216.747375 380.0
216.769012 172.0
216.806488 224.0
216.837357 192.0
216.87439 116.0
216.896072 212.0
216.934692 648.0
216.996384 504.0
217.05986 232040.0
217.14801 224.0
217.242981 260.0
217.286972 280.0
217.330292 240.0
217.353989 292.0
217.361771 212.0
217.38147 284.0
217.431992 280.0
217.467819 328.0
217.500351 336.0
217.539215 472.0
217.578598 452.0
217.625092 256.0
217.659348 528.0
217.691025 424.0
217.741287 156.0
217.766434 308.0
217.883896 172.0
217.969879 176.0
218.003525 232.0
218.062271 19480.0
218.108398 196.0
218.138855 96.0
218.218506 124.0
218.25975 160.0
218.283218 188.0
218.305878 172.0
218.342789 204.0
218.369507 212.0
218.393005 144.0
218.430008 144.0
218.495056 168.0
218.532532 100.0
218.585281 184.0
218.695831 132.0
218.74205 108.0
218.811493 160.0
218.871078 104.0
218.987015 108.0
219.042679 188.0
219.068542 168.0
219.255356 116.0
219.35585 156.0
219.377228 236.0
219.402023 256.0
219.556152 144.0
219.581268 228.0
219.608353 192.0
219.679108 224.0
219.729477 192.0
219.786194 136.0
219.8367 96.0
220.465576 112.0
220.710052 176.0
220.743912 256.0
221.244583 96.0
222.810089 160.0
223.009033 96.0
223.732025 108.0
223.778015 176.0
224.300003 112.0
224.398834 128.0
224.64624 108.0
225.611221 104.0
225.695023 112.0
225.891479 96.0
226.380859 292.0
226.494537 116.0
226.805252 136.0
226.978287 112.0
227.0401 104.0
227.246109 132.0
228.057526 176.0
228.899155 124.0
228.952377 240.0
229.401321 232.0
229.493027 96.0
229.714935 168.0
229.739075 148.0
229.851868 96.0
229.901154 100.0
230.738693 140.0
233.139328 188.0
235.265335 156.0
240.225922 372.0
241.072144 96.0
241.235855 168.0
241.475449 152.0
244.102158 164.0
252.7379 156.0
262.483795 140.0
264.998474 144.0
265.714966 148.0
266.435699 176.0
268.378723 192.0
273.390533 144.0
273.534393 152.0
273.630829 148.0
274.883331 144.0
277.400208 144.0
281.572662 148.0
283.399109 156.0
295.955658 168.0
299.523865 184.0
302.812042 256.0
302.891693 144.0
307.809387 144.0
310.461914 172.0
311.111023 196.0
314.391449 204.0
318.10318 160.0
319.678772 140.0
320.871979 176.0
321.242859 148.0
323.805664 196.0
324.529541 192.0
327.995117 188.0
332.817535 164.0
333.344238 152.0
336.56427 168.0
337.953217 168.0
339.744751 140.0
342.162903 760.0
342.501709 140.0
343.183563 120.0
343.688232 184.0
343.913971 184.0
344.177399 26704.0
344.281006 120.0
344.394196 96.0
344.467773 188.0
344.876984 140.0
345.180298 4324.0
346.054291 216.0
346.097504 136.0
346.174469 6452.0
346.246979 124.0
347.000854 100.0
347.179169 1016.0
347.642731 96.0
347.688995 192.0
349.649506 132.0
359.182037 120.0
363.412689 152.0
373.102203 168.0
373.215759 128.0
426.153046 144.0
440.007263 140.0
457.554718 188.0
459.208038 192.0
478.191925 184.0
485.673798 100.0
492.750641 140.0
524.927917 144.0
543.191833 160.0
599.735718 160.0
649.18811 180.0
679.750427 112.0
748.799744 96.0
760.759094 120.0
947.560791 152.0
949.399658 176.0
969.682861 176.0
988.778015 212.0
1015.07312 180.0
1029.607788 156.0
1035.049683 184.0
1041.424194 152.0
1044.889038 156.0
1053.023926 280.0
1059.181396 148.0
1065.798584 188.0
1074.07959 160.0
1076.1875 164.0
1081.652832 160.0
1084.869141 164.0
1086.095337 156.0
1092.789429 200.0
1107.662964 152.0
1131.188965 152.0
1131.403198 144.0
1135.604614 180.0
1140.116089 188.0
1141.420288 208.0
1143.451782 184.0
1144.879028 252.0
1158.888672 188.0
1159.295166 144.0
1162.163452 156.0
1163.06604 160.0
1169.169312 212.0
1173.828857 304.0
1176.148438 284.0
1177.015381 140.0
1181.21167 172.0
1186.827393 156.0
1200.828369 160.0
1200.993896 172.0
1210.406616 152.0
1213.62854 228.0
1215.376465 224.0
1223.31311 184.0
1224.294922 164.0
1225.38147 212.0
1227.465576 156.0
1232.253662 152.0
1232.854614 204.0
1234.644165 140.0
1236.260254 156.0
1239.1521 152.0
1245.591919 204.0
1250.478638 144.0
1251.647217 148.0
1252.75293 144.0
1255.713379 164.0
1257.484253 220.0
1257.575928 232.0
1260.394409 128.0
1265.266846 176.0
1269.688232 172.0
1273.044922 144.0
1273.215454 140.0
1277.565308 188.0
1278.981445 184.0
1279.62207 212.0
1282.913452 196.0
1286.508911 160.0
1287.322754 152.0
1287.879883 184.0
1289.623169 172.0
1290.159302 200.0
1292.440796 196.0
1293.822144 144.0
1295.655518 184.0
1296.221436 148.0
1296.293091 176.0
1296.364746 188.0
1296.723145 264.0
1304.755371 184.0
1305.265869 156.0
1306.186401 144.0
1311.831909 168.0
1311.932861 140.0
1312.479858 184.0
1313.980957 172.0
1317.056152 204.0
1318.30603 152.0
1318.660156 184.0
1321.039062 208.0
1323.005249 180.0
1324.194824 188.0
1331.381958 176.0
1332.682129 172.0
1333.016357 232.0
1336.353882 144.0
1336.882935 152.0
1337.765747 152.0
1338.25354 188.0
1340.744751 180.0
1340.883179 148.0
1344.274292 156.0
1350.810791 156.0
1356.634766 156.0
1357.954712 172.0
1362.895142 156.0
1363.034668 224.0
1364.762085 160.0
1364.872314 164.0
1367.329346 232.0
1373.968262 164.0
1375.90918 176.0
1377.364014 152.0
1378.272705 164.0
1378.361328 152.0
1382.79834 200.0
1386.192871 224.0
1387.35376 188.0
1387.479736 204.0
1387.813477 148.0
1388.302856 172.0
1389.111206 172.0
1391.062866 144.0
1393.714111 144.0
1394.278931 156.0
1394.353271 152.0
1394.981934 184.0
1396.531616 188.0
1398.562866 180.0
1402.249634 176.0
1402.503052 228.0
1404.314819 236.0
1405.008545 140.0
1406.702515 164.0
1406.904053 192.0
1407.680542 232.0
1408.053955 144.0
1408.307983 188.0
1409.936646 200.0
1414.394287 208.0
1415.22522 200.0
1416.221191 180.0
1417.532227 192.0
1417.589233 192.0
1417.794556 180.0
1418.319214 148.0
1418.634033 212.0
1420.141113 240.0
1421.529053 160.0
1421.602295 156.0
1421.746704 160.0
1422.398682 148.0
1424.885254 152.0
1425.892212 156.0
1426.080078 180.0
1427.606201 152.0
1427.779175 140.0
1428.117676 192.0
1429.968506 172.0
1430.427612 144.0
1431.459106 188.0
1432.423096 144.0
1432.965454 212.0
1433.779297 228.0
1433.847168 160.0
1434.827026 188.0
1435.302002 164.0
1435.633789 156.0
1436.742554 184.0
1438.644287 156.0
1440.206787 176.0
1444.099854 260.0
1444.228394 152.0
1444.568848 224.0
1445.49939 208.0
1445.650757 160.0
1446.135132 148.0
1446.218384 208.0
1448.321777 160.0
1451.187744 160.0
1451.718506 180.0
1451.930908 148.0
1454.707886 188.0
1455.087402 168.0
1455.542969 180.0
1457.062012 264.0
1460.292603 152.0
1461.452148 160.0
1461.661987 160.0
1462.666504 152.0
1463.610596 160.0
1463.960815 188.0
1464.349243 156.0
1464.631104 208.0
1465.651855 184.0
1466.543457 188.0
1467.420166 156.0
1469.006348 180.0
1469.609131 164.0
1470.608765 168.0
1471.219482 260.0
1472.548096 168.0
1475.68103 140.0
1475.971558 144.0
1477.753784 160.0
1481.321167 148.0
1481.696533 144.0
1481.773193 180.0
1482.38623 192.0
1485.100098 188.0
1485.928589 232.0
1486.526978 184.0
1487.647583 232.0
1488.426392 228.0
1489.51355 152.0
1490.550781 212.0
1492.964478 140.0
1493.518188 224.0
1495.226196 156.0
1496.10376 284.0
1496.927612 208.0
1497.16626 156.0
1499.50061 152.0
1501.466553 168.0
1502.407593 148.0
1502.801025 160.0
1503.943115 160.0
1505.479492 200.0
1506.499023 172.0
1506.661255 164.0
1508.438599 244.0
1509.722046 200.0
1510.78418 176.0
1511.137573 184.0
1511.261353 168.0
1511.578613 212.0
1513.064697 324.0
1513.219482 204.0
1515.26416 180.0
1515.843872 136.0
1519.605835 176.0
1520.172241 184.0
1521.421875 316.0
1522.998657 208.0
1524.886108 160.0
1525.111572 168.0
1525.27478 280.0
1525.717896 176.0
1525.958862 228.0
1526.192139 196.0
1526.2854 200.0
1527.420898 144.0
1528.642334 172.0
1531.764282 140.0
1532.473267 144.0
1533.875977 164.0
1535.677124 152.0
1536.582031 152.0
1537.541748 152.0
1538.033447 152.0
1538.142822 156.0
1539.251343 156.0
1539.540283 160.0
1540.805664 176.0
1541.461914 152.0
1542.055908 172.0
1543.431763 148.0
1544.597046 156.0
1545.794067 188.0
1546.341797 176.0
1547.711792 268.0
1548.314697 184.0
1549.14502 164.0
1551.778198 164.0
1552.225098 184.0
1555.080688 228.0
1555.818481 212.0
1556.140381 156.0
1556.894165 180.0
1558.339478 156.0
1558.567383 168.0
1560.186401 148.0
1560.500854 164.0
1561.074829 164.0
1561.14563 144.0
1562.647949 172.0
1563.419067 144.0
1563.663086 144.0
1563.89917 184.0
1564.437988 116.0
1565.261108 196.0
1566.206177 224.0
1567.372192 164.0
1568.164429 164.0
1568.853882 204.0
1571.503662 160.0
1572.182373 196.0
1573.113647 148.0
1575.206299 156.0
1575.632812 176.0
1575.711792 160.0
1576.28125 176.0
1576.557251 164.0
1576.667969 164.0
1577.244873 196.0
1577.387207 172.0
1578.933472 168.0
1579.174072 188.0
1580.091675 180.0
1580.170898 168.0
1581.033325 196.0
1584.113281 176.0
1584.501465 220.0
1584.572754 152.0
1584.755005 148.0
1588.448242 152.0
1588.671387 224.0
1589.147461 148.0
1589.385498 184.0
1590.266357 200.0
1591.083862 188.0
1591.248901 204.0
1592.537109 164.0
1593.421997 128.0
1594.547119 184.0
1594.793579 176.0
1595.11145 200.0
1596.852783 160.0
1597.111084 176.0
1599.765015 180.0
1601.309692 140.0
1601.63623 140.0
1602.488647 156.0
1604.162231 172.0
1604.473145 164.0
1605.294312 156.0
1605.477783 140.0
1605.724976 188.0
1606.53064 180.0
1607.280518 156.0
1607.504028 152.0
1608.078613 156.0
1609.643311 152.0
1609.866089 164.0
1611.04895 156.0
1611.128784 148.0
1613.534302 148.0
1615.957642 196.0
1616.421753 156.0
1616.493774 168.0
1617.06189 188.0
1617.22998 272.0
1619.239624 172.0
1619.624023 164.0
1619.680054 156.0
1620.244507 168.0
1620.841797 172.0
1621.058105 176.0
1621.53894 168.0
1622.621094 152.0
1622.877686 208.0
1623.783813 228.0
1624.032349 164.0
1626.383301 160.0
1627.34668 180.0
1628.446777 140.0
1629.113403 152.0
1630.029419 208.0
1630.141846 192.0
1630.640137 148.0
1630.744629 184.0
1630.953613 184.0
1632.818848 168.0
1633.039185 160.0
1634.154175 180.0
1635.272705 176.0
1635.973022 212.0
1636.077637 160.0
1636.464111 192.0
1636.737793 156.0
1637.719116 192.0
1637.889404 200.0
1638.993164 196.0
1639.549194 148.0
1639.831299 204.0
1641.54834 156.0
1642.22583 152.0
1642.325928 128.0
1644.098022 136.0
1648.369385 172.0
1648.984619 120.0
1649.145142 204.0
1649.306885 144.0
1650.23645 180.0
1650.398193 180.0
1651.012695 144.0
1651.454468 196.0
1652.635254 228.0
1652.792358 172.0
1653.72522 172.0
1654.184326 156.0
1655.25061 184.0
1655.941406 152.0
1656.419312 140.0
1656.702759 160.0
1656.767578 248.0
1656.91748 176.0
1657.513062 224.0
1658.234253 140.0
1660.05835 164.0
1660.577271 164.0
1661.3479 180.0
1661.709473 184.0
1661.875244 180.0
1662.727295 144.0
1663.29541 164.0
1663.376587 164.0
1663.498413 188.0
1663.791016 180.0
1664.361938 172.0
1664.521362 164.0
1664.675659 152.0
1665.049194 140.0
1665.479614 164.0
1666.668091 164.0
1667.583984 156.0
1667.795288 140.0
1669.161133 188.0
1669.242432 168.0
1670.494873 200.0
1671.221436 132.0
1671.967529 176.0
1672.325684 184.0
1673.39209 176.0
1675.515869 184.0
1677.326782 140.0
1677.775146 164.0
1678.141968 160.0
1678.296875 164.0
1678.745361 168.0
1679.316284 180.0
1679.471191 172.0
1681.127441 152.0
1682.057861 196.0
1682.580322 176.0
1682.76123 148.0
1682.874146 148.0
1683.168091 180.0
1683.862305 164.0
1684.474854 144.0
1685.103882 148.0
1685.332642 156.0
1685.675781 236.0
1685.994507 188.0
1686.942627 236.0
1687.533569 152.0
1687.931885 188.0
1688.177246 168.0
1689.526733 172.0
1690.099487 176.0
1690.168945 128.0
1691.343384 200.0
1691.695435 236.0
1692.751587 168.0
1694.340454 140.0
1694.848511 196.0
1695.077881 160.0
1696.454834 168.0
1696.610596 164.0
1696.887207 184.0
1698.029175 232.0
1699.505737 144.0
1700.309814 156.0
1700.933594 172.0
1702.370361 180.0
1702.526489 172.0
1703.175293 176.0
1703.388794 164.0
1705.66687 120.0
1706.782959 204.0
1707.029663 188.0
1707.177734 192.0
1708.350098 208.0
1709.719727 204.0
1709.876709 192.0
1709.958374 176.0
1710.081787 152.0
1710.806152 176.0
1711.06958 152.0
1711.851807 216.0
1712.008301 240.0
1712.370605 144.0
1712.906006 248.0
1713.0625 204.0
1714.496094 180.0
1714.694946 156.0
1714.974121 156.0
1715.494141 148.0
1715.670166 164.0
1716.045776 160.0
1716.441528 176.0
1716.845703 260.0
1717.167236 196.0
1717.620972 188.0
1719.031738 140.0
1721.293457 148.0
1721.78064 176.0
1722.564209 176.0
1722.73877 252.0
1724.424438 208.0
1724.4823 140.0
1724.581421 176.0
1724.740112 176.0
1725.300659 156.0
1725.72229 164.0
1726.284546 160.0
1726.516113 160.0
1726.664917 192.0
1726.78894 176.0
1727.008179 132.0
1727.276978 164.0
1727.450684 148.0
1727.81543 188.0
1728.054565 160.0
1728.261475 176.0
1728.493652 124.0
1728.609009 152.0
1729.78418 200.0
1729.941528 164.0
1730.877075 152.0
1731.050903 164.0
1731.199951 184.0
1731.763184 148.0
1732.127563 220.0
1732.591431 156.0
1732.840088 176.0
1733.113403 180.0
1733.245972 160.0
1733.411743 176.0
1734.083008 164.0
1734.736816 168.0
1734.895264 212.0
1735.865356 152.0
1736.080933 144.0
1736.589844 216.0
1737.092773 180.0
1737.499268 152.0
1738.138184 160.0
1738.246094 144.0
1738.802002 208.0
1739.665283 168.0
1739.793335 148.0
1740.271362 208.0
1741.193115 164.0
1741.599854 184.0
1742.394653 236.0
1742.696533 168.0
1742.887695 152.0
1742.966675 140.0
1743.37793 140.0
1743.577393 160.0
1744.042847 176.0
1744.100952 188.0
1744.200684 196.0
1744.317139 144.0
1744.815918 180.0
1745.356323 228.0
1746.743774 404.0
1747.136108 212.0
1748.112549 156.0
1748.583984 188.0
1748.900269 164.0
1749.532837 184.0
1750.1073 232.0
1751.040039 180.0
1752.056152 164.0
1752.139526 212.0
1752.206177 232.0
1752.880981 168.0
1753.18103 212.0
1753.606079 196.0
1755.665283 140.0
1756.919678 164.0
1757.016479 224.0
1757.492065 184.0
1757.984375 176.0
1758.677124 204.0
1759.445068 152.0
1759.742432 208.0
1759.937622 208.0
1760.029541 148.0
1760.413574 152.0
1760.622314 168.0
1762.776733 156.0
1763.061768 172.0
1763.479614 252.0
1764.307129 140.0
1764.86731 140.0
1764.942505 160.0
1765.251953 184.0
1766.707275 204.0
1767.359863 156.0
1768.34729 240.0
1768.523071 140.0
1768.682129 148.0
1769.175903 148.0
1769.449707 216.0
1770.029907 156.0
1770.766846 124.0
1771.294556 144.0
1771.822266 196.0
1772.515259 160.0
1773.498291 192.0
1773.791626 152.0
1774.068237 184.0
1774.135254 200.0
1774.416626 212.0
1776.231689 144.0
1777.112549 172.0
1777.469971 232.0
1777.557251 140.0
1777.708252 156.0
1779.05957 144.0
1779.218506 112.0
1780.154907 156.0
1780.848145 184.0
1781.839355 156.0
1782.217407 192.0
1782.444336 172.0
1782.687988 152.0
1782.982056 200.0
1783.8573 132.0
1783.94873 216.0
1784.116821 152.0
1784.50354 188.0
1784.999634 160.0
1785.08374 176.0
1786.614502 148.0
1786.737183 276.0
1786.926636 156.0
1788.285889 120.0
1788.381592 144.0
1788.785645 184.0
1789.795898 188.0
1789.871582 180.0
1789.964233 180.0
1791.118042 144.0
1791.55603 176.0
1792.668213 204.0
1792.954712 228.0
1793.399658 128.0
1793.738647 192.0
1795.77063 220.0
1795.829712 152.0
1796.017456 164.0
1796.200806 164.0
1798.073853 152.0
1798.698486 164.0
1799.091919 248.0
1799.373779 232.0
1799.652466 172.0
1800.16748 204.0
1800.79248 160.0
1800.868408 180.0
1801.704712 264.0
1801.924316 140.0
1802.144043 180.0
1802.634155 216.0
1803.13269 292.0
1803.318604 204.0
1803.622925 164.0
1804.282227 176.0
1804.349854 244.0
1804.468262 188.0
1804.578125 172.0
1806.328735 160.0
1806.48877 152.0
1806.811157 144.0
1807.343872 200.0
1808.020874 172.0
1808.393311 188.0
1808.554077 188.0
1808.86731 264.0
1808.943481 232.0
1809.027466 172.0
1809.967896 180.0
1810.577515 168.0
1810.755371 164.0
1811.085693 152.0
1811.61084 100.0
1811.729492 180.0
1812.949585 184.0
1813.127563 180.0
1813.576782 192.0
1813.636108 196.0
1814.509155 156.0
1814.661865 188.0
1814.848389 160.0
1814.916138 152.0
1815.128174 160.0
1816.120361 148.0
1816.442749 156.0
1816.832886 168.0
1817.25708 160.0
1817.621948 160.0
1817.800171 156.0
1817.969849 156.0
1818.198975 164.0
1818.343262 172.0
1818.496094 176.0
1818.886475 168.0
1819.175049 164.0
1819.854248 188.0
1820.057983 140.0
1820.202393 180.0
1820.372192 196.0
1820.499634 260.0
1820.686401 148.0
1821.494385 128.0
1821.985962 160.0
1822.886597 152.0
1822.946045 192.0
1823.634521 172.0
1824.450439 176.0
1824.530396 172.0
1825.147705 236.0
1825.283691 168.0
1825.496338 152.0
1826.038208 144.0
1826.474365 220.0
1827.707886 156.0
1827.963135 140.0
1828.184448 220.0
1828.405396 132.0
1828.490845 164.0
1830.874512 152.0
1831.010742 216.0
1831.13855 164.0
1831.530273 176.0
1831.965698 176.0
1832.578125 160.0
1832.667725 164.0
1832.808228 160.0
1833.145264 188.0
1833.56665 176.0
1834.470093 204.0
1834.580933 168.0
1834.896362 196.0
1834.981567 164.0
1835.426636 180.0
1835.765991 172.0
1836.26062 148.0
1836.465332 216.0
1836.5802 156.0
1837.02832 208.0
1837.216553 172.0
1837.416626 160.0
1838.043579 212.0
1838.444702 180.0
1839.699341 220.0
1839.946899 148.0
1840.074951 184.0
1840.245728 168.0
1840.646973 192.0
1841.4021 200.0
1841.55127 244.0
1841.977905 164.0
1842.543091 180.0
1842.625977 148.0
1842.936157 192.0
1843.379272 212.0
1843.662476 188.0
1844.072632 168.0
1844.619751 144.0
1844.765015 172.0
1845.953491 152.0
1846.030396 192.0
1846.115967 180.0
1846.492188 140.0
1846.680298 188.0
1846.825806 168.0
1847.45874 204.0
1848.15564 112.0
1849.105957 180.0
1850.625244 188.0
1850.779419 160.0
1851.751953 152.0
1852.34668 212.0
1852.482178 256.0
1853.700317 148.0
1853.777466 208.0
1854.128784 168.0
1854.445923 204.0
1856.126099 160.0
1856.23938 192.0
1856.623535 184.0
1857.060913 148.0
1857.17749 148.0
1857.250732 180.0
1857.661377 204.0
1857.798584 160.0
1858.00354 152.0
1858.236084 252.0
1858.896729 172.0
1859.291504 148.0
1859.660522 152.0
1860.158447 188.0
1860.501831 196.0
1860.716431 160.0
1860.785034 156.0
1860.991089 156.0
1861.068481 168.0
1861.171509 232.0
1861.832642 232.0
1862.45105 172.0
1862.597046 188.0
1862.665771 200.0
1862.854736 164.0
1864.298218 176.0
1864.719238 144.0
1865.105591 156.0
1865.767944 140.0
1866.143921 160.0
1866.412842 184.0
1866.636353 168.0
1867.547974 176.0
1868.038208 228.0
1868.135986 216.0
1868.279053 172.0
1868.408081 140.0
1868.468384 196.0
1868.551514 136.0
1868.811646 124.0
1869.168091 132.0
1869.387451 172.0
1870.0 220.0
1870.456177 148.0
1870.525024 264.0
1871.437622 140.0
1871.66272 168.0
1872.014526 212.0
1872.109253 176.0
1872.195312 160.0
1872.720703 148.0
1872.961914 160.0
1873.108276 188.0
1874.952148 168.0
1875.098633 172.0
1875.587769 148.0
1876.313965 148.0
1876.522217 156.0
1876.719238 164.0
1877.736816 216.0
1877.822998 156.0
1877.957397 256.0
1879.61731 180.0
1879.677734 152.0
1879.781372 160.0
1879.850342 172.0
1879.971191 216.0
1880.320312 208.0
1880.413818 180.0
1880.609741 188.0
1882.172363 172.0
1882.552246 156.0
1883.174072 144.0
1883.390015 176.0
1883.709595 160.0
1884.046509 212.0
1884.184692 200.0
1885.740112 156.0
1886.126465 172.0
1886.518066 200.0
1886.777344 156.0
1887.25293 160.0
1887.616089 152.0
1887.797607 168.0
1888.394409 140.0
1888.835449 156.0
1889.086304 140.0
1890.141846 208.0
1890.548584 228.0
1890.955322 224.0
1892.695312 176.0
1893.05896 188.0
1893.240845 168.0
1893.474731 152.0
1894.837646 160.0
1895.103149 156.0
1895.198486 144.0
1895.408203 240.0
1896.561523 196.0
1896.912598 248.0
1897.070435 184.0
1897.876709 172.0
1897.963501 336.0
1898.917358 156.0
1899.226074 148.0
1899.708862 220.0
1899.914917 168.0
1900.452759 156.0
1900.721802 172.0
1901.082031 124.0
1901.355225 144.0
1901.685059 152.0
1901.889404 168.0
1902.344727 152.0
1902.613892 152.0
1903.134766 160.0
1903.34314 192.0
1903.872803 216.0
1904.567627 156.0
1904.69043 200.0
1904.975952 224.0
1905.575317 188.0
1905.859863 220.0
1906.496338 192.0
1906.609375 148.0
1906.731079 176.0
1907.400269 128.0
1907.669678 176.0
1907.774048 212.0
1908.549194 152.0
1908.782593 144.0
1909.473999 232.0
1909.788452 164.0
1909.933228 104.0
1910.200195 140.0
1911.087524 184.0
1911.305054 228.0
1911.548706 144.0
1911.983887 152.0
1912.262451 224.0
1912.836792 160.0
1913.02832 140.0
1913.193726 176.0
1913.427856 160.0
1913.873535 180.0
1914.134033 160.0
1914.221069 164.0
1914.364136 196.0
1914.438843 152.0
1914.560669 184.0
1914.813232 140.0
1915.257446 144.0
1915.327148 140.0
1915.391968 164.0
1915.70166 140.0
1916.150879 180.0
1916.930176 236.0
1917.505371 180.0
1917.775513 200.0
1918.699585 160.0
1918.801636 156.0
1918.92981 128.0
1919.126709 200.0
1919.318604 160.0
1919.937622 208.0
1920.49585 180.0
1921.154663 152.0
1921.368164 180.0
1921.4729 180.0
1922.124146 136.0
1922.24292 172.0
1922.458862 176.0
1922.72937 192.0
1923.081909 108.0
1923.448608 204.0
1923.689453 176.0
1924.091064 172.0
1924.448975 156.0
1924.789551 196.0
1925.03418 164.0
1925.182495 140.0
1925.959717 188.0
1926.387695 160.0
1926.772095 148.0
1926.841309 152.0
1927.825317 224.0
1928.2052 188.0
1928.362427 152.0
1928.537231 196.0
1928.834473 244.0
1929.005859 128.0
1929.114136 140.0
1929.994751 160.0
1930.687988 196.0
1931.046509 184.0
1932.472412 160.0
1932.559937 180.0
1933.128662 160.0
1933.203003 208.0
1933.415771 148.0
1933.679932 164.0
1934.590332 156.0
1935.150635 172.0
1936.367798 200.0
1936.904541 124.0
1937.023193 160.0
1937.357544 144.0
1937.497681 172.0
1938.137329 168.0
1939.6604 228.0
1940.429199 172.0
1940.582642 144.0
1940.942139 160.0
1941.246338 156.0
1941.336792 156.0
1941.670044 144.0
1942.109985 148.0
1942.336548 148.0
1942.46814 176.0
1942.663452 120.0
1943.319092 232.0
1943.713989 188.0
1943.950928 160.0
1944.219849 172.0
1944.679321 140.0
1944.749512 216.0
1945.029297 136.0
1946.075073 184.0
1946.215576 140.0
1946.768677 176.0
1946.8302 152.0
1946.900391 160.0
1947.603027 192.0
1947.93689 156.0
1948.230347 100.0
1948.4552 176.0
1949.24585 156.0
1949.307373 196.0
1949.606201 140.0
1949.738037 196.0
1949.975342 164.0
1950.546631 140.0
1951.13562 184.0
1951.577759 152.0
1951.795044 252.0
1952.642822 172.0
1953.16687 204.0
1953.351685 224.0
1953.932251 160.0
1953.993774 208.0
1954.367065 244.0
1954.507202 180.0
1954.601562 160.0
1954.897705 172.0
1955.12793 176.0
1955.656982 148.0
1955.938599 208.0
1956.123413 152.0
1956.211548 168.0
1956.340942 188.0
1956.504639 212.0
1957.514526 140.0
1957.902222 140.0
1958.377563 168.0
1958.492065 208.0
1958.677002 144.0
1959.375 156.0
1960.21228 136.0
1960.359863 156.0
1960.602905 216.0
1960.941406 200.0
1961.175659 264.0
1962.695679 164.0
1962.986694 164.0
1963.224854 156.0
1963.577515 148.0
1963.70105 164.0
1964.080322 184.0
1965.421265 148.0
1965.968262 148.0
1966.470825 140.0
1967.239258 156.0
1968.413574 172.0
1968.89917 208.0
1970.674683 176.0
1970.746582 176.0
1971.328613 220.0
1971.55835 176.0
1971.698608 220.0
1972.015503 180.0
1972.263672 164.0
1972.404297 192.0
1972.521729 152.0
1972.707397 752.0
1972.937134 168.0
1973.379272 156.0
1974.254639 188.0
1974.334229 204.0
1974.57605 216.0
1974.891357 160.0
1974.994507 128.0
1975.112549 144.0
1975.245239 176.0
1975.678589 236.0
1976.227173 148.0
1976.592285 312.0
1976.687256 140.0
1976.917358 176.0
1977.801392 172.0
1978.259766 212.0
1978.652222 144.0
1978.758423 148.0
1979.723511 212.0
1979.874146 400.0
1980.50293 168.0
1980.928101 180.0
1981.158447 312.0
1981.444702 216.0
1981.769653 176.0
1981.875977 208.0
1982.391479 236.0
1982.821167 164.0
1982.957153 176.0
1983.063477 164.0
1983.196411 252.0
1985.563599 164.0
1986.051392 176.0
1986.246582 180.0
1986.592529 208.0
1986.994629 128.0
1987.497437 164.0
1988.092407 152.0
1988.766479 188.0
1989.654175 160.0
1990.053711 236.0
1990.175781 164.0
1990.320068 160.0
1990.408813 160.0
1991.550415 160.0
1991.707397 184.0
1991.891968 184.0
1992.087402 212.0
1992.673706 164.0
1993.535645 160.0
1993.661133 196.0
1994.291016 144.0
1994.877686 168.0
1995.03186 200.0
1995.239868 156.0
1995.820068 220.0
1995.882324 152.0
1996.238037 300.0
1996.958374 172.0
1997.456421 168.0
1997.6521 164.0
1997.732178 232.0
1998.146729 180.0
1998.42041 340.0
1998.557617 224.0
1998.682251 200.0
1998.95105 148.0
1999.573975 156.0
1999.841064 160.0
2000.953735 152.0
2001.016113 164.0
2001.942139 192.0
2002.137573 176.0
2002.158936 168.0
2002.814941 156.0
2003.206787 168.0
