>compound MLS000859957-01!N6-Cyclopentyladenosine
>formula C15H21N5O4
>ionization [M+H]+
>parentmass 336.166901
#inchi InChI=1S/C15H21N5O4/c21-5-9-11(22)12(23)15(24-9)20-7-18-10-13(16-6-17-14(10)20)19-8-3-1-2-4-8/h6-9,11-12,15,21-23H,1-5H2,(H,16,17,19)
#inchikey SQMWSBKSHWARHU
#Ion_Source LC-ESI
#Instrument qTof
#Compound_Source NIH Pharmacologically Active Library
#PI Dorrestein
#Data_Collector VP/LMS
#Scan -1
#Precursor_MZ 336.164
#ExactMass 335.159
#Charge 1
#CAS_Number N/A
#Pubmed_ID N/A
#Smiles OCC1OC(C(O)C1O)n2cnc3c(NC4CCCC4)ncnc23
#INCHI_AUX N/A
#Library_Class 1
#SpectrumID CCMSLIB00000085939
#IonMode Positive
#UpdateWorkflowName UPDATE-SINGLE-ANNOTATED-GOLD
#LibraryQualityString Gold
#TaskID d252d724072548979f1f6f1ced849daf
##Scan# 1255
#SpectrumFile p4-H05_GH5_01_18413.mzXML
#LibraryName Pharm_Active_Library.mgf
#MQScore -1
#Organism Pharm_Active_Library
#TIC_Query 0
#RT_Query -1
#MZErrorPPM -1
#SharedPeaks 0
#MassDiff 0
#LibMZ -1
#SpecMZ 336.164
#SpecCharge 0
#internalFilename spec-00000.mgf

>collision 10
44.907856 188.0
44.93045 28.0
44.954468 180.0
45.02758 188.0
45.089352 152.0
45.116913 136.0
45.138817 192.0
45.210438 156.0
45.23716 200.0
45.257912 152.0
45.268623 144.0
45.316845 156.0
45.355709 216.0
45.401299 144.0
45.437515 88.0
45.448166 128.0
45.495224 72.0
45.509647 156.0
45.561031 92.0
45.571781 92.0
45.583874 64.0
45.593281 224.0
45.622028 140.0
45.647728 248.0
45.708935 148.0
45.753349 180.0
45.781628 168.0
45.804523 112.0
45.824734 172.0
45.911007 204.0
45.920444 88.0
45.98386 244.0
45.994659 180.0
46.017609 180.0
46.039215 116.0
46.086494 292.0
46.142017 152.0
46.158134 68.0
46.177475 344.0
46.189243 252.0
46.211308 208.0
46.236599 132.0
46.265026 216.0
46.288555 272.0
46.319195 128.0
46.338455 160.0
46.366692 148.0
46.387337 196.0
46.428982 164.0
46.455673 148.0
46.461323 76.0
46.466206 136.0
46.475105 176.0
46.494106 148.0
46.541618 176.0
46.566494 176.0
46.595947 188.0
46.661186 152.0
46.719666 124.0
46.745518 92.0
46.765934 96.0
46.775463 144.0
46.795883 176.0
46.82312 144.0
46.899422 140.0
46.982605 136.0
47.0243 144.0
47.037189 44.0
47.065861 48.0
47.110935 336.0
47.134163 224.0
47.156029 184.0
47.1861 172.0
47.195671 188.0
47.221657 208.0
47.232597 156.0
47.254486 144.0
47.303757 152.0
47.342094 172.0
47.374969 108.0
47.420189 156.0
47.442036 180.0
47.453087 212.0
47.462685 112.0
47.487194 184.0
47.502701 160.0
47.520763 188.0
47.575195 120.0
47.584805 104.0
47.604027 80.0
47.615013 184.0
47.668594 128.0
47.694431 200.0
47.734577 172.0
47.771713 176.0
47.788223 64.0
47.816456 192.0
47.835018 168.0
47.888718 48.0
47.901115 140.0
47.981049 144.0
48.030693 108.0
48.048626 136.0
48.084507 176.0
48.132824 196.0
48.176632 240.0
48.298672 56.0
48.311649 168.0
48.353043 204.0
48.376163 116.0
48.401089 216.0
48.416527 160.0
48.448177 140.0
48.473118 188.0
48.517475 160.0
48.5355 148.0
48.556301 132.0
48.584042 176.0
48.613182 148.0
48.635387 192.0
48.663151 144.0
48.679817 104.0
48.73399 104.0
48.761784 152.0
48.778461 120.0
48.792366 216.0
48.802097 160.0
48.834743 236.0
48.859123 192.0
48.896694 72.0
48.908272 120.0
48.93985 192.0
48.971878 180.0
48.983025 140.0
49.009495 64.0
49.023952 140.0
49.043289 192.0
49.076401 164.0
49.160542 176.0
49.172657 144.0
49.252243 60.0
49.301147 72.0
49.331898 60.0
49.390629 40.0
49.431202 156.0
49.473194 192.0
49.502598 136.0
49.534031 136.0
49.587978 364.0
49.616772 132.0
49.669384 128.0
49.704456 176.0
49.763412 64.0
49.809757 160.0
49.847691 184.0
49.87038 112.0
49.89267 88.0
49.908134 120.0
49.93409 308.0
50.020687 252.0
50.031952 208.0
50.094986 200.0
50.11364 60.0
50.211311 196.0
50.269615 124.0
50.285686 252.0
50.311676 200.0
50.364754 184.0
50.380295 176.0
50.390182 140.0
50.439648 212.0
50.491962 164.0
50.501865 148.0
50.511765 164.0
50.543098 164.0
50.554211 152.0
50.602341 160.0
50.624458 168.0
50.649075 36.0
50.667492 108.0
50.714878 164.0
50.799335 152.0
50.819199 60.0
50.884487 176.0
50.94434 140.0
50.956924 28.0
51.006664 136.0
51.025368 128.0
51.11042 172.0
51.126141 132.0
51.15176 144.0
51.170269 128.0
51.218689 124.0
51.262856 228.0
51.291359 180.0
51.329853 128.0
51.354786 108.0
51.369705 196.0
51.439716 196.0
51.538261 156.0
51.548264 220.0
51.574333 184.0
51.608303 176.0
51.657532 208.0
51.672665 232.0
51.731342 180.0
51.758545 44.0
51.777443 144.0
51.802944 172.0
51.814407 140.0
51.858829 192.0
51.880333 88.0
51.909008 116.0
51.929089 64.0
51.960648 152.0
51.97356 196.0
51.996521 128.0
52.039585 116.0
52.101345 124.0
52.117149 192.0
52.130081 156.0
52.160267 244.0
52.253788 136.0
52.2854 212.0
52.327148 152.0
52.358826 200.0
52.38562 120.0
52.433746 136.0
52.489971 104.0
52.508018 132.0
52.520256 132.0
52.540451 72.0
52.559208 200.0
52.595798 136.0
52.651993 192.0
52.685707 124.0
52.707939 108.0
52.725281 88.0
52.822338 140.0
52.85688 172.0
52.88438 232.0
52.897408 124.0
52.93121 184.0
52.994442 208.0
53.046616 132.0
53.11042 144.0
53.140991 164.0
53.162651 64.0
53.188778 204.0
53.281719 160.0
53.335487 168.0
53.35854 220.0
53.376198 180.0
53.395103 188.0
53.421284 176.0
53.452473 124.0
53.480816 180.0
53.514431 208.0
53.534817 80.0
53.56686 204.0
53.588715 136.0
53.609112 176.0
53.63707 132.0
53.705338 140.0
53.738892 44.0
53.750565 380.0
53.771999 204.0
53.835236 64.0
53.931664 148.0
53.94482 176.0
53.988686 172.0
54.053051 216.0
54.076469 132.0
54.135834 248.0
54.176041 132.0
54.214138 188.0
54.239056 80.0
54.25518 344.0
54.301773 176.0
54.314133 180.0
54.351902 144.0
54.367085 208.0
54.391609 196.0
54.410694 136.0
54.425377 188.0
54.480282 168.0
54.528214 164.0
54.569374 144.0
54.61055 164.0
54.677643 100.0
54.704727 204.0
54.745953 176.0
54.770992 76.0
54.782551 184.0
54.805237 180.0
54.841721 200.0
54.933144 136.0
54.946423 120.0
55.070423 164.0
55.089626 148.0
55.151691 212.0
55.16795 136.0
55.199337 332.0
55.223579 208.0
55.284492 136.0
55.338093 176.0
55.398815 196.0
55.42104 128.0
55.432701 124.0
55.442249 128.0
55.457756 200.0
55.483196 180.0
55.518875 152.0
55.533707 96.0
55.547859 184.0
55.576782 204.0
55.610863 116.0
55.704411 124.0
55.720753 84.0
55.748985 160.0
55.799526 132.0
55.853024 156.0
55.870914 132.0
55.930439 144.0
55.959396 240.0
56.042133 264.0
56.067467 152.0
56.095787 120.0
56.107716 52.0
56.131573 104.0
56.162891 124.0
56.194218 140.0
56.207649 196.0
56.234512 128.0
56.270046 224.0
56.275948 180.0
56.367428 160.0
56.383869 160.0
56.409279 68.0
56.428715 140.0
56.466099 160.0
56.485287 164.0
56.561054 260.0
56.597382 220.0
56.641224 148.0
56.66819 196.0
56.687668 264.0
56.731136 196.0
56.795685 152.0
56.814819 160.0
56.848129 152.0
56.890007 160.0
56.930698 164.0
56.954731 108.0
57.017834 124.0
57.050903 76.0
57.077969 140.0
57.111053 232.0
57.157692 196.0
57.184784 176.0
57.288685 276.0
57.350128 236.0
57.368557 188.0
57.389469 156.0
57.394543 136.0
57.401115 188.0
57.481678 148.0
57.49828 132.0
57.516392 172.0
57.549603 232.0
57.560173 180.0
57.61414 236.0
57.717327 120.0
57.755135 192.0
57.811115 160.0
57.856525 40.0
57.874695 148.0
57.909527 220.0
57.974674 144.0
58.023705 220.0
58.064121 352.0
58.079288 236.0
58.106598 240.0
58.123287 84.0
58.168819 140.0
58.206776 140.0
58.244743 140.0
58.255379 172.0
58.285767 152.0
58.323761 212.0
58.381535 156.0
58.399212 180.0
58.424126 96.0
58.484997 172.0
58.498695 152.0
58.52634 224.0
58.547421 116.0
58.599552 72.0
58.663223 96.0
58.696766 200.0
58.753437 108.0
58.789989 144.0
58.817295 148.0
58.843246 92.0
58.858517 52.0
58.916557 148.0
59.029663 156.0
59.043427 132.0
59.054134 172.0
59.098499 192.0
59.138752 120.0
59.234314 180.0
59.274593 140.0
59.300644 136.0
59.315975 176.0
59.360435 148.0
59.375046 228.0
59.403381 144.0
59.444809 140.0
59.513885 196.0
59.533848 100.0
59.594021 184.0
59.628292 164.0
59.639862 56.0
59.661381 84.0
59.67522 136.0
59.68705 172.0
59.727509 136.0
59.769047 152.0
59.779819 136.0
59.801365 140.0
59.81522 204.0
59.878349 40.0
59.896511 172.0
59.916859 152.0
59.944595 156.0
59.955383 136.0
59.975418 120.0
59.998543 200.0
60.015503 172.0
60.031364 168.0
60.064854 192.0
60.126572 132.0
60.168251 156.0
60.213844 160.0
60.250004 124.0
60.267101 92.0
60.330467 212.0
60.362938 172.0
60.38459 120.0
60.404697 148.0
60.424809 36.0
60.437187 132.0
60.449566 76.0
60.508057 188.0
60.537807 132.0
60.562588 56.0
60.601318 112.0
60.619911 204.0
60.666981 228.0
60.681915 256.0
60.723785 192.0
60.782303 172.0
60.826195 220.0
60.861835 184.0
60.910046 92.0
60.92403 244.0
60.947334 208.0
60.967537 204.0
61.042156 172.0
61.069702 208.0
61.163513 348.0
61.18375 112.0
61.215 168.0
61.297455 152.0
61.336418 224.0
61.38163 420.0
61.414383 172.0
61.491829 212.0
61.505081 224.0
61.573586 196.0
61.587822 280.0
61.606388 64.0
61.629822 140.0
61.657951 64.0
61.73925 112.0
61.753326 136.0
61.803387 244.0
61.844074 148.0
61.925495 196.0
61.942726 148.0
61.961525 168.0
61.994431 56.0
62.005402 200.0
62.027344 168.0
62.047726 48.0
62.058701 160.0
62.101044 120.0
62.127037 140.0
62.192047 156.0
62.226585 160.0
62.246998 32.0
62.265842 152.0
62.301971 180.0
62.316113 208.0
62.32711 168.0
62.343594 176.0
62.366402 144.0
62.382118 172.0
62.431622 188.0
62.454456 252.0
62.49894 160.0
62.577206 56.0
62.626022 140.0
62.665775 172.0
62.700077 104.0
62.715836 188.0
62.812023 196.0
62.826221 212.0
62.853046 88.0
62.958813 100.0
62.971447 160.0
63.042542 172.0
63.105774 48.0
63.11684 120.0
63.143726 196.0
63.186436 152.0
63.23391 112.0
63.360592 148.0
63.376434 264.0
63.412884 68.0
63.444588 196.0
63.511929 284.0
63.542919 180.0
63.573067 108.0
63.599918 144.0
63.648495 140.0
63.715977 124.0
63.736629 196.0
63.765236 84.0
63.776363 180.0
63.830151 72.0
63.85268 180.0
63.87336 164.0
63.919498 184.0
63.96088 120.0
64.010231 52.0
64.022972 300.0
64.035851 140.0
64.067574 156.0
64.129723 124.0
64.1623 176.0
64.174362 176.0
64.220833 196.0
64.241341 140.0
64.284424 148.0
64.338692 152.0
64.353065 76.0
64.380211 92.0
64.456886 148.0
64.491013 160.0
64.517624 44.0
64.537689 160.0
64.570396 148.0
64.632782 184.0
64.65519 260.0
64.68998 240.0
64.706413 176.0
64.720825 176.0
64.865013 168.0
64.895477 132.0
64.976295 112.0
65.015884 192.0
65.094452 156.0
65.150986 140.0
65.214943 148.0
65.265793 152.0
65.27845 192.0
65.301765 176.0
65.327507 140.0
65.381516 340.0
65.412796 96.0
65.465927 216.0
65.507805 140.0
65.533913 176.0
65.581932 148.0
65.665771 248.0
65.765808 172.0
65.846107 164.0
65.864311 128.0
65.937019 92.0
65.977432 124.0
65.990364 188.0
66.014618 144.0
66.069611 172.0
66.09874 172.0
66.134346 164.0
66.15377 128.0
66.184563 184.0
66.35466 328.0
66.400063 120.0
66.484428 168.0
66.557396 160.0
66.609451 212.0
66.64357 212.0
66.677696 164.0
66.745972 104.0
66.811035 160.0
66.831367 144.0
66.867912 180.0
66.897285 72.0
66.913567 92.0
66.931473 172.0
66.947762 160.0
67.012917 124.0
67.045509 208.0
67.087891 108.0
67.102005 368.0
67.167793 160.0
67.18248 164.0
67.20858 196.0
67.270599 92.0
67.314682 120.0
67.368584 424.0
67.391457 144.0
67.502609 156.0
67.536957 120.0
67.563133 168.0
67.68425 116.0
67.728172 200.0
67.751404 208.0
67.787453 160.0
67.828423 120.0
67.92408 132.0
67.941147 196.0
68.017067 164.0
68.07946 140.0
68.104095 132.0
68.15995 260.0
68.178032 132.0
68.233917 96.0
68.283249 144.0
68.30957 276.0
68.335854 168.0
68.353989 136.0
68.415932 196.0
68.442879 164.0
68.480759 184.0
68.503822 220.0
68.516998 196.0
68.533478 164.0
68.545013 172.0
68.581268 188.0
68.596107 140.0
68.647217 92.0
68.665359 108.0
68.706596 92.0
68.75119 168.0
68.770332 128.0
68.790764 220.0
68.863617 164.0
68.904099 160.0
68.926193 208.0
68.937767 128.0
68.997269 216.0
69.018761 176.0
69.055145 188.0
69.068382 184.0
69.094849 120.0
69.152763 156.0
69.168053 152.0
69.197464 144.0
69.253769 208.0
69.317863 168.0
69.328323 144.0
69.382454 128.0
69.469261 324.0
69.485847 176.0
69.517998 204.0
69.533974 196.0
69.558868 204.0
69.57547 152.0
69.651688 148.0
69.668472 60.0
69.741592 132.0
69.766525 48.0
69.798744 148.0
69.854668 248.0
69.876297 148.0
69.8946 124.0
69.924553 180.0
69.9412 68.0
69.982819 60.0
69.994476 144.0
70.007797 184.0
70.034554 124.0
70.06443 140.0
70.09169 176.0
70.10775 168.0
70.122749 196.0
70.14521 152.0
70.162758 48.0
70.214455 164.0
70.272835 160.0
70.294525 156.0
70.306213 152.0
70.332962 144.0
70.379662 196.0
70.426422 220.0
70.449806 104.0
70.50161 160.0
70.513306 236.0
70.537025 272.0
70.553421 132.0
70.59021 276.0
70.606934 192.0
70.673851 152.0
70.695602 140.0
70.714508 176.0
70.806099 192.0
70.823441 220.0
70.852997 160.0
70.904945 160.0
70.926735 148.0
70.940147 200.0
70.95356 108.0
71.025665 156.0
71.087746 148.0
71.10453 116.0
71.134743 40.0
71.154884 232.0
71.183434 136.0
71.200226 152.0
71.280586 144.0
71.311111 64.0
71.356506 144.0
71.373314 212.0
71.385384 184.0
71.429817 188.0
71.465828 144.0
71.560089 120.0
71.576927 168.0
71.603874 200.0
71.765648 176.0
71.781555 120.0
71.84433 228.0
71.873604 156.0
71.892166 172.0
71.915237 196.0
72.015709 136.0
72.057648 84.0
72.072853 40.0
72.093132 180.0
72.116791 144.0
72.149887 208.0
72.192184 108.0
72.23008 188.0
72.260536 156.0
72.312996 220.0
72.329765 160.0
72.365471 180.0
72.412888 124.0
72.433212 128.0
72.449951 164.0
72.485214 208.0
72.577271 148.0
72.602707 60.0
72.692619 212.0
72.734474 188.0
72.750328 28.0
72.842033 156.0
72.874313 168.0
72.913399 156.0
72.932091 188.0
73.015404 76.0
73.074944 144.0
73.086853 156.0
73.112656 188.0
73.199203 112.0
73.240074 236.0
73.310928 192.0
73.335495 168.0
73.369591 168.0
73.5709 88.0
73.615295 128.0
73.632378 248.0
73.74234 132.0
73.823311 216.0
73.83918 64.0
73.864838 36.0
73.917877 184.0
73.950394 48.0
73.976646 244.0
73.989761 196.0
74.008598 120.0
74.033234 196.0
74.153313 136.0
74.181641 116.0
74.197067 140.0
74.209068 220.0
74.222786 248.0
74.291389 144.0
74.315414 152.0
74.346298 168.0
74.375481 116.0
74.408096 64.0
74.421829 248.0
74.542068 204.0
74.567848 104.0
74.585037 108.0
74.618744 212.0
74.645218 164.0
74.670464 200.0
74.675362 136.0
74.696815 112.0
74.750145 72.0
74.763916 64.0
74.846542 192.0
74.879265 136.0
74.948174 236.0
74.970764 184.0
75.005051 48.0
75.027458 188.0
75.113686 180.0
75.203415 124.0
75.252472 240.0
75.386482 192.0
75.402039 184.0
75.441795 220.0
75.504044 236.0
75.574966 92.0
75.610435 148.0
75.625153 200.0
75.692673 56.0
75.716919 152.0
75.744637 240.0
75.77755 160.0
75.838203 164.0
75.856857 200.0
75.888481 224.0
75.940506 164.0
76.020309 124.0
76.041138 188.0
76.123856 192.0
76.248322 216.0
76.275627 144.0
76.296486 196.0
76.336479 144.0
76.373856 212.0
76.395615 172.0
76.439117 136.0
76.546951 148.0
76.560974 148.0
76.590584 168.0
76.639366 152.0
76.686417 132.0
76.70385 68.0
76.719536 184.0
76.74395 168.0
76.852989 132.0
76.869537 176.0
76.974281 72.0
77.049385 220.0
77.101807 212.0
77.121033 232.0
77.136765 208.0
77.157745 188.0
77.169983 188.0
77.191528 112.0
77.213699 156.0
77.280174 164.0
77.316925 164.0
77.336174 188.0
77.416718 164.0
77.443581 200.0
77.455894 108.0
77.485809 188.0
77.528831 124.0
77.549866 188.0
77.562134 132.0
77.62175 72.0
77.714714 200.0
77.777893 176.0
77.892029 196.0
78.083618 184.0
78.125839 156.0
78.178627 164.0
78.223106 148.0
78.396996 156.0
78.449875 68.0
78.51107 68.0
78.52166 164.0
78.568039 140.0
78.626266 176.0
78.733963 184.0
78.760452 172.0
78.797554 100.0
78.831123 108.0
78.976105 176.0
79.052177 128.0
79.104797 176.0
79.144226 200.0
79.186729 184.0
79.202675 248.0
79.234062 128.0
79.267746 148.0
79.300125 208.0
79.323875 268.0
79.360397 196.0
79.385223 200.0
79.505859 164.0
79.55201 64.0
79.587517 180.0
79.614838 156.0
79.649681 148.0
79.699425 160.0
79.745628 88.0
79.763382 160.0
79.859421 180.0
80.021362 192.0
80.033752 188.0
80.052734 148.0
80.099724 116.0
80.158524 88.0
80.195946 200.0
80.236946 188.0
80.276291 184.0
80.302925 132.0
80.340385 176.0
80.401962 148.0
80.504601 184.0
80.527817 172.0
80.56176 140.0
80.610001 180.0
80.640381 164.0
80.677475 128.0
80.733353 132.0
80.772049 176.0
80.833534 160.0
80.897964 204.0
80.965057 248.0
81.016159 172.0
81.031013 192.0
81.044022 124.0
81.111137 76.0
81.139824 152.0
81.161339 52.0
81.186447 184.0
81.211555 152.0
81.247429 40.0
81.31562 192.0
81.340752 216.0
81.382957 120.0
81.403587 56.0
81.444901 76.0
81.488014 180.0
81.513168 172.0
81.547318 112.0
81.567085 248.0
81.583267 188.0
81.649796 80.0
81.696564 268.0
81.723557 152.0
81.741547 160.0
81.77034 108.0
81.849556 192.0
81.869362 200.0
81.905388 128.0
81.970245 192.0
81.999077 228.0
82.049759 140.0
82.091476 64.0
82.11216 172.0
82.173996 140.0
82.247719 388.0
82.259895 168.0
82.291321 140.0
82.343689 136.0
82.363556 356.0
82.403297 160.0
82.432213 80.0
82.453896 140.0
82.478058 348.0
82.506317 192.0
82.563507 96.0
82.600357 160.0
82.670921 112.0
82.696259 284.0
82.719788 204.0
82.780846 172.0
82.794434 160.0
82.816628 152.0
82.861046 128.0
82.946411 156.0
83.016937 136.0
83.046204 216.0
83.102196 176.0
83.12146 200.0
83.126251 124.0
83.212906 100.0
83.305534 148.0
83.3237 180.0
83.36731 168.0
83.397064 140.0
83.418205 180.0
83.4319 184.0
83.490936 204.0
83.563698 140.0
83.58007 100.0
83.606895 184.0
83.722061 128.0
83.754845 188.0
83.77124 248.0
83.807678 80.0
83.858704 180.0
83.877533 208.0
83.895164 248.0
83.942574 140.0
83.968102 208.0
83.98452 200.0
84.013702 192.0
84.061142 140.0
84.077568 148.0
84.091934 156.0
84.126205 204.0
84.165192 160.0
84.181625 156.0
84.207199 132.0
84.238251 208.0
84.262001 220.0
84.280273 116.0
84.31134 124.0
84.327789 116.0
84.354294 136.0
84.386284 168.0
84.408226 188.0
84.470413 136.0
84.56739 56.0
84.591187 192.0
84.659721 196.0
84.70472 44.0
84.726707 104.0
84.752357 132.0
84.770683 160.0
84.79084 156.0
84.935486 176.0
84.970551 80.0
85.030899 256.0
85.166695 132.0
85.200043 236.0
85.363625 224.0
85.385696 184.0
85.426163 52.0
85.473389 180.0
85.524284 136.0
85.597336 240.0
85.6502 176.0
85.70919 160.0
85.757614 80.0
85.792641 152.0
85.829514 176.0
85.855331 192.0
85.89222 108.0
85.908821 172.0
86.046501 132.0
86.065704 84.0
86.100792 156.0
86.122955 80.0
86.271019 128.0
86.35215 220.0
86.439636 220.0
86.479813 144.0
86.576088 160.0
86.596466 80.0
86.644623 136.0
86.666862 212.0
86.746552 52.0
86.857819 196.0
86.887497 184.0
86.90049 236.0
86.980286 140.0
87.006279 248.0
87.076843 172.0
87.13443 216.0
87.184601 152.0
87.214333 200.0
87.245941 168.0
87.262672 128.0
87.27755 132.0
87.346359 144.0
87.398453 180.0
87.420334 132.0
87.478485 132.0
87.538063 148.0
87.571587 300.0
87.608841 96.0
87.62561 124.0
87.679649 152.0
87.713196 180.0
87.741165 180.0
87.772858 60.0
87.82135 324.0
87.843735 100.0
87.963165 208.0
87.987846 164.0
88.007973 148.0
88.060257 100.0
88.114433 160.0
88.153671 144.0
88.220963 144.0
88.250877 100.0
88.278923 136.0
88.312592 120.0
88.441696 172.0
88.486626 148.0
88.544678 184.0
88.568192 144.0
88.666458 64.0
88.705818 152.0
88.73394 120.0
88.771721 188.0
88.85585 96.0
88.880241 176.0
88.895256 204.0
88.908394 152.0
89.012581 108.0
89.053123 184.0
89.143135 192.0
89.165688 168.0
89.223961 144.0
89.249687 132.0
89.349968 136.0
89.437202 204.0
89.482262 220.0
89.519379 224.0
89.532562 144.0
89.558929 72.0
89.602257 104.0
89.682503 212.0
89.747383 144.0
89.762474 172.0
89.786987 108.0
89.820938 100.0
89.931335 140.0
89.971909 160.0
90.015335 208.0
90.028557 120.0
90.106003 204.0
90.130684 188.0
90.145683 160.0
90.195892 120.0
90.242088 184.0
90.295036 160.0
90.325302 88.0
90.359352 208.0
90.417381 160.0
90.457764 188.0
90.506989 156.0
90.529709 192.0
90.54155 112.0
90.555336 164.0
90.573273 192.0
90.62632 108.0
90.679382 96.0
90.696442 136.0
90.722977 140.0
90.817795 144.0
90.874702 116.0
90.895576 136.0
90.944923 200.0
90.973396 148.0
90.998077 260.0
91.050461 248.0
91.195648 92.0
91.253326 188.0
91.267883 128.0
91.281197 188.0
91.300217 152.0
91.323036 180.0
91.35157 140.0
91.372902 344.0
91.395164 136.0
91.410599 172.0
91.501915 172.0
91.536278 196.0
91.55143 200.0
91.676025 188.0
91.757217 128.0
91.7967 176.0
91.84494 244.0
91.867836 72.0
91.967064 148.0
92.021515 352.0
92.073982 164.0
92.104584 212.0
92.132561 180.0
92.167587 176.0
92.28801 108.0
92.33773 156.0
92.377899 196.0
92.437218 124.0
92.506119 128.0
92.58271 204.0
92.624847 156.0
92.730232 52.0
92.789658 144.0
92.861259 176.0
92.882706 188.0
92.908562 36.0
92.945023 224.0
92.977646 124.0
93.03331 136.0
93.058495 156.0
93.106277 36.0
93.144691 212.0
93.236916 148.0
93.250366 204.0
93.290733 108.0
93.400345 180.0
93.413811 188.0
93.431732 140.0
93.446518 104.0
93.469604 188.0
93.512695 156.0
93.542747 124.0
93.568047 120.0
93.598579 148.0
93.625542 92.0
93.664062 136.0
93.684769 312.0
93.718002 128.0
93.74247 172.0
93.759674 180.0
93.775009 124.0
93.805489 132.0
93.829796 152.0
93.877998 184.0
93.968658 152.0
93.993744 148.0
94.020615 156.0
94.039352 2044.0
94.076736 208.0
94.097977 184.0
94.119217 64.0
94.157837 140.0
94.204193 192.0
94.254433 132.0
94.292213 384.0
94.312408 84.0
94.33947 188.0
94.354935 52.0
94.451324 100.0
94.507286 156.0
94.542564 124.0
94.645164 136.0
94.689705 128.0
94.71489 128.0
94.775093 52.0
94.792381 224.0
94.815643 76.0
94.838898 156.0
94.894958 148.0
94.943596 88.0
94.978508 116.0
95.019714 184.0
95.039398 52.0
95.093407 316.0
95.144257 184.0
95.186172 56.0
95.211418 56.0
95.225014 204.0
95.268105 176.0
95.332718 128.0
95.344627 128.0
95.396011 188.0
95.444618 164.0
95.557831 176.0
95.60997 224.0
95.624275 328.0
95.701462 96.0
95.715096 172.0
95.754044 156.0
95.794952 100.0
95.856995 180.0
95.888481 216.0
95.962555 64.0
95.978157 152.0
96.050316 192.0
96.069344 148.0
96.120552 184.0
96.1791 168.0
96.214241 56.0
96.241577 180.0
96.302742 212.0
96.360718 140.0
96.391983 192.0
96.50145 184.0
96.522957 160.0
96.560112 120.0
96.593369 136.0
96.622711 36.0
96.65464 212.0
96.737228 240.0
96.818153 104.0
96.858505 196.0
96.884041 224.0
96.912483 140.0
96.93248 188.0
96.963432 172.0
97.00264 180.0
97.024094 180.0
97.03051 164.0
97.067337 136.0
97.114403 132.0
97.137947 188.0
97.163445 188.0
97.227325 304.0
97.253716 204.0
97.36956 256.0
97.396538 288.0
97.44516 132.0
97.485474 40.0
97.569038 184.0
97.646683 220.0
97.725372 156.0
97.784409 256.0
97.813934 168.0
97.890717 232.0
97.93602 228.0
97.953743 216.0
98.020729 196.0
98.040436 128.0
98.075912 112.0
98.099739 184.0
98.135056 36.0
98.190277 224.0
98.208023 200.0
98.267204 188.0
98.328384 148.0
98.354042 120.0
98.39106 276.0
98.445343 328.0
98.559433 168.0
98.626633 144.0
98.640465 52.0
98.657471 220.0
98.733398 192.0
98.807602 216.0
98.850159 188.0
98.873863 144.0
98.896393 188.0
98.925331 208.0
98.939186 124.0
99.020233 164.0
99.046127 140.0
99.07386 180.0
99.117447 96.0
99.252632 240.0
99.283966 136.0
99.336418 156.0
99.349426 204.0
99.367279 144.0
99.397041 176.0
99.452454 152.0
99.486359 120.0
99.537987 64.0
99.551888 132.0
99.583664 144.0
99.630058 212.0
99.665291 136.0
99.722748 164.0
99.782379 144.0
99.809242 268.0
99.828117 160.0
99.879395 184.0
99.923592 128.0
99.937523 164.0
100.00518 108.0
100.019119 128.0
100.047104 204.0
100.096764 148.0
100.156464 160.0
100.18689 208.0
100.20282 180.0
100.284035 172.0
100.315926 180.0
100.335869 188.0
100.355804 260.0
100.403664 136.0
100.430565 148.0
100.45153 184.0
100.505402 64.0
100.5513 88.0
100.611183 252.0
100.687065 184.0
100.713028 144.0
100.738998 216.0
100.817795 92.0
100.834908 136.0
100.860893 124.0
100.874886 108.0
100.911057 192.0
100.97628 232.0
101.026871 88.0
101.058884 120.0
101.130928 148.0
101.148941 208.0
101.184975 156.0
101.21608 188.0
101.239952 212.0
101.313843 116.0
101.351219 136.0
101.388123 184.0
101.421127 168.0
101.468201 168.0
101.547684 148.0
101.573761 308.0
101.599838 176.0
101.619904 236.0
101.719307 144.0
101.772194 180.0
101.927116 208.0
101.945206 212.0
101.980453 148.0
102.015556 236.0
102.164368 332.0
102.28511 176.0
102.337456 220.0
102.456291 140.0
102.502632 240.0
102.548981 28.0
102.583252 192.0
102.629623 176.0
102.68042 148.0
102.704239 128.0
102.722359 216.0
102.748512 144.0
102.784943 44.0
102.82328 192.0
102.953148 160.0
102.972687 184.0
103.036743 192.0
103.079765 172.0
103.09391 168.0
103.158585 232.0
103.220169 332.0
103.243507 144.0
103.285988 72.0
103.314308 92.0
103.43573 200.0
103.555359 144.0
103.745674 368.0
103.792305 124.0
103.838951 152.0
103.861259 124.0
103.914268 124.0
103.955261 120.0
104.031372 188.0
104.082474 192.0
104.102783 124.0
104.236855 144.0
104.257011 144.0
104.261612 132.0
104.267776 168.0
104.336456 160.0
104.45237 184.0
104.555832 160.0
104.576492 152.0
104.71051 180.0
104.776054 56.0
104.838684 224.0
104.900368 204.0
104.95562 164.0
104.98922 320.0
105.11657 184.0
105.147179 188.0
105.175751 236.0
105.283134 128.0
105.39019 184.0
105.42289 164.0
105.449455 124.0
105.469894 184.0
105.527138 104.0
105.585037 128.0
105.620026 124.0
105.66008 120.0
105.676445 156.0
105.699547 208.0
105.741936 80.0
105.800659 168.0
105.832008 100.0
105.872963 64.0
105.887299 124.0
105.913925 156.0
105.948753 132.0
105.987366 208.0
106.073761 212.0
106.174225 164.0
106.263657 168.0
106.35273 172.0
106.372696 160.0
106.451279 172.0
106.488243 172.0
106.521111 148.0
106.543709 124.0
106.603065 180.0
106.623848 152.0
106.638237 76.0
106.665504 164.0
106.704483 124.0
106.731583 108.0
106.763649 156.0
106.778046 176.0
106.792442 196.0
106.806839 96.0
106.843872 176.0
106.93647 80.0
106.961174 136.0
106.994064 180.0
107.018814 112.0
107.041466 200.0
107.064117 160.0
107.192474 184.0
107.244141 64.0
107.261917 116.0
107.41658 192.0
107.532127 132.0
107.60025 140.0
107.62709 148.0
107.644569 172.0
107.686981 232.0
107.717964 108.0
107.784081 108.0
107.863739 132.0
107.959793 168.0
107.975739 208.0
108.034256 164.0
108.16256 196.0
108.18119 172.0
108.206032 208.0
108.230873 132.0
108.255066 164.0
108.288864 136.0
108.324074 160.0
108.440544 172.0
108.467064 56.0
108.541695 236.0
108.568657 120.0
108.589508 152.0
108.684822 156.0
108.701424 248.0
108.738976 128.0
108.755386 148.0
108.850891 212.0
108.919426 176.0
109.017601 200.0
109.050117 1260.0
109.104561 228.0
109.160515 124.0
109.247879 184.0
109.277 180.0
109.291565 120.0
109.34359 188.0
109.389389 164.0
109.416451 368.0
109.453926 228.0
109.637253 80.0
109.678932 164.0
109.709747 164.0
109.739395 140.0
109.797783 172.0
109.835327 168.0
109.856186 160.0
109.887566 192.0
109.920868 140.0
109.935471 64.0
109.975128 152.0
110.053276 92.0
110.11293 156.0
110.142174 224.0
110.156792 256.0
110.252907 172.0
110.292618 236.0
110.323975 156.0
110.339905 280.0
110.37207 296.0
110.409706 132.0
110.449631 184.0
110.480827 116.0
110.539413 124.0
110.590561 128.0
110.627319 188.0
110.651497 124.0
110.744781 172.0
110.776703 204.0
110.834671 148.0
110.916405 332.0
110.99572 164.0
111.065285 204.0
111.082069 104.0
111.117729 140.0
111.159698 116.0
111.177223 260.0
111.283539 160.0
111.505547 200.0
111.525131 208.0
111.585632 252.0
111.602921 180.0
111.625259 192.0
111.703865 172.0
111.840645 240.0
111.91433 164.0
111.939598 116.0
111.958939 152.0
111.99511 156.0
112.105446 44.0
112.20298 176.0
112.226173 148.0
112.257805 152.0
112.390778 108.0
112.445763 172.0
112.479149 132.0
112.484825 120.0
112.490761 204.0
112.618706 120.0
112.676308 192.0
112.707436 212.0
112.780617 140.0
112.829155 184.0
112.901917 176.0
113.001656 160.0
113.056351 212.0
113.138908 200.0
113.166428 100.0
113.257492 60.0
113.287148 80.0
113.3274 136.0
113.389809 216.0
113.403694 216.0
113.501213 120.0
113.588173 176.0
113.659706 132.0
113.747322 136.0
113.779167 176.0
113.834373 84.0
113.883224 116.0
113.953323 120.0
113.98307 124.0
114.002197 176.0
114.036201 140.0
114.076591 172.0
114.091469 292.0
114.136284 156.0
114.33609 140.0
114.377144 180.0
114.480858 156.0
114.502151 208.0
114.551147 308.0
114.617195 404.0
114.696045 204.0
114.730156 144.0
114.7631 160.0
114.794121 188.0
114.822815 96.0
114.844254 180.0
114.860237 372.0
114.875175 128.0
114.894371 200.0
114.966919 96.0
115.040535 164.0
115.246658 248.0
115.26162 184.0
115.344971 152.0
115.370621 140.0
115.42408 168.0
115.494652 152.0
115.590927 152.0
115.707657 180.0
115.730064 132.0
115.761299 184.0
115.781456 64.0
115.854286 116.0
115.892853 176.0
115.907852 48.0
115.957771 176.0
115.974289 168.0
116.00544 128.0
116.083626 156.0
116.142456 84.0
116.173714 176.0
116.196732 252.0
116.290627 132.0
116.32608 184.0
116.369019 92.0
116.384048 124.0
116.409813 204.0
116.43988 164.0
116.476395 48.0
116.548264 176.0
116.622513 132.0
116.646156 188.0
116.695602 132.0
116.766907 176.0
116.835403 92.0
116.886322 156.0
116.953758 340.0
116.981743 124.0
117.022697 184.0
117.050644 164.0
117.102325 148.0
117.130325 140.0
117.233749 136.0
117.277847 260.0
117.317589 156.0
117.343735 156.0
117.382599 84.0
117.408371 244.0
117.466614 100.0
117.50544 172.0
117.529175 168.0
117.628456 212.0
117.654358 152.0
117.691063 160.0
117.809074 144.0
117.835487 148.0
117.902771 148.0
117.920059 208.0
117.965454 172.0
117.982742 172.0
117.997879 100.0
118.110336 36.0
118.196877 72.0
118.222839 136.0
118.287773 184.0
118.402534 64.0
118.441521 228.0
118.504341 148.0
118.599487 124.0
118.605347 112.0
118.627876 124.0
118.645844 168.0
118.713501 196.0
118.814873 160.0
118.831741 108.0
118.881653 88.0
118.920715 204.0
118.951103 200.0
118.968361 160.0
119.004745 204.0
119.035477 20080.0
119.119148 52.0
119.140121 144.0
119.166107 212.0
119.20462 192.0
119.224785 144.0
119.248688 52.0
119.28347 52.0
119.303032 28.0
119.32695 320.0
119.369019 92.0
119.416107 200.0
119.463959 188.0
119.485115 136.0
119.518356 76.0
119.536682 60.0
119.584991 208.0
119.670723 124.0
119.703293 156.0
119.721397 248.0
119.833321 196.0
119.851509 100.0
119.873299 124.0
119.936501 112.0
119.9692 116.0
119.984459 148.0
120.038712 832.0
120.110947 200.0
120.144997 124.0
120.162788 152.0
120.187302 120.0
120.217857 208.0
120.272697 156.0
120.302979 272.0
120.333542 132.0
120.416527 40.0
120.468948 156.0
120.495171 104.0
120.562904 96.0
120.578209 208.0
120.599762 144.0
120.707191 180.0
120.726868 72.0
120.761864 92.0
120.801239 128.0
120.876785 112.0
120.917206 180.0
120.941284 152.0
120.956604 144.0
120.996307 148.0
121.035423 92.0
121.13398 104.0
121.171227 104.0
121.204094 228.0
121.2808 120.0
121.309296 140.0
121.337791 156.0
121.364273 204.0
121.405769 168.0
121.438667 108.0
121.502281 128.0
121.583366 176.0
121.664688 40.0
121.682045 172.0
121.719154 144.0
121.734612 128.0
121.789856 156.0
121.807434 32.0
121.901909 200.0
121.976639 156.0
122.053589 124.0
122.093582 128.0
122.165756 192.0
122.233963 132.0
122.256645 180.0
122.280174 108.0
122.319801 176.0
122.346214 200.0
122.388046 116.0
122.432159 128.0
122.481506 128.0
122.520203 120.0
122.548843 236.0
122.614952 164.0
122.678871 192.0
122.722351 144.0
122.767845 160.0
122.810448 216.0
122.833771 232.0
122.866333 176.0
122.928116 132.0
122.96563 168.0
122.992119 144.0
123.080429 172.0
123.106926 88.0
123.142265 136.0
123.16214 212.0
123.179817 328.0
123.274818 100.0
123.366447 212.0
123.401604 188.0
123.427345 164.0
123.460518 172.0
123.532028 364.0
123.679558 116.0
123.723831 136.0
123.76812 132.0
123.794685 232.0
123.825691 184.0
123.87664 176.0
123.898796 320.0
123.974129 120.0
124.029305 152.0
124.120438 220.0
124.189194 88.0
124.245697 156.0
124.288795 156.0
124.333405 172.0
124.486588 308.0
124.555443 208.0
124.573967 224.0
124.607811 216.0
124.64209 152.0
124.673195 92.0
124.704315 104.0
124.733208 224.0
124.775452 172.0
124.795456 192.0
124.813248 64.0
124.846603 188.0
124.91333 84.0
124.935577 228.0
125.01532 196.0
125.05574 180.0
125.09581 160.0
125.12252 204.0
125.151466 116.0
125.265053 52.0
125.289558 168.0
125.313324 252.0
125.392059 112.0
125.428322 164.0
125.465622 96.0
125.502007 212.0
125.565964 152.0
125.599426 92.0
125.634659 136.0
125.657249 356.0
125.726601 100.0
125.787338 228.0
125.856071 132.0
125.969978 96.0
126.117462 140.0
126.206886 128.0
126.233719 32.0
126.273972 128.0
126.298576 172.0
126.323181 144.0
126.347794 200.0
126.419395 160.0
126.49102 168.0
126.580574 168.0
126.614166 112.0
126.670158 120.0
126.72393 204.0
126.815811 88.0
126.835983 140.0
126.85392 200.0
126.883064 204.0
126.902443 124.0
126.986214 80.0
127.075943 128.0
127.096138 168.0
127.118576 88.0
127.141022 184.0
127.196548 184.0
127.219582 232.0
127.242035 132.0
127.273468 196.0
127.293678 168.0
127.320625 132.0
127.350243 128.0
127.472054 224.0
127.527328 136.0
127.545311 180.0
127.576782 252.0
127.592522 124.0
127.618279 208.0
127.659973 152.0
127.770195 120.0
127.80619 196.0
127.855072 100.0
127.979507 124.0
128.0923 380.0
128.114639 168.0
128.141678 40.0
128.216049 168.0
128.349045 144.0
128.432495 208.0
128.448288 200.0
128.464081 196.0
128.482117 168.0
128.513702 84.0
128.53627 220.0
128.558838 168.0
128.628311 184.0
128.660416 156.0
128.698792 192.0
128.836563 132.0
128.86142 156.0
128.954071 148.0
129.019577 180.0
129.02832 176.0
129.046692 296.0
129.110077 112.0
129.137222 112.0
129.166199 148.0
129.200562 188.0
129.218658 84.0
129.291061 144.0
129.318222 244.0
129.363495 252.0
129.420105 204.0
129.456329 68.0
129.524277 212.0
129.61264 192.0
129.712357 132.0
129.73848 192.0
129.771301 108.0
129.800781 128.0
129.886963 176.0
129.961838 120.0
129.995865 196.0
130.023102 140.0
130.045792 160.0
130.100281 192.0
130.155685 160.0
130.243347 92.0
130.276245 232.0
130.302689 164.0
130.325134 204.0
130.384216 144.0
130.454681 224.0
130.488785 136.0
130.561539 260.0
130.607498 196.0
130.659363 148.0
130.677551 184.0
130.773132 132.0
130.864197 164.0
130.98262 248.0
131.053238 148.0
131.119324 148.0
131.153519 132.0
131.180588 64.0
131.212784 176.0
131.285751 220.0
131.379272 180.0
131.408936 212.0
131.427185 84.0
131.459137 164.0
131.51619 104.0
131.577835 120.0
131.621216 112.0
131.711258 196.0
131.738846 180.0
131.762833 80.0
131.801666 204.0
131.840515 80.0
131.884857 240.0
131.931946 148.0
131.964661 184.0
131.99675 200.0
132.025696 348.0
132.048569 144.0
132.142365 208.0
132.158371 120.0
132.188126 152.0
132.208725 152.0
132.249924 116.0
132.293411 172.0
132.341492 152.0
132.389328 180.0
132.514694 200.0
132.584305 140.0
132.620987 144.0
132.705795 192.0
132.739166 152.0
132.762344 140.0
132.875534 184.0
132.921417 124.0
132.971909 104.0
133.017807 128.0
133.048843 356.0
133.11586 120.0
133.144104 144.0
133.167572 128.0
133.27832 180.0
133.403915 108.0
133.442825 176.0
133.548615 88.0
133.573914 144.0
133.590027 188.0
133.626831 136.0
133.711975 180.0
133.781021 392.0
133.863922 180.0
133.882339 168.0
133.917358 156.0
133.957672 148.0
133.96402 104.0
133.989624 280.0
133.994293 160.0
134.002716 216.0
134.023651 164.0
134.045898 164.0
134.089371 204.0
134.143799 224.0
134.163452 156.0
134.2211 160.0
134.24646 104.0
134.264908 108.0
134.283203 240.0
134.345581 148.0
134.382553 140.0
134.434525 168.0
134.470245 156.0
134.516418 168.0
134.541809 160.0
134.58017 220.0
134.603409 188.0
134.636475 176.0
134.654953 148.0
134.698212 188.0
134.70285 136.0
134.746277 180.0
134.792511 184.0
134.826752 56.0
134.851349 180.0
134.89064 40.0
134.916077 104.0
135.024475 164.0
135.038239 48.0
135.069595 176.0
135.106293 124.0
135.142731 228.0
135.165863 176.0
135.202896 176.0
135.251831 124.0
135.285065 208.0
135.311691 148.0
135.372803 192.0
135.410507 196.0
135.419342 132.0
135.454208 200.0
135.485138 108.0
135.494034 168.0
135.5121 76.0
135.553116 156.0
135.572922 360.0
135.594299 220.0
135.610107 176.0
135.637711 168.0
135.668289 204.0
135.703201 176.0
135.746338 220.0
135.784225 312.0
135.801804 368.0
135.826492 228.0
135.837036 240.0
135.843491 216.0
135.884903 260.0
135.903381 340.0
135.924591 436.0
135.950745 368.0
135.987839 452.0
136.0056 480.0
136.06279 214252.0
136.131943 232.0
136.149231 188.0
136.185196 100.0
136.221878 240.0
136.27449 268.0
136.303741 108.0
136.347916 168.0
136.378799 72.0
136.417908 560.0
136.445404 5276.0
136.47403 260.0
136.502167 168.0
136.533188 100.0
136.560257 108.0
136.613663 72.0
136.621735 208.0
136.63974 152.0
136.656967 92.0
136.695099 136.0
136.71933 68.0
136.749832 120.0
136.773956 172.0
136.778351 156.0
136.803879 136.0
136.826752 200.0
136.858536 192.0
136.896591 80.0
136.925583 44.0
136.964066 92.0
136.97139 60.0
136.978378 180.0
137.020813 256.0
137.027222 244.0
137.063934 23972.0
137.100311 112.0
137.135269 64.0
137.19072 112.0
137.213135 140.0
137.252426 124.0
137.278976 84.0
137.297287 88.0
137.321625 108.0
137.344635 100.0
137.379013 76.0
137.398773 68.0
137.453705 52.0
137.513123 48.0
137.536469 64.0
137.568878 92.0
137.601822 76.0
137.620514 44.0
137.639191 40.0
137.668961 128.0
137.686768 96.0
137.705811 76.0
137.721573 116.0
137.736298 76.0
137.762268 124.0
137.782211 68.0
137.787018 96.0
137.809265 196.0
137.8284 96.0
137.847092 116.0
137.868118 76.0
137.901001 120.0
137.926407 176.0
137.941635 104.0
137.969208 268.0
137.987778 212.0
138.027451 208.0
138.061996 584.0
138.117874 68.0
138.145538 104.0
138.17981 124.0
138.197754 216.0
138.203125 292.0
138.237625 76.0
138.256226 112.0
138.273239 84.0
138.299194 124.0
138.33667 112.0
138.353424 144.0
138.399612 284.0
138.471741 180.0
138.531387 60.0
138.546692 160.0
138.60527 56.0
138.65213 32.0
138.689636 104.0
138.809204 60.0
138.827972 120.0
138.85376 40.0
138.884262 148.0
138.955704 96.0
138.978943 136.0
139.053192 112.0
139.078568 148.0
139.177765 64.0
139.214539 116.0
139.344376 176.0
139.417221 80.0
139.55246 188.0
139.602951 132.0
139.692322 32.0
139.737198 56.0
139.812317 132.0
139.840561 60.0
139.934723 176.0
139.951614 208.0
140.219772 76.0
140.281052 148.0
140.314056 72.0
140.337631 64.0
140.375366 124.0
140.415451 104.0
140.578232 52.0
140.634888 64.0
140.851242 156.0
140.915909 112.0
141.125702 116.0
141.147552 48.0
141.270538 160.0
141.353348 184.0
141.448013 124.0
141.47406 112.0
141.611404 40.0
141.701416 148.0
141.914734 100.0
141.933701 120.0
142.132965 132.0
142.422592 208.0
142.496246 104.0
142.783875 52.0
142.900436 176.0
142.920883 168.0
142.950409 120.0
143.097992 124.0
143.159897 64.0
143.178955 44.0
143.197998 132.0
143.255173 120.0
143.326645 48.0
143.374908 128.0
143.462509 164.0
143.481567 88.0
143.55072 36.0
143.666458 132.0
143.918198 60.0
143.942078 108.0
143.980286 108.0
144.023285 76.0
144.256058 88.0
144.279068 108.0
144.329193 344.0
144.415283 128.0
144.463364 176.0
144.494232 160.0
144.585159 156.0
144.606689 100.0
144.664139 44.0
144.745544 196.0
144.795837 48.0
144.889603 180.0
145.01387 136.0
145.17157 144.0
145.314606 88.0
145.364014 136.0
145.41922 48.0
145.474426 196.0
145.491226 72.0
145.668945 120.0
145.70018 216.0
145.726608 188.0
145.825836 108.0
145.945755 92.0
145.964569 144.0
146.029495 76.0
146.084824 52.0
146.106476 168.0
146.168167 156.0
146.197906 64.0
146.313446 116.0
146.453125 164.0
146.477203 52.0
146.539856 88.0
146.583221 64.0
146.776596 92.0
146.819473 232.0
146.887009 52.0
147.109024 48.0
147.208008 164.0
147.234573 128.0
147.31459 32.0
147.466522 84.0
147.532913 164.0
147.555969 92.0
147.701172 88.0
147.776062 180.0
147.8172 56.0
147.843811 36.0
147.914001 56.0
148.010849 40.0
148.032639 128.0
148.061859 136.0
148.11232 156.0
148.161011 132.0
148.203369 100.0
148.262787 168.0
148.301559 148.0
148.330658 184.0
148.352478 52.0
148.403381 88.0
148.711472 168.0
148.873169 168.0
149.029617 40.0
149.063766 140.0
149.469727 88.0
149.559769 116.0
149.688812 136.0
149.822769 180.0
149.983612 128.0
150.203064 76.0
150.264053 44.0
150.286011 176.0
150.312851 176.0
150.373871 52.0
150.542328 180.0
150.875961 96.0
150.89859 256.0
150.92244 108.0
150.996902 48.0
151.058044 164.0
151.163254 36.0
151.207306 28.0
151.258713 80.0
151.322357 228.0
151.487411 132.0
151.540344 92.0
151.797729 184.0
151.939987 72.0
152.018509 120.0
152.136322 48.0
152.292389 140.0
152.598206 256.0
152.726089 180.0
152.854019 132.0
152.979553 184.0
153.06572 180.0
153.139603 164.0
153.208572 52.0
153.230743 140.0
153.568481 152.0
153.672089 44.0
153.963364 108.0
153.99054 176.0
154.06958 128.0
154.479965 192.0
154.588837 180.0
154.776962 104.0
154.940445 180.0
155.344528 128.0
155.458664 72.0
155.545532 168.0
155.632431 188.0
155.709412 48.0
155.791382 156.0
155.854889 92.0
155.957886 188.0
156.079697 184.0
156.154312 68.0
156.355835 196.0
156.39566 124.0
156.527603 56.0
156.589859 184.0
156.764267 156.0
156.834045 156.0
156.881409 244.0
157.016052 212.0
157.063446 144.0
157.412857 148.0
157.441345 272.0
157.575226 176.0
157.622696 176.0
157.727661 132.0
157.98024 160.0
158.100342 100.0
158.250534 184.0
158.283081 96.0
158.611282 152.0
158.776764 192.0
158.796829 188.0
158.912231 76.0
158.944855 72.0
159.000061 120.0
159.143143 180.0
159.183319 104.0
159.218491 140.0
159.406906 160.0
159.457169 160.0
159.786575 84.0
159.829361 156.0
159.990433 104.0
160.068497 140.0
160.267487 160.0
160.338043 184.0
160.496872 176.0
160.542252 164.0
160.658279 220.0
160.756683 204.0
161.084915 112.0
161.393265 32.0
161.413483 148.0
161.55513 164.0
161.795547 272.0
161.843658 96.0
161.937363 104.0
162.02095 148.0
162.067627 180.0
162.134979 136.0
162.183136 152.0
162.295242 180.0
162.340332 240.0
162.413879 200.0
162.540726 120.0
162.594025 148.0
162.695557 116.0
162.845383 244.0
162.919113 156.0
163.005432 168.0
163.160477 132.0
163.183365 68.0
163.465714 192.0
163.503876 168.0
163.56752 108.0
163.661713 156.0
163.806885 208.0
163.890961 108.0
164.079575 152.0
164.105072 28.0
164.222366 144.0
164.265732 120.0
164.477539 164.0
164.610291 160.0
164.697128 140.0
164.75589 48.0
164.817215 112.0
164.873428 152.0
164.993561 128.0
165.356812 212.0
165.425919 116.0
165.464325 128.0
165.658951 148.0
165.679443 92.0
166.087051 164.0
166.174271 68.0
166.345581 208.0
166.559357 128.0
166.66983 148.0
166.824036 136.0
166.890884 192.0
167.114655 132.0
167.472504 172.0
167.575546 180.0
167.611618 104.0
167.732742 136.0
167.771423 148.0
167.918396 184.0
168.093826 104.0
168.122208 176.0
168.209976 208.0
168.45787 92.0
168.517303 160.0
168.537964 104.0
168.581894 156.0
168.835251 136.0
168.912842 172.0
168.930954 200.0
169.096085 196.0
169.275192 68.0
169.464279 240.0
169.76239 84.0
169.980286 120.0
170.320404 132.0
170.458099 144.0
170.588058 164.0
170.767471 220.0
170.939026 212.0
171.090149 120.0
171.108368 64.0
171.374039 160.0
171.668594 172.0
171.762482 32.0
171.985275 180.0
172.012131 132.0
172.112213 64.0
172.130478 144.0
172.332779 144.0
172.579926 136.0
172.715912 112.0
173.024719 40.0
173.061371 152.0
173.092789 72.0
173.32103 240.0
173.679855 156.0
173.72789 168.0
173.824158 132.0
173.86615 140.0
173.897644 156.0
174.039398 120.0
174.357269 88.0
174.691208 112.0
174.864868 148.0
174.985962 96.0
175.009659 220.0
175.101822 140.0
175.452286 124.0
175.5103 208.0
175.539307 164.0
175.763519 140.0
175.853256 104.0
175.974686 80.0
175.993164 76.0
176.217682 248.0
176.460846 208.0
176.491119 208.0
176.672424 156.0
176.892075 168.0
176.950317 152.0
177.058884 192.0
177.135696 136.0
177.321182 184.0
177.366241 152.0
177.713654 116.0
178.074051 644.0
178.162354 176.0
178.292557 116.0
178.502563 192.0
178.65683 132.0
178.771255 88.0
179.078857 168.0
179.191971 60.0
179.349197 196.0
179.511826 156.0
179.561432 180.0
179.594513 136.0
179.834656 92.0
179.941437 228.0
180.072281 68.0
180.14975 176.0
180.866409 152.0
181.240356 152.0
181.329788 152.0
181.361954 164.0
181.493317 188.0
181.522812 176.0
181.745453 104.0
181.876953 120.0
181.909164 132.0
181.970917 140.0
182.070892 192.0
182.161591 160.0
182.355057 100.0
182.543259 232.0
182.583588 200.0
182.812271 124.0
182.941467 164.0
183.151505 56.0
183.235016 180.0
183.302383 212.0
183.32663 132.0
183.507233 96.0
183.57196 216.0
183.596222 44.0
183.666351 188.0
183.83902 28.0
184.038788 52.0
184.297012 144.0
184.384567 148.0
184.46843 156.0
184.622467 136.0
185.020233 188.0
185.039185 132.0
185.31546 72.0
185.673279 192.0
186.099319 160.0
186.474213 244.0
186.523132 120.0
186.778748 140.0
186.990982 196.0
187.056305 176.0
187.118927 108.0
187.328629 32.0
187.582062 56.0
187.661118 144.0
187.734741 76.0
188.384354 148.0
188.452667 192.0
188.594772 164.0
188.712326 100.0
188.931122 144.0
189.047989 196.0
189.306107 124.0
189.393753 124.0
189.845978 132.0
189.887115 92.0
190.103851 212.0
190.147766 64.0
190.304245 48.0
190.394852 192.0
190.430557 160.0
190.721817 196.0
190.75531 172.0
191.472961 148.0
191.690598 120.0
192.327698 72.0
192.700516 152.0
192.772354 136.0
193.084747 136.0
193.148361 224.0
193.41124 128.0
193.52475 164.0
193.624435 84.0
193.69368 64.0
193.751862 228.0
194.048416 172.0
194.092773 140.0
194.11496 116.0
194.289703 160.0
194.508942 164.0
194.539474 140.0
194.570007 124.0
195.050613 124.0
195.186844 68.0
195.275833 180.0
195.487274 52.0
195.540161 76.0
195.781937 180.0
196.047028 148.0
196.200333 136.0
196.336975 184.0
196.593628 128.0
197.099075 132.0
197.247208 108.0
197.384201 192.0
197.563202 124.0
197.99707 156.0
198.033478 196.0
198.148331 184.0
198.274429 148.0
198.33609 128.0
198.46225 124.0
198.703461 60.0
199.043091 148.0
199.279037 188.0
199.489822 132.0
199.87233 140.0
199.939865 56.0
199.965195 184.0
200.359436 108.0
200.658173 204.0
200.801361 160.0
200.945862 132.0
201.098251 168.0
201.575531 60.0
201.762085 192.0
201.869141 260.0
201.909119 84.0
202.064713 112.0
202.20903 100.0
202.268463 176.0
202.316589 96.0
202.497818 180.0
202.523315 84.0
202.554474 148.0
202.618744 64.0
202.642288 96.0
202.663681 160.0
202.853088 116.0
202.937057 248.0
203.031662 168.0
203.056168 92.0
203.076019 112.0
203.108032 176.0
203.175308 176.0
203.242111 160.0
203.285965 96.0
203.33989 184.0
203.375381 176.0
203.445709 268.0
203.494034 132.0
203.53009 168.0
203.561325 88.0
203.59462 140.0
203.62381 120.0
203.653351 140.0
203.661255 172.0
203.697662 116.0
203.732788 196.0
203.772324 296.0
203.810898 196.0
203.870972 184.0
203.910767 212.0
203.93309 216.0
203.966827 260.0
204.001587 248.0
204.013641 124.0
204.022552 284.0
204.031036 232.0
204.06131 364.0
204.080475 472.0
204.125076 159948.0
204.200684 116.0
204.226181 348.0
204.232468 208.0
204.269638 140.0
204.293182 108.0
204.329056 140.0
204.371567 292.0
204.413254 124.0
204.459885 200.0
204.493256 60.0
204.533676 164.0
204.558853 76.0
204.592209 1456.0
204.617035 72.0
204.667419 160.0
204.740097 88.0
204.773026 140.0
204.798386 108.0
204.836288 60.0
204.855789 124.0
204.907501 240.0
204.945145 176.0
204.972275 28.0
205.023727 200.0
205.047089 48.0
205.059204 112.0
205.070496 104.0
205.126877 21652.0
205.182419 196.0
205.212234 44.0
205.247696 84.0
205.285843 68.0
205.328903 68.0
205.351868 116.0
205.393921 72.0
205.436508 44.0
205.462036 52.0
205.48175 140.0
205.535583 72.0
205.588028 52.0
205.621994 68.0
205.640564 96.0
205.697189 76.0
205.766037 56.0
205.792587 96.0
205.851868 128.0
205.892426 44.0
205.947983 40.0
205.982269 64.0
206.005112 48.0
206.039078 72.0
206.065628 112.0
206.09021 124.0
206.129242 1996.0
206.188904 100.0
206.256851 88.0
206.333313 196.0
206.35527 124.0
206.412384 244.0
206.463089 108.0
206.503204 144.0
206.536255 144.0
206.598557 212.0
206.655197 144.0
206.683533 188.0
206.747314 128.0
206.801804 196.0
206.839798 172.0
206.936401 64.0
206.986145 88.0
207.02182 96.0
207.069199 44.0
207.089249 296.0
207.14415 48.0
207.213379 60.0
207.235352 48.0
207.272598 88.0
207.319992 80.0
207.370041 112.0
207.410172 144.0
207.478973 108.0
207.533447 84.0
207.560181 124.0
207.577881 80.0
207.673965 68.0
207.705521 132.0
207.747437 156.0
207.837494 116.0
207.869049 104.0
207.889145 72.0
207.958023 40.0
208.081467 200.0
208.115921 104.0
208.161865 132.0
208.233551 104.0
208.334198 88.0
208.371536 88.0
208.46637 76.0
208.66391 72.0
208.696335 116.0
208.914917 100.0
209.044388 52.0
209.248764 124.0
209.418655 88.0
209.80481 48.0
209.830994 140.0
210.026855 52.0
210.055695 60.0
210.904648 72.0
211.277695 64.0
211.480255 52.0
211.995773 116.0
212.047943 72.0
212.488724 68.0
212.517731 104.0
212.735413 92.0
212.778961 132.0
213.21759 56.0
213.493774 80.0
213.851624 156.0
214.12532 120.0
214.434158 92.0
214.819046 36.0
214.979523 60.0
216.186478 72.0
216.476303 80.0
216.602234 76.0
216.675476 88.0
217.575851 48.0
218.048782 60.0
218.078171 88.0
218.172241 68.0
218.341873 132.0
219.069839 108.0
219.136246 96.0
220.69014 60.0
221.074692 60.0
223.103531 92.0
223.148132 68.0
223.5616 116.0
224.264481 52.0
224.917725 108.0
225.852997 60.0
228.216202 148.0
228.372589 56.0
229.649689 92.0
230.340927 76.0
231.281342 92.0
232.111465 104.0
236.16507 72.0
239.855957 84.0
240.182816 60.0
240.210571 56.0
241.310028 152.0
242.418167 80.0
244.629639 116.0
246.138275 288.0
247.780792 44.0
250.2117 56.0
250.999405 72.0
252.129562 76.0
255.309418 92.0
255.68483 88.0
256.567169 68.0
257.233917 64.0
268.117279 168.0
269.295105 104.0
271.707672 44.0
273.311066 68.0
274.790497 128.0
275.559784 92.0
276.082062 80.0
276.806824 64.0
277.884094 72.0
281.185181 28.0
283.838104 32.0
284.059448 140.0
285.446564 64.0
296.295074 100.0
297.334076 96.0
300.455078 40.0
301.408051 40.0
302.01651 44.0
302.186035 116.0
304.352356 48.0
305.231506 100.0
305.356689 36.0
305.701111 100.0
305.843811 104.0
306.268616 76.0
309.226013 48.0
313.71521 56.0
317.78598 44.0
318.172852 132.0
318.666534 88.0
319.847229 84.0
319.996765 112.0
320.880341 44.0
321.529572 84.0
322.018707 68.0
322.729858 60.0
323.982544 64.0
324.416168 40.0
325.431519 52.0
325.471008 104.0
336.166901 820.0
337.165497 108.0
337.574677 132.0
338.031921 120.0
338.178314 128.0
339.409271 108.0
339.999878 92.0
340.121002 104.0
346.223145 140.0
349.460114 72.0
350.435608 84.0
352.084412 92.0
352.536469 36.0
353.561157 68.0
355.164764 128.0
355.611298 100.0
356.050568 136.0
357.934631 68.0
360.023834 124.0
362.266815 40.0
363.017273 36.0
365.299988 88.0
367.38382 60.0
369.98642 56.0
370.453644 68.0
372.264008 76.0
385.048523 44.0
386.819794 52.0
387.250519 92.0
387.583527 48.0
391.590637 32.0
392.639038 56.0
395.768829 52.0
396.014374 148.0
401.000824 36.0
402.716492 56.0
402.748444 64.0
404.323761 64.0
413.633789 64.0
415.38031 132.0
418.090424 64.0
424.426422 108.0
425.690308 96.0
428.479095 116.0
442.203857 52.0
444.39975 40.0
448.302032 80.0
456.336273 52.0
461.166321 116.0
462.954681 76.0
463.383026 104.0
470.488068 120.0
471.356232 100.0
479.545654 116.0
480.683929 112.0
481.102936 152.0
487.809998 80.0
498.457397 100.0
503.72818 120.0
505.72699 124.0
510.766022 100.0
510.833496 136.0
516.051575 52.0
516.766174 40.0
518.518677 48.0
521.100769 96.0
529.233337 76.0
532.135681 124.0
532.186218 100.0
550.627014 84.0
551.739136 56.0
554.074524 244.0
557.485779 44.0
558.073364 48.0
558.633057 80.0
560.101746 96.0
565.588684 32.0
568.726624 104.0
583.858459 104.0
588.214233 56.0
591.206055 108.0
592.891418 104.0
595.754272 88.0
597.883972 92.0
605.833313 68.0
606.323364 48.0
608.609375 72.0
610.693054 76.0
620.436096 68.0
620.470764 40.0
635.463562 76.0
641.26178 84.0
641.327271 120.0
658.21167 192.0
659.831421 36.0
661.145996 52.0
667.322205 96.0
674.374451 132.0
675.098267 244.0
686.398315 40.0
686.68512 188.0
694.683105 92.0
698.407471 36.0
705.753845 84.0
708.378967 84.0
708.479614 96.0
710.144104 56.0
710.260803 216.0
710.817871 40.0
718.693237 188.0
719.152161 80.0
720.375 52.0
721.614929 160.0
723.219788 208.0
741.457397 64.0
742.547119 212.0
746.778198 80.0
747.392944 128.0
747.83374 72.0
748.203918 100.0
749.200562 76.0
753.986023 56.0
759.905579 56.0
767.435425 36.0
770.769409 64.0
777.703247 104.0
777.797607 108.0
780.809082 188.0
780.892517 252.0
784.422791 88.0
788.972595 80.0
791.708801 156.0
792.582703 172.0
793.199219 164.0
795.734985 88.0
799.484314 204.0
807.105469 40.0
810.581116 236.0
815.291321 204.0
829.010803 84.0
831.700745 196.0
840.621643 160.0
840.990967 68.0
841.291138 80.0
843.052856 152.0
844.8974 112.0
845.476013 236.0
847.781006 112.0
848.830261 216.0
849.01001 244.0
851.250122 140.0
855.087097 160.0
855.360718 200.0
862.09729 180.0
862.214172 208.0
862.488892 148.0
863.781189 172.0
865.027649 168.0
866.720276 48.0
870.0224 196.0
874.584106 52.0
874.81366 180.0
875.237549 156.0
875.484924 156.0
876.244751 80.0
877.736023 196.0
880.367981 176.0
882.968323 140.0
885.347534 56.0
886.218323 176.0
887.551941 48.0
888.732361 128.0
891.832397 108.0
892.456604 80.0
893.437988 192.0
895.551208 72.0
895.61676 48.0
897.225708 176.0
901.965698 192.0
902.467896 268.0
904.023193 88.0
904.549866 192.0
905.274353 216.0
905.747498 140.0
907.767334 88.0
908.451111 176.0
909.153137 80.0
909.207092 92.0
910.828247 36.0
919.818665 120.0
923.105408 208.0
923.438049 192.0
927.743408 196.0
929.180786 176.0
932.441711 64.0
933.140747 120.0
935.641357 116.0
938.248901 212.0
938.401306 140.0
939.389282 72.0
941.41571 92.0
943.548218 204.0
945.51178 172.0
946.007629 236.0
946.295349 136.0
948.035034 204.0
952.200745 100.0
952.980896 116.0
954.50531 192.0
957.292969 88.0
961.664124 196.0
963.152222 168.0
966.80011 156.0
970.467285 172.0
973.979919 160.0
976.005981 40.0
977.293579 52.0
979.142456 36.0
981.360901 132.0
982.508484 56.0
987.143127 188.0
988.237793 96.0
989.727539 168.0
992.428162 292.0
992.622498 128.0
994.856201 168.0
995.1073 40.0
998.305725 152.0
1000.956177 240.0
1002.548828 108.0
1006.952515 164.0
1008.519531 112.0
1009.436218 136.0
1009.556396 168.0
1010.638123 68.0
1011.549438 140.0
1011.802673 168.0
1012.340881 124.0
1019.166443 168.0
1020.74292 164.0
1022.524231 200.0
1022.976135 212.0
1026.569702 232.0
1026.665405 192.0
1026.709961 212.0
1026.875854 236.0
1027.717896 168.0
1027.985962 120.0
1028.962524 196.0
1029.837402 124.0
1030.105713 140.0
1030.527344 148.0
1032.547363 252.0
1033.110352 172.0
1034.191772 144.0
1034.473389 188.0
1034.607788 164.0
1036.196167 184.0
1037.356201 148.0
1037.792114 180.0
1038.324341 180.0
1038.689941 140.0
1039.472778 144.0
1039.678101 132.0
1039.90918 44.0
1042.111816 148.0
1042.690186 180.0
1043.108032 152.0
1045.886841 68.0
1050.391113 120.0
1050.571655 108.0
1050.6427 84.0
1051.584839 180.0
1052.456299 204.0
1053.373413 152.0
1055.667969 184.0
1056.974609 60.0
1058.049072 176.0
1059.221191 96.0
1059.35083 216.0
1061.437866 172.0
1064.059204 224.0
1064.526733 204.0
1064.909912 244.0
1066.898315 176.0
1067.424927 92.0
1067.984253 156.0
1069.259521 164.0
1069.55896 60.0
1069.624023 80.0
1069.897461 132.0
1070.327271 44.0
1072.718262 260.0
1073.442017 192.0
1073.689819 92.0
1073.877075 164.0
1074.139893 132.0
1075.242676 252.0
1076.665894 184.0
1077.1427 52.0
1077.397461 92.0
1079.554443 80.0
1080.980591 180.0
1082.067139 180.0
1082.446899 276.0
1082.748169 200.0
1084.766357 72.0
1086.589478 180.0
1086.812622 84.0
1087.147217 160.0
1088.092529 208.0
1089.189209 220.0
1090.279907 204.0
1090.996338 96.0
1092.522095 120.0
1094.028809 240.0
1094.417603 140.0
1094.674438 160.0
1095.563599 168.0
1097.415649 180.0
1097.784912 168.0
1098.338989 96.0
1098.424683 212.0
1099.750977 80.0
1099.971313 204.0
1100.96582 40.0
1102.346558 196.0
1102.888428 160.0
1103.873535 200.0
1104.442383 196.0
1104.898804 84.0
1105.45459 140.0
1105.792114 88.0
1106.328369 68.0
1106.374634 172.0
1106.705688 204.0
1106.838135 200.0
1107.235474 188.0
1108.620117 208.0
1109.150391 184.0
1109.461914 72.0
1109.853149 156.0
1110.383667 56.0
1110.702026 204.0
1111.352173 92.0
1112.228271 208.0
1113.157715 132.0
1113.210815 72.0
1115.190674 156.0
1115.649414 116.0
1116.453979 160.0
1116.586914 148.0
1116.693359 204.0
1117.152344 96.0
1117.491699 132.0
1117.744507 164.0
1118.017334 180.0
1118.569824 72.0
1118.736206 156.0
1120.521118 148.0
1121.487305 204.0
1121.920654 128.0
1122.227295 188.0
1123.814819 160.0
1125.50354 116.0
1127.942139 168.0
1129.975098 124.0
1130.316406 132.0
1130.677734 164.0
1131.347168 188.0
1131.70874 120.0
1132.64624 168.0
1133.14209 228.0
1133.979736 176.0
1135.884033 76.0
1136.662231 156.0
1137.521362 172.0
1139.025513 236.0
1139.435303 180.0
1140.255127 176.0
1141.465332 128.0
1142.157959 172.0
1144.244263 56.0
1145.011841 164.0
1146.392944 44.0
1147.956909 208.0
1148.732666 168.0
1149.30603 192.0
1151.061157 160.0
1151.425781 132.0
1153.081055 172.0
1153.227905 168.0
1153.932861 196.0
1154.778198 168.0
1155.3125 64.0
1156.219238 112.0
1156.909668 148.0
1157.69519 96.0
1158.088013 180.0
1158.718018 160.0
1160.67688 136.0
1161.09729 160.0
1161.395752 200.0
1161.578125 152.0
1162.39978 212.0
1163.940796 200.0
1164.239502 128.0
1164.66748 176.0
1165.639038 184.0
1165.788452 140.0
1166.264282 120.0
1167.590088 228.0
1168.964355 144.0
1169.270508 240.0
1169.331787 172.0
1169.391602 152.0
1169.883179 140.0
1170.61853 216.0
1170.822876 104.0
1171.326904 148.0
1171.388184 140.0
1171.72876 96.0
1172.4375 56.0
1172.526123 172.0
1172.96228 128.0
1173.910034 144.0
1174.435181 124.0
1176.393555 156.0
1176.90564 160.0
1176.967163 164.0
1177.178833 112.0
1177.69104 176.0
1178.449341 88.0
1178.667969 160.0
1178.75 200.0
1178.852539 96.0
1179.378784 188.0
1179.433472 220.0
1179.850464 192.0
1179.966675 140.0
1181.047119 216.0
1181.478149 200.0
1181.977661 136.0
1182.285522 92.0
1183.127441 132.0
1183.401367 172.0
1183.490356 164.0
1183.545166 252.0
1185.134277 124.0
1185.29187 148.0
1186.004639 120.0
1186.470825 108.0
1187.156494 192.0
1187.42395 168.0
1187.931519 140.0
1188.178467 204.0
1188.308838 184.0
1188.432373 192.0
1188.741211 140.0
1189.770752 76.0
1189.921753 108.0
1190.39563 144.0
1190.670288 196.0
1190.786987 104.0
1191.625122 36.0
1193.70105 104.0
1193.955444 160.0
1194.560791 152.0
1194.925415 164.0
1195.145508 168.0
1195.544678 124.0
1195.985107 116.0
1196.047119 36.0
1196.199341 164.0
1196.880127 164.0
1196.948975 108.0
1197.06604 68.0
1197.231323 192.0
1198.085449 168.0
1198.147461 68.0
1199.057129 136.0
1199.484375 80.0
1199.78772 116.0
1200.401367 152.0
1200.504883 184.0
1200.870361 232.0
1200.960083 136.0
1201.691284 68.0
1202.181274 144.0
1202.850708 68.0
1203.182129 104.0
1203.258057 272.0
1203.492798 152.0
1203.571655 156.0
1203.741333 212.0
1204.66687 216.0
1205.122925 172.0
1205.572021 220.0
1205.668823 72.0
1205.737915 212.0
1206.353149 148.0
1206.588135 160.0
1206.664185 176.0
1206.892334 148.0
1207.08606 104.0
1207.411011 148.0
1207.729248 172.0
1207.888306 184.0
1208.199585 192.0
1208.863892 204.0
1209.133789 164.0
1209.292969 200.0
1210.449097 220.0
1210.552979 140.0
1210.7677 148.0
1210.85083 136.0
1211.14856 92.0
1211.328735 188.0
1211.467285 164.0
1211.585083 196.0
1211.966064 160.0
1212.180908 144.0
1213.040405 76.0
1213.428589 144.0
1213.692139 124.0
1213.761475 144.0
1214.572876 128.0
1214.642212 160.0
1215.085938 172.0
1215.322144 160.0
1215.574951 224.0
1215.662109 168.0
1216.255127 168.0
1216.967163 136.0
1217.293579 116.0
1217.960327 116.0
1218.106201 80.0
1219.947754 132.0
1220.733398 272.0
1221.268921 224.0
1221.394165 136.0
1221.651489 104.0
1221.721069 152.0
1221.811523 216.0
1221.943726 228.0
1222.966675 184.0
1223.628052 136.0
1224.059692 144.0
1224.547241 180.0
1225.515625 236.0
1225.703735 156.0
1226.163696 56.0
1226.581909 120.0
1226.658569 140.0
1227.292969 180.0
1227.634644 148.0
1227.795044 152.0
1227.85791 112.0
1228.785645 256.0
1229.895264 148.0
1230.12561 108.0
1230.216309 32.0
1230.760864 248.0
1231.012329 148.0
1231.633911 136.0
1231.906372 212.0
1232.213745 120.0
1233.324829 68.0
1233.408813 140.0
1233.947021 176.0
1234.079956 208.0
1234.135864 56.0
1234.898071 168.0
1235.324829 136.0
1235.730591 36.0
1235.94751 100.0
1236.10144 112.0
1236.661377 132.0
1236.948364 200.0
1238.271729 84.0
1238.66394 180.0
1239.406616 124.0
1240.205566 124.0
1240.43689 168.0
1241.074829 124.0
1241.175659 184.0
1241.27124 196.0
1241.523682 140.0
1241.727051 200.0
1241.825195 160.0
1242.260132 172.0
1242.488403 140.0
1242.674072 192.0
1242.807373 156.0
1242.919678 160.0
1243.151245 164.0
1243.698608 168.0
1243.98645 124.0
1244.246216 140.0
1244.449829 40.0
1244.513062 184.0
1244.997559 152.0
1245.728027 112.0
1246.081421 224.0
1246.564209 60.0
1246.697754 156.0
1246.929565 92.0
1247.428711 52.0
1247.548218 140.0
1248.321655 168.0
1248.423462 192.0
1248.539673 100.0
1248.95459 184.0
1249.848145 208.0
1250.460327 184.0
1250.5448 180.0
1250.981201 216.0
1253.016602 152.0
1253.094116 116.0
1253.411133 132.0
1253.932617 128.0
1254.856079 164.0
1254.905518 68.0
1254.983032 176.0
1255.596558 104.0
1256.273682 132.0
1256.831055 200.0
1257.275635 168.0
1257.452148 156.0
1257.656738 120.0
1258.306274 160.0
1259.217163 140.0
1260.340454 108.0
1261.245117 40.0
1261.47937 144.0
1261.598511 236.0
1261.836182 144.0
1262.793579 140.0
1262.871338 184.0
1262.920898 224.0
1263.253418 220.0
1263.331177 128.0
1263.441162 192.0
1263.493896 164.0
1263.677856 52.0
1263.791992 60.0
1264.159058 152.0
1264.463379 124.0
1264.78894 44.0
1265.029663 160.0
1265.992554 172.0
1266.459961 180.0
1266.757568 76.0
1266.842529 96.0
1267.026733 120.0
1267.310181 136.0
1267.565186 56.0
1268.068359 88.0
1268.283081 168.0
1268.375854 164.0
1269.216919 136.0
1269.28064 132.0
1269.543091 160.0
1269.642334 152.0
1270.153076 232.0
1270.429688 144.0
1271.31665 120.0
1271.565063 152.0
1272.109863 160.0
1272.25354 212.0
1272.786133 228.0
1272.928101 156.0
1273.269043 128.0
1273.794678 128.0
1274.192505 176.0
1274.334595 132.0
1274.483765 96.0
1274.696899 112.0
1274.874634 148.0
1275.457397 160.0
1275.969238 116.0
1276.331909 140.0
1276.523926 148.0
1276.979004 100.0
1277.24939 164.0
1277.384521 244.0
1277.661987 100.0
1278.103027 228.0
1278.202759 168.0
1279.177734 148.0
1280.060669 164.0
1280.282349 148.0
1280.53064 84.0
1280.744385 140.0
1280.96521 44.0
1281.314209 164.0
1281.421143 220.0
1281.694214 156.0
1283.687866 76.0
1284.343994 76.0
1285.050293 164.0
1285.181152 112.0
1285.99939 92.0
1286.677612 220.0
1287.591553 168.0
1287.805908 108.0
1288.19873 140.0
1288.263062 200.0
1288.649658 172.0
1289.113281 164.0
1289.370605 128.0
1289.592163 136.0
1289.663574 168.0
1291.10791 268.0
1291.379639 252.0
1291.587036 188.0
1291.773071 180.0
1292.052124 128.0
1293.827026 160.0
1294.04895 172.0
1294.815186 204.0
1294.886719 116.0
1295.144653 108.0
1295.352417 268.0
1295.624634 68.0
1296.047363 132.0
1296.441406 132.0
1297.043457 124.0
1297.459351 160.0
1297.652832 144.0
1297.99707 188.0
1298.176392 192.0
1298.549316 120.0
1298.671265 216.0
1299.230713 156.0
1299.618164 164.0
1300.924438 128.0
1301.54187 104.0
1301.599365 176.0
1301.836304 48.0
1302.037354 232.0
1302.188232 132.0
1302.57605 104.0
1302.719727 164.0
1302.985596 156.0
1303.344849 208.0
1303.998779 196.0
1304.315063 188.0
1304.401367 116.0
1304.645752 144.0
1305.407959 176.0
1305.494263 108.0
1305.817871 148.0
1306.170288 100.0
1306.395996 232.0
1306.839355 132.0
1306.916748 196.0
1307.422241 156.0
1307.713013 172.0
1308.271606 164.0
1308.696411 148.0
1308.768433 172.0
1308.977173 148.0
1309.366089 108.0
1310.021606 80.0
1310.108032 64.0
1310.482666 196.0
1310.85022 100.0
1311.743896 128.0
1312.061157 108.0
1312.248535 128.0
1312.407227 136.0
1312.782227 124.0
1313.142822 204.0
1313.265381 148.0
1313.445679 184.0
1313.719849 140.0
1314.080566 208.0
1314.506348 128.0
1315.213623 192.0
1315.516724 224.0
1315.661133 96.0
1315.906616 220.0
1316.058228 120.0
1316.802124 52.0
1317.444946 212.0
1317.589478 140.0
1318.160278 128.0
1318.543335 132.0
1318.984253 212.0
1319.186646 160.0
1320.12439 208.0
1320.177246 184.0
1320.697998 224.0
1320.878784 100.0
1320.951172 108.0
1321.594971 160.0
1322.369385 172.0
1323.556641 128.0
1323.781128 128.0
1323.962158 100.0
1324.085327 36.0
1324.295288 132.0
1324.447388 88.0
1324.505371 172.0
1324.590698 128.0
1325.084961 200.0
1325.505249 168.0
1325.940063 112.0
1326.037231 164.0
1326.954834 212.0
1327.38269 156.0
1327.581177 416.0
1328.593994 116.0
1328.75354 136.0
1329.077637 220.0
1329.268799 116.0
1329.340576 140.0
1329.442993 140.0
1330.055664 204.0
1331.069092 184.0
1331.330444 192.0
1331.940552 252.0
1332.114868 240.0
1332.238403 108.0
1332.311035 88.0
1332.674316 84.0
1332.805176 144.0
1332.90686 176.0
1333.246338 220.0
1333.364746 184.0
1333.473755 240.0
1333.632446 176.0
1333.938965 184.0
1334.469604 144.0
1335.138672 212.0
1335.189575 72.0
1335.625977 140.0
1335.816772 104.0
1336.091553 136.0
1336.222534 208.0
1336.60083 152.0
1337.13208 72.0
1337.255859 152.0
1337.476807 160.0
1339.090698 32.0
1339.143433 184.0
1339.549561 180.0
1339.994019 168.0
1340.372925 156.0
1340.984985 196.0
1341.276611 232.0
1342.275391 124.0
1342.764038 120.0
1343.537231 164.0
1343.617554 216.0
1343.712402 124.0
1344.531616 76.0
1344.850098 196.0
1345.456665 168.0
1345.609985 120.0
1345.661133 152.0
1346.040283 160.0
1346.194214 192.0
1346.677734 224.0
1346.82959 188.0
1347.143677 168.0
1347.223999 52.0
1347.31897 156.0
1347.493774 156.0
1347.698975 236.0
1347.764771 220.0
1348.005859 192.0
1348.137451 184.0
1348.283569 172.0
1348.415161 120.0
1349.036377 180.0
1349.306885 148.0
1349.913818 208.0
1350.272217 152.0
1350.36731 64.0
1350.689087 132.0
1350.94519 128.0
1351.179199 76.0
1351.281738 80.0
1351.53772 160.0
1351.991455 156.0
1352.057373 180.0
1352.181763 48.0
1352.884521 124.0
1353.13208 156.0
1353.221313 184.0
1353.902222 232.0
1353.960815 100.0
1354.114624 172.0
1355.132935 36.0
1355.609253 88.0
1356.276123 184.0
1356.39624 172.0
1357.023926 104.0
1357.075317 136.0
1357.177979 140.0
1357.441895 176.0
1357.559204 120.0
1358.131348 160.0
1358.33667 224.0
1358.91626 60.0
1359.107056 136.0
1359.283203 144.0
1359.491943 236.0
1360.670044 148.0
1361.125732 172.0
1361.676514 76.0
1362.117188 200.0
1362.212646 160.0
1362.300781 96.0
1362.499146 128.0
1363.380981 196.0
1363.630859 148.0
1363.895874 200.0
1363.961548 132.0
1364.226196 56.0
1364.40271 236.0
1364.520264 52.0
1365.042358 144.0
1365.660156 156.0
1366.123657 196.0
1366.645996 144.0
1366.770996 164.0
1366.82251 160.0
1367.087524 124.0
1367.315674 140.0
1367.727783 144.0
1367.941284 176.0
1368.302002 128.0
1368.662842 124.0
1369.892822 48.0
1370.600098 48.0
1370.872681 64.0
1370.983276 152.0
1371.123291 60.0
1371.897217 216.0
1371.978638 140.0
1372.081543 144.0
1372.324951 84.0
1373.556519 116.0
1373.615479 164.0
1373.733521 180.0
1373.873779 184.0
1374.029907 92.0
1374.242676 144.0
1374.368042 184.0
1374.441895 216.0
1374.995361 132.0
1375.489868 92.0
1375.726074 192.0
1375.800293 216.0
1376.663818 76.0
1376.7229 192.0
1377.143921 156.0
1377.210327 144.0
1377.461914 156.0
1377.786499 188.0
1377.875244 140.0
1378.525513 192.0
1378.584595 92.0
1378.739746 168.0
1379.264526 136.0
1379.471558 148.0
1379.663696 248.0
1380.343994 336.0
1380.44751 396.0
1380.617554 52.0
1381.253662 220.0
1381.52002 168.0
1381.719727 196.0
1381.875122 176.0
1382.082275 80.0
1382.467163 156.0
1382.578125 168.0
1382.689087 124.0
1383.014771 180.0
1384.332642 172.0
1384.647949 188.0
1385.051025 76.0
1385.61084 204.0
1385.962402 212.0
1386.525513 120.0
1386.681152 96.0
1386.784912 228.0
1386.903564 28.0
1387.22229 148.0
1388.193604 152.0
1388.430908 148.0
1388.505127 224.0
1388.571777 208.0
1389.024292 180.0
1389.217163 192.0
1390.103394 196.0
1390.337646 172.0
1390.54541 144.0
1390.641846 232.0
1390.96106 144.0
1391.094727 276.0
1391.681274 52.0
1391.866821 120.0
1392.282715 176.0
1392.550049 132.0
1392.847168 72.0
1393.032959 28.0
1393.197266 164.0
1393.315186 64.0
1393.426636 172.0
1393.478638 48.0
1393.708984 160.0
1393.879883 208.0
1394.117676 164.0
1394.526489 180.0
1394.608276 136.0
1394.719727 148.0
1395.098877 180.0
1395.232666 148.0
1395.507812 160.0
1395.842407 196.0
1396.310913 188.0
1396.422485 168.0
1396.690308 192.0
1397.077026 124.0
1397.151489 188.0
1397.471436 100.0
1397.902954 112.0
1398.029541 196.0
1398.141113 176.0
1398.409058 172.0
1398.505859 128.0
1398.602539 204.0
1398.855713 172.0
1399.086426 184.0
1399.726807 84.0
1399.957642 120.0
1400.084229 168.0
1400.456665 180.0
1400.643921 184.0
1401.137573 180.0
1401.238892 152.0
1401.574097 204.0
1401.797729 264.0
1402.119019 132.0
1402.841187 140.0
1402.990234 144.0
1403.270142 128.0
1403.579346 176.0
1404.071533 112.0
1404.35498 136.0
1404.668213 180.0
1405.003906 116.0
1405.660522 160.0
1405.742554 132.0
1405.899292 36.0
1406.175415 264.0
1406.26355 200.0
1406.507446 168.0
1406.753662 96.0
1406.884644 164.0
1407.123535 116.0
1407.437134 116.0
1407.9375 204.0
1408.288452 144.0
1408.47522 68.0
1409.259644 136.0
1409.506226 156.0
1409.558594 168.0
1409.737915 244.0
1409.849976 172.0
1410.051758 232.0
1410.20874 76.0
1410.604858 128.0
1410.866577 96.0
1411.277832 112.0
1411.748901 148.0
1412.136475 220.0
1412.53418 200.0
1413.491943 120.0
1413.589233 148.0
1413.711548 224.0
1413.933472 168.0
1414.562134 144.0
1415.387329 168.0
1415.977417 168.0
1416.604736 412.0
1416.861328 36.0
1417.333374 304.0
1417.445679 156.0
1417.595581 108.0
1417.655518 144.0
1418.007812 108.0
1418.300171 168.0
1418.352539 160.0
1418.405029 92.0
1418.967285 112.0
1419.147217 168.0
1419.492188 252.0
1419.552246 148.0
1419.956055 164.0
1419.97522 140.0
1420.004883 220.0
1420.107178 232.0
1420.212158 192.0
1420.467285 164.0
1420.557251 180.0
1421.13501 92.0
1421.255005 120.0
1421.360107 128.0
1421.727783 144.0
1421.955811 180.0
1422.666016 72.0
1422.808716 104.0
1424.047729 224.0
1424.213013 88.0
1424.723755 192.0
1424.926636 160.0
1425.129517 184.0
1425.723145 156.0
1426.252563 232.0
1426.369507 104.0
1426.443481 196.0
1426.970947 172.0
1427.046143 136.0
1427.66272 372.0
1429.054443 116.0
1429.483276 176.0
1429.573608 148.0
1429.814453 136.0
1430.092896 128.0
1430.311279 92.0
1430.574707 176.0
1430.815552 168.0
1430.951172 132.0
1431.244751 76.0
1431.335083 148.0
1431.560425 236.0
1432.773804 160.0
1433.180664 124.0
1433.444336 148.0
1433.949341 160.0
1434.084961 92.0
1434.190552 156.0
1434.258301 168.0
1434.58252 176.0
1434.755859 108.0
1435.027344 184.0
1435.396729 156.0
1435.690918 36.0
1435.954834 136.0
1436.249023 40.0
1436.369751 160.0
1436.497925 212.0
1437.124146 224.0
1437.177002 120.0
1437.255371 236.0
1437.400757 220.0
1437.531616 152.0
1437.810913 208.0
1438.180664 244.0
1438.399536 176.0
1438.512817 224.0
1439.154541 224.0
1439.260254 224.0
1439.569824 56.0
1440.144775 140.0
1440.21936 256.0
1440.294922 132.0
1440.393188 184.0
1440.755737 184.0
1440.94397 228.0
1441.413086 172.0
1441.828735 44.0
1441.927002 176.0
1442.705566 108.0
1442.758545 124.0
1443.491943 196.0
1443.620483 160.0
1443.756592 184.0
1443.8927 220.0
1443.98938 148.0
1444.059082 136.0
1444.565918 164.0
1444.944214 160.0
1445.753906 168.0
1446.003662 172.0
1446.170166 152.0
1446.306396 160.0
1446.397217 392.0
1446.647583 172.0
1447.071045 168.0
1447.313354 196.0
1447.676636 184.0
1447.911499 108.0
1448.116089 180.0
1448.358398 164.0
1448.456909 176.0
1448.608398 132.0
1448.722046 172.0
1448.888672 140.0
1448.994751 148.0
1449.26001 160.0
1449.426636 120.0
1449.92688 56.0
1449.987427 124.0
1450.260376 184.0
1450.387451 188.0
1450.464966 164.0
1450.536011 212.0
1450.980469 168.0
1451.153442 184.0
1451.253418 124.0
1451.306519 80.0
1451.886475 288.0
1451.966309 148.0
1452.551147 252.0
1452.709595 140.0
1452.762695 172.0
1452.860596 212.0
1453.567017 96.0
1453.779541 188.0
1454.310791 216.0
1455.312866 252.0
1455.616577 104.0
1455.745728 208.0
1455.874756 140.0
1456.163452 112.0
1456.262085 100.0
1456.922974 300.0
1457.409302 136.0
1457.865234 140.0
1457.941162 136.0
1457.994385 200.0
1458.085571 172.0
1458.161621 176.0
1458.972656 244.0
1459.522461 232.0
1459.689697 92.0
1459.849365 172.0
1460.077515 148.0
1460.473022 212.0
1460.838135 48.0
1461.081665 172.0
1461.439209 160.0
1461.591431 84.0
1461.735962 176.0
1461.971924 140.0
1462.687378 200.0
1463.402954 188.0
1463.722778 176.0
1463.801147 220.0
1463.88269 176.0
1463.958862 128.0
1464.057861 156.0
1464.171875 128.0
1464.62915 108.0
1464.804321 200.0
1465.002319 72.0
1465.185181 140.0
1465.619507 148.0
1465.909058 80.0
1466.183472 132.0
1466.312988 132.0
1466.404419 152.0
1466.558105 180.0
1466.960938 136.0
1467.053345 160.0
1467.47168 92.0
1467.647095 84.0
1467.809937 56.0
1468.081787 132.0
1468.180908 176.0
1468.348633 160.0
1468.516479 232.0
1468.630859 164.0
1468.707153 180.0
1468.821533 152.0
1468.943604 208.0
1469.122314 172.0
1469.210693 164.0
1469.325073 152.0
1469.485352 176.0
1469.584473 188.0
1469.637939 148.0
1469.836304 176.0
1469.897339 116.0
1470.126343 208.0
1470.218506 196.0
1470.554688 208.0
1470.664429 172.0
1470.859009 156.0
1471.194946 168.0
1471.378174 156.0
1471.473145 152.0
1471.783325 168.0
1471.927856 144.0
1472.324951 292.0
1472.393677 176.0
1472.53125 132.0
1472.729736 160.0
1472.905518 88.0
1473.165161 108.0
1473.409668 184.0
1473.547241 180.0
1473.671265 148.0
1473.7229 188.0
1473.883423 144.0
1474.005615 176.0
1474.426025 208.0
1474.563599 172.0
1474.831055 156.0
1475.052734 148.0
1475.213257 148.0
1476.138428 44.0
1476.214844 72.0
1476.59729 236.0
1477.897827 124.0
1478.1427 76.0
1478.32959 216.0
1478.663086 128.0
1478.770142 156.0
1479.742432 148.0
1479.933838 156.0
1480.232422 180.0
1481.40564 140.0
1481.465576 212.0
1481.618774 196.0
1482.362061 96.0
1482.5 128.0
1482.856079 188.0
1483.09021 188.0
1483.182129 192.0
1483.64209 180.0
1484.063843 104.0
1484.224854 160.0
1484.385864 140.0
1484.500854 316.0
1484.638916 240.0
1484.726685 180.0
1485.03772 60.0
1485.129761 184.0
1485.288696 156.0
1485.375244 136.0
1485.904541 104.0
1486.111694 148.0
1486.336548 252.0
1487.001953 144.0
1487.416382 160.0
1487.898682 200.0
1488.084351 148.0
1488.395996 176.0
1488.508057 200.0
1488.629517 176.0
1488.859863 144.0
1488.944336 176.0
1489.05957 128.0
1489.773926 116.0
1490.327148 144.0
1490.511597 156.0
1490.651733 220.0
1490.711426 112.0
1491.064941 132.0
1491.164795 112.0
1491.495361 184.0
1491.610596 296.0
1491.718262 156.0
1491.99646 248.0
1492.133423 172.0
1492.271729 200.0
1492.403809 188.0
1492.748535 120.0
1493.033081 156.0
1493.417603 144.0
1494.594727 208.0
1494.689575 144.0
1494.810181 100.0
1494.958252 176.0
1494.988281 208.0
1495.056274 204.0
1495.248779 52.0
1495.310425 208.0
1496.472778 208.0
1496.628418 228.0
1497.020508 160.0
1497.384888 260.0
1497.597168 224.0
1498.228882 148.0
1498.375244 80.0
1498.536987 136.0
1498.660278 132.0
1498.945435 220.0
1499.138062 212.0
1499.492554 184.0
1499.901123 152.0
1500.147827 184.0
1500.358765 128.0
1500.679688 176.0
1501.28894 116.0
1501.605103 156.0
1501.998535 100.0
1502.299316 196.0
1502.453613 204.0
1502.638794 220.0
1502.700562 116.0
1502.754517 212.0
1503.001465 192.0
1503.665161 164.0
1504.128296 96.0
1504.298096 120.0
1504.545166 172.0
1504.792236 104.0
