>compound NCGC00160337-01!TRYPTANTHRINE
>formula C15H8N2O2
>ionization [M+H]+
>parentmass 249.06514
#inchi InChI=1S/C15H8N2O2/c18-13-10-6-2-4-8-12(10)17-14(13)16-11-7-3-1-5-9(11)15(17)19/h1-8H
#inchikey VQQVWGVXDIPORV
#Ion_Source LC-ESI
#Instrument qTOF
#Compound_Source Prestwick Phytochem Lib
#PI Dorrestein
#Data_Collector VVP/LMS
#Scan -1
#Precursor_MZ 249.066
#ExactMass 248.059
#Charge 1
#CAS_Number N/A
#Pubmed_ID N/A
#Smiles O=C1C2=NC3=C(C=CC=C3)C(=O)N2C4=C1C=CC=C4
#INCHI_AUX N/A
#Library_Class 1
#SpectrumID CCMSLIB00000078735
#IonMode Positive
#UpdateWorkflowName UPDATE-SINGLE-ANNOTATED-GOLD
#LibraryQualityString Gold
#TaskID 67c915c6594c435cadc1fe2b5358144d
##Scan# 2076
#SpectrumFile p1-A03_GA3_01_17876.mzXML
#LibraryName phytochem_lib.mgf
#MQScore -1
#Organism phytochem_lib
#TIC_Query 0
#RT_Query -1
#MZErrorPPM -1
#SharedPeaks 0
#MassDiff 0
#LibMZ -1
#SpecMZ 249.066
#SpecCharge 0
#internalFilename spec-00000.mgf

>collision 10
95.25177 232.0
96.117928 228.0
97.213699 212.0
102.034676 956.0
103.042152 212.0
103.959358 60.0
104.022072 160.0
105.043755 220.0
105.070274 228.0
106.024879 164.0
106.05587 148.0
107.577988 128.0
115.032974 152.0
115.056458 164.0
115.344833 160.0
115.669952 172.0
116.019112 64.0
117.332611 76.0
117.882988 240.0
118.81398 156.0
119.652832 132.0
120.042473 360.0
120.794113 228.0
121.031013 384.0
121.050827 120.0
121.464378 100.0
121.609184 128.0
122.030937 156.0
122.371948 52.0
122.422592 232.0
122.797234 120.0
124.130707 228.0
127.056938 180.0
128.787933 140.0
129.025192 144.0
129.045517 336.0
129.722427 140.0
130.028854 4976.0
130.076279 76.0
130.16481 92.0
130.28064 64.0
130.401062 100.0
131.029083 168.0
131.046829 168.0
132.033386 180.0
132.179794 84.0
132.248444 76.0
132.29422 144.0
133.47345 156.0
133.802444 136.0
136.084305 172.0
136.19577 116.0
136.518799 168.0
137.091675 168.0
138.912735 128.0
139.054855 208.0
139.363464 184.0
140.049149 448.0
140.939697 52.0
141.053146 164.0
142.539062 140.0
143.961136 88.0
145.781677 72.0
146.023209 460.0
149.094772 156.0
152.054642 204.0
153.057266 160.0
153.178253 188.0
154.256546 256.0
158.3871 120.0
159.264954 144.0
161.632126 176.0
164.598419 156.0
165.050674 208.0
166.065887 840.0
166.123734 172.0
167.066605 160.0
169.309402 164.0
170.058624 176.0
171.01767 164.0
172.089035 148.0
172.316254 164.0
172.606369 132.0
173.871597 144.0
174.165634 120.0
175.044006 188.0
176.434402 152.0
176.789169 152.0
177.339661 48.0
178.05864 300.0
179.060684 208.0
183.862762 188.0
184.078705 216.0
186.18277 84.0
191.058945 176.0
191.100204 236.0
192.065018 632.0
192.174698 40.0
193.068558 356.0
193.086899 200.0
193.462524 164.0
193.517899 176.0
193.65358 176.0
194.058426 160.0
195.013046 128.0
195.057526 128.0
195.10199 92.0
196.0728 192.0
202.057053 148.0
202.475967 120.0
203.048691 132.0
204.050751 152.0
204.648209 184.0
204.907379 112.0
205.072479 144.0
206.062805 200.0
206.085663 180.0
206.251404 52.0
207.066803 100.0
211.532501 72.0
212.172684 60.0
214.748947 212.0
218.189514 152.0
220.066177 72.0
220.086853 156.0
221.06929 2500.0
221.162888 28.0
221.725601 76.0
222.072052 180.0
223.07901 116.0
223.304993 56.0
224.120621 248.0
229.374069 244.0
231.059555 176.0
232.058472 192.0
236.040985 136.0
242.704178 160.0
247.555725 116.0
248.057007 152.0
248.113434 72.0
248.816147 68.0
248.878937 152.0
249.013962 224.0
249.06514 10080.0
249.141098 252.0
249.18306 48.0
249.229462 456.0
249.324982 52.0
249.359787 52.0
249.387833 64.0
249.438126 76.0
249.548141 108.0
249.666061 88.0
249.746262 68.0
249.82489 52.0
249.941299 100.0
250.067764 2052.0
250.164536 60.0
250.259186 76.0
250.281219 28.0
250.892426 68.0
251.072144 468.0
251.147827 116.0
251.75061 116.0
251.870621 56.0
251.892731 84.0
251.923584 104.0
251.949585 144.0
252.019089 120.0
252.673523 180.0
253.059631 216.0
259.190857 32.0
263.915863 76.0
282.044739 184.0
304.15744 116.0
324.668671 84.0
355.017731 80.0
357.10199 184.0
547.703857 124.0
601.40509 64.0
621.522888 96.0
642.748413 80.0
653.871399 32.0
844.220032 204.0
861.470154 156.0
880.955078 92.0
886.492798 136.0
984.025513 20.0
1009.655945 192.0
1030.690186 96.0
1047.955811 164.0
1063.17688 168.0
1142.649902 176.0
1175.811646 160.0
1217.843872 200.0
1222.571289 116.0
1253.311401 180.0
1266.018677 248.0
1278.15686 120.0
1302.484741 188.0
1349.261353 224.0
1367.790771 40.0
1369.219116 124.0
1374.4823 224.0
1376.357056 216.0
1383.128662 208.0
1388.084839 212.0
1389.434692 132.0
1395.197388 164.0
1407.057251 112.0
1424.783447 56.0
1425.023804 172.0
1439.908081 160.0
1441.018433 156.0
1445.078247 192.0
1462.364136 88.0
1466.118652 184.0
1478.803589 172.0
1503.8125 160.0
