>compound MLS001143525-01!
>formula C28H24O6
>ionization [M+H]+
>parentmass 457.1645649400905
#inchi InChI=1S/C28H24O6/c1-31-19-13-21(33-23(29)15-19)27-25(17-9-5-3-6-10-17)28(26(27)18-11-7-4-8-12-18)22-14-20(32-2)16-24(30)34-22/h3-16,25-28H,1-2H3
#inchikey KFQFFSFVCKZEMA
#Ion_Source LC-ESI
#Instrument qTof
#Compound_Source NIH Natural Product Library
#PI Dorrestein
#Data_Collector VVP/LMS
#Scan -1
#Precursor_MZ 457.165
#ExactMass 456.157
#Charge 1
#CAS_Number N/A
#Pubmed_ID N/A
#Smiles COc1cc(oc(=O)c1)C2C(C(C2c3ccccc3)c4cc(OC)cc(=O)o4)c5ccccc5
#INCHI_AUX N/A
#Library_Class 1
#SpectrumID CCMSLIB00000079458
#IonMode Positive
#UpdateWorkflowName UPDATE-SINGLE-ANNOTATED-GOLD
#LibraryQualityString Gold
#TaskID b1d8e8f6646f4e71acdff9ca3d919d08
##Scan# 2290
#SpectrumFile p1-F06_GF6_01_17938.mzXML
#LibraryName NIH_Natural_Products_Library.mgf
#MQScore -1
#Organism NIH_Natural_Products_Library
#TIC_Query 0
#RT_Query -1
#MZErrorPPM -1
#SharedPeaks 0
#MassDiff 0
#LibMZ -1
#SpecMZ 457.165
#SpecCharge 0
#internalFilename spec-00000.mgf

>collision 10
95.0466 384.0
95.06926 212.0
95.111954 188.0
95.201263 164.0
95.315872 132.0
95.376122 200.0
95.418892 252.0
95.494728 148.0
95.516121 168.0
95.543358 160.0
95.627029 68.0
95.644547 128.0
95.685425 168.0
95.856827 112.0
95.948433 112.0
96.014732 196.0
96.143486 172.0
96.217659 68.0
96.236832 328.0
96.346558 180.0
96.561455 132.0
96.626122 212.0
96.655472 160.0
96.720055 96.0
96.741585 144.0
96.802284 172.0
96.855576 132.0
96.904137 136.0
96.962921 40.0
96.976639 144.0
97.251236 176.0
97.264969 212.0
97.280678 100.0
97.388672 204.0
97.437782 140.0
97.457428 132.0
97.581856 196.0
97.648109 128.0
97.75238 204.0
98.016243 144.0
98.08522 184.0
98.205498 208.0
98.245316 172.0
98.263123 56.0
98.276512 136.0
98.420601 104.0
98.580597 216.0
98.633965 204.0
98.677452 192.0
98.777901 232.0
98.808914 280.0
98.853493 192.0
98.87941 168.0
98.928703 152.0
99.029686 136.0
99.217934 184.0
99.319069 124.0
99.348824 40.0
99.434143 152.0
99.448036 208.0
99.535385 164.0
99.555244 148.0
99.604897 120.0
99.647278 60.0
99.808456 188.0
99.960777 112.0
100.114052 184.0
100.135963 144.0
100.163849 148.0
100.418976 208.0
100.520721 164.0
100.646469 136.0
100.686409 160.0
101.020203 180.0
101.172295 148.0
101.340523 152.0
101.370583 160.0
101.399353 224.0
101.528946 192.0
101.590614 204.0
101.69146 104.0
101.852081 204.0
101.890251 184.0
101.933609 148.0
102.038971 216.0
102.052689 180.0
102.145554 160.0
102.159637 248.0
102.296638 148.0
102.506393 176.0
102.523605 172.0
102.580505 132.0
102.651077 188.0
102.699478 128.0
102.780174 116.0
102.826584 60.0
102.895218 152.0
103.032478 116.0
103.054817 6736.0
103.12146 68.0
103.165924 64.0
103.210403 92.0
103.319618 208.0
103.396515 132.0
103.522026 48.0
103.544304 156.0
103.574684 268.0
103.627357 200.0
103.823975 40.0
103.929459 136.0
103.951782 136.0
104.022812 132.0
104.05761 772.0
104.089096 184.0
104.337692 60.0
104.39666 132.0
104.555336 140.0
104.722076 156.0
104.828224 204.0
104.852867 172.0
105.00354 184.0
105.031822 440.0
105.067245 376.0
105.097382 80.0
105.193298 88.0
105.219841 84.0
105.250465 168.0
105.285179 100.0
105.362801 112.0
105.428185 156.0
105.522209 144.0
105.638779 128.0
105.726761 172.0
105.815651 140.0
105.908974 104.0
105.923309 140.0
105.945038 232.0
106.050354 192.0
106.200027 64.0
106.238998 188.0
106.300552 172.0
106.33622 168.0
106.372383 152.0
106.386757 140.0
106.405228 116.0
106.46067 196.0
106.503799 128.0
106.526115 148.0
106.56543 64.0
106.694908 152.0
106.785385 264.0
106.840919 196.0
106.94976 168.0
107.00351 176.0
107.026154 152.0
107.125008 120.0
107.162094 120.0
107.223915 144.0
107.254646 180.0
107.35379 164.0
107.487869 148.0
107.628235 84.0
107.64888 176.0
107.723236 216.0
107.787285 200.0
107.815971 184.0
107.867378 196.0
107.929909 148.0
107.996086 136.0
108.019859 424.0
108.085037 164.0
108.105736 64.0
108.203018 176.0
108.225792 140.0
108.370773 48.0
108.64444 76.0
108.72744 112.0
108.754425 192.0
108.814575 176.0
109.036499 172.0
109.101318 128.0
109.134583 144.0
109.184494 204.0
109.309311 120.0
109.340523 104.0
109.448769 208.0
109.477921 228.0
109.625832 196.0
109.674927 136.0
109.746727 104.0
109.782173 204.0
109.85511 128.0
109.953247 180.0
110.245613 120.0
110.260246 192.0
110.292587 160.0
110.316681 48.0
110.398224 252.0
110.479797 184.0
110.601166 104.0
110.624191 144.0
110.795914 132.0
110.858765 212.0
110.978249 48.0
111.073616 228.0
111.113327 200.0
111.143951 164.0
111.288231 92.0
111.34967 140.0
111.692268 52.0
111.818512 152.0
111.944824 36.0
112.073318 180.0
112.450882 188.0
112.550011 144.0
112.577461 280.0
112.657722 104.0
112.704201 136.0
112.729553 172.0
112.77816 200.0
112.869072 132.0
112.943336 220.0
113.050987 132.0
113.072151 140.0
113.095428 156.0
113.228813 208.0
113.294479 148.0
113.343208 140.0
113.383476 132.0
113.459778 140.0
113.600136 152.0
113.674004 168.0
113.7313 152.0
113.873558 140.0
113.986153 152.0
114.018028 228.0
114.060097 212.0
114.079666 128.0
114.124313 112.0
114.228523 100.0
114.288094 116.0
114.309891 196.0
114.405144 132.0
114.426437 156.0
114.50309 148.0
114.53717 188.0
114.609604 56.0
114.759003 216.0
114.827042 120.0
114.999855 120.0
115.053368 1932.0
115.12368 240.0
115.142906 140.0
115.157852 196.0
115.202713 128.0
115.217667 140.0
115.401466 124.0
115.492302 144.0
115.540482 128.0
115.737389 240.0
115.763084 168.0
115.827332 88.0
115.883034 252.0
115.902321 44.0
115.981613 136.0
116.015907 172.0
116.065536 356.0
116.10923 144.0
116.167 96.0
116.221527 156.0
116.251839 164.0
116.326965 60.0
116.365601 160.0
116.4515 104.0
116.470421 168.0
116.488464 172.0
116.550316 88.0
116.575081 160.0
116.616272 412.0
116.663963 152.0
116.748177 228.0
116.778191 160.0
116.910995 140.0
117.069489 248.0
117.284752 208.0
117.340218 100.0
117.753571 332.0
117.869026 236.0
118.003723 164.0
118.069496 152.0
118.080551 204.0
118.158752 180.0
118.214714 148.0
118.249634 128.0
118.275604 160.0
118.3367 200.0
118.388191 72.0
118.418564 168.0
118.49649 160.0
118.620018 176.0
118.63736 88.0
118.698067 144.0
118.724091 124.0
118.758789 132.0
118.793495 160.0
118.842255 168.0
118.858582 184.0
119.040924 128.0
119.172577 200.0
119.236443 232.0
119.3647 192.0
119.560486 168.0
119.614899 200.0
119.684563 36.0
119.71505 80.0
119.784744 128.0
119.948174 52.0
120.105164 132.0
120.194611 164.0
120.334305 176.0
120.364868 208.0
120.391075 156.0
120.449173 160.0
120.526512 216.0
120.826042 156.0
120.854706 184.0
120.920135 200.0
120.959534 64.0
121.018646 228.0
121.069008 172.0
121.274948 228.0
121.301254 124.0
121.336327 140.0
121.351677 152.0
121.60833 132.0
121.803749 44.0
121.917358 192.0
122.044029 168.0
122.159859 204.0
122.401665 152.0
122.437187 112.0
122.481239 168.0
122.91996 148.0
123.023697 164.0
123.044479 952.0
123.107887 152.0
123.243408 168.0
123.324104 60.0
123.406731 224.0
123.445702 168.0
123.461182 40.0
123.560715 88.0
123.757698 64.0
123.784264 168.0
123.866211 176.0
123.899437 172.0
123.97699 132.0
124.052353 152.0
124.107773 156.0
124.167648 116.0
124.315773 104.0
124.343613 256.0
124.373985 176.0
124.402847 144.0
124.449471 124.0
124.465012 212.0
124.619148 212.0
124.658264 76.0
124.721886 200.0
124.756058 212.0
124.958435 176.0
124.978462 208.0
124.997818 160.0
125.023972 2268.0
125.052055 56.0
125.116882 124.0
125.32135 156.0
125.354774 124.0
125.461761 80.0
125.54203 60.0
125.586632 152.0
125.762894 124.0
125.866707 136.0
125.954926 184.0
125.986198 36.0
126.023911 144.0
126.039223 180.0
126.075981 260.0
126.314804 52.0
126.443504 140.0
126.596809 72.0
126.62368 172.0
126.650558 136.0
126.735687 152.0
126.780502 172.0
126.863434 84.0
126.930695 56.0
127.054184 520.0
127.170738 108.0
127.213387 180.0
127.318916 188.0
127.336884 136.0
127.402023 164.0
127.514374 204.0
127.682991 180.0
127.768463 68.0
127.930496 136.0
128.062332 2464.0
128.101639 96.0
128.150391 260.0
128.281921 160.0
128.34053 116.0
128.466827 148.0
128.52774 148.0
128.757996 136.0
128.889023 140.0
129.069138 3240.0
129.115082 44.0
129.170227 156.0
129.185196 176.0
129.212341 128.0
129.268906 248.0
129.296005 168.0
129.366226 40.0
129.436417 216.0
129.558716 208.0
129.760422 112.0
129.801239 56.0
129.82164 156.0
129.85112 60.0
129.871536 40.0
129.921448 248.0
129.966827 168.0
130.073654 652.0
130.421021 128.0
130.43692 224.0
130.525589 144.0
130.564255 64.0
130.618835 220.0
130.666611 136.0
130.707565 204.0
130.730316 84.0
130.792816 84.0
130.828186 152.0
130.866898 204.0
130.89624 216.0
130.960083 160.0
131.021805 236.0
131.049011 49052.0
131.110031 108.0
131.126816 276.0
131.146149 68.0
131.176086 256.0
131.211487 80.0
131.233719 80.0
131.351944 68.0
131.430908 88.0
131.491486 64.0
131.541702 72.0
131.57283 196.0
131.598785 128.0
131.623138 72.0
131.637085 216.0
131.695892 136.0
131.726669 48.0
131.760941 180.0
131.779221 160.0
131.797485 124.0
131.834045 40.0
131.891342 176.0
131.936905 44.0
131.962051 48.0
132.051819 3268.0
132.086868 228.0
132.107422 64.0
132.142746 104.0
132.203018 104.0
132.224792 140.0
132.25293 52.0
132.353317 108.0
132.401398 44.0
132.510025 300.0
132.580093 184.0
132.639679 160.0
132.662613 44.0
132.683243 56.0
132.745148 160.0
132.779541 172.0
132.809174 48.0
132.869003 92.0
132.997406 92.0
133.056351 348.0
133.161224 92.0
133.286865 140.0
133.337433 228.0
133.445465 160.0
133.532852 56.0
133.555847 164.0
133.612625 176.0
133.636368 176.0
133.652466 28.0
133.670883 108.0
133.721512 32.0
133.739914 208.0
133.772141 280.0
133.852722 96.0
133.905701 216.0
134.117661 212.0
134.207581 68.0
134.289551 196.0
134.342377 108.0
134.463623 204.0
134.542114 84.0
134.560577 116.0
134.687592 128.0
134.969543 128.0
135.374481 188.0
135.520416 76.0
135.585297 44.0
135.608475 192.0
135.770767 148.0
135.974915 52.0
136.116531 104.0
136.146713 200.0
136.346512 192.0
136.443787 244.0
136.518539 108.0
136.558075 392.0
136.627853 176.0
136.64415 180.0
136.718597 148.0
136.79541 52.0
136.860992 100.0
137.154129 92.0
137.221741 212.0
137.238052 52.0
137.263702 336.0
137.478317 160.0
137.541336 176.0
137.564682 212.0
137.60437 176.0
137.632385 116.0
137.658066 184.0
137.695435 140.0
137.722198 148.0
137.767838 140.0
137.823914 36.0
137.933762 88.0
137.980515 84.0
138.001556 172.0
138.017914 124.0
138.035461 184.0
138.270554 224.0
138.315033 176.0
138.345459 80.0
138.386581 240.0
138.42038 132.0
138.535141 104.0
138.565598 160.0
138.671051 140.0
139.052734 732.0
139.072617 152.0
139.140198 176.0
139.283447 176.0
139.513733 44.0
139.645416 228.0
139.713623 140.0
139.772446 176.0
139.78891 220.0
139.826569 76.0
139.946625 212.0
140.060532 1348.0
140.087921 60.0
140.13269 124.0
140.196304 132.0
140.238739 260.0
140.531143 116.0
140.587784 124.0
140.620819 124.0
140.64386 200.0
140.697479 152.0
140.738846 144.0
140.771912 168.0
140.871109 240.0
140.92308 76.0
140.941986 108.0
140.996338 144.0
141.033432 328.0
141.070023 24488.0
141.108871 132.0
141.165787 176.0
141.18782 52.0
141.228027 48.0
141.254059 28.0
141.333252 92.0
141.427444 100.0
141.545151 80.0
141.561737 108.0
141.592514 68.0
141.6091 48.0
141.625671 88.0
141.651733 232.0
141.677795 40.0
141.724075 120.0
141.822342 32.0
141.912415 76.0
141.957474 44.0
141.974075 48.0
142.000153 96.0
142.033371 64.0
142.07518 3576.0
142.153214 132.0
142.211319 44.0
142.246918 116.0
142.263535 168.0
142.409409 84.0
142.441635 188.0
142.510529 76.0
142.761276 132.0
142.788651 84.0
142.857635 272.0
142.983749 164.0
143.014679 40.0
143.045624 176.0
143.08371 2248.0
143.127686 188.0
143.390991 112.0
143.491119 176.0
143.51973 172.0
143.603195 196.0
144.016098 40.0
144.056183 1096.0
144.089172 176.0
144.111649 68.0
144.128387 140.0
144.319595 156.0
144.34111 188.0
144.415253 180.0
144.470276 192.0
144.592682 176.0
144.661713 108.0
145.064209 844.0
145.092926 108.0
145.157654 196.0
145.315964 176.0
145.484909 128.0
145.649658 168.0
145.700104 196.0
145.774582 176.0
145.839478 216.0
145.974106 128.0
146.06514 244.0
146.265213 76.0
146.320587 160.0
146.347061 124.0
146.402451 112.0
146.599991 140.0
146.821777 108.0
147.048553 132.0
147.318985 156.0
147.442215 228.0
147.534073 80.0
147.789215 40.0
147.821884 148.0
147.896912 188.0
147.926468 192.0
148.022797 96.0
148.071228 64.0
148.219009 132.0
148.245667 236.0
148.447922 164.0
148.602097 156.0
148.64093 124.0
148.684601 96.0
148.907959 200.0
149.090714 216.0
149.221436 108.0
149.324478 200.0
149.523056 180.0
149.615555 136.0
149.920013 204.0
150.043716 208.0
150.090652 108.0
150.133972 136.0
150.222351 132.0
150.285782 224.0
150.305298 160.0
150.590927 188.0
150.835266 56.0
150.869492 196.0
151.053955 1192.0
151.307404 192.0
151.393417 152.0
151.506241 228.0
151.662598 196.0
151.765564 112.0
151.84021 136.0
151.871017 80.0
151.910263 152.0
151.976501 212.0
152.062027 3748.0
152.147461 164.0
152.285065 208.0
152.317749 52.0
152.374237 80.0
152.428299 120.0
152.514313 116.0
152.533981 76.0
152.622345 140.0
152.782349 140.0
152.848785 64.0
153.030914 176.0
153.068741 5488.0
153.109711 152.0
153.225494 68.0
153.255051 44.0
153.277222 40.0
153.511414 68.0
153.56813 88.0
153.626556 128.0
153.767975 72.0
153.938309 100.0
154.073959 608.0
154.106277 136.0
154.27681 236.0
154.296585 232.0
154.365814 44.0
154.395493 212.0
154.509277 144.0
154.581024 204.0
154.615677 148.0
154.702301 184.0
154.826111 164.0
154.910248 140.0
154.978867 176.0
155.049576 3740.0
155.08519 1220.0
155.126053 132.0
155.157013 80.0
155.190536 168.0
155.262268 164.0
155.435928 104.0
155.473145 44.0
155.525269 48.0
155.577393 116.0
155.612411 156.0
155.766129 52.0
156.050415 544.0
156.253372 136.0
156.283218 76.0
156.370316 96.0
156.397705 80.0
156.547073 196.0
156.646698 140.0
156.69902 68.0
156.718948 172.0
156.748856 132.0
156.77626 56.0
156.793701 52.0
156.816132 56.0
157.013092 156.0
157.064163 740.0
157.112869 48.0
157.161728 184.0
157.211563 104.0
157.241669 128.0
157.469818 156.0
157.502289 204.0
157.537262 180.0
157.702179 56.0
157.72467 184.0
157.752167 180.0
157.912201 44.0
158.071304 1524.0
158.134872 168.0
158.177414 56.0
158.242508 232.0
158.360199 140.0
158.415314 124.0
158.698502 92.0
158.723587 164.0
158.884094 80.0
159.02713 196.0
159.07547 852.0
159.205383 84.0
159.330963 136.0
159.403839 56.0
159.476715 176.0
159.524475 56.0
159.602417 136.0
159.672821 48.0
159.748276 220.0
159.77092 152.0
159.899246 128.0
159.972244 140.0
160.055328 200.0
160.083054 240.0
160.251785 180.0
160.408035 120.0
160.645599 136.0
160.733582 204.0
160.886581 120.0
160.912582 164.0
161.094864 396.0
161.288986 52.0
161.417923 96.0
161.438156 196.0
161.496323 252.0
161.625336 152.0
162.022995 196.0
162.09874 88.0
162.304169 192.0
162.362488 144.0
162.442734 88.0
162.514694 184.0
162.788834 184.0
162.857407 236.0
163.070831 32.0
163.103867 156.0
163.218277 216.0
163.243698 180.0
163.271667 220.0
163.401398 164.0
163.422134 160.0
163.518448 148.0
163.602448 136.0
163.742493 128.0
163.902985 144.0
164.025314 172.0
164.068649 196.0
164.145142 176.0
164.212875 192.0
164.234406 136.0
164.313477 68.0
164.435959 220.0
164.515091 176.0
164.62999 136.0
164.752594 140.0
164.898239 132.0
164.948074 188.0
165.068893 2284.0
165.417465 92.0
165.665863 196.0
165.750412 120.0
165.791412 164.0
165.83754 72.0
165.855484 160.0
165.873428 128.0
165.942642 172.0
166.022141 136.0
166.077042 400.0
166.122162 196.0
166.147812 88.0
166.260712 196.0
166.298141 44.0
166.425003 108.0
166.476364 220.0
166.504608 164.0
166.555969 196.0
166.594513 176.0
166.771805 172.0
167.048111 236.0
167.087952 240.0
167.142136 164.0
167.417572 184.0
167.597885 140.0
167.837021 160.0
167.846741 124.0
167.960983 204.0
168.013489 180.0
168.056946 12412.0
168.093277 164.0
168.1362 196.0
168.219421 84.0
168.283966 160.0
168.330444 48.0
168.433746 40.0
168.459579 52.0
168.56694 108.0
168.639404 176.0
168.663727 156.0
168.739349 172.0
168.798157 208.0
168.989563 96.0
169.064148 10916.0
169.174957 120.0
169.204269 180.0
169.23027 120.0
169.260696 212.0
169.367523 80.0
169.443405 136.0
169.497055 180.0
169.539276 52.0
169.583527 76.0
169.637009 168.0
169.694046 92.0
169.777756 168.0
169.840454 96.0
169.904114 40.0
169.959 216.0
170.022629 172.0
170.069626 2844.0
170.111725 28.0
170.132492 152.0
170.174026 84.0
170.298676 32.0
170.32724 52.0
170.348022 52.0
170.446747 68.0
170.574097 164.0
170.70929 52.0
170.792526 52.0
170.818527 80.0
170.930405 76.0
171.003265 44.0
171.040176 340.0
171.073547 280.0
171.146759 168.0
171.193314 52.0
171.25322 84.0
171.37175 88.0
171.389526 124.0
171.453827 200.0
171.495529 116.0
171.552261 120.0
171.792786 60.0
172.051147 156.0
172.08522 224.0
172.184311 204.0
172.239166 120.0
172.35672 56.0
172.602432 204.0
172.623352 128.0
172.751511 160.0
172.819519 168.0
172.863358 128.0
172.939911 48.0
172.976547 216.0
173.005341 176.0
173.059616 160.0
173.095413 4452.0
173.205643 156.0
173.24585 124.0
173.366791 104.0
173.461151 108.0
173.589615 68.0
173.723389 112.0
173.791595 40.0
173.930679 72.0
174.051453 204.0
174.096024 576.0
174.145981 216.0
174.245804 128.0
174.340408 136.0
174.456909 244.0
174.587509 124.0
174.611191 52.0
174.803223 68.0
175.011169 32.0
175.04277 92.0
175.129669 44.0
175.150742 48.0
175.232407 48.0
175.266663 64.0
175.31604 136.0
175.326752 100.0
175.46434 204.0
175.580353 208.0
175.616318 228.0
175.675308 40.0
175.788773 48.0
175.823074 112.0
176.060669 76.0
176.181229 180.0
176.208588 228.0
176.372437 80.0
176.620987 140.0
176.814133 152.0
176.843231 136.0
176.925293 192.0
177.012665 208.0
177.039154 168.0
177.282867 216.0
177.317322 204.0
177.534714 176.0
177.561234 156.0
178.076111 188.0
178.110641 124.0
178.137207 80.0
178.341812 72.0
178.4375 136.0
178.485367 144.0
178.626312 204.0
178.711456 56.0
178.836517 84.0
178.913727 60.0
178.966965 180.0
179.049911 6404.0
179.121429 176.0
179.217331 68.0
179.356445 180.0
179.393234 60.0
179.427887 116.0
179.466049 64.0
179.502548 68.0
179.563889 64.0
179.587891 148.0
179.779984 44.0
179.829178 176.0
179.870728 136.0
179.921768 164.0
180.048996 1284.0
180.072098 304.0
180.346176 40.0
180.383591 104.0
180.487854 52.0
180.538666 128.0
180.581451 100.0
180.651001 156.0
180.766052 156.0
180.910583 140.0
181.018219 196.0
181.065903 560.0
181.173019 276.0
181.20517 120.0
181.248032 132.0
181.368637 84.0
181.478546 84.0
181.508713 132.0
181.628723 136.0
181.703842 172.0
181.757492 132.0
181.778961 60.0
181.996002 168.0
182.071747 300.0
182.393982 164.0
182.466568 48.0
182.58757 60.0
182.617157 100.0
182.730133 112.0
182.829697 228.0
182.880829 92.0
182.90506 136.0
183.001968 204.0
183.036209 56.0
183.079971 12756.0
183.340317 204.0
183.47345 76.0
183.505798 268.0
183.546249 72.0
183.628616 96.0
183.664917 96.0
183.705368 116.0
183.880753 92.0
183.953201 76.0
184.05423 344.0
184.08316 1600.0
184.234482 36.0
184.27771 88.0
184.492706 36.0
184.66156 60.0
184.687393 116.0
184.721069 132.0
185.013336 144.0
185.057495 1148.0
185.090652 340.0
185.154129 56.0
185.20018 148.0
185.221848 60.0
185.327499 48.0
185.346466 220.0
185.400665 164.0
185.444031 76.0
185.500946 64.0
185.530762 196.0
185.59584 36.0
185.734146 44.0
185.853516 216.0
185.883362 148.0
185.972916 172.0
186.022125 156.0
186.066788 13812.0
186.102081 324.0
186.130371 36.0
186.171112 72.0
186.232544 160.0
186.298767 200.0
186.372116 44.0
186.441589 212.0
186.544464 144.0
186.656204 148.0
186.695587 44.0
186.900574 152.0
186.986694 252.0
187.071106 3388.0
187.389694 96.0
187.578888 76.0
187.891342 152.0
188.030518 144.0
188.073822 360.0
188.101471 148.0
188.273483 76.0
188.311722 156.0
188.364487 176.0
188.478363 88.0
188.620468 60.0
188.642349 80.0
188.744659 76.0
188.814606 188.0
188.88298 176.0
188.962311 132.0
189.052612 152.0
189.074493 144.0
189.112808 84.0
189.263382 80.0
189.80043 220.0
189.943039 104.0
189.99791 164.0
190.220184 248.0
190.379425 116.0
190.464569 76.0
190.571716 256.0
190.687119 68.0
191.079987 288.0
191.173904 108.0
191.27298 100.0
192.035477 164.0
192.088623 164.0
192.287277 168.0
192.483276 168.0
192.695969 64.0
192.911514 176.0
193.024872 136.0
193.067612 256.0
193.43158 164.0
193.450943 136.0
193.581085 128.0
193.661392 204.0
193.680786 128.0
194.071533 56.0
194.47377 140.0
194.623688 204.0
194.701431 184.0
194.795868 52.0
194.982025 204.0
195.040405 68.0
195.159943 184.0
195.218338 176.0
195.276733 236.0
195.708069 72.0
195.872375 156.0
195.98381 88.0
196.048615 880.0
196.156601 44.0
196.176117 180.0
196.220718 148.0
196.51326 160.0
196.558212 168.0
196.622391 68.0
196.748001 80.0
196.848511 128.0
196.937881 176.0
197.058365 8972.0
197.119476 144.0
197.139038 196.0
197.29277 88.0
197.412994 52.0
197.48291 196.0
197.530457 172.0
197.569992 60.0
197.84668 120.0
198.063751 1088.0
198.269012 92.0
198.320084 152.0
198.374481 176.0
198.471466 160.0
198.519135 72.0
198.751022 144.0
199.038254 160.0
199.06427 344.0
199.106781 120.0
199.39212 116.0
199.56369 100.0
199.850571 36.0
199.937805 132.0
199.977203 100.0
200.040756 152.0
200.11232 196.0
200.16864 140.0
200.371429 104.0
200.430603 92.0
200.47287 84.0
200.507812 140.0
200.69838 196.0
200.7435 176.0
200.771698 184.0
200.935287 28.0
201.000183 180.0
201.041916 168.0
201.090286 39840.0
201.197083 124.0
201.247192 188.0
201.320343 48.0
201.353958 88.0
201.400055 100.0
201.42276 148.0
201.480164 60.0
201.509949 236.0
201.541702 164.0
201.594421 92.0
201.644058 48.0
201.667068 56.0
201.728851 208.0
201.808578 80.0
201.909805 56.0
201.945129 140.0
201.994659 52.0
202.039932 52.0
202.093658 4820.0
202.189896 112.0
202.21254 68.0
202.249329 76.0
202.317261 52.0
202.351669 208.0
202.532471 80.0
202.733627 32.0
202.7733 60.0
202.881012 56.0
203.050507 200.0
203.09491 452.0
203.305237 92.0
203.394455 52.0
203.4496 160.0
203.502289 216.0
203.638641 28.0
203.661362 48.0
203.697113 96.0
203.755112 40.0
203.812775 200.0
203.854553 180.0
203.905701 80.0
203.99382 148.0
204.104691 148.0
204.494431 148.0
204.567047 88.0
204.613983 96.0
204.790543 40.0
204.810486 132.0
205.035553 68.0
205.086395 232.0
205.289276 36.0
205.471832 108.0
205.76326 172.0
206.159958 172.0
207.172836 56.0
207.26738 172.0
207.421112 136.0
207.54541 120.0
208.231262 144.0
208.504196 104.0
208.647919 32.0
208.69104 204.0
209.001678 104.0
209.352875 136.0
209.612122 176.0
209.874435 232.0
209.951126 80.0
210.001312 188.0
210.038818 156.0
210.151321 128.0
210.249435 80.0
210.659424 148.0
210.717209 56.0
210.763443 52.0
210.873245 148.0
210.916611 132.0
210.939728 252.0
211.003326 36.0
211.074173 4864.0
211.194183 60.0
211.312271 128.0
211.364868 48.0
211.411179 80.0
211.445892 48.0
211.613785 192.0
211.718033 48.0
212.077103 460.0
212.109177 40.0
212.309219 156.0
212.393341 152.0
212.422348 72.0
212.448456 140.0
212.576111 172.0
212.599335 208.0
212.758972 96.0
212.933182 176.0
213.052277 140.0
213.07959 260.0
213.232437 212.0
213.540619 56.0
213.670853 88.0
213.782089 124.0
214.061539 224.0
214.186768 144.0
214.384888 312.0
214.495636 72.0
214.568527 76.0
215.073257 168.0
215.876617 156.0
216.060883 64.0
216.08136 208.0
217.091904 148.0
217.66066 92.0
217.796265 256.0
218.14888 252.0
219.075043 376.0
219.081207 176.0
219.476669 52.0
219.65184 152.0
219.815887 108.0
219.963455 168.0
219.992981 204.0
220.084503 72.0
220.994858 172.0
221.178329 116.0
221.213852 132.0
221.554413 192.0
221.631439 168.0
221.838898 168.0
222.429199 100.0
222.960861 140.0
223.311676 208.0
223.635986 148.0
224.085632 88.0
224.231659 72.0
224.377716 56.0
224.398575 124.0
224.50592 220.0
224.732635 176.0
224.85199 152.0
225.081848 152.0
225.344696 136.0
225.413422 164.0
225.897766 156.0
226.074295 180.0
226.262863 116.0
226.286804 164.0
226.5242 164.0
226.676193 148.0
226.775085 92.0
226.847031 104.0
227.02092 176.0
227.044922 132.0
227.080902 204.0
227.104904 124.0
227.500992 148.0
227.525009 224.0
227.78627 52.0
227.879395 80.0
227.987579 76.0
228.023636 72.0
228.068268 172.0
228.098785 236.0
228.207001 108.0
228.232834 136.0
228.270142 176.0
228.433258 172.0
228.473831 144.0
228.499329 144.0
228.557816 132.0
228.594452 148.0
228.616013 160.0
228.645187 148.0
228.650192 84.0
228.687073 224.0
228.715103 156.0
228.722031 140.0
228.764297 148.0
228.810623 88.0
228.844452 176.0
228.880981 108.0
228.907211 164.0
228.926392 168.0
228.952072 152.0
228.974335 128.0
228.99501 396.0
229.086227 126780.0
229.187714 184.0
229.22438 48.0
229.255554 436.0
229.284012 76.0
229.312027 104.0
229.366455 80.0
229.411804 232.0
229.436264 116.0
229.459305 100.0
229.484863 128.0
229.535522 148.0
229.55748 120.0
229.583725 304.0
229.634079 40.0
229.66655 228.0
229.733917 40.0
229.773605 228.0
229.798721 88.0
229.823517 240.0
229.842941 324.0
229.883484 216.0
229.90863 104.0
229.916809 52.0
229.929016 152.0
229.954193 124.0
230.032013 224.0
230.088852 21952.0
230.159134 152.0
230.2108 136.0
230.262146 44.0
230.297943 56.0
230.324707 96.0
230.34491 208.0
230.384796 112.0
230.422714 76.0
230.442169 120.0
230.479645 128.0
230.516907 68.0
230.561234 48.0
230.606567 44.0
230.643738 40.0
230.667023 64.0
230.721436 120.0
230.748642 76.0
230.777496 44.0
230.818176 56.0
230.858795 112.0
230.887726 44.0
230.940399 68.0
231.014771 60.0
231.039932 120.0
231.091873 2284.0
231.150925 52.0
231.185989 88.0
231.218185 52.0
231.259872 112.0
231.29921 44.0
231.320404 40.0
231.353058 56.0
231.410217 140.0
231.444534 68.0
231.531631 220.0
231.55658 60.0
231.585953 104.0
231.603851 64.0
231.618668 80.0
231.627243 120.0
231.660767 140.0
231.685822 48.0
231.712677 300.0
231.733627 80.0
231.7901 124.0
231.834641 204.0
231.895905 56.0
231.950531 96.0
232.003281 132.0
232.032318 272.0
232.09201 404.0
232.150085 76.0
232.223358 72.0
232.24762 52.0
232.308289 52.0
232.429642 124.0
232.520676 48.0
232.550385 76.0
232.658066 92.0
232.736206 108.0
232.787949 96.0
232.869827 76.0
233.04834 68.0
233.088562 60.0
233.283066 104.0
233.352997 64.0
233.374268 60.0
233.395554 52.0
233.501999 48.0
233.787964 72.0
233.845795 136.0
234.07106 220.0
234.842087 52.0
235.202133 72.0
235.950562 72.0
237.520782 100.0
238.024841 108.0
238.092392 132.0
238.344284 60.0
238.418045 80.0
238.790039 68.0
238.934616 96.0
239.8862 80.0
239.907776 108.0
240.07428 224.0
240.784073 88.0
240.882919 116.0
241.046661 132.0
241.104919 108.0
241.44545 60.0
241.649597 96.0
241.734909 112.0
241.937424 116.0
242.039597 68.0
242.070557 176.0
242.091644 148.0
242.882553 64.0
242.922882 104.0
244.255478 56.0
244.56041 52.0
245.825729 48.0
246.105133 140.0
246.359619 132.0
246.922256 68.0
247.106812 104.0
248.588882 72.0
249.081802 132.0
249.578354 112.0
250.837646 40.0
251.086731 160.0
252.021103 96.0
252.555374 96.0
253.102859 176.0
253.625763 72.0
254.006088 168.0
254.107605 100.0
254.378052 72.0
254.520218 52.0
254.733002 48.0
255.088898 112.0
255.11116 216.0
256.043121 208.0
256.075287 68.0
256.26004 40.0
257.101868 176.0
258.047363 152.0
259.071472 84.0
259.462433 40.0
259.616333 108.0
259.808807 104.0
260.598572 76.0
260.878174 60.0
263.062286 128.0
263.097778 68.0
263.310913 100.0
263.433624 52.0
263.834351 108.0
265.534332 92.0
265.751648 92.0
266.098938 192.0
267.080353 96.0
268.083282 132.0
269.045288 84.0
269.172638 60.0
271.040375 72.0
271.912689 128.0
275.267273 48.0
278.253845 60.0
279.047882 156.0
279.071167 88.0
279.486908 92.0
280.11615 128.0
280.969543 112.0
281.133057 48.0
281.65387 124.0
282.623383 56.0
283.088654 168.0
283.681702 128.0
285.098083 176.0
286.120605 52.0
287.08429 84.0
290.090057 168.0
290.636078 60.0
296.484283 56.0
299.194397 56.0
303.093781 144.0
305.082458 220.0
305.7677 48.0
306.805695 84.0
307.444 40.0
310.406952 56.0
311.389587 40.0
317.119354 148.0
322.887085 132.0
323.116028 144.0
323.316406 76.0
324.892975 112.0
324.925262 88.0
329.746857 72.0
332.815155 92.0
334.349182 80.0
335.161224 56.0
340.843781 144.0
345.152771 52.0
347.111572 124.0
351.7883 100.0
352.438141 40.0
358.016144 116.0
360.124359 112.0
361.292389 48.0
363.125732 120.0
369.043457 136.0
371.241394 88.0
372.431122 88.0
379.128876 60.0
380.43988 84.0
381.255554 148.0
383.243988 52.0
383.275146 96.0
387.318604 116.0
388.051422 88.0
388.557373 52.0
388.7771 44.0
388.839874 120.0
388.989044 36.0
392.458954 136.0
393.690094 92.0
396.990509 108.0
397.089661 80.0
406.336212 40.0
408.368835 104.0
410.382294 84.0
415.153748 72.0
421.401947 56.0
423.688934 48.0
428.429779 72.0
432.588287 92.0
433.433167 88.0
434.905396 84.0
441.417023 160.0
441.877106 96.0
444.789612 116.0
445.121277 84.0
450.212463 64.0
456.480011 108.0
457.071259 56.0
457.160828 860.0
458.167603 136.0
459.167175 132.0
459.282318 156.0
460.332214 168.0
465.208862 140.0
468.14978 52.0
471.182037 48.0
471.579559 116.0
487.851959 92.0
488.58197 116.0
490.876709 104.0
490.947266 68.0
493.711761 44.0
493.888672 76.0
494.543518 116.0
494.623199 140.0
502.551483 92.0
504.40033 64.0
506.0802 20.0
513.691101 88.0
516.089172 108.0
518.270874 76.0
529.907654 104.0
537.074402 44.0
537.162048 140.0
542.442871 88.0
547.865906 88.0
548.639526 64.0
559.216492 80.0
560.98291 64.0
567.957642 172.0
576.059265 72.0
587.638916 44.0
593.515564 28.0
598.432678 76.0
602.15332 104.0
645.959595 84.0
686.71167 100.0
696.137085 100.0
697.487305 64.0
698.407471 72.0
715.718323 44.0
718.970032 180.0
719.599854 108.0
720.278076 60.0
734.200684 228.0
744.5047 184.0
745.34668 164.0
761.18219 80.0
761.248108 44.0
767.311584 40.0
773.908447 176.0
779.066284 168.0
779.249634 92.0
782.419739 72.0
789.623474 192.0
799.705627 180.0
806.343933 208.0
806.496521 84.0
821.806885 224.0
826.240356 152.0
826.829712 204.0
836.529907 148.0
837.90625 184.0
840.685486 176.0
845.84668 40.0
851.714722 192.0
876.609192 56.0
881.713806 100.0
884.848877 56.0
886.57843 68.0
887.663269 152.0
890.357483 200.0
890.642517 232.0
900.117737 76.0
901.754639 144.0
903.704102 156.0
905.523865 160.0
910.69989 200.0
915.469055 204.0
915.571472 100.0
916.04126 136.0
917.119873 108.0
919.779846 208.0
927.922424 48.0
929.651123 184.0
934.013367 128.0
934.512207 132.0
934.999023 136.0
941.345154 228.0
944.718933 148.0
945.581665 88.0
954.353821 144.0
957.707703 228.0
959.106384 124.0
959.556396 176.0
959.975708 188.0
963.364136 208.0
965.799622 268.0
966.548157 224.0
974.267212 164.0
990.605225 156.0
993.608093 76.0
993.808838 76.0
994.894592 144.0
995.654358 152.0
995.773682 164.0
995.836487 20.0
1001.975891 220.0
1004.018188 156.0
1014.178284 160.0
1019.757324 168.0
1020.399353 156.0
1025.517334 240.0
1027.379272 204.0
1027.564331 180.0
1029.772949 80.0
1033.416748 120.0
1034.671143 152.0
1036.393921 88.0
1043.145508 144.0
1047.231323 188.0
1049.227051 236.0
1049.55127 64.0
1051.312378 244.0
1052.603394 108.0
1061.436035 76.0
1066.064331 164.0
1069.687012 148.0
1072.285889 92.0
1073.029053 40.0
1077.427734 112.0
1078.00354 164.0
1079.16626 128.0
1082.457397 192.0
1084.134399 136.0
1085.596313 136.0
1089.817017 160.0
1093.506104 128.0
1094.592285 128.0
1095.57373 216.0
1096.206177 152.0
1097.913574 184.0
1098.586426 148.0
1098.784302 100.0
1099.186768 104.0
1099.773193 120.0
1103.942871 156.0
1107.42395 192.0
1110.273804 144.0
1110.69165 192.0
1111.554199 244.0
1112.934814 128.0
1113.990723 160.0
1114.043945 160.0
1114.130249 92.0
1115.559082 104.0
1115.791748 120.0
1120.776855 176.0
1122.25647 152.0
1126.020142 176.0
1126.113647 156.0
1128.967285 148.0
1130.606323 164.0
1133.546143 152.0
1136.711182 96.0
1137.40918 128.0
1139.490967 180.0
1141.951294 176.0
1142.913208 160.0
1143.592896 72.0
1144.66333 196.0
1147.675293 184.0
1147.8573 40.0
1148.383423 56.0
1149.206421 140.0
1151.015259 212.0
1152.116211 160.0
1157.283325 240.0
1159.83728 172.0
1165.612671 156.0
1165.802979 52.0
1167.080811 108.0
1168.189453 144.0
1170.231079 92.0
1172.642578 72.0
1172.717529 196.0
1173.044678 148.0
1173.126465 56.0
1180.671265 68.0
1183.80957 148.0
1186.827393 172.0
1188.597046 168.0
1190.965576 152.0
1192.133423 64.0
1192.676392 48.0
1193.171387 140.0
1195.750854 124.0
1195.922974 28.0
1196.150024 184.0
1197.086426 200.0
1197.361816 176.0
1197.823364 240.0
1199.745972 60.0
1201.601074 168.0
1207.493286 172.0
1207.66626 164.0
1208.191895 148.0
1208.530884 168.0
1209.458252 120.0
1210.628296 108.0
1212.256226 124.0
1212.387939 200.0
1217.813232 156.0
1219.918701 156.0
1220.120239 204.0
1221.371948 168.0
1221.942383 232.0
1226.747681 144.0
1227.159058 180.0
1227.30542 200.0
1227.612183 208.0
1228.686401 252.0
1229.956421 224.0
1230.270508 80.0
1230.905884 128.0
1232.393677 140.0
1232.764038 116.0
1235.469849 192.0
1235.588867 160.0
1236.211548 164.0
1237.219482 176.0
1237.324463 128.0
1237.870605 180.0
1239.993286 132.0
1240.862427 144.0
1242.833374 160.0
1243.078979 168.0
1245.395752 232.0
1245.465942 164.0
1245.571289 140.0
1246.112183 184.0
1246.64624 136.0
1247.686523 140.0
1248.755371 196.0
1249.831665 104.0
1252.788574 216.0
1253.091553 164.0
1254.776001 148.0
1254.860596 148.0
1255.805542 220.0
1256.750854 152.0
1258.790771 104.0
1260.881836 232.0
1262.444092 200.0
1262.797729 152.0
1264.000366 160.0
1267.002441 120.0
1274.153564 188.0
1274.260132 160.0
1274.338257 76.0
1274.515869 156.0
1276.015625 184.0
1276.157837 32.0
1277.039551 212.0
1278.01416 164.0
1278.234741 192.0
1282.550537 224.0
1282.999634 144.0
1283.684082 192.0
1284.62561 204.0
1285.067871 252.0
1286.03125 144.0
1286.845093 68.0
1287.102051 160.0
1287.894775 116.0
1288.052002 92.0
1291.862061 140.0
1292.885132 196.0
1295.391113 72.0
1297.089355 144.0
1298.366699 136.0
1299.111572 220.0
1299.255005 132.0
1299.972534 268.0
1300.539551 288.0
1300.805054 60.0
1301.264526 180.0
1301.781494 172.0
1301.946777 68.0
1303.692383 176.0
1304.231445 164.0
1304.633911 108.0
1306.993042 148.0
1310.261719 208.0
1310.62915 156.0
1310.866943 176.0
1311.119141 208.0
1311.861572 192.0
1314.508545 224.0
1314.724976 236.0
1315.648926 136.0
1317.00647 124.0
1317.75769 140.0
1319.166992 136.0
1319.96228 148.0
1320.743286 128.0
1320.808472 136.0
1321.039917 152.0
1322.407471 80.0
1324.174072 228.0
1324.594116 172.0
1325.883789 168.0
1326.021484 212.0
1326.898682 220.0
1327.427979 116.0
1328.668213 144.0
1329.517212 124.0
1330.061523 144.0
1331.985718 188.0
1334.42749 52.0
1334.674683 128.0
1334.86377 140.0
1335.03833 156.0
1335.300049 112.0
1335.852905 160.0
1337.067993 148.0
1339.827637 152.0
1340.425049 72.0
1340.62915 124.0
1341.627686 148.0
1341.888062 204.0
1344.654785 132.0
1344.727783 188.0
1345.012451 176.0
1345.669434 52.0
1347.144653 156.0
1347.261597 176.0
1347.385742 128.0
1350.558228 184.0
1351.355713 200.0
1351.889771 124.0
1353.317139 164.0
1354.130005 60.0
1354.811279 100.0
1355.004883 136.0
1357.655151 148.0
1358.124512 184.0
1359.335083 200.0
1360.920532 252.0
1361.948608 204.0
1362.198364 60.0
1363.481323 216.0
1364.417725 156.0
1366.77124 108.0
1366.881592 148.0
1367.021484 240.0
1367.514526 120.0
1369.716064 44.0
1370.636963 164.0
1372.737793 168.0
1373.342529 144.0
1373.593384 192.0
1376.560303 184.0
1376.722656 192.0
1378.591675 44.0
1379.582153 204.0
1379.648682 132.0
1379.707764 228.0
1380.80957 172.0
1382.348267 164.0
1383.728271 200.0
1384.776489 144.0
1385.450562 124.0
1387.310669 164.0
1387.755493 236.0
1388.155884 64.0
1389.490967 56.0
1390.054932 148.0
1390.418457 244.0
1391.324097 160.0
1392.80188 76.0
1392.868652 136.0
1393.864258 156.0
1394.369507 252.0
1394.443848 100.0
1394.540527 168.0
1395.759644 164.0
1396.339722 176.0
1397.254639 228.0
1397.723389 184.0
1399.554443 172.0
1399.993774 56.0
1400.328857 180.0
1401.167358 312.0
1403.346924 240.0
1403.428955 152.0
1404.040405 184.0
1404.696777 140.0
1405.017578 76.0
1405.883057 132.0
1406.144287 112.0
1406.808594 208.0
1407.017578 172.0
1407.532837 52.0
1407.861328 56.0
1408.742676 120.0
1409.026611 204.0
1410.797729 204.0
1412.450317 144.0
1413.969238 160.0
1415.136963 128.0
1415.646118 176.0
1416.477417 132.0
1417.219116 180.0
1417.578857 120.0
1418.500732 200.0
1418.575684 196.0
1418.68811 184.0
1418.785522 80.0
1419.05542 152.0
1419.137939 168.0
1419.617798 224.0
1420.435303 96.0
1420.727905 156.0
1421.815796 80.0
1422.769165 96.0
1423.20459 160.0
1423.25708 48.0
1424.135742 128.0
1424.975342 84.0
1425.871338 172.0
1426.217041 224.0
1427.408447 144.0
1427.555298 204.0
1428.307373 276.0
1428.540527 128.0
1430.406738 168.0
1430.594971 212.0
1434.255859 168.0
1434.353882 116.0
1434.677979 144.0
1434.949341 172.0
1436.736816 128.0
1438.546753 128.0
1438.914062 144.0
1440.579224 128.0
1441.606812 160.0
1442.218994 152.0
1442.755737 140.0
1442.982544 112.0
1443.080811 184.0
1443.436157 168.0
1443.564697 156.0
1443.889893 148.0
1444.018433 212.0
1445.085083 152.0
1445.675293 192.0
1445.925049 76.0
1445.985596 168.0
1446.80249 176.0
1447.514771 88.0
1447.787354 72.0
1448.771973 152.0
1449.264526 212.0
1449.418823 196.0
1449.772217 120.0
1450.674072 128.0
1451.045532 176.0
1452.501587 136.0
1454.094971 192.0
1455.074219 132.0
1455.749878 144.0
1458.151855 124.0
1459.214722 144.0
1459.990356 184.0
1460.165283 212.0
1460.728149 152.0
1460.979126 164.0
1463.239502 184.0
1464.259766 172.0
1465.745361 116.0
1466.286377 144.0
1466.431152 172.0
1466.690308 128.0
1466.926636 228.0
1467.109619 136.0
1467.688965 136.0
1467.932983 80.0
1468.817749 80.0
1471.015381 168.0
1471.907104 200.0
1472.252197 100.0
1473.099976 148.0
1473.367432 152.0
1475.484375 88.0
1476.707764 160.0
1477.021362 92.0
1477.312134 252.0
1480.548584 80.0
1481.629761 72.0
1481.867188 128.0
1482.411255 172.0
1483.062744 116.0
1483.170044 236.0
1484.948853 148.0
1485.769531 132.0
1486.130127 92.0
1486.360352 144.0
1487.439087 188.0
1487.741821 184.0
1488.064331 136.0
1489.169189 164.0
1489.546509 172.0
1489.646362 180.0
1490.15332 136.0
1490.61438 76.0
1491.313721 140.0
1491.436646 68.0
1491.697998 160.0
1491.844116 144.0
1492.589844 196.0
1493.012817 148.0
1495.197632 124.0
1495.336182 36.0
1495.944336 136.0
1496.032715 168.0
1496.760376 140.0
1497.138672 152.0
1498.955688 116.0
1499.055908 164.0
1499.256226 128.0
1500.057739 116.0
1500.574341 104.0
1501.885254 208.0
1502.224731 148.0
1502.648926 172.0
