>compound Gemfibrozil
>formula C15H22O3 
>ionization [M+H]+
>parentmass 251.164
#inchi InChI=1S/C15H22O3/c1-11-6-7-12(2)13(10-11)18-9-5-8-15(3,4)14(16)17/h6-7,10H,5,8-9H2,1-4H3,(H,16,17)
#inchikey HEMJJKBWTPKOJG
#Ion_Source LC-ESI
#Instrument qTof
#Compound_Source Isolated
#PI Sirenas
#Data_Collector Ed Esquenazi 
#Scan -1
#Precursor_MZ 251.164
#ExactMass 0.0
#Charge 1
#CAS_Number N/A
#Pubmed_ID N/A
#Smiles N/A
#INCHI_AUX N/A
#Library_Class 3
#SpectrumID CCMSLIB00000004574
#IonMode Positive
#UpdateWorkflowName UPDATE-SINGLE-ANNOTATED-BRONZE
#LibraryQualityString Bronze
#TaskID d19310cd93df49b68e9fcbec27720eb5
##Scan# 5
#SpectrumFile Gemfibrozil.mgf
#LibraryName fda_library.mgf
#MQScore -1
#Organism fda_library
#TIC_Query 0
#RT_Query -1
#MZErrorPPM -1
#SharedPeaks 0
#MassDiff 0
#LibMZ -1
#SpecMZ 251.164
#SpecCharge 0
#internalFilename spec-00000.mgf

>collision 10
103.053123 27.81657
103.14267 10.41346
104.576843 17.190479
106.739319 14.72387
107.048561 96.298988
108.056747 497.943604
108.184029 11.08088
111.081955 71.318153
121.062668 67.564781
123.079559 296.491608
129.086456 79.388817
135.081451 47.51894
609.83313 13.82828
