>compound PICEID
>formula C20H22O8
>ionization [M+H]+
>parentmass 391.139
#inchi InChI=1S/C20H22O8/c21-10-16-17(24)18(25)19(26)20(28-16)27-15-8-12(7-14(23)9-15)2-1-11-3-5-13(22)6-4-11/h1-9,16-26H,10H2/b2-1+/t16-,17-,18+,19-,20-/m1/s1
#inchikey HSTZMXCBWJGKHG
#Ion_Source LC-ESI
#Instrument qTof
#Compound_Source Commercial
#PI Dorrestein
#Data_Collector Garg_Neha
#Scan -1
#Precursor_MZ 391.139
#ExactMass 390.131
#Charge 1
#CAS_Number N/A
#Pubmed_ID N/A
#Smiles OC[C@H]1O[C@@H](Oc2cc(O)cc(/C=C/c3ccc(O)cc3)c2)[C@H](O)[C@@H](O)[C@@H]1O
#INCHI_AUX N/A
#Library_Class 1
#SpectrumID CCMSLIB00000078975
#IonMode Positive
#UpdateWorkflowName UPDATE-SINGLE-ANNOTATED-GOLD
#LibraryQualityString Gold
#TaskID 278b19f5865741e282cec7349aa7e7a1
##Scan# 1064
#SpectrumFile NCP003352_A2_B11_BC4_01_15718.mzXML
#LibraryName NIHcollectionI_05062014.mgf
#MQScore -1
#Organism NIHcollectionI_05062014
#TIC_Query 0
#RT_Query -1
#MZErrorPPM -1
#SharedPeaks 0
#MassDiff 0
#LibMZ -1
#SpecMZ 391.139
#SpecCharge 0
#internalFilename spec-00000.mgf

>collision 10
52.860626 144.0
53.577892 212.0
68.367607 256.0
77.885162 152.0
77.964226 152.0
78.050362 196.0
85.656166 184.0
91.054756 216.0
92.058029 216.0
92.33931 152.0
96.906105 164.0
107.050957 344.0
108.058487 176.0
119.04615 280.0
119.299484 192.0
120.055016 156.0
125.074158 240.0
126.458008 148.0
131.046021 172.0
133.008972 140.0
135.043137 1440.0
135.323914 120.0
136.052063 268.0
137.056244 216.0
142.078415 188.0
145.050446 164.0
146.052261 160.0
154.074112 220.0
155.079803 164.0
157.097839 164.0
161.069092 152.0
165.067886 416.0
173.064896 168.0
183.07692 180.0
186.070496 144.0
187.07637 148.0
189.257751 192.0
193.067596 144.0
194.076904 348.0
199.080704 176.0
203.002731 140.0
207.040863 156.0
210.06572 168.0
211.076477 364.0
223.079468 156.0
223.100281 188.0
227.075119 168.0
228.079117 552.0
229.086411 9644.0
229.178879 208.0
229.311462 216.0
230.089661 1716.0
231.087799 116.0
231.906326 96.0
232.031998 160.0
237.122589 144.0
279.187012 160.0
295.091461 192.0
298.089691 184.0
315.080444 200.0
324.483368 168.0
337.105286 192.0
339.125458 156.0
374.965576 140.0
379.32547 320.0
384.123962 220.0
388.080292 176.0
388.19931 140.0
389.103424 196.0
389.164581 156.0
390.248993 160.0
392.0802 212.0
392.122742 152.0
392.256744 144.0
393.120819 152.0
405.115295 180.0
623.061646 168.0
1315.823364 212.0
1462.88269 184.0
1805.480225 180.0
