>compound Ziprasidone hydrochloride
>formula C21H21ClN4OS
>ionization [M+H]+
>parentmass 413.1197364240905
#inchi InChI=1S/C21H21ClN4OS/c22-17-13-18-15(12-20(27)23-18)11-14(17)5-6-25-7-9-26(10-8-25)21-16-3-1-2-4-19(16)28-24-21/h1-4,11,13H,5-10,12H2,(H,23,27)
#inchikey MVWVFYHBGMAFLY
#origInchi InChI=1S/C21H21ClN4OS.ClH/c22-17-13-18-15(12-20(27)23-18)11-14(17)5-6-25-7-9-26(10-8-25)21-16-3-1-2-4-19(16)28-24-21;/h1-4,11,13H,5-10,12H2,(H,23,27);1H
#Ion_Source LC-ESI
#Instrument qTof
#Compound_Source Commercial
#PI Dorrestein
#Data_Collector Garg_Neha
#Scan -1
#Precursor_MZ 413.12
#ExactMass 412.112
#Charge 1
#CAS_Number 122883-93-6, 138982-67-9 (ClH.H2O), 146939-27-7 (free base)
#Pubmed_ID N/A
#Smiles C1(=CC=CC2=C1C(=NS2)N3CCN(CC3)CCC4C(=CC5=C(C=4)CC(N5)=O)Cl).Cl
#INCHI_AUX N/A
#Library_Class 1
#SpectrumID CCMSLIB00000078152
#IonMode Positive
#UpdateWorkflowName UPDATE-SINGLE-ANNOTATED-GOLD
#LibraryQualityString Gold
#TaskID 77f51c88eb8b467eb4a01dd2d0cb90d2
##Scan# 1126
#SpectrumFile Plate2_61_88_GG8_01_16496.mzXML
#LibraryName FDALibrary_2_04302014.mgf
#MQScore -1
#Organism FDALibrary_2_04302014
#TIC_Query 0
#RT_Query -1
#MZErrorPPM -1
#SharedPeaks 0
#MassDiff 0
#LibMZ -1
#SpecMZ 413.12
#SpecCharge 0
#internalFilename spec-00000.mgf

>collision 10
44.932442 184.0
44.991451 172.0
45.169186 144.0
45.191929 160.0
45.328506 188.0
45.521671 152.0
45.632389 176.0
45.642612 156.0
45.798721 164.0
46.051975 184.0
46.068508 164.0
46.584641 200.0
46.62812 180.0
46.820534 232.0
46.987659 104.0
47.013535 168.0
47.310986 200.0
47.439308 156.0
47.449879 168.0
47.521194 224.0
47.727226 180.0
47.743725 232.0
48.077114 176.0
48.303707 168.0
48.395489 188.0
48.479546 160.0
48.498947 152.0
48.701527 140.0
48.737648 236.0
48.75988 148.0
48.939331 168.0
49.103767 212.0
49.113529 196.0
49.147011 168.0
49.322979 192.0
49.334164 240.0
49.359329 236.0
49.75304 224.0
49.835903 172.0
49.92868 148.0
49.953999 172.0
50.000084 196.0
50.067192 228.0
50.084908 216.0
50.106037 180.0
50.331707 140.0
51.092823 204.0
51.1469 232.0
51.156864 208.0
51.202427 140.0
51.218094 216.0
51.287914 148.0
51.521942 176.0
51.533371 180.0
51.629147 168.0
51.727871 168.0
51.881149 180.0
51.89262 156.0
51.983986 184.0
52.158203 140.0
52.235416 132.0
52.307804 244.0
52.549873 140.0
52.722336 128.0
52.951782 152.0
53.346455 164.0
53.658001 236.0
53.758644 324.0
53.777618 180.0
53.897785 168.0
54.03627 152.0
54.110912 140.0
54.124088 184.0
54.150452 220.0
54.162167 148.0
54.254486 152.0
54.420273 144.0
54.514282 184.0
54.633591 196.0
54.745243 204.0
54.987022 196.0
55.13258 172.0
55.159836 156.0
55.393707 176.0
55.442532 176.0
55.574986 152.0
55.983288 184.0
56.033932 228.0
56.412895 160.0
56.436569 188.0
56.64045 160.0
56.883373 180.0
57.020058 140.0
57.083195 172.0
57.333092 252.0
57.686283 356.0
57.718029 168.0
57.90871 192.0
57.934464 148.0
57.99659 192.0
58.007202 188.0
58.127018 196.0
58.336304 172.0
58.354019 156.0
58.621231 176.0
58.715748 160.0
58.776768 244.0
58.828663 156.0
58.905014 156.0
58.925186 176.0
59.0336 152.0
59.240025 192.0
59.344238 164.0
59.36264 168.0
59.441372 172.0
59.935444 208.0
60.015594 120.0
60.300205 144.0
60.350471 120.0
60.473431 156.0
60.69186 140.0
60.772518 148.0
60.848568 184.0
60.884281 140.0
60.983715 148.0
61.16259 176.0
61.421249 232.0
61.538296 144.0
61.649197 164.0
61.757042 196.0
62.060883 176.0
62.338718 160.0
62.417316 168.0
62.793697 172.0
62.872581 212.0
62.908882 152.0
63.08107 168.0
63.239246 140.0
63.280884 172.0
63.324745 172.0
63.508602 184.0
63.553928 164.0
63.772175 156.0
63.832584 200.0
63.934399 176.0
63.97419 180.0
64.115952 228.0
64.539101 156.0
64.598404 152.0
64.697365 152.0
64.831917 156.0
64.884216 152.0
65.008316 236.0
65.048439 212.0
65.093391 164.0
65.114273 160.0
65.336098 156.0
65.3731 144.0
65.427826 176.0
65.46003 180.0
65.57119 152.0
65.59053 220.0
65.62439 168.0
65.839005 168.0
65.969002 172.0
66.2547 148.0
66.496307 204.0
66.608345 160.0
66.68959 176.0
66.993881 144.0
67.370766 164.0
67.614357 144.0
67.718987 172.0
67.80761 156.0
67.887947 144.0
67.907623 168.0
67.992935 184.0
68.12265 188.0
68.271576 172.0
68.294762 216.0
68.359413 140.0
68.430191 168.0
68.498978 192.0
68.70047 160.0
68.726868 172.0
68.782806 112.0
68.891968 188.0
68.931625 188.0
68.966331 212.0
69.100563 116.0
69.320496 240.0
69.395088 224.0
69.551033 152.0
69.589211 228.0
69.813538 212.0
69.840149 152.0
69.860107 208.0
69.918343 148.0
70.056541 156.0
70.151535 176.0
70.196548 192.0
70.458603 168.0
70.803177 208.0
70.880234 164.0
70.940575 228.0
71.061501 168.0
71.215767 180.0
71.38887 228.0
71.544777 176.0
71.695259 176.0
71.871452 248.0
72.134094 148.0
72.255859 196.0
72.521584 204.0
72.55732 152.0
72.634445 232.0
72.764297 172.0
72.91378 152.0
72.952873 160.0
73.098076 256.0
73.514946 308.0
74.037941 164.0
74.255722 196.0
74.283165 168.0
74.315765 288.0
74.392998 172.0
74.552734 208.0
74.674797 204.0
74.703079 196.0
74.804153 112.0
75.119194 160.0
75.138168 196.0
75.286613 148.0
75.488808 156.0
75.60836 148.0
75.660103 156.0
75.911339 140.0
76.28196 180.0
76.318916 144.0
76.340263 204.0
76.383659 152.0
76.522972 188.0
76.547348 144.0
76.897758 156.0
76.963379 184.0
77.058067 240.0
77.072395 272.0
77.163277 188.0
77.187759 196.0
77.275215 156.0
77.380226 160.0
77.431007 148.0
77.618523 152.0
77.685165 168.0
77.797478 140.0
77.928085 244.0
77.960831 180.0
78.48716 144.0
78.57888 196.0
78.704193 176.0
78.794273 196.0
79.006424 196.0
79.11438 208.0
79.367851 176.0
79.680115 188.0
79.833839 132.0
80.025154 160.0
80.078575 164.0
80.246086 172.0
80.320213 188.0
80.370934 156.0
80.517319 228.0
80.604851 184.0
80.687073 192.0
80.839111 184.0
81.138466 124.0
81.326584 156.0
81.412766 144.0
81.619415 156.0
81.660782 164.0
81.837135 156.0
81.855141 224.0
81.945946 136.0
82.0299 140.0
82.046127 168.0
82.078583 160.0
82.107437 144.0
82.130882 200.0
82.305939 200.0
82.435997 216.0
82.584244 148.0
82.913757 204.0
82.937325 192.0
83.07151 140.0
83.091461 172.0
83.158607 196.0
83.327484 180.0
84.033905 176.0
84.077705 144.0
84.178741 120.0
84.377678 144.0
84.507126 140.0
84.605957 140.0
84.946373 184.0
85.139534 224.0
85.25016 164.0
85.29203 196.0
85.481461 164.0
85.632423 176.0
85.672951 156.0
85.713478 200.0
85.796425 220.0
86.143364 184.0
86.191399 184.0
86.224663 276.0
86.253716 156.0
86.372574 164.0
86.542839 180.0
86.772583 160.0
86.789268 176.0
86.815231 224.0
86.831917 164.0
86.870872 220.0
87.041618 152.0
87.29248 152.0
87.616348 296.0
87.689018 232.0
87.819534 188.0
87.937073 156.0
88.050667 212.0
88.137039 160.0
88.249046 152.0
88.305145 172.0
88.487572 172.0
88.59903 192.0
88.701096 112.0
88.784592 148.0
88.869003 172.0
88.936562 176.0
88.957214 180.0
89.04734 172.0
89.079277 144.0
89.239021 148.0
89.259705 208.0
89.461014 156.0
89.538216 152.0
89.734192 140.0
89.749275 140.0
89.798302 200.0
90.277023 112.0
90.366608 152.0
91.020271 176.0
91.112 156.0
91.186111 240.0
91.380074 204.0
91.56662 256.0
91.787682 156.0
91.974648 144.0
92.085213 168.0
92.165627 160.0
92.362541 192.0
92.395058 176.0
92.622864 148.0
92.645851 144.0
92.900818 164.0
92.946861 144.0
92.989006 100.0
93.359871 168.0
94.070847 148.0
94.310371 196.0
94.339973 216.0
94.389633 188.0
94.439919 220.0
94.484406 144.0
94.507629 144.0
94.703148 144.0
94.78064 140.0
94.966751 388.0
95.191872 248.0
95.228775 144.0
95.357521 180.0
95.582596 164.0
95.679909 144.0
95.71106 168.0
95.773384 172.0
95.822983 172.0
96.159431 168.0
96.403557 200.0
96.477829 192.0
96.51889 168.0
96.61277 148.0
96.66951 168.0
96.739967 176.0
96.796745 168.0
96.935829 144.0
96.953468 164.0
97.085579 236.0
97.144653 220.0
97.343849 140.0
97.651558 188.0
97.704308 196.0
97.752731 148.0
97.780281 172.0
97.868866 148.0
97.896439 224.0
97.983101 140.0
98.085579 172.0
98.255173 192.0
98.482185 168.0
98.588867 144.0
99.343246 156.0
99.582436 216.0
99.726486 300.0
99.847763 164.0
99.929321 188.0
99.957176 160.0
99.993004 260.0
100.034798 160.0
100.094528 148.0
100.233963 184.0
100.247917 184.0
100.726753 208.0
100.794678 192.0
100.9786 180.0
101.070618 164.0
101.116646 192.0
101.701904 176.0
101.73201 172.0
101.806305 192.0
102.03083 220.0
102.110542 208.0
102.520462 192.0
102.687576 180.0
102.845177 284.0
103.026306 200.0
103.056168 328.0
103.080765 196.0
103.144119 140.0
103.178246 168.0
103.229034 196.0
103.257347 172.0
103.486015 244.0
103.508759 172.0
103.639946 228.0
103.686554 140.0
103.710876 156.0
103.878944 172.0
104.059113 316.0
104.096352 156.0
104.128845 168.0
104.230415 176.0
104.397102 172.0
104.704407 152.0
104.885742 172.0
104.904083 188.0
105.187637 172.0
105.259094 200.0
105.286789 128.0
105.306061 144.0
105.428642 164.0
105.561523 176.0
105.694481 224.0
105.763489 112.0
105.88282 160.0
106.011879 324.0
106.15538 196.0
106.190247 144.0
106.337967 152.0
106.45787 168.0
106.781044 140.0
106.812607 192.0
106.896957 176.0
107.267685 148.0
107.44297 160.0
107.457741 176.0
107.521385 164.0
107.612213 184.0
107.667961 240.0
107.742325 188.0
108.232666 156.0
108.273918 228.0
108.293739 204.0
108.340202 184.0
108.418663 180.0
108.483192 212.0
108.559914 140.0
108.657402 212.0
109.01059 172.0
109.049866 176.0
109.262184 272.0
109.289017 208.0
109.355019 224.0
109.457619 224.0
109.939163 220.0
110.020813 200.0
110.08268 176.0
110.356934 184.0
110.499161 188.0
110.777596 164.0
110.955727 172.0
110.994743 224.0
111.041702 140.0
111.25573 208.0
111.295357 140.0
111.434242 196.0
111.488876 164.0
111.547729 196.0
111.725548 252.0
111.939209 176.0
112.263588 176.0
112.288895 196.0
112.677299 164.0
112.770279 152.0
112.827354 192.0
112.975388 144.0
113.230553 124.0
113.250572 196.0
113.280228 176.0
113.585472 172.0
113.750992 140.0
113.863525 164.0
114.022865 156.0
114.275734 144.0
114.367424 184.0
114.467484 152.0
114.515572 172.0
114.602608 164.0
115.057167 156.0
115.073036 192.0
115.102928 256.0
115.275955 248.0
115.49617 168.0
115.909363 156.0
115.967224 180.0
116.062363 200.0
116.448936 240.0
116.532738 136.0
116.639671 196.0
116.727203 160.0
116.903595 172.0
117.168442 236.0
117.189987 180.0
117.511238 160.0
117.919373 188.0
118.360687 140.0
118.484146 228.0
118.536766 196.0
118.711731 216.0
118.835777 216.0
119.251572 164.0
119.304489 224.0
119.480644 180.0
119.524155 164.0
119.595978 152.0
120.021431 164.0
120.098282 188.0
120.169106 300.0
120.212746 216.0
120.343719 148.0
120.487862 144.0
120.710808 152.0
120.8508 164.0
121.138649 160.0
121.280029 140.0
121.350327 248.0
121.484413 172.0
121.66391 180.0
121.68586 176.0
121.753937 168.0
121.771507 228.0
121.813782 276.0
121.864876 168.0
121.959877 180.0
122.151764 208.0
122.184761 168.0
122.303596 160.0
122.470932 236.0
122.537025 168.0
122.630615 112.0
122.865517 172.0
122.962608 204.0
122.986893 140.0
123.028831 200.0
123.074326 172.0
123.101692 140.0
123.139236 164.0
123.183411 164.0
123.209923 152.0
123.380096 212.0
123.470146 160.0
123.503929 160.0
123.647743 168.0
123.948914 180.0
124.010971 184.0
124.055298 156.0
124.152863 140.0
124.359192 324.0
124.390442 256.0
125.003685 148.0
125.437286 152.0
125.625313 192.0
125.712326 172.0
125.741341 204.0
125.906548 144.0
125.937813 156.0
126.018234 188.0
126.19928 140.0
126.370186 204.0
126.442383 136.0
126.568336 200.0
126.615501 208.0
127.014778 236.0
127.032219 148.0
127.077271 236.0
127.103043 144.0
127.183838 144.0
127.427521 188.0
127.992081 216.0
128.120453 140.0
128.183548 228.0
128.200974 180.0
128.515015 152.0
128.716553 224.0
128.73848 224.0
128.754288 172.0
128.959885 188.0
129.025436 192.0
129.204102 148.0
129.308197 200.0
129.416855 196.0
129.693237 172.0
129.851944 180.0
129.931335 176.0
130.065598 3864.0
130.108368 176.0
130.212814 152.0
130.512787 160.0
130.632339 224.0
130.665176 172.0
130.778946 140.0
130.842682 196.0
130.881393 172.0
130.958817 232.0
131.07283 2872.0
131.191254 208.0
131.22316 164.0
131.401505 244.0
131.480927 208.0
131.54483 172.0
131.563095 212.0
131.629318 156.0
131.76033 220.0
131.808243 104.0
131.893539 208.0
132.049805 148.0
132.076584 652.0
132.145889 192.0
132.395386 164.0
132.441193 172.0
132.966248 148.0
133.120056 168.0
133.448639 188.0
133.800659 204.0
134.004089 136.0
134.067856 160.0
134.305328 168.0
134.401978 160.0
134.648956 208.0
134.681564 140.0
134.898773 204.0
134.961182 168.0
135.01207 160.0
135.267273 196.0
135.303619 176.0
135.412445 164.0
135.516693 140.0
135.640778 180.0
135.753128 196.0
135.850815 196.0
135.945663 176.0
136.022858 1020.0
136.124405 156.0
136.173187 184.0
136.503189 172.0
136.549759 160.0
136.610168 180.0
136.659836 160.0
136.807693 196.0
136.86618 148.0
137.024567 208.0
137.15274 196.0
137.350937 200.0
138.030441 156.0
138.138138 168.0
138.271515 164.0
138.411972 232.0
138.507996 152.0
138.627487 176.0
138.697784 208.0
138.824402 196.0
138.877533 304.0
139.031967 1080.0
139.110641 176.0
139.155243 196.0
139.575836 176.0
140.114822 156.0
140.194931 176.0
140.560455 220.0
140.626526 140.0
140.781204 120.0
140.976059 164.0
141.023148 160.0
141.186462 148.0
141.387558 184.0
141.50354 164.0
141.740402 188.0
141.756989 152.0
141.806747 148.0
141.832825 192.0
141.893356 196.0
142.179108 248.0
142.696945 140.0
142.749252 152.0
142.801971 204.0
143.111954 216.0
143.158554 144.0
143.241913 184.0
143.926392 172.0
143.990875 228.0
144.048187 156.0
144.428268 148.0
144.907883 160.0
145.074646 152.0
145.139542 172.0
145.549255 336.0
145.734802 172.0
145.880859 160.0
145.922272 164.0
145.982391 196.0
146.165207 204.0
146.392715 156.0
146.42038 148.0
146.458527 192.0
146.627777 144.0
146.695068 164.0
146.815628 144.0
146.880234 188.0
147.029907 160.0
147.088257 212.0
147.3974 192.0
147.747986 172.0
148.005493 376.0
148.048126 156.0
148.289719 156.0
148.406754 140.0
148.702713 164.0
148.749268 244.0
148.819946 192.0
149.015411 300.0
149.166855 220.0
149.254837 188.0
149.538788 152.0
149.645905 160.0
149.726257 156.0
149.835876 156.0
149.908966 148.0
149.933334 180.0
149.962585 208.0
150.037445 652.0
150.074722 152.0
150.162521 256.0
150.262527 184.0
150.291809 180.0
150.323532 140.0
150.824203 168.0
150.875534 192.0
150.978226 140.0
151.029831 704.0
151.465286 264.0
151.526535 168.0
151.631897 200.0
151.796158 192.0
152.034164 352.0
152.183838 212.0
152.211258 204.0
152.274704 368.0
152.574493 488.0
152.655624 152.0
152.689972 112.0
152.808136 156.0
152.909027 232.0
153.023315 152.0
153.081345 140.0
153.204498 156.0
153.245178 108.0
153.342499 208.0
153.58165 192.0
153.645798 200.0
153.818542 160.0
153.880249 164.0
154.381866 252.0
154.457428 108.0
154.527802 152.0
154.663376 204.0
154.79512 240.0
154.93631 152.0
155.134567 184.0
155.191589 276.0
155.427811 204.0
155.459473 196.0
155.556274 244.0
155.660553 140.0
156.150131 148.0
156.436279 192.0
156.518433 228.0
156.944519 152.0
157.129471 156.0
157.154739 128.0
157.343719 212.0
157.398651 184.0
157.515915 164.0
157.537796 108.0
158.060684 4708.0
158.108734 164.0
158.161163 208.0
158.439697 124.0
158.459167 140.0
158.538162 296.0
158.579453 192.0
158.669693 208.0
158.835205 180.0
158.97319 304.0
159.020935 176.0
159.068344 28012.0
159.30188 224.0
159.357376 148.0
159.409042 108.0
159.507492 196.0
159.553421 148.0
159.578552 188.0
159.633881 144.0
159.88269 172.0
160.02182 376.0
160.071793 2368.0
160.149811 164.0
160.250565 164.0
160.300964 248.0
160.48497 176.0
160.710739 108.0
160.863403 140.0
161.017426 168.0
161.078796 352.0
161.370087 292.0
161.414185 164.0
161.743073 220.0
161.791809 208.0
161.849991 156.0
161.915253 144.0
162.010925 124.0
162.040466 184.0
162.219299 236.0
162.348618 188.0
162.739395 160.0
162.7724 248.0
162.972031 176.0
163.032425 268.0
163.168777 240.0
163.435165 200.0
163.669998 144.0
163.751495 148.0
164.033966 196.0
164.217911 188.0
164.777435 168.0
165.097534 144.0
165.12204 148.0
165.209015 180.0
165.22847 184.0
165.30368 144.0
165.329269 152.0
165.349747 152.0
165.613464 196.0
165.703262 140.0
165.940231 220.0
166.007477 168.0
166.042206 22172.0
166.14183 292.0
166.24939 140.0
166.355133 256.0
166.378998 180.0
166.734665 164.0
166.778351 200.0
166.848602 160.0
166.881805 192.0
167.045364 3244.0
167.422577 152.0
167.500793 220.0
167.907761 196.0
168.039337 5504.0
168.098587 140.0
168.127167 132.0
168.254425 152.0
168.389252 144.0
168.437775 176.0
168.73645 204.0
168.788773 208.0
168.830627 172.0
168.869431 148.0
168.923737 148.0
168.970306 164.0
169.043289 580.0
169.332703 152.0
169.362793 188.0
169.648834 184.0
169.678497 172.0
169.755127 156.0
169.949005 200.0
170.235748 216.0
170.281952 164.0
170.311142 168.0
170.702972 196.0
170.75238 156.0
170.846024 160.0
171.163544 176.0
171.587646 172.0
171.687332 152.0
171.859497 184.0
171.966492 176.0
172.077866 320.0
172.798859 144.0
172.861893 136.0
172.915237 152.0
173.038269 240.0
173.076172 160.0
173.205872 160.0
173.419373 104.0
173.462677 312.0
173.638351 180.0
173.916458 156.0
174.050354 168.0
174.294632 260.0
174.386612 140.0
174.410263 224.0
174.615356 252.0
174.76712 244.0
174.804764 160.0
175.030502 440.0
175.17337 148.0
175.83255 364.0
175.906448 156.0
176.036667 524.0
176.061401 152.0
176.136963 164.0
176.186371 180.0
176.341309 124.0
176.577591 176.0
176.754837 208.0
176.871429 144.0
176.944427 524.0
176.980621 344.0
177.049011 27980.0
177.34082 148.0
177.45488 136.0
177.910416 160.0
178.051453 3660.0
178.288742 276.0
178.488297 160.0
178.713058 168.0
178.74498 196.0
178.880722 180.0
178.997864 172.0
179.04422 408.0
179.293976 232.0
179.413147 204.0
179.584869 184.0
180.01886 208.0
180.055481 160.0
180.14917 192.0
180.302368 180.0
181.059479 268.0
181.139832 208.0
181.51506 140.0
181.592972 148.0
181.86113 148.0
182.105469 224.0
182.251648 176.0
182.532761 192.0
182.605377 176.0
182.686066 164.0
182.758713 200.0
183.009033 188.0
183.343063 168.0
183.752914 172.0
184.054672 160.0
184.125427 256.0
184.41452 200.0
184.482101 144.0
184.768768 140.0
184.931122 140.0
185.083084 180.0
185.239807 196.0
185.730438 220.0
185.966492 152.0
186.140244 192.0
186.427292 156.0
186.484161 176.0
186.566818 212.0
186.738937 188.0
187.03743 296.0
187.135422 156.0
187.196991 204.0
187.304276 188.0
187.399628 156.0
187.481369 152.0
187.813995 180.0
188.053741 180.0
188.127808 144.0
188.24794 152.0
188.373581 148.0
188.460999 184.0
189.048462 296.0
189.646698 164.0
189.683731 148.0
189.925629 196.0
190.051834 144.0
190.304352 160.0
190.386719 180.0
190.688934 148.0
191.059265 324.0
191.227997 200.0
191.335358 168.0
191.453354 164.0
191.511597 264.0
191.663116 172.0
191.864319 192.0
192.027008 144.0
192.06665 128.0
192.559219 168.0
192.621414 172.0
192.733719 140.0
192.835968 184.0
192.94931 140.0
192.999069 176.0
193.111588 244.0
193.140106 196.0
193.188812 172.0
193.240784 164.0
193.302536 136.0
193.367889 212.0
193.389008 164.0
193.463882 284.0
193.552475 228.0
193.592102 208.0
193.655807 268.0
193.684021 184.0
193.725433 136.0
193.761169 148.0
193.810898 340.0
193.836761 240.0
193.890396 484.0
193.944061 212.0
193.956955 416.0
193.986832 384.0
194.038315 190224.0
194.133987 192.0
194.173218 120.0
194.233383 164.0
194.257797 172.0
194.291946 96.0
194.340103 152.0
194.492966 908.0
194.611008 200.0
194.642593 144.0
194.695557 212.0
194.777527 144.0
194.927185 176.0
194.971634 132.0
195.040939 20296.0
195.098068 116.0
195.140854 96.0
195.23259 304.0
195.326569 196.0
195.360596 228.0
195.388153 148.0
195.639282 184.0
195.682419 152.0
195.707108 120.0
195.826614 148.0
195.855209 152.0
195.923462 176.0
195.955322 236.0
196.001175 260.0
196.034607 48784.0
196.156403 116.0
196.195557 120.0
196.241882 132.0
196.286545 152.0
196.31517 200.0
196.34021 152.0
196.383408 204.0
196.418747 208.0
196.487076 108.0
196.51593 256.0
196.554764 144.0
196.581726 204.0
196.605804 160.0
196.678131 160.0
196.703445 108.0
196.876328 144.0
197.038452 2652.0
197.103745 140.0
197.302704 128.0
197.768936 104.0
197.907394 140.0
198.042984 272.0
198.095917 128.0
198.304367 164.0
198.605209 204.0
198.697784 160.0
198.827408 120.0
199.084122 224.0
199.604446 192.0
199.821579 168.0
199.905991 144.0
200.01857 208.0
200.128372 168.0
200.347061 176.0
201.044495 140.0
201.101517 456.0
201.25621 148.0
202.045227 264.0
202.554306 180.0
202.710129 148.0
203.064209 2044.0
203.393646 176.0
203.956055 148.0
204.06575 660.0
204.450943 188.0
204.602905 184.0
205.080566 1980.0
205.856369 184.0
206.083694 624.0
206.709015 116.0
206.765457 216.0
207.081192 172.0
207.134811 220.0
208.046585 156.0
208.078308 160.0
208.431595 224.0
209.254211 184.0
210.173126 108.0
211.022827 232.0
211.135605 372.0
211.158737 176.0
211.280228 152.0
211.41333 196.0
211.642014 180.0
212.137436 164.0
212.172226 184.0
212.671158 180.0
212.87439 144.0
213.069 284.0
213.202652 208.0
213.612625 144.0
213.80571 144.0
215.37323 220.0
216.062225 156.0
216.218201 140.0
216.90358 272.0
217.06633 1524.0
217.240814 208.0
217.516647 148.0
217.628204 176.0
217.963058 156.0
218.073196 900.0
218.542313 156.0
218.807205 152.0
219.08403 360.0
219.119385 144.0
219.212936 180.0
219.372833 156.0
219.452438 176.0
219.585129 180.0
219.794586 196.0
220.089554 7216.0
220.142166 216.0
220.216141 136.0
220.302414 152.0
220.437439 148.0
220.559494 144.0
220.702728 124.0
220.938004 184.0
221.048752 168.0
221.093414 1260.0
221.221298 148.0
221.707855 140.0
221.903503 196.0
222.013214 200.0
222.085861 404.0
223.034546 160.0
223.086731 116.0
223.108856 220.0
223.380615 188.0
223.834839 172.0
224.089981 396.0
224.308548 176.0
224.544098 156.0
224.870468 200.0
225.191757 160.0
225.939072 168.0
226.124588 144.0
226.498856 208.0
227.680588 160.0
228.026093 140.0
229.356445 220.0
229.552414 236.0
229.851044 184.0
229.887253 176.0
230.584885 236.0
230.736023 160.0
230.911407 140.0
231.634811 176.0
232.090271 1124.0
232.520172 156.0
232.775177 176.0
233.04248 140.0
233.090179 348.0
233.458923 156.0
233.735733 152.0
234.029221 96.0
234.08136 148.0
234.466599 228.0
235.071579 172.0
235.097885 156.0
235.229126 168.0
235.898117 164.0
236.623169 168.0
237.078629 1744.0
237.131668 184.0
237.19603 144.0
237.702087 140.0
237.779358 176.0
237.975266 156.0
238.082062 152.0
238.106598 908.0
238.609177 412.0
238.895966 104.0
239.075958 300.0
239.118805 200.0
239.291183 164.0
240.086182 184.0
240.107773 156.0
240.663223 168.0
241.200012 244.0
241.240967 164.0
241.711075 160.0
242.544174 152.0
243.574356 152.0
244.365082 160.0
245.173599 148.0
245.619446 152.0
246.100662 184.0
246.737427 192.0
247.031387 144.0
247.11586 180.0
247.529022 180.0
247.619843 148.0
247.820984 116.0
249.134888 200.0
249.791901 148.0
250.128601 228.0
250.308044 212.0
251.56842 188.0
251.869186 160.0
252.156708 160.0
252.384323 184.0
253.197586 196.0
253.736267 168.0
253.811111 192.0
253.834564 156.0
253.967758 172.0
255.419357 180.0
256.0224 180.0
256.358582 144.0
258.19104 144.0
258.242218 152.0
258.392548 164.0
258.629364 176.0
259.295563 152.0
259.385315 156.0
259.446228 204.0
261.035553 148.0
261.646881 160.0
262.001129 148.0
262.0849 208.0
262.700684 156.0
263.098785 136.0
263.294586 156.0
264.095673 224.0
264.144653 152.0
264.656891 216.0
265.090057 232.0
265.511505 140.0
265.852142 176.0
266.634796 152.0
267.024933 164.0
267.07373 204.0
269.059235 120.0
269.656036 188.0
270.081085 204.0
271.069824 204.0
271.479584 168.0
271.935608 148.0
273.009918 192.0
273.444183 148.0
273.559387 164.0
273.773407 148.0
273.957855 184.0
274.043518 220.0
274.50827 176.0
274.584137 156.0
275.640533 164.0
275.990906 140.0
276.050415 216.0
276.083496 168.0
276.387817 172.0
277.22229 164.0
277.659912 236.0
278.762054 236.0
278.991394 144.0
279.38382 180.0
279.413757 172.0
281.296783 188.0
281.831024 192.0
282.048248 180.0
282.506348 200.0
282.589996 204.0
282.851044 228.0
283.102142 164.0
283.303101 152.0
283.378479 232.0
283.728729 164.0
284.131165 140.0
284.725281 152.0
284.899963 176.0
285.141907 188.0
285.457916 188.0
286.00293 156.0
286.358398 132.0
286.63269 204.0
286.743927 160.0
286.986633 156.0
287.21933 152.0
288.336914 152.0
288.661438 140.0
288.759521 164.0
289.426178 196.0
290.249573 180.0
291.720795 120.0
291.831848 180.0
293.019684 148.0
293.227539 176.0
293.609406 176.0
295.801697 120.0
296.539398 220.0
296.731354 200.0
296.820496 156.0
298.42746 144.0
298.575317 160.0
299.115509 144.0
299.205017 164.0
300.393951 172.0
300.732086 192.0
301.951721 144.0
302.91394 140.0
303.104492 152.0
303.198059 148.0
303.496185 148.0
303.648773 156.0
304.06955 172.0
304.776978 144.0
304.839539 180.0
304.881256 160.0
304.978546 192.0
305.569733 156.0
305.712402 168.0
305.987366 144.0
306.369965 168.0
307.611938 216.0
307.723663 148.0
308.132294 140.0
308.852417 140.0
309.286285 168.0
309.328308 152.0
310.442474 196.0
310.765167 212.0
310.89502 160.0
311.074005 264.0
311.130188 220.0
311.172302 228.0
312.015503 220.0
312.145386 200.0
312.655701 168.0
312.687347 316.0
312.764801 180.0
313.053497 164.0
313.173248 148.0
313.631287 228.0
313.680634 148.0
313.797516 132.0
314.167297 168.0
314.594299 160.0
314.989807 216.0
315.155853 152.0
316.115448 172.0
316.900177 176.0
317.116364 148.0
317.286499 140.0
317.644684 208.0
318.581848 152.0
319.10083 136.0
319.201172 156.0
319.559509 156.0
319.619995 236.0
320.299988 144.0
320.506622 156.0
320.64917 140.0
321.016388 152.0
321.154388 104.0
321.198273 160.0
321.226807 148.0
321.465851 204.0
321.608612 172.0
322.540863 184.0
322.590912 144.0
323.066528 144.0
323.134521 156.0
323.17746 184.0
323.343933 200.0
324.100647 220.0
324.866669 164.0
325.16629 164.0
325.20578 180.0
325.435547 200.0
325.492981 192.0
325.866547 204.0
326.139648 144.0
326.175598 236.0
326.273407 132.0
326.646667 148.0
326.898499 152.0
326.934479 164.0
327.456512 148.0
327.867249 180.0
327.962372 160.0
328.240906 116.0
328.465759 148.0
328.49823 188.0
328.822968 160.0
329.218658 132.0
329.649963 164.0
329.870331 136.0
330.242889 184.0
330.734955 152.0
330.839935 160.0
331.705719 164.0
332.235168 144.0
332.819519 140.0
333.107056 160.0
333.32077 164.0
334.037018 160.0
334.335358 216.0
334.837952 176.0
335.205719 200.0
335.397003 204.0
336.084503 176.0
336.113678 148.0
336.493286 144.0
336.719666 172.0
337.209259 200.0
337.922333 180.0
337.968597 144.0
338.211426 204.0
338.848633 144.0
339.193115 140.0
339.402069 240.0
339.640442 168.0
342.415466 228.0
343.307312 184.0
343.558136 164.0
343.705719 244.0
343.934509 192.0
344.145386 160.0
344.355438 140.0
345.16925 148.0
345.767761 196.0
346.317444 196.0
346.456482 148.0
347.106079 136.0
347.190399 172.0
347.394379 168.0
347.583618 152.0
348.092163 168.0
348.690277 172.0
348.775757 216.0
349.144287 164.0
349.340973 176.0
349.582825 164.0
349.835907 156.0
351.00293 112.0
351.289246 224.0
351.39743 420.0
351.547882 140.0
351.587738 196.0
351.968506 148.0
353.070892 228.0
353.213043 180.0
355.042297 120.0
355.303375 144.0
355.667358 176.0
356.306702 144.0
357.154388 192.0
357.373535 140.0
357.700958 212.0
357.7435 132.0
357.892944 164.0
358.500519 208.0
359.042297 224.0
359.144135 168.0
359.883789 152.0
360.235016 164.0
360.50705 156.0
360.722504 144.0
361.740082 188.0
363.020691 164.0
363.255829 144.0
363.388611 172.0
363.679962 148.0
364.349152 160.0
364.379547 192.0
364.969696 108.0
365.418518 176.0
365.473633 244.0
365.851349 140.0
365.950348 152.0
366.567413 180.0
367.074402 228.0
367.711487 160.0
367.846985 176.0
367.88327 192.0
368.368225 208.0
368.857361 232.0
368.898956 168.0
369.297089 148.0
369.586212 176.0
369.656708 212.0
369.989685 148.0
371.031769 148.0
371.265656 200.0
371.357697 140.0
371.491943 152.0
371.737518 156.0
372.013855 164.0
372.067596 152.0
372.382477 184.0
372.939728 124.0
373.489441 164.0
374.231232 328.0
374.409302 180.0
374.89856 144.0
374.998779 172.0
375.388153 156.0
375.420807 156.0
376.495697 240.0
376.646332 216.0
377.098389 208.0
377.137054 144.0
378.137909 156.0
378.189117 164.0
378.223938 144.0
378.979126 140.0
379.130249 260.0
379.203888 156.0
380.561615 148.0
380.654816 172.0
381.043243 228.0
381.284149 172.0
382.377014 156.0
382.521027 156.0
383.058411 140.0
383.34671 156.0
383.658539 244.0
383.934418 212.0
384.251343 232.0
384.395691 144.0
384.462036 140.0
384.705566 164.0
384.953796 116.0
385.039825 148.0
385.262482 164.0
385.3367 172.0
385.375763 184.0
386.619263 200.0
386.663605 144.0
387.090881 212.0
387.947083 148.0
388.033325 240.0
388.186249 164.0
388.288208 152.0
388.656952 148.0
388.813934 176.0
389.006256 172.0
389.090424 216.0
389.501038 152.0
390.145477 168.0
390.275238 204.0
390.841644 156.0
391.239166 184.0
391.488251 168.0
391.723541 180.0
391.936279 140.0
392.641907 180.0
392.998108 232.0
393.178467 140.0
393.230804 180.0
393.395538 204.0
393.51004 196.0
393.71933 244.0
394.177582 148.0
394.600494 160.0
395.43515 172.0
395.495728 132.0
395.830872 164.0
396.268097 164.0
396.468842 188.0
397.083344 228.0
397.460205 144.0
397.95636 236.0
398.015686 140.0
399.778107 120.0
400.099304 144.0
400.49353 184.0
400.642578 184.0
401.023468 144.0
401.529816 144.0
402.016541 172.0
402.319885 208.0
402.807068 180.0
403.150665 164.0
403.198639 164.0
403.310547 232.0
403.826324 164.0
404.026337 184.0
404.330444 176.0
404.412567 112.0
404.722748 272.0
405.428192 152.0
405.892761 188.0
406.739288 176.0
406.807343 164.0
407.22113 212.0
407.269318 172.0
407.469818 140.0
407.791656 164.0
408.257996 164.0
408.712555 148.0
408.873535 184.0
408.973022 124.0
409.084717 140.0
409.646606 180.0
409.8172 164.0
409.900421 200.0
410.206726 144.0
410.339783 200.0
410.446289 144.0
410.490051 120.0
410.533325 260.0
410.813568 108.0
410.858948 120.0
410.955627 164.0
411.003479 200.0
411.06778 204.0
411.105591 972.0
411.173035 112.0
411.21225 388.0
411.244812 104.0
411.310822 152.0
411.402466 136.0
411.501984 128.0
411.563385 104.0
411.733093 172.0
411.806335 224.0
411.852448 260.0
411.897522 140.0
411.98233 144.0
412.040192 100.0
412.102173 428.0
412.159729 220.0
412.204254 104.0
412.247162 316.0
412.277954 120.0
412.37738 260.0
412.415802 244.0
412.578827 124.0
412.634247 224.0
412.684174 256.0
412.715576 380.0
412.776276 196.0
412.831146 220.0
412.884216 360.0
412.976105 584.0
413.006042 304.0
413.051666 444.0
413.121796 224436.0
413.25766 296.0
413.331818 108.0
413.39978 156.0
413.434723 200.0
413.481537 376.0
413.55481 220.0
413.598022 152.0
413.699554 228.0
413.736084 196.0
413.788544 2044.0
413.859375 324.0
413.938141 284.0
413.967285 236.0
414.123718 70936.0
414.240326 156.0
414.323425 252.0
414.398621 116.0
414.454803 248.0
414.501465 192.0
414.535004 104.0
414.611328 348.0
414.62796 232.0
414.63443 536.0
414.695404 248.0
414.720367 248.0
414.774078 188.0
414.806793 372.0
414.857056 144.0
414.901672 160.0
414.97467 296.0
415.11853 96924.0
415.253937 156.0
415.355225 136.0
415.486633 264.0
415.57077 184.0
415.608765 220.0
415.636902 184.0
415.728882 164.0
415.793671 120.0
415.836426 184.0
415.865234 148.0
415.953583 176.0
416.031036 312.0
416.120361 15988.0
416.226776 172.0
416.281769 108.0
416.344391 112.0
416.460968 312.0
416.497894 184.0
416.550537 228.0
416.602783 228.0
416.63974 140.0
416.692657 524.0
416.741608 276.0
416.798645 244.0
416.842468 152.0
416.915405 232.0
416.956451 236.0
417.024628 192.0
417.114136 1536.0
417.265808 140.0
417.531586 136.0
417.778534 140.0
417.897064 108.0
417.931183 164.0
418.046326 184.0
418.113281 176.0
418.205963 112.0
418.336334 164.0
418.432129 176.0
418.506256 100.0
418.570374 196.0
418.619263 152.0
418.679749 132.0
418.737396 116.0
418.868561 152.0
418.939758 160.0
419.011688 140.0
419.705963 140.0
420.496918 136.0
428.095764 120.0
429.75119 144.0
449.632263 152.0
781.898804 148.0
857.559875 148.0
926.642029 192.0
1011.143921 160.0
1059.925781 200.0
1072.057983 140.0
1179.578979 172.0
1208.290771 160.0
1219.03125 180.0
1278.849731 236.0
1279.433472 140.0
1289.033813 156.0
1291.214233 168.0
1361.012817 224.0
1367.26123 180.0
1388.375488 188.0
1411.984009 140.0
1430.833496 232.0
1451.240601 192.0
1462.71106 184.0
1471.349365 172.0
1476.553101 180.0
1484.256958 228.0
1484.855103 180.0
1485.576172 176.0
1487.471558 140.0
1488.193237 228.0
1510.395874 144.0
1512.670898 160.0
1527.134399 168.0
1533.971069 160.0
1539.370117 140.0
1539.480713 176.0
1539.682495 196.0
1548.355713 224.0
1549.515015 180.0
1550.032104 204.0
1550.572876 156.0
1554.909912 156.0
1555.325928 192.0
1562.539917 148.0
1578.18811 140.0
1580.497681 144.0
1582.713989 176.0
1583.260376 168.0
1584.076172 160.0
1585.700562 180.0
1586.516968 208.0
1589.14209 140.0
1594.716797 216.0
1600.094238 168.0
1602.284424 140.0
1605.576416 156.0
1609.686279 172.0
1612.114746 160.0
1613.705444 224.0
1616.921143 176.0
1626.097778 192.0
1635.228027 232.0
1639.552856 152.0
1641.971558 180.0
1646.474854 184.0
1657.468506 176.0
1659.081421 160.0
1664.606812 160.0
1667.417603 172.0
1674.601807 156.0
1676.850464 180.0
1679.802124 160.0
1685.051392 204.0
1686.792114 148.0
1688.599121 148.0
1689.924316 252.0
1690.750854 228.0
1695.115601 164.0
1697.214111 208.0
1704.133301 168.0
1704.256592 176.0
1704.355225 200.0
1708.260376 220.0
1709.645874 136.0
1710.548096 140.0
1711.807739 240.0
1713.69397 168.0
1721.596313 140.0
1726.634399 236.0
1733.077881 180.0
1734.536499 168.0
1738.268555 156.0
1739.83728 148.0
1739.903687 156.0
1740.74231 140.0
1741.755615 184.0
1744.905151 152.0
1745.819824 220.0
1750.796387 148.0
1752.112427 144.0
1753.720703 140.0
1760.887695 208.0
1761.030762 168.0
1767.182373 152.0
1768.387451 180.0
1771.033203 168.0
1774.628296 148.0
1776.464966 232.0
1777.043823 216.0
1778.881836 196.0
1781.485107 160.0
1786.032715 196.0
1795.609253 140.0
1796.933594 200.0
1798.182495 148.0
1798.629883 152.0
1800.462036 172.0
1802.286621 176.0
1803.021851 220.0
1805.160645 164.0
1809.687622 148.0
1810.602173 184.0
1815.958496 208.0
1818.240723 160.0
1819.862061 144.0
1823.115479 176.0
1823.64502 208.0
1824.279907 152.0
1826.626953 224.0
1827.435181 196.0
1828.737183 176.0
1831.104004 176.0
1831.172241 212.0
1831.317017 152.0
1832.611816 200.0
1834.529419 212.0
1841.321411 212.0
1846.474976 180.0
1846.594727 204.0
1848.588135 212.0
1849.307007 164.0
1854.831665 188.0
1855.234619 160.0
1860.321777 172.0
1861.120239 196.0
1861.798584 140.0
1863.765747 184.0
1865.733887 148.0
1868.309937 132.0
1870.714844 148.0
1871.43811 148.0
1875.935303 204.0
1877.452759 168.0
1877.633911 172.0
1878.297974 152.0
1878.686157 160.0
1882.302612 156.0
1882.656616 148.0
1886.613892 156.0
1888.193848 264.0
1888.308716 164.0
1888.741211 144.0
1889.943726 164.0
1892.081543 168.0
1892.58374 168.0
1895.164795 240.0
1895.38147 176.0
1900.835693 172.0
1903.387695 152.0
1903.778442 160.0
1904.855469 164.0
1905.255127 144.0
1906.280396 156.0
1909.810059 220.0
1912.028687 168.0
1913.308228 140.0
1919.276489 212.0
1920.549683 144.0
1920.828857 164.0
1922.032837 256.0
1924.878662 144.0
1925.114258 184.0
1925.341309 164.0
1927.704224 168.0
1931.643066 160.0
1932.185547 200.0
1937.09668 156.0
1940.016968 112.0
1942.970215 176.0
1944.031982 184.0
1945.225586 152.0
1946.665527 148.0
1948.176147 208.0
1949.186523 140.0
1951.594971 184.0
1952.016602 160.0
1954.72644 256.0
1955.835327 188.0
1956.213867 196.0
1960.106689 140.0
1960.864624 164.0
1961.904663 144.0
1962.901001 144.0
1963.130249 164.0
1963.430176 152.0
1964.841431 228.0
1967.700928 160.0
1969.55542 204.0
1971.746582 184.0
1974.009766 184.0
1976.867065 160.0
1976.928955 140.0
1979.69104 140.0
1980.59436 192.0
1982.446045 188.0
1982.714844 172.0
1984.112427 204.0
1985.043457 148.0
1985.96582 148.0
1986.648804 296.0
1987.837769 216.0
1987.944214 232.0
1990.658936 144.0
1991.051392 164.0
1991.220093 152.0
1992.872437 180.0
1993.290039 172.0
1995.183228 160.0
1995.645508 224.0
1996.383545 204.0
1999.123535 156.0
2000.289429 172.0
2001.133667 164.0
