>compound LY 171883
>formula C16H22N4O3
>ionization [M+H]+
>parentmass 319.177551
#inchi InChI=1S/C16H22N4O3/c1-3-6-13-14(9-8-12(11(2)21)16(13)22)23-10-5-4-7-15-17-19-20-18-15/h8-9,22H,3-7,10H2,1-2H3,(H,17,18,19,20)
#inchikey MWYHLEQJTQJHSS
#Ion_Source LC-ESI
#Instrument qTof
#Compound_Source Commercial
#PI Dorrestein
#Data_Collector Garg_Neha
#Scan -1
#Precursor_MZ 319.176
#ExactMass 318.169
#Charge 1
#CAS_Number N/A
#Pubmed_ID N/A
#Smiles CCCc1c(O)c(ccc1OCCCCc2nn[nH]n2)C(=O)C
#INCHI_AUX N/A
#Library_Class 1
#SpectrumID CCMSLIB00000079186
#IonMode Positive
#UpdateWorkflowName UPDATE-SINGLE-ANNOTATED-GOLD
#LibraryQualityString Gold
#TaskID 278b19f5865741e282cec7349aa7e7a1
##Scan# 1553
#SpectrumFile NCP003592_E2_F11_BE2_01_15736.mzXML
#LibraryName NIHcollectionI_05062014.mgf
#MQScore -1
#Organism NIHcollectionI_05062014
#TIC_Query 0
#RT_Query -1
#MZErrorPPM -1
#SharedPeaks 0
#MassDiff 0
#LibMZ -1
#SpecMZ 319.176
#SpecCharge 0
#internalFilename spec-00000.mgf

>collision 10
46.060478 188.0
46.301231 156.0
48.629402 248.0
48.812782 200.0
51.248081 216.0
52.516804 260.0
53.790817 192.0
54.652569 236.0
56.420528 164.0
56.57761 184.0
56.854908 164.0
61.333961 216.0
62.359489 200.0
66.322762 156.0
67.266205 152.0
67.661819 160.0
71.266129 216.0
71.634567 176.0
72.635277 192.0
73.894226 156.0
75.398842 148.0
79.178017 156.0
79.568115 148.0
81.610298 184.0
82.964371 220.0
83.858696 144.0
84.066597 140.0
85.530983 152.0
85.715149 156.0
88.269409 184.0
91.240997 252.0
91.858009 140.0
93.067535 180.0
94.269516 164.0
94.2985 144.0
94.491875 152.0
94.91217 188.0
95.046005 164.0
95.063469 168.0
95.739983 164.0
97.076393 404.0
97.50856 172.0
98.341675 204.0
99.093613 192.0
99.452049 180.0
100.540718 168.0
101.126297 176.0
103.054817 236.0
106.066795 188.0
107.046593 356.0
107.246628 232.0
109.062798 144.0
109.515457 176.0
110.139114 164.0
110.521683 168.0
110.957329 184.0
111.043907 700.0
111.081055 320.0
111.452652 160.0
111.747009 144.0
112.672554 176.0
115.388687 188.0
116.761032 148.0
119.051826 156.0
120.170654 256.0
121.209251 140.0
121.413116 164.0
121.786224 140.0
122.351357 148.0
122.939285 152.0
123.044228 1336.0
123.107643 180.0
124.041199 160.0
124.249763 188.0
124.593872 156.0
124.747208 200.0
124.942909 160.0
125.082542 35852.0
125.136993 284.0
125.243584 112.0
125.306824 104.0
125.481865 288.0
126.084824 1268.0
126.106903 172.0
126.377487 140.0
126.840897 112.0
126.883652 212.0
128.061142 288.0
128.387924 160.0
128.807724 200.0
129.067947 140.0
131.053421 528.0
131.083313 148.0
132.092453 148.0
132.616791 176.0
133.03302 132.0
133.065048 148.0
134.537521 216.0
134.738449 236.0
135.045502 360.0
135.082718 196.0
137.060013 1628.0
138.064713 268.0
138.08577 156.0
138.18869 192.0
140.097382 164.0
142.548569 156.0
143.050415 164.0
143.071838 176.0
143.102783 152.0
144.074677 180.0
144.489426 188.0
145.282394 180.0
145.47438 184.0
146.077667 160.0
147.044724 1620.0
147.265869 148.0
148.048553 300.0
148.086044 148.0
148.308685 144.0
149.005142 140.0
149.060287 1408.0
149.094086 172.0
150.041901 232.0
150.065109 540.0
150.091141 144.0
151.076004 1016.0
152.025574 180.0
152.052582 148.0
152.079605 500.0
152.293182 164.0
153.054901 524.0
153.090729 3336.0
153.150269 172.0
153.218094 140.0
153.605133 160.0
154.092514 416.0
156.043182 236.0
156.075562 136.0
157.053787 188.0
157.088226 128.0
158.060928 176.0
159.043488 188.0
159.079834 148.0
159.30835 152.0
160.04776 124.0
161.060715 1752.0
161.088562 192.0
162.057251 304.0
162.228088 144.0
162.948837 168.0
163.074738 528.0
164.078827 148.0
165.053772 1776.0
165.090973 3616.0
165.135986 224.0
165.32637 172.0
165.804199 156.0
165.837524 156.0
166.059311 532.0
166.093781 144.0
167.075211 244.0
167.094193 112.0
167.275925 144.0
168.103256 144.0
168.131638 172.0
171.07872 308.0
172.039856 1192.0
172.063278 284.0
172.089417 320.0
173.049942 160.0
173.059326 252.0
173.474213 144.0
174.060379 736.0
174.096039 160.0
175.075897 808.0
176.074341 164.0
177.054352 476.0
177.091797 2004.0
177.13179 192.0
177.558517 176.0
178.06424 116.0
178.092529 176.0
178.575714 144.0
178.961578 172.0
179.071045 2324.0
179.106644 312.0
180.073502 280.0
183.078598 172.0
184.042648 96.0
184.08046 144.0
184.671997 176.0
185.058777 152.0
185.09169 144.0
186.055939 1212.0
186.084595 164.0
187.060028 148.0
187.700333 164.0
187.970383 164.0
188.071167 164.0
189.055252 168.0
189.091034 1816.0
189.649551 180.0
190.050278 1236.0
190.091003 428.0
191.068832 800.0
191.10762 712.0
192.075623 284.0
192.098053 220.0
192.157486 192.0
193.087433 2360.0
194.090576 640.0
195.102325 19780.0
195.155365 152.0
195.857574 232.0
196.105484 2084.0
196.426666 184.0
197.106186 444.0
197.552719 140.0
199.060318 160.0
199.923615 140.0
200.073257 308.0
201.389648 176.0
202.085495 940.0
203.083664 140.0
204.066864 1836.0
204.099838 164.0
204.130142 176.0
204.434525 192.0
205.073441 156.0
205.12207 208.0
206.116943 196.0
207.045822 180.0
207.101761 4472.0
207.138916 9164.0
207.918182 164.0
208.105865 1080.0
208.139252 1508.0
208.281967 172.0
209.106491 360.0
213.76445 152.0
214.087067 1140.0
215.086014 196.0
215.109497 392.0
216.417755 156.0
217.114685 168.0
218.081696 564.0
219.075653 156.0
220.097137 1860.0
220.211273 160.0
221.103516 264.0
222.752655 148.0
230.083282 312.0
230.123032 328.0
230.926804 144.0
231.101578 812.0
231.122284 588.0
232.095856 1408.0
232.133347 1596.0
232.226135 164.0
233.119003 776.0
234.117065 288.0
235.118301 188.0
238.108948 140.0
238.476166 216.0
244.999176 140.0
245.103363 136.0
246.108765 520.0
246.153183 156.0
246.453049 248.0
247.130051 304.0
248.111618 120.0
248.149933 156.0
249.150879 2396.0
250.10025 148.0
250.125351 148.0
250.152481 192.0
250.519043 160.0
256.138641 160.0
257.119873 844.0
259.112488 228.0
261.152496 132.0
267.750397 144.0
272.358795 180.0
272.818817 160.0
273.163727 132.0
273.950867 140.0
274.14389 3028.0
275.147644 560.0
276.041046 136.0
276.155884 380.0
276.54953 164.0
276.828217 140.0
277.166443 21516.0
277.882965 188.0
278.168427 2408.0
279.168457 616.0
279.895874 144.0
289.036255 160.0
291.170227 580.0
302.144531 184.0
318.168701 172.0
319.177551 5884.0
319.219116 332.0
319.679291 144.0
320.179626 1172.0
320.258789 164.0
321.178284 360.0
1178.062134 236.0
1300.742188 172.0
1464.086182 232.0
1469.109009 180.0
1491.069214 152.0
1556.647095 204.0
1575.044678 160.0
1575.98584 148.0
1677.429688 196.0
1682.487427 168.0
1688.141602 168.0
1716.570679 176.0
1754.437134 160.0
1766.035645 144.0
1787.38623 268.0
1793.146362 148.0
1795.169678 204.0
1798.822876 148.0
1809.779419 152.0
1813.845825 172.0
1820.047485 200.0
1838.937744 192.0
1862.097168 144.0
1883.198364 148.0
1894.867798 156.0
1895.405029 156.0
1904.687866 188.0
1905.669556 200.0
1915.761353 184.0
1932.20874 164.0
1943.098633 192.0
1947.039917 152.0
1958.253296 168.0
1990.887695 204.0
