>compound Moxifloxacin hydrochloride
>formula C21H24FN3O4
>ionization [M+H]+
>parentmass 402.18236092009056
#inchi InChI=1S/C21H24FN3O4/c1-29-20-17-13(19(26)14(21(27)28)9-25(17)12-4-5-12)7-15(22)18(20)24-8-11-3-2-6-23-16(11)10-24/h7,9,11-12,16,23H,2-6,8,10H2,1H3,(H,27,28)/t11-,16+/m0/s1
#inchikey FABPRXSRWADJSP
#origInchi InChI=1S/C21H24FN3O4.ClH/c1-29-20-17-13(19(26)14(21(27)28)9-25(17)12-4-5-12)7-15(22)18(20)24-8-11-3-2-6-23-16(11)10-24;/h7,9,11-12,16,23H,2-6,8,10H2,1H3,(H,27,28);1H/t11-,16+;/m0./s1
#Ion_Source LC-ESI
#Instrument qTof
#Compound_Source Commercial
#PI Dorrestein
#Data_Collector Garg_Neha
#Scan -1
#Precursor_MZ 402.182
#ExactMass 401.175
#Charge 1
#CAS_Number 186826-86-8, 151096-09-2 (free base)
#Pubmed_ID N/A
#Smiles C1(=C(C(=C2C(=C1)C(C(=CN2C3CC3)C(O)=O)=O)OC)N4C[C@@]5([C@](C4)(CCCN5)[H])[H])F.Cl
#INCHI_AUX N/A
#Library_Class 1
#SpectrumID CCMSLIB00000078158
#IonMode Positive
#UpdateWorkflowName UPDATE-SINGLE-ANNOTATED-GOLD
#LibraryQualityString Gold
#TaskID 77f51c88eb8b467eb4a01dd2d0cb90d2
##Scan# 1067
#SpectrumFile Plate3_1_20_GG9_01_16498.mzXML
#LibraryName FDALibrary_2_04302014.mgf
#MQScore -1
#Organism FDALibrary_2_04302014
#TIC_Query 0
#RT_Query -1
#MZErrorPPM -1
#SharedPeaks 0
#MassDiff 0
#LibMZ -1
#SpecMZ 402.182
#SpecCharge 0
#internalFilename spec-00000.mgf

>collision 10
44.952187 180.0
45.012516 144.0
45.13118 192.0
45.234192 160.0
45.307846 244.0
45.507683 156.0
45.629944 152.0
45.683739 240.0
45.697193 204.0
45.772366 160.0
45.974773 204.0
46.18689 148.0
46.254097 168.0
46.373741 156.0
46.453743 300.0
46.586777 160.0
46.65065 212.0
46.882034 152.0
47.071651 216.0
47.479454 192.0
47.590607 148.0
47.629059 156.0
47.730759 216.0
47.77562 168.0
47.90004 168.0
48.210476 172.0
48.302921 236.0
48.476173 192.0
48.491417 148.0
48.558151 136.0
48.619011 188.0
48.69537 168.0
48.747269 200.0
48.870522 208.0
48.906704 156.0
48.933666 196.0
49.015331 192.0
49.094791 140.0
49.1185 152.0
49.214798 212.0
49.459446 168.0
49.473442 152.0
49.645786 188.0
49.718735 232.0
49.8395 196.0
49.996994 144.0
50.408775 176.0
50.458244 156.0
50.490768 144.0
50.521885 188.0
50.617241 216.0
50.854885 152.0
51.169041 216.0
51.538448 180.0
51.554165 156.0
51.619923 148.0
51.745838 140.0
51.804554 148.0
51.814583 176.0
51.824612 140.0
51.904881 164.0
52.044899 172.0
52.255344 184.0
52.291321 156.0
52.405083 272.0
52.505989 176.0
52.551647 196.0
52.578667 212.0
52.661861 192.0
52.728321 148.0
52.742775 148.0
52.76012 188.0
52.803501 152.0
52.961262 184.0
53.067051 164.0
53.086731 204.0
53.20488 172.0
53.220848 248.0
53.272778 164.0
53.324581 216.0
53.358875 144.0
53.385048 148.0
53.434471 180.0
53.449055 204.0
53.610691 140.0
53.734631 172.0
53.858715 160.0
53.927387 152.0
53.958088 192.0
54.021503 132.0
54.042915 200.0
54.127811 152.0
54.16003 148.0
54.177608 176.0
54.377422 208.0
54.396111 160.0
54.431347 184.0
54.468937 148.0
54.760765 196.0
54.794643 200.0
54.987362 108.0
55.024719 208.0
55.08379 168.0
55.212093 144.0
55.267197 140.0
55.550083 184.0
55.596077 172.0
55.673275 260.0
55.70892 192.0
55.753948 144.0
55.783222 184.0
55.854599 140.0
55.978127 204.0
55.994507 152.0
56.073471 148.0
56.138687 204.0
56.192764 208.0
56.236038 144.0
56.288292 148.0
56.302494 188.0
56.330109 148.0
56.354012 244.0
56.374931 196.0
56.482578 252.0
56.584339 188.0
56.672707 204.0
56.782139 216.0
56.822639 180.0
56.845367 188.0
56.867657 208.0
56.88567 184.0
56.960751 140.0
57.288685 256.0
57.306763 196.0
57.326351 152.0
57.460548 168.0
57.533951 220.0
57.569469 124.0
57.696148 140.0
57.879219 220.0
57.936775 184.0
58.006481 172.0
58.173347 148.0
58.205441 144.0
58.346901 180.0
58.382149 212.0
58.44054 224.0
58.504749 172.0
58.559566 164.0
58.620502 140.0
58.843056 172.0
58.926476 124.0
59.041843 188.0
59.328175 140.0
59.418655 232.0
59.639786 164.0
59.712772 136.0
59.74324 172.0
59.988617 168.0
60.006165 176.0
60.246922 144.0
60.298725 152.0
60.370571 168.0
60.398411 140.0
60.746941 188.0
60.885078 152.0
60.958092 196.0
61.099583 180.0
61.132259 164.0
61.283298 156.0
61.505516 184.0
62.122524 136.0
62.165211 172.0
62.180904 212.0
62.405537 160.0
62.529808 148.0
62.546471 212.0
62.562862 140.0
62.616402 160.0
62.664814 240.0
62.761379 188.0
62.83551 184.0
62.890045 184.0
62.964947 180.0
63.100842 156.0
63.121395 208.0
63.235298 180.0
63.339046 132.0
63.402309 168.0
63.458656 164.0
63.752312 160.0
63.77615 140.0
63.814304 188.0
63.965435 148.0
64.033905 156.0
64.081696 240.0
64.258667 244.0
64.327286 140.0
64.364006 156.0
64.376785 164.0
64.445473 140.0
64.549538 148.0
64.653351 152.0
64.734993 208.0
64.834312 152.0
64.911263 140.0
64.991966 192.0
65.032509 160.0
65.192184 224.0
65.238792 220.0
65.60392 152.0
65.711365 156.0
65.790192 144.0
65.93663 192.0
65.952896 144.0
66.030502 196.0
66.08065 148.0
66.104919 200.0
66.261978 264.0
66.360847 176.0
66.43869 172.0
66.485748 144.0
66.555168 152.0
66.589035 200.0
66.689659 224.0
66.804726 156.0
66.911621 208.0
66.940926 156.0
66.958839 200.0
66.984398 192.0
67.195206 164.0
67.423805 144.0
67.441788 152.0
67.561157 188.0
67.713387 400.0
67.731087 124.0
67.834633 152.0
68.005226 228.0
68.074181 144.0
68.235786 144.0
68.261513 160.0
68.308655 144.0
68.347046 144.0
68.445808 196.0
68.478745 164.0
68.52816 164.0
68.541344 164.0
68.797836 156.0
68.831657 224.0
68.855331 192.0
68.97287 168.0
69.016724 176.0
69.139137 200.0
69.173889 180.0
69.26828 164.0
69.48687 140.0
69.507019 164.0
69.706284 272.0
69.967415 144.0
70.045616 160.0
70.285751 156.0
70.347076 172.0
70.494423 232.0
70.535454 144.0
70.573051 144.0
70.606491 168.0
70.656715 160.0
70.71727 224.0
70.812347 156.0
70.958138 160.0
71.115822 140.0
71.127571 180.0
71.288803 168.0
71.32914 140.0
71.566528 184.0
71.600868 176.0
71.632027 172.0
71.793831 140.0
71.901085 156.0
71.967636 176.0
72.057152 176.0
72.080811 192.0
72.170395 156.0
72.20929 148.0
72.232971 144.0
72.253273 176.0
72.376823 176.0
72.598808 148.0
72.797356 180.0
72.876732 176.0
72.997879 148.0
73.120361 156.0
73.139168 168.0
73.280434 176.0
73.341782 208.0
73.363419 104.0
73.38269 140.0
73.406563 180.0
73.531097 180.0
73.543961 112.0
73.630119 192.0
73.645493 160.0
73.720444 152.0
73.724548 132.0
73.766815 148.0
73.797585 180.0
73.850342 212.0
74.159637 160.0
74.176651 176.0
74.227364 180.0
74.318275 144.0
74.445297 200.0
74.538277 128.0
74.694511 172.0
74.716873 160.0
74.735802 160.0
74.859734 160.0
74.873932 180.0
75.01825 192.0
75.086739 144.0
75.140694 160.0
75.239067 156.0
75.685135 152.0
75.868782 160.0
76.057442 212.0
76.081223 148.0
76.115158 260.0
76.146416 184.0
76.247185 180.0
76.307289 200.0
76.458679 216.0
76.502785 168.0
76.602135 140.0
76.684029 164.0
76.696228 140.0
76.89222 128.0
76.945686 188.0
77.104446 144.0
77.271614 120.0
77.316254 272.0
77.390053 176.0
77.473839 164.0
77.500122 176.0
77.554443 156.0
77.645615 180.0
77.764915 108.0
78.062462 164.0
78.085709 156.0
78.162086 208.0
78.26516 308.0
78.294113 160.0
78.472084 160.0
78.54615 204.0
78.777397 256.0
78.921242 216.0
78.96299 236.0
79.101006 152.0
79.128441 240.0
79.28875 164.0
79.320656 140.0
79.389801 280.0
79.416405 176.0
79.494469 144.0
79.521088 164.0
79.545937 352.0
79.593872 168.0
79.639717 152.0
79.697578 272.0
79.808762 128.0
79.919151 148.0
79.996201 108.0
80.107864 196.0
80.132706 204.0
80.189827 164.0
80.368156 144.0
80.407417 140.0
80.489532 196.0
80.625298 172.0
80.804108 144.0
80.836075 120.0
80.874977 176.0
80.902542 188.0
80.955688 164.0
81.085243 184.0
81.148972 108.0
81.199829 140.0
81.232895 276.0
81.261673 156.0
81.347725 268.0
81.377525 188.0
81.584244 160.0
81.610222 160.0
81.68647 132.0
81.775795 188.0
81.86673 144.0
81.931572 192.0
81.996445 208.0
82.039703 180.0
82.086578 144.0
82.151512 188.0
82.527161 148.0
82.548859 164.0
82.648346 204.0
82.664635 192.0
82.715309 228.0
82.765762 152.0
82.927231 160.0
83.003372 188.0
83.083176 152.0
83.095879 216.0
83.28447 148.0
83.373413 208.0
83.442764 200.0
83.491867 152.0
83.814072 172.0
83.86145 216.0
83.894264 200.0
84.092476 204.0
84.138718 144.0
84.235512 152.0
84.26474 140.0
84.365257 164.0
84.506073 160.0
84.604904 252.0
84.758751 180.0
84.777077 140.0
84.812645 128.0
84.837669 136.0
84.900192 128.0
85.005539 192.0
85.031998 176.0
85.202766 192.0
85.280441 148.0
85.298325 212.0
85.677521 200.0
85.799042 144.0
85.854362 196.0
85.948441 160.0
86.044418 192.0
86.107201 176.0
86.144989 160.0
86.262405 144.0
86.337227 156.0
86.456612 168.0
86.504738 168.0
86.554726 248.0
86.656296 148.0
86.767799 148.0
86.834549 196.0
86.971855 192.0
87.00341 176.0
87.027542 160.0
87.047409 160.0
87.122261 148.0
87.18544 152.0
87.20504 188.0
87.224472 140.0
87.285538 104.0
87.358353 168.0
87.409416 180.0
87.639481 168.0
87.654388 156.0
87.699112 168.0
87.725212 228.0
87.814011 212.0
87.902489 236.0
87.930389 312.0
87.993851 208.0
88.126457 160.0
88.193733 172.0
88.234467 172.0
88.287216 180.0
88.317093 164.0
88.463097 168.0
88.667259 148.0
88.824463 128.0
88.903557 140.0
88.933441 212.0
89.145805 148.0
89.28492 180.0
89.35955 172.0
89.426025 204.0
89.447617 204.0
89.516052 156.0
89.563881 168.0
89.643288 148.0
89.712822 164.0
89.736847 148.0
89.793419 148.0
89.910393 208.0
89.948135 212.0
89.967018 248.0
90.084099 148.0
90.099213 184.0
90.135109 156.0
90.264633 100.0
90.498276 180.0
90.574028 140.0
90.658791 168.0
90.729416 180.0
90.78936 176.0
90.806007 200.0
90.907707 180.0
91.051788 192.0
91.128502 200.0
91.175476 164.0
91.205032 176.0
91.33709 200.0
91.445541 140.0
91.491226 200.0
91.576912 204.0
91.721725 148.0
91.857109 152.0
91.961533 220.0
92.051781 156.0
92.064354 152.0
92.266083 152.0
92.284897 140.0
92.353745 184.0
92.700188 96.0
92.752014 228.0
92.775017 144.0
92.80761 236.0
92.861305 172.0
93.07048 324.0
93.085838 140.0
93.11657 160.0
93.191483 164.0
93.328697 216.0
93.336952 172.0
93.412567 140.0
93.510231 196.0
93.583855 296.0
93.731949 160.0
93.805405 140.0
93.840103 204.0
93.963539 148.0
94.00985 168.0
94.044586 156.0
94.06076 100.0
94.09478 240.0
94.135323 148.0
94.210655 204.0
94.332397 224.0
94.369324 156.0
94.438873 124.0
94.598679 204.0
94.692291 148.0
94.779465 196.0
94.856155 148.0
94.979149 144.0
95.07579 232.0
95.231476 140.0
95.254784 160.0
95.301414 228.0
95.344162 236.0
95.585297 156.0
95.604759 236.0
95.668991 144.0
95.709877 188.0
95.727402 408.0
95.914436 184.0
95.936989 204.0
96.034218 188.0
96.082283 2416.0
96.347649 148.0
96.486404 236.0
96.678093 148.0
96.725067 152.0
96.761673 160.0
96.789673 140.0
96.864098 140.0
96.883682 144.0
96.915031 212.0
96.973824 172.0
97.007141 168.0
97.042435 144.0
97.060081 200.0
97.088074 892.0
97.116791 172.0
97.167511 124.0
97.321243 120.0
97.336754 160.0
97.548943 256.0
97.793617 184.0
97.821075 200.0
97.99765 176.0
98.096512 892.0
98.198723 200.0
98.388733 116.0
98.53627 148.0
98.809105 180.0
98.828888 184.0
98.926842 132.0
99.07637 160.0
99.09024 360.0
99.175453 188.0
99.280533 160.0
99.371773 172.0
99.437256 144.0
99.481667 196.0
99.550423 148.0
99.574249 156.0
99.610481 100.0
99.627884 152.0
99.641785 140.0
99.727234 176.0
99.747116 144.0
99.87941 200.0
100.006714 164.0
100.29052 204.0
100.33992 148.0
100.621872 148.0
100.666466 292.0
100.825401 160.0
100.895363 196.0
100.981346 164.0
101.064774 256.0
101.125404 140.0
101.159431 144.0
101.443886 172.0
101.534019 176.0
101.656372 140.0
101.689789 188.0
101.803032 224.0
101.907478 160.0
102.1437 144.0
102.225182 168.0
102.291702 156.0
102.309425 220.0
102.354012 160.0
102.458748 184.0
102.499039 172.0
102.566208 220.0
102.585709 152.0
102.864082 164.0
102.944847 140.0
103.003418 180.0
103.050575 116.0
103.08625 180.0
103.159012 188.0
103.24939 120.0
103.310829 164.0
103.447273 184.0
103.515106 172.0
103.677162 188.0
103.707069 312.0
103.789711 144.0
103.871803 308.0
103.89209 172.0
103.938148 288.0
104.051231 164.0
104.131615 148.0
104.145828 156.0
104.264145 188.0
104.31855 156.0
104.438522 216.0
104.483269 228.0
104.53698 132.0
104.629807 232.0
104.664459 192.0
104.707176 168.0
104.954857 96.0
105.159798 144.0
105.308563 148.0
105.410988 208.0
105.462082 196.0
105.494789 176.0
105.520103 156.0
105.660851 188.0
105.680893 144.0
105.836082 176.0
105.895866 160.0
105.991814 132.0
106.065361 196.0
106.092552 252.0
106.125359 152.0
106.201698 176.0
106.289452 152.0
106.318176 152.0
106.377235 264.0
106.488579 168.0
106.622124 216.0
106.704544 164.0
106.780426 164.0
106.89563 172.0
106.912094 216.0
106.961494 188.0
107.03627 236.0
107.129005 264.0
107.175674 152.0
107.202461 208.0
107.223068 192.0
107.247803 140.0
107.355011 156.0
107.390068 164.0
107.443703 144.0
107.535995 180.0
107.571648 148.0
107.612938 144.0
107.633591 160.0
107.656303 196.0
107.689346 184.0
107.960083 168.0
107.993172 144.0
108.026268 144.0
108.081238 1432.0
108.193893 180.0
108.22081 192.0
108.239227 116.0
108.384438 156.0
108.420845 184.0
108.473557 152.0
108.611229 112.0
108.656914 148.0
108.887161 248.0
108.923843 188.0
109.042282 236.0
109.069427 180.0
109.088448 732.0
109.219009 140.0
109.509689 208.0
109.624146 140.0
109.63958 140.0
109.691689 164.0
109.708366 172.0
109.741722 148.0
109.816795 140.0
109.860985 196.0
109.906494 176.0
109.967018 248.0
109.992836 184.0
110.048431 192.0
110.096992 9040.0
110.159012 160.0
110.192543 152.0
110.26857 136.0
110.347427 264.0
110.527077 144.0
110.58519 188.0
110.619164 172.0
110.638008 180.0
110.681976 168.0
110.802536 108.0
110.878174 200.0
110.962738 152.0
111.063393 176.0
111.101768 616.0
111.132057 148.0
111.313141 144.0
111.381668 184.0
111.449669 212.0
111.506409 144.0
111.585922 184.0
111.693893 144.0
111.741928 256.0
111.791954 180.0
111.851357 168.0
111.890915 96.0
111.926987 108.0
111.954521 200.0
111.969261 184.0
112.071587 132.0
112.110786 208.0
112.287506 180.0
112.40564 204.0
112.441513 164.0
112.629425 196.0
112.7491 172.0
113.067085 156.0
113.323311 144.0
113.535286 140.0
113.56765 168.0
113.626495 200.0
113.654076 148.0
113.789917 168.0
113.817513 160.0
113.891846 148.0
113.972572 140.0
114.185158 180.0
114.229469 120.0
114.360344 188.0
114.380905 156.0
114.434128 172.0
114.455414 212.0
114.53508 108.0
114.562988 212.0
114.58757 176.0
114.700417 228.0
114.834747 160.0
114.879539 180.0
115.154892 284.0
115.186287 264.0
115.231796 140.0
115.298035 604.0
115.37574 340.0
115.564133 204.0
115.777252 140.0
115.87468 140.0
116.203278 112.0
116.229561 168.0
116.291107 128.0
116.312584 140.0
116.811783 220.0
116.841904 140.0
116.86557 180.0
116.919365 196.0
116.988243 152.0
117.15406 140.0
117.205711 152.0
117.24456 184.0
117.309219 168.0
117.378944 176.0
117.41571 220.0
117.451538 148.0
117.736435 200.0
118.118378 168.0
118.170914 160.0
118.199829 176.0
118.219635 140.0
118.361389 180.0
118.482674 244.0
118.612701 140.0
118.660393 180.0
118.782227 132.0
118.817734 156.0
118.93409 132.0
119.020561 148.0
119.087883 156.0
119.209549 180.0
119.27475 152.0
119.289963 152.0
119.353012 176.0
119.495087 112.0
119.657623 240.0
119.677216 140.0
119.854683 160.0
119.986595 208.0
120.007492 192.0
120.065094 172.0
120.095627 184.0
120.119621 168.0
120.150162 184.0
120.201408 172.0
120.379341 140.0
120.512589 160.0
120.63176 136.0
120.650276 156.0
120.674324 188.0
120.748672 180.0
120.763985 144.0
120.848793 132.0
120.886497 164.0
120.991562 164.0
121.041275 360.0
121.149849 172.0
121.284439 160.0
121.312981 356.0
121.541687 156.0
121.587769 140.0
121.743637 144.0
122.050652 152.0
122.079865 268.0
122.185448 140.0
122.237152 144.0
122.362091 208.0
122.409355 132.0
122.506531 160.0
122.613907 172.0
122.740486 144.0
122.76915 216.0
122.83091 156.0
122.857376 152.0
123.02832 156.0
123.048508 172.0
123.098534 244.0
123.175255 140.0
123.283852 160.0
123.468903 140.0
123.626625 160.0
123.725891 160.0
123.856544 148.0
123.88652 140.0
123.907578 168.0
124.106339 244.0
124.223328 208.0
124.265572 160.0
124.326576 192.0
124.395386 164.0
124.450882 152.0
124.517502 200.0
124.541939 148.0
124.728584 152.0
124.837944 128.0
124.870178 176.0
124.904922 184.0
125.026451 160.0
125.077805 164.0
125.106743 140.0
125.140144 152.0
125.208694 112.0
125.291588 164.0
125.502853 192.0
125.527107 168.0
125.913918 144.0
125.994331 164.0
126.044601 184.0
126.062401 144.0
126.097122 144.0
126.114647 176.0
126.472336 132.0
126.509972 128.0
126.596016 160.0
126.737137 140.0
126.923172 172.0
126.965782 148.0
127.050354 108.0
127.118324 208.0
127.292328 132.0
127.3311 164.0
127.376518 168.0
127.684448 164.0
127.76767 160.0
127.783417 164.0
127.854744 184.0
127.927452 140.0
128.034164 152.0
128.136887 168.0
128.171738 204.0
128.256332 168.0
128.3452 100.0
128.364548 156.0
128.59343 148.0
128.700195 96.0
128.736893 172.0
128.782059 200.0
128.849823 172.0
129.014801 180.0
129.037415 164.0
129.070221 252.0
129.139114 152.0
129.164047 260.0
129.22287 236.0
129.252274 212.0
129.320175 204.0
129.406952 132.0
129.541855 160.0
129.610046 148.0
129.778793 168.0
129.834457 160.0
129.945984 120.0
129.988724 160.0
130.188873 144.0
130.381271 116.0
130.472519 236.0
130.499802 140.0
130.572906 156.0
130.603668 100.0
130.8134 132.0
130.831955 224.0
130.927597 168.0
131.062592 228.0
131.108368 372.0
131.211792 192.0
131.34227 140.0
131.671982 160.0
131.700439 168.0
131.794418 196.0
131.849274 164.0
131.91098 152.0
131.942978 168.0
132.11908 148.0
132.276978 160.0
132.304443 140.0
132.375427 208.0
132.459839 208.0
132.510574 168.0
132.540359 160.0
132.565567 164.0
132.716309 184.0
132.962296 144.0
133.051819 188.0
133.232056 300.0
133.436401 152.0
133.698288 188.0
133.754272 168.0
133.810501 160.0
134.039749 296.0
134.251007 164.0
134.345184 204.0
134.401398 120.0
134.489563 160.0
134.975708 164.0
134.998825 144.0
135.017319 184.0
135.045135 188.0
135.385284 180.0
135.535858 168.0
135.606033 156.0
135.635513 172.0
135.790863 144.0
135.814056 172.0
135.865097 280.0
135.917236 260.0
135.959427 156.0
136.032715 120.0
136.056839 368.0
136.162369 112.0
136.208664 172.0
136.294617 164.0
136.390198 124.0
136.520096 144.0
136.548004 144.0
136.612152 232.0
136.642776 172.0
136.761124 172.0
136.873154 200.0
136.905792 292.0
136.936737 152.0
137.050827 168.0
137.06842 112.0
137.160355 208.0
137.26149 160.0
137.290924 188.0
137.416885 208.0
137.688828 168.0
137.88028 152.0
137.918961 192.0
137.975067 232.0
138.018326 144.0
138.034088 348.0
138.054565 200.0
138.073273 164.0
138.126572 144.0
138.161026 232.0
138.246399 176.0
138.294128 152.0
138.510956 176.0
138.725311 136.0
138.757019 168.0
138.775772 148.0
138.853165 160.0
138.997604 140.0
139.064316 164.0
139.081787 208.0
139.254135 156.0
139.282684 212.0
139.449509 172.0
139.470657 152.0
139.50592 156.0
139.543533 148.0
139.665131 176.0
139.745804 140.0
139.810318 212.0
139.85733 204.0
140.03299 188.0
140.075684 336.0
140.147186 160.0
140.214783 128.0
140.233261 144.0
140.27684 172.0
140.439484 104.0
140.500778 196.0
140.523315 228.0
140.560272 204.0
140.576721 372.0
140.600266 164.0
140.641861 188.0
140.695602 188.0
140.7995 172.0
140.844376 204.0
140.886887 208.0
140.975235 144.0
141.028671 172.0
141.054672 212.0
141.283447 188.0
141.331375 152.0
141.428406 272.0
141.502563 172.0
141.581085 156.0
141.667557 160.0
141.729156 168.0
141.781296 216.0
141.804993 144.0
141.845291 152.0
141.868988 148.0
142.024551 100.0
142.044022 164.0
142.096664 380.0
142.148865 192.0
142.347275 200.0
142.446915 292.0
142.486023 192.0
142.549713 132.0
142.584457 152.0
142.620575 180.0
142.814072 252.0
142.84024 220.0
142.897339 208.0
142.991684 148.0
143.061539 180.0
143.126862 152.0
143.183029 172.0
143.242996 164.0
143.287384 188.0
143.338852 176.0
143.357834 260.0
143.380722 140.0
143.406937 252.0
143.545212 196.0
143.578384 224.0
143.604828 208.0
143.848206 140.0
144.006195 96.0
144.082245 300.0
144.182602 204.0
144.230408 196.0
144.270081 136.0
144.325974 164.0
144.413086 176.0
144.451782 128.0
144.586319 320.0
144.677734 156.0
144.814224 140.0
144.852539 144.0
144.904129 172.0
144.960358 144.0
144.984314 144.0
145.055176 160.0
145.222351 156.0
145.315231 168.0
145.499222 156.0
145.528839 208.0
145.56485 164.0
145.74501 144.0
145.802048 272.0
146.081589 176.0
146.249008 168.0
146.324738 116.0
146.34874 300.0
146.640213 140.0
146.668396 256.0
146.6922 208.0
146.758926 196.0
146.839844 176.0
146.881332 164.0
147.047821 176.0
147.159439 216.0
147.297623 164.0
147.332748 220.0
147.356918 164.0
147.389709 180.0
147.431824 172.0
147.492233 160.0
147.601028 140.0
147.617233 136.0
147.667664 180.0
147.723068 180.0
147.922806 244.0
148.029083 156.0
148.053024 156.0
148.0923 240.0
148.181931 168.0
148.235245 264.0
148.271591 164.0
148.310364 140.0
148.370026 204.0
148.412567 152.0
148.436996 156.0
148.526169 328.0
148.780914 164.0
148.842606 144.0
149.049149 208.0
149.1259 184.0
149.35202 204.0
149.530579 172.0
149.812088 184.0
149.85405 144.0
149.982666 176.0
150.03299 136.0
150.056915 408.0
150.093216 184.0
150.123688 268.0
150.482758 188.0
150.536484 212.0
150.663071 216.0
150.683029 140.0
150.709244 292.0
150.832108 196.0
151.017044 164.0
151.044846 148.0
151.0672 400.0
151.098358 196.0
151.135361 252.0
151.159821 188.0
151.221008 200.0
151.242966 128.0
151.331161 140.0
151.407074 296.0
151.468307 172.0
151.539078 180.0
151.772202 152.0
151.92868 184.0
152.0224 188.0
152.049255 284.0
152.076157 584.0
152.135315 152.0
152.196686 124.0
152.243347 168.0
152.287552 164.0
152.328201 116.0
152.372437 152.0
152.421875 124.0
152.520981 164.0
152.548218 332.0
152.5867 200.0
152.623138 100.0
152.889893 192.0
153.059494 192.0
153.084381 184.0
153.149017 212.0
153.248138 216.0
153.284958 160.0
153.597015 176.0
153.621964 140.0
153.694 204.0
154.025833 168.0
154.065674 296.0
154.332962 168.0
154.703033 124.0
154.751114 192.0
154.783295 144.0
154.909607 176.0
154.942352 184.0
155.008713 248.0
155.063004 304.0
155.092148 372.0
155.415604 136.0
155.445999 208.0
155.59407 156.0
155.730347 232.0
155.918594 148.0
156.032257 300.0
156.053772 268.0
156.136398 148.0
156.250183 148.0
156.359665 216.0
156.481644 140.0
156.506531 176.0
156.758118 320.0
156.802979 140.0
156.83371 156.0
156.85878 196.0
156.919144 260.0
156.97998 172.0
157.042328 148.0
157.064774 316.0
157.116653 176.0
157.149597 140.0
157.282578 112.0
157.40419 220.0
157.44548 124.0
157.482834 132.0
157.545593 172.0
157.653992 252.0
157.746475 196.0
157.856476 144.0
158.042007 196.0
158.092484 164.0
158.120041 136.0
158.17923 176.0
158.24823 144.0
158.441803 136.0
158.469727 196.0
158.504028 236.0
158.52919 208.0
158.612579 188.0
158.632629 172.0
158.878387 144.0
158.9888 160.0
159.049026 288.0
159.065338 144.0
159.154465 192.0
159.183334 168.0
159.210785 140.0
159.234558 188.0
159.432739 144.0
159.451584 160.0
159.502701 188.0
159.627319 176.0
159.984146 168.0
160.037872 228.0
160.059677 188.0
160.083481 176.0
160.132706 140.0
160.460907 148.0
160.540894 120.0
160.687271 160.0
160.775589 164.0
160.808395 140.0
161.002808 184.0
161.02861 172.0
161.055649 140.0
161.108047 232.0
161.147537 176.0
161.209961 156.0
161.22847 184.0
161.31665 168.0
161.340637 216.0
161.360336 252.0
161.464478 136.0
161.531052 152.0
161.607773 148.0
161.791702 268.0
161.822784 144.0
161.848755 188.0
161.889206 184.0
161.926544 160.0
161.994293 140.0
162.060165 212.0
162.078415 220.0
162.213486 128.0
162.29158 212.0
162.371964 144.0
162.412857 160.0
162.468353 140.0
162.529831 188.0
162.559692 180.0
162.775467 168.0
162.813553 184.0
163.045502 772.0
163.06572 1888.0
163.157578 296.0
163.244873 160.0
163.272934 152.0
163.357864 160.0
163.433319 128.0
163.539078 220.0
163.568542 144.0
163.670517 148.0
163.704468 144.0
163.814682 172.0
163.987579 156.0
164.026535 188.0
164.050812 796.0
164.212524 260.0
164.320465 180.0
164.414871 144.0
164.453918 140.0
164.476135 272.0
164.6577 208.0
164.700745 124.0
164.732819 184.0
164.767242 144.0
164.790237 172.0
164.87854 136.0
165.01413 136.0
165.048767 528.0
165.107208 180.0
165.201309 192.0
165.3349 164.0
165.393768 212.0
165.447525 152.0
165.567871 212.0
165.703629 168.0
165.772812 144.0
165.828186 284.0
165.947357 288.0
166.032608 184.0
166.065872 204.0
166.117722 156.0
166.206497 152.0
166.378128 140.0
166.455154 196.0
166.532639 140.0
166.583572 164.0
166.647797 320.0
166.66835 240.0
166.748016 188.0
166.992752 192.0
167.033264 132.0
167.234268 144.0
167.357681 180.0
167.521103 180.0
167.646194 212.0
167.70546 176.0
167.741043 132.0
167.836517 120.0
167.958145 164.0
168.074356 200.0
168.110367 172.0
168.263992 208.0
168.382782 192.0
168.415009 172.0
168.438263 228.0
168.477005 144.0
168.511612 104.0
168.533844 184.0
168.569199 256.0
168.594971 160.0
168.686325 160.0
168.734695 152.0
168.778275 212.0
168.864746 208.0
168.941208 192.0
168.973389 200.0
169.019958 220.0
169.03714 236.0
169.07811 196.0
169.102768 212.0
169.131241 164.0
169.221848 144.0
169.304703 144.0
169.418671 164.0
169.473083 144.0
169.506775 184.0
169.558075 196.0
169.634308 184.0
169.691986 288.0
169.734879 240.0
169.765991 272.0
169.838608 232.0
169.960983 156.0
170.069275 320.0
170.159271 204.0
170.201935 172.0
170.32283 116.0
170.521469 240.0
170.551987 240.0
170.625443 204.0
170.849106 152.0
170.950577 276.0
171.00975 152.0
171.054459 140.0
171.091583 164.0
171.186188 228.0
171.315094 156.0
171.334229 300.0
171.354172 144.0
171.382828 144.0
171.478485 164.0
171.50531 184.0
171.538116 184.0
171.616013 172.0
171.635666 144.0
171.726532 156.0
171.75563 332.0
171.789536 196.0
171.958725 148.0
171.999725 168.0
172.034836 180.0
172.075623 384.0
172.099411 140.0
172.134048 144.0
172.157562 180.0
172.251358 144.0
172.301224 144.0
172.367813 140.0
172.485336 228.0
172.510284 172.0
172.840927 180.0
172.924286 116.0
173.033508 144.0
173.054596 208.0
173.086807 224.0
173.112534 132.0
173.201111 188.0
173.316376 156.0
173.366165 152.0
173.461334 204.0
173.523438 144.0
173.671921 264.0
173.709641 224.0
173.767639 144.0
173.88884 148.0
173.92218 188.0
173.998306 172.0
174.064377 332.0
174.321732 144.0
174.437012 400.0
174.469727 180.0
174.54744 168.0
174.565826 328.0
174.61055 152.0
174.721039 160.0
174.792068 172.0
174.828384 120.0
174.895782 168.0
175.042999 132.0
175.065002 436.0
175.142212 196.0
175.166443 164.0
175.198364 116.0
175.247086 188.0
175.266037 296.0
175.291031 148.0
175.362762 148.0
175.468979 160.0
175.785675 188.0
175.806335 192.0
175.848846 160.0
175.904266 108.0
176.041687 312.0
176.073792 364.0
176.175461 144.0
176.221176 164.0
176.245605 124.0
176.399536 172.0
176.464508 124.0
176.541504 152.0
176.580475 152.0
176.64682 164.0
176.665329 140.0
176.716553 156.0
176.75 144.0
176.773804 168.0
176.85585 180.0
176.902359 168.0
176.945114 128.0
177.024475 144.0
177.054031 424.0
177.081467 532.0
177.218658 148.0
177.384399 204.0
177.45462 132.0
177.511948 160.0
177.597748 172.0
177.624268 260.0
177.642838 144.0
177.742859 320.0
177.776154 400.0
177.802521 156.0
177.849808 152.0
177.926529 244.0
177.996521 184.0
178.028717 500.0
178.057434 1308.0
178.087082 344.0
178.200348 256.0
178.218384 208.0
178.256149 148.0
178.326645 176.0
178.397018 156.0
178.522949 232.0
178.553894 160.0
178.668274 276.0
178.699173 188.0
178.881165 140.0
178.934402 180.0
179.037659 1340.0
179.260376 264.0
179.286011 188.0
179.34198 156.0
179.386749 244.0
179.490387 156.0
179.529526 232.0
179.589951 176.0
179.624619 140.0
179.673584 308.0
179.758972 168.0
179.835419 208.0
179.902145 288.0
179.931519 432.0
179.965744 200.0
180.047073 848.0
180.095276 232.0
180.121124 252.0
180.256485 200.0
180.310822 140.0
180.34053 140.0
180.424118 212.0
180.554108 168.0
180.605743 248.0
180.666443 144.0
180.82637 136.0
180.869827 188.0
180.909973 144.0
180.950134 180.0
180.986618 128.0
181.016113 256.0
181.040085 752.0
181.075241 128.0
181.161194 188.0
181.358231 116.0
181.384109 148.0
181.431244 220.0
181.543533 108.0
181.815933 144.0
181.928665 160.0
181.971619 164.0
182.054764 320.0
182.218719 220.0
182.283203 148.0
182.334259 144.0
182.363892 168.0
182.471344 160.0
182.589661 336.0
182.678421 180.0
182.767517 172.0
182.855698 172.0
182.904465 268.0
182.953934 116.0
183.00676 156.0
183.04924 160.0
183.088898 112.0
183.35965 164.0
183.381149 164.0
183.475372 120.0
183.534866 164.0
183.578018 140.0
183.796509 224.0
183.874771 168.0
183.939545 168.0
184.042297 456.0
184.072144 464.0
184.114761 116.0
184.179871 208.0
184.269653 512.0
184.323059 160.0
184.360886 188.0
184.420349 184.0
184.467514 160.0
184.487915 144.0
184.510376 104.0
184.530487 188.0
184.569031 160.0
184.698837 160.0
184.725891 152.0
184.945068 192.0
184.987411 100.0
185.037964 168.0
185.072006 404.0
185.110138 288.0
185.261887 160.0
185.397369 144.0
185.586441 160.0
185.625076 152.0
185.665009 116.0
185.752213 208.0
185.817657 156.0
185.856827 108.0
185.904587 112.0
185.946869 168.0
186.059509 680.0
186.093002 212.0
186.234451 148.0
186.300903 148.0
186.398712 140.0
186.43132 152.0
186.556351 164.0
186.599289 116.0
186.631302 232.0
186.666077 224.0
186.825577 160.0
187.000305 300.0
187.03511 360.0
187.067978 640.0
187.266541 156.0
187.361877 140.0
187.383682 180.0
187.412659 308.0
187.564377 144.0
187.68895 180.0
187.827316 212.0
187.892639 128.0
188.051849 904.0
188.087646 472.0
188.358704 212.0
188.472321 144.0
188.510574 200.0
188.552216 236.0
188.684174 172.0
188.726532 164.0
188.868637 224.0
188.960388 136.0
189.019058 148.0
189.051666 1136.0
189.0802 288.0
189.137939 248.0
189.203873 176.0
189.290192 304.0
189.495621 160.0
189.553101 152.0
189.607086 124.0
189.629898 168.0
189.660049 216.0
189.681976 188.0
189.725845 160.0
189.761475 184.0
189.79628 208.0
189.879395 184.0
190.009613 160.0
190.033936 284.0
190.064285 476.0
190.117828 168.0
190.194382 144.0
190.225113 152.0
190.354156 160.0
190.472412 268.0
190.502472 144.0
190.549164 148.0
190.708557 160.0
190.738785 180.0
190.792084 176.0
190.898804 216.0
190.925751 168.0
190.964111 152.0
191.035904 1428.0
191.062515 1932.0
191.153168 156.0
191.244904 168.0
191.397659 204.0
191.580627 156.0
191.648026 184.0
191.695831 196.0
191.880447 164.0
191.96788 132.0
192.043915 1776.0
192.069397 1388.0
192.174713 148.0
192.198425 224.0
192.252029 188.0
192.446838 172.0
192.488251 356.0
192.53717 148.0
192.684174 124.0
192.761719 276.0
192.869507 156.0
192.934692 152.0
193.044357 2796.0
193.133575 140.0
193.176437 184.0
193.271637 108.0
193.328491 172.0
193.382965 176.0
193.900604 156.0
194.025131 1536.0
194.049194 428.0
194.129211 168.0
194.273438 164.0
194.309509 176.0
194.373322 172.0
194.392746 140.0
194.524475 96.0
194.73027 204.0
194.774872 204.0
194.803665 152.0
194.823105 144.0
194.874939 136.0
194.914062 168.0
194.956482 156.0
195.030014 280.0
195.055893 1252.0
195.094437 240.0
195.151962 156.0
195.220566 188.0
195.284531 184.0
195.304001 212.0
195.394028 100.0
195.437546 296.0
195.53215 156.0
195.640717 140.0
195.729218 172.0
195.855057 116.0
195.980484 148.0
196.035278 552.0
196.064682 148.0
196.094223 128.0
196.17836 148.0
196.264801 156.0
196.367981 152.0
196.394424 208.0
196.434921 216.0
196.496292 172.0
196.743469 184.0
196.815643 180.0
196.852234 100.0
196.894363 156.0
196.923386 148.0
197.025345 168.0
197.069183 228.0
197.110565 148.0
197.132919 240.0
197.219559 148.0
197.328583 228.0
197.426453 172.0
197.589859 136.0
197.607407 356.0
197.637924 176.0
197.659927 164.0
197.805817 164.0
197.851746 156.0
197.903214 232.0
197.935745 188.0
197.966553 144.0
197.991745 160.0
198.064362 544.0
198.076111 552.0
198.235474 164.0
198.264664 164.0
198.285919 232.0
198.323059 128.0
198.362061 204.0
198.411255 208.0
198.524216 176.0
198.625183 156.0
198.700928 348.0
198.81456 112.0
198.835617 148.0
198.88501 184.0
198.915085 236.0
198.942276 220.0
198.976776 236.0
199.013351 152.0
199.047592 308.0
199.090332 368.0
199.170349 216.0
199.252823 100.0
199.304581 140.0
199.434708 132.0
199.472473 108.0
199.532242 160.0
199.6194 176.0
199.805283 136.0
199.893524 232.0
199.942917 144.0
200.00444 168.0
200.053741 272.0
200.073364 232.0
200.154037 156.0
200.250458 204.0
200.289749 156.0
200.373734 172.0
200.525391 156.0
200.535507 108.0
200.59668 180.0
200.658478 140.0
200.722641 152.0
200.759903 144.0
200.779648 176.0
200.867081 156.0
200.922562 156.0
200.99968 152.0
201.058029 1292.0
201.084 520.0
201.181839 96.0
201.214188 180.0
201.253891 188.0
201.289154 152.0
201.32251 144.0
201.37796 220.0
201.431641 244.0
201.540054 180.0
201.658783 144.0
201.718689 168.0
201.746689 172.0
201.80751 212.0
201.830826 192.0
202.018326 236.0
202.063675 2252.0
202.133682 140.0
202.238617 152.0
202.441803 168.0
202.470703 152.0
202.50061 116.0
202.557465 168.0
202.661987 264.0
202.853394 120.0
202.877274 136.0
202.9599 208.0
203.062119 2796.0
203.099823 684.0
203.165817 132.0
203.196732 136.0
203.244019 120.0
203.280121 144.0
203.335632 132.0
203.374222 172.0
203.414658 192.0
203.585831 124.0
203.794769 116.0
203.888153 120.0
203.950684 172.0
204.044052 1412.0
204.072052 1984.0
204.123795 244.0
204.32605 160.0
204.758041 136.0
204.886902 168.0
204.908676 144.0
204.946442 248.0
204.978073 196.0
205.04248 3380.0
205.076782 3084.0
205.192841 112.0
205.229172 168.0
205.30304 144.0
205.345825 208.0
205.488449 140.0
205.646362 288.0
205.890457 176.0
205.990768 180.0
206.050659 2500.0
206.166321 116.0
206.242355 200.0
206.287582 156.0
206.389999 124.0
206.430374 120.0
206.495636 164.0
206.517944 136.0
206.569214 156.0
206.619827 200.0
206.863083 184.0
206.998734 168.0
207.05629 5440.0
207.138199 152.0
207.173431 148.0
207.201004 152.0
207.312744 176.0
207.466125 148.0
207.497543 296.0
207.550674 172.0
207.582596 152.0
207.639572 140.0
207.671585 148.0
207.73526 156.0
207.75531 228.0
207.785858 188.0
207.814545 192.0
207.834641 144.0
207.864395 140.0
207.912964 108.0
207.956497 152.0
207.994873 120.0
208.062119 1824.0
208.102173 132.0
208.173431 160.0
208.311295 140.0
208.344131 280.0
208.612076 304.0
208.72438 300.0
208.857361 168.0
208.953339 148.0
209.012726 208.0
209.036972 276.0
209.069138 812.0
209.103027 188.0
209.188278 208.0
209.217072 212.0
209.371307 152.0
209.405853 292.0
209.462402 224.0
209.490646 168.0
209.57132 160.0
209.607559 124.0
209.658005 204.0
209.671951 156.0
209.765854 116.0
209.925858 168.0
209.997955 240.0
210.042816 276.0
210.07605 380.0
210.299881 156.0
210.554977 156.0
210.634186 200.0
210.706451 100.0
210.723251 160.0
210.785614 196.0
210.822571 160.0
210.899002 172.0
211.011536 140.0
211.052719 168.0
211.085892 2484.0
211.171387 144.0
211.293869 124.0
211.421921 160.0
211.537415 108.0
211.57428 124.0
211.599548 176.0
211.630707 144.0
211.662552 148.0
211.700195 172.0
211.721771 160.0
211.751572 168.0
211.831406 120.0
211.891373 160.0
212.010788 132.0
212.081909 420.0
212.134796 224.0
212.232864 184.0
212.268539 124.0
212.439285 216.0
212.540833 148.0
212.790451 168.0
212.816574 148.0
212.992416 240.0
213.033829 184.0
213.080948 1652.0
213.207809 188.0
213.264633 324.0
213.286377 268.0
213.382935 176.0
213.423843 164.0
213.508591 224.0
213.534348 344.0
213.589615 200.0
213.658234 176.0
213.8573 164.0
213.88002 128.0
214.062607 640.0
214.088242 860.0
214.237305 200.0
214.295731 180.0
214.334015 184.0
214.375702 180.0
214.459427 132.0
214.52301 244.0
214.560791 104.0
214.629303 208.0
214.737198 180.0
214.767685 168.0
214.789703 176.0
214.832016 176.0
214.85849 116.0
214.945999 140.0
215.006714 180.0
215.062698 3944.0
215.142914 160.0
215.240341 156.0
215.288788 224.0
215.613068 192.0
215.686142 148.0
215.78421 108.0
215.859528 168.0
215.921631 308.0
215.962265 228.0
215.991669 204.0
216.069748 3912.0
216.219421 144.0
216.411316 144.0
216.459106 192.0
216.521927 152.0
216.573669 416.0
216.867462 148.0
216.92366 136.0
216.958542 196.0
217.042419 4244.0
217.076309 6756.0
217.12886 260.0
217.332001 200.0
217.568573 152.0
217.59761 120.0
217.612671 152.0
217.643738 136.0
217.679306 260.0
217.906647 144.0
217.977234 184.0
218.027618 948.0
218.056625 1608.0
218.083603 2252.0
218.131302 184.0
218.170166 124.0
218.378326 156.0
218.458893 148.0
218.617355 132.0
218.717804 152.0
218.753098 184.0
218.862213 152.0
218.935928 100.0
218.973862 116.0
219.058044 9100.0
219.091171 2376.0
219.194061 164.0
219.30127 116.0
219.360504 224.0
219.424347 152.0
219.485092 216.0
219.515518 152.0
219.624603 184.0
219.679398 136.0
219.723999 160.0
219.767273 284.0
219.909271 104.0
219.965988 148.0
220.002914 336.0
220.064575 8516.0
220.311493 180.0
220.468872 228.0
220.511108 164.0
220.547882 296.0
220.571533 164.0
220.658859 132.0
220.751099 136.0
220.942596 176.0
220.986786 116.0
221.071548 2892.0
221.152756 152.0
221.17952 104.0
221.300278 204.0
221.514435 124.0
221.5504 132.0
221.583618 172.0
221.714508 128.0
221.788101 204.0
221.816528 156.0
221.930389 164.0
222.040115 300.0
222.07666 652.0
222.418945 172.0
222.523788 168.0
222.575241 184.0
222.695404 152.0
222.784515 132.0
222.847534 216.0
223.026886 148.0
223.058304 360.0
223.086227 548.0
223.113449 264.0
223.230972 176.0
223.302353 200.0
223.337296 244.0
223.397644 204.0
223.617722 172.0
223.678772 164.0
223.707016 196.0
223.752686 164.0
223.813873 180.0
223.901001 136.0
224.007782 156.0
224.033463 336.0
224.088028 468.0
224.149673 160.0
224.278122 220.0
224.416077 160.0
224.658646 208.0
224.699417 176.0
224.822784 104.0
224.959045 196.0
225.015137 112.0
225.061111 368.0
225.09697 644.0
225.162994 148.0
225.262268 128.0
225.314423 152.0
225.38765 140.0
225.505676 144.0
225.605377 344.0
225.792068 156.0
226.069336 260.0
226.10701 436.0
226.530579 304.0
226.661514 228.0
226.696777 208.0
226.729752 148.0
226.839554 196.0
226.901703 152.0
226.930389 176.0
227.066971 1488.0
227.236511 180.0
227.272018 168.0
227.553268 148.0
227.608688 148.0
227.675613 112.0
227.885025 156.0
228.07016 1232.0
228.15419 164.0
228.229752 116.0
228.316315 160.0
228.510406 188.0
228.609695 160.0
228.651825 296.0
228.696976 148.0
228.728104 200.0
228.767105 200.0
228.892654 140.0
229.043488 932.0
229.079407 2204.0
229.118423 180.0
229.17012 136.0
229.21196 200.0
229.242081 168.0
229.282959 228.0
229.322266 272.0
229.37114 156.0
229.439987 200.0
229.539108 172.0
229.61615 120.0
229.748627 184.0
229.799911 172.0
229.887421 184.0
230.085236 3420.0
230.209595 144.0
230.279892 212.0
230.307083 144.0
230.378128 172.0
230.438324 172.0
230.636032 244.0
230.680267 244.0
230.707275 336.0
230.859009 200.0
230.896439 140.0
230.947861 148.0
231.058594 4104.0
231.093048 12392.0
231.147522 288.0
231.170593 180.0
231.337173 256.0
231.380447 176.0
231.425613 156.0
231.494553 188.0
231.607712 168.0
231.810684 212.0
231.916855 156.0
231.990173 200.0
232.066147 4608.0
232.094223 2652.0
232.174469 196.0
232.219193 172.0
232.251648 152.0
232.383774 160.0
232.460922 168.0
232.649872 164.0
232.693344 144.0
232.786667 212.0
232.829987 164.0
232.925644 308.0
233.036316 1312.0
233.072968 5696.0
233.10524 1552.0
233.147934 256.0
233.207779 104.0
233.283432 184.0
233.309769 252.0
233.343033 152.0
233.432358 256.0
233.480347 140.0
233.501648 152.0
233.584442 180.0
233.613129 192.0
233.692642 132.0
233.963303 204.0
234.079849 7772.0
234.18161 172.0
234.250412 196.0
234.284561 172.0
234.351364 116.0
234.37532 344.0
234.509415 164.0
234.538528 144.0
234.780746 144.0
234.811447 308.0
234.957657 208.0
235.003433 176.0
235.057648 1092.0
235.085709 3584.0
235.153885 172.0
235.353622 196.0
235.496948 120.0
235.54306 168.0
235.601822 132.0
235.678207 172.0
235.774353 280.0
235.818283 124.0
235.892136 232.0
235.9655 172.0
236.041214 580.0
236.091644 360.0
236.508636 288.0
236.650848 144.0
236.769836 168.0
236.889725 156.0
236.932617 144.0
237.039322 428.0
237.091827 224.0
237.116547 156.0
237.318787 144.0
237.458389 260.0
237.663116 212.0
237.771957 148.0
237.861496 284.0
237.96199 100.0
238.069046 336.0
238.100189 568.0
238.24205 124.0
238.270233 212.0
238.392365 192.0
238.469971 176.0
238.580704 148.0
238.650558 204.0
238.695389 368.0
238.72821 212.0
238.974289 316.0
238.998901 184.0
239.080078 568.0
239.246872 112.0
239.296463 176.0
239.389832 156.0
239.472992 180.0
239.646576 240.0
239.714783 140.0
239.748642 152.0
239.798264 264.0
239.892563 144.0
239.925949 164.0
240.05687 232.0
240.088608 624.0
240.115494 188.0
240.151459 160.0
240.282959 180.0
240.354218 192.0
240.552185 276.0
240.653183 168.0
240.709656 144.0
241.010742 252.0
241.047531 168.0
241.082565 1312.0
241.296936 112.0
241.500809 212.0
241.754501 144.0
241.800919 152.0
241.981003 204.0
242.087234 3640.0
242.225739 176.0
242.265381 148.0
242.296356 140.0
242.358322 188.0
242.423218 108.0
242.480255 172.0
242.558334 288.0
242.590759 148.0
242.629166 204.0
242.810028 116.0
242.903961 196.0
242.939377 164.0
243.013626 276.0
243.060852 680.0
243.093567 3988.0
243.350113 152.0
243.539368 136.0
243.616806 156.0
243.77681 112.0
243.842834 212.0
243.941116 188.0
244.024765 128.0
244.075378 1288.0
244.097763 1592.0
244.134125 156.0
244.328629 172.0
244.357971 108.0
244.401352 208.0
244.469864 176.0
244.497437 340.0
244.521927 204.0
244.591782 164.0
244.661835 216.0
244.718781 112.0
244.789917 224.0
244.835693 180.0
245.037521 1728.0
245.072601 11152.0
245.106964 1388.0
245.170761 120.0
245.251587 160.0
245.310822 176.0
245.33461 204.0
245.458221 128.0
245.624557 156.0
245.646286 180.0
245.69606 160.0
245.75737 164.0
245.801971 208.0
245.828552 164.0
245.879105 164.0
245.979828 188.0
246.046066 1440.0
246.07988 9836.0
246.116043 2052.0
246.217575 120.0
246.286926 196.0
246.387466 152.0
246.441177 144.0
246.478073 168.0
246.514114 172.0
246.609329 188.0
246.701538 176.0
246.785217 136.0
246.871933 152.0
246.899231 220.0
246.932327 204.0
246.976135 156.0
247.000168 272.0
247.05069 3032.0
247.087875 10084.0
247.178772 180.0
247.404068 148.0
247.486542 136.0
247.534271 152.0
247.5914 168.0
247.667068 132.0
247.878403 132.0
247.947281 260.0
248.058655 7220.0
248.093658 4096.0
248.226807 292.0
248.297394 164.0
248.421768 216.0
248.455124 116.0
248.505249 232.0
248.61058 296.0
248.789856 172.0
248.88797 120.0
248.919128 156.0
248.948502 200.0
249.063171 1004.0
249.103012 3932.0
249.147507 176.0
249.334183 252.0
249.434052 128.0
249.477646 152.0
249.576736 196.0
249.642319 160.0
249.678711 168.0
249.709274 184.0
249.787659 176.0
249.919067 260.0
249.959335 212.0
250.021194 124.0
250.073639 444.0
250.106552 560.0
250.254929 312.0
250.4077 204.0
250.444443 176.0
250.550613 284.0
250.614456 176.0
250.834229 148.0
251.045441 328.0
251.072235 436.0
251.110458 644.0
251.179016 164.0
251.273315 204.0
251.322388 188.0
251.371658 180.0
251.423477 156.0
251.493469 148.0
251.577972 156.0
251.65448 196.0
251.798309 124.0
251.885269 148.0
252.047394 476.0
252.076584 280.0
252.116287 588.0
252.340088 244.0
252.366516 212.0
252.55687 152.0
252.69368 240.0
252.78923 196.0
252.846817 204.0
253.09642 556.0
253.232498 132.0
253.305298 148.0
253.369598 148.0
253.544678 156.0
253.839111 144.0
253.882156 144.0
253.940384 124.0
253.967621 176.0
254.024872 184.0
254.092758 2504.0
254.182556 160.0
254.221588 140.0
254.40329 164.0
254.564438 144.0
254.66452 148.0
254.821716 216.0
254.873642 164.0
255.015167 116.0
255.067764 636.0
255.096054 1080.0
255.205032 180.0
255.251846 148.0
255.349396 156.0
255.378021 204.0
255.421616 236.0
255.498901 200.0
255.852158 172.0
255.929184 144.0
256.067322 604.0
256.092316 700.0
256.113281 412.0
256.189728 148.0
256.221893 168.0
256.258484 144.0
256.43988 132.0
256.562347 260.0
256.597656 164.0
256.663025 148.0
256.708649 128.0
256.766754 124.0
256.836548 116.0
256.89743 152.0
256.98996 192.0
257.072479 2448.0
257.103638 1108.0
257.218658 160.0
257.27774 232.0
257.513489 164.0
257.54541 140.0
257.772247 148.0
257.909668 140.0
258.078796 2508.0
258.105804 928.0
258.169525 116.0
258.263245 168.0
258.338165 220.0
258.373352 200.0
258.594147 220.0
258.698181 160.0
258.785553 212.0
258.885376 188.0
259.016541 136.0
259.05426 1016.0
259.08667 5624.0
259.175171 232.0
259.202728 116.0
259.311584 148.0
259.385284 336.0
259.414154 172.0
259.523987 136.0
259.625305 220.0
259.668732 288.0
259.742279 160.0
259.77652 172.0
259.961151 124.0
260.059937 26844.0
260.094513 5156.0
260.158447 192.0
260.233459 168.0
260.263336 152.0
260.329529 144.0
260.393951 224.0
260.427429 132.0
260.461731 292.0
260.519958 248.0
260.557312 144.0
260.61853 160.0
260.669067 160.0
260.693939 140.0
260.751801 288.0
260.797607 184.0
260.857086 132.0
260.924194 116.0
260.967987 188.0
261.064636 4548.0
261.103424 28724.0
261.272156 188.0
261.351898 204.0
261.382141 116.0
261.451599 120.0
261.477905 136.0
261.508453 164.0
261.621552 140.0
261.741394 144.0
261.813324 160.0
261.857941 196.0
261.936676 348.0
262.020325 228.0
262.070007 804.0
262.10556 3676.0
262.147919 436.0
262.197815 136.0
262.233704 180.0
262.257629 128.0
262.330139 164.0
262.365265 172.0
262.422974 112.0
262.488892 224.0
262.557556 120.0
262.819153 116.0
262.901703 192.0
262.936066 220.0
263.001526 132.0
263.05191 448.0
263.08139 700.0
263.087158 324.0
263.104614 616.0
263.138641 268.0
263.346558 156.0
263.516022 172.0
263.558136 160.0
263.585632 116.0
263.694733 120.0
263.756989 316.0
263.87149 324.0
263.901001 156.0
263.937134 236.0
263.983612 108.0
264.006989 136.0
264.05188 304.0
264.084045 516.0
264.115204 204.0
264.180206 168.0
264.319336 176.0
264.35318 156.0
264.513519 152.0
264.5849 192.0
264.735504 140.0
264.811401 176.0
264.978058 188.0
265.059082 1360.0
265.096466 780.0
265.297455 156.0
265.452606 308.0
265.749878 128.0
265.923492 172.0
266.007874 208.0
266.070099 400.0
266.101868 436.0
266.12677 616.0
266.44754 156.0
266.538971 144.0
266.568115 152.0
266.624023 148.0
266.794342 160.0
266.982605 140.0
267.039673 228.0
267.09906 476.0
267.136169 792.0
267.220551 156.0
267.408783 148.0
267.561798 156.0
267.655731 164.0
267.703217 108.0
267.729706 120.0
267.757172 160.0
267.780823 164.0
267.940948 144.0
267.99823 148.0
268.066986 852.0
268.10257 340.0
268.141113 332.0
268.273163 124.0
268.332642 128.0
268.35675 204.0
268.389038 172.0
268.406677 228.0
268.467621 144.0
268.616364 132.0
268.707703 172.0
268.748016 228.0
268.891724 144.0
269.07309 1028.0
269.11026 1336.0
269.219604 116.0
269.309631 216.0
269.463165 104.0
269.499115 188.0
269.572083 152.0
269.609741 168.0
269.660797 100.0
269.752747 124.0
269.773743 136.0
269.888184 224.0
269.950195 144.0
270.044952 264.0
270.080963 920.0
270.115784 3008.0
270.223602 140.0
270.283844 208.0
270.453186 120.0
270.493439 188.0
270.573151 184.0
270.619904 120.0
270.789642 136.0
270.82074 148.0
270.845795 148.0
270.914124 172.0
271.010742 164.0
271.054688 644.0
271.090637 1264.0
271.120117 1040.0
271.250702 112.0
271.565765 196.0
271.62149 260.0
271.731689 156.0
271.886292 152.0
271.942169 160.0
271.973969 112.0
272.054077 296.0
272.120453 988.0
272.229034 168.0
272.349945 164.0
272.523315 176.0
272.573425 120.0
272.615326 140.0
272.681061 172.0
272.727081 232.0
272.804077 160.0
272.964874 160.0
273.068115 1868.0
273.104767 1368.0
273.17099 220.0
273.244904 172.0
273.430664 108.0
273.590729 240.0
273.754669 140.0
273.893372 140.0
273.947876 144.0
274.020355 148.0
274.072083 1108.0
274.109009 2972.0
274.242218 156.0
274.283478 132.0
274.352356 184.0
274.524658 172.0
274.828705 116.0
274.890411 240.0
275.088135 1576.0
275.119537 2628.0
275.202515 140.0
275.234131 200.0
275.318817 124.0
275.447632 136.0
275.532562 124.0
275.606018 236.0
275.674103 124.0
275.878693 188.0
275.99826 140.0
276.090088 596.0
276.298126 220.0
276.438599 208.0
276.467133 176.0
276.552338 128.0
276.695526 204.0
276.745178 152.0
277.064606 592.0
277.099335 292.0
277.124664 168.0
277.203217 208.0
277.291779 164.0
277.484955 188.0
277.51001 192.0
277.735901 172.0
277.814545 188.0
277.876984 180.0
278.068634 2200.0
278.129883 460.0
278.263702 144.0
278.303528 184.0
278.356659 140.0
278.479553 196.0
278.527954 96.0
278.603271 168.0
278.685516 192.0
278.789093 136.0
279.047424 252.0
279.075653 1336.0
279.106384 232.0
279.176422 344.0
279.217377 152.0
279.343781 160.0
279.485687 140.0
279.53656 204.0
279.576843 236.0
279.862946 148.0
279.913513 128.0
280.015991 104.0
280.103821 1228.0
280.143951 444.0
280.239319 156.0
280.309296 164.0
280.37262 160.0
280.42334 144.0
280.639984 168.0
280.790009 176.0
280.849365 156.0
280.974762 164.0
281.019501 172.0
281.091064 916.0
281.171295 316.0
281.275238 96.0
281.295532 208.0
281.323212 148.0
281.368103 212.0
281.410004 188.0
281.443817 156.0
281.486481 252.0
281.642944 168.0
281.677795 176.0
281.7883 164.0
281.985992 208.0
282.041412 164.0
282.086121 928.0
282.122437 2516.0
282.287689 120.0
282.480499 188.0
282.512543 184.0
282.537628 256.0
282.653412 336.0
282.68689 160.0
282.882965 96.0
283.004883 184.0
283.086823 1280.0
283.123718 1088.0
283.199097 156.0
283.527527 128.0
283.579193 152.0
283.603668 172.0
283.658142 144.0
283.880798 168.0
283.908997 160.0
283.96933 180.0
283.998535 180.0
284.102264 556.0
284.282349 116.0
284.341553 280.0
284.392578 160.0
284.466583 160.0
284.508606 108.0
284.537079 144.0
284.608398 164.0
284.675995 204.0
284.70752 148.0
284.894165 136.0
284.932648 128.0
285.067139 2752.0
285.102051 3232.0
285.545166 148.0
285.634064 156.0
285.670654 192.0
286.013275 160.0
286.073212 680.0
286.104736 1288.0
286.132568 1116.0
286.251892 208.0
286.2901 220.0
286.403442 196.0
286.44574 128.0
286.534271 248.0
286.632507 160.0
286.662903 144.0
286.691895 168.0
286.713623 172.0
286.769135 148.0
286.892029 148.0
286.929108 148.0
286.989807 140.0
287.022156 164.0
287.082458 6688.0
287.120819 728.0
287.229248 152.0
287.286194 132.0
287.548157 164.0
287.642395 124.0
287.827637 112.0
287.85025 188.0
287.935638 120.0
287.963837 152.0
288.085876 1160.0
288.147491 1468.0
288.192383 236.0
288.243469 148.0
288.323181 164.0
288.434631 136.0
288.632202 108.0
288.732269 156.0
288.859375 152.0
288.882965 248.0
288.909973 272.0
289.002777 156.0
289.060669 324.0
289.121735 1812.0
289.158386 1380.0
289.239716 200.0
289.307465 188.0
289.35553 308.0
289.480164 148.0
289.623901 216.0
289.656281 168.0
289.701691 168.0
289.794678 132.0
289.875061 180.0
289.91037 200.0
289.990631 124.0
290.062775 192.0
290.126617 272.0
290.152344 616.0
290.273102 168.0
290.361969 196.0
290.495636 176.0
290.559937 184.0
290.630585 124.0
290.714081 224.0
290.917725 196.0
291.07431 664.0
291.109741 480.0
291.141968 280.0
291.184662 280.0
291.315063 140.0
291.368286 156.0
291.559082 168.0
291.794952 112.0
292.005737 184.0
292.048584 936.0
292.08609 620.0
292.129974 328.0
292.231415 180.0
292.457581 160.0
292.498413 160.0
292.576721 176.0
292.618744 104.0
292.650116 224.0
292.740143 144.0
292.791229 156.0
292.899139 124.0
292.995605 156.0
293.049011 260.0
293.100281 164.0
293.108948 692.0
293.152191 292.0
293.288666 148.0
293.478394 148.0
293.592346 112.0
293.763763 124.0
293.82074 160.0
294.094849 1136.0
294.127197 520.0
294.282349 116.0
294.315521 152.0
294.395782 152.0
294.467621 128.0
294.54776 140.0
294.684906 256.0
294.748749 140.0
294.928711 188.0
294.954407 172.0
295.090759 880.0
295.128815 556.0
295.176697 300.0
295.227905 156.0
295.323212 144.0
295.365784 140.0
295.421112 156.0
295.446381 368.0
295.523773 136.0
295.554138 196.0
295.590515 168.0
295.986298 228.0
296.041718 188.0
296.092957 436.0
296.130615 828.0
296.604248 168.0
296.659332 204.0
296.719238 156.0
296.981445 176.0
297.031708 140.0
297.104279 1708.0
297.143616 1236.0
297.204254 160.0
297.30896 216.0
297.39566 192.0
297.432281 152.0
297.816345 196.0
297.901367 164.0
297.961945 188.0
298.073334 576.0
298.111633 8332.0
298.233124 124.0
298.459564 224.0
298.547882 156.0
298.759766 136.0
298.883698 116.0
298.976471 128.0
299.085144 2688.0
299.113159 2324.0
299.203156 160.0
299.317505 192.0
299.370026 172.0
299.572906 168.0
299.614563 144.0
299.660431 152.0
299.719208 140.0
299.753632 176.0
299.868164 100.0
299.941833 148.0
300.114471 2336.0
300.207916 172.0
300.413025 188.0
300.441956 188.0
300.469543 148.0
300.583405 208.0
300.924438 244.0
301.101593 1512.0
301.210846 164.0
301.30368 192.0
301.418182 140.0
301.481506 164.0
301.515167 324.0
301.671356 156.0
301.816162 236.0
301.84903 112.0
301.936218 156.0
302.093597 536.0
302.129578 4844.0
302.224701 172.0
302.335449 156.0
302.493469 136.0
302.608917 188.0
302.747406 208.0
302.792755 248.0
302.957458 112.0
303.032928 188.0
303.079498 844.0
303.128174 824.0
303.199554 168.0
303.252319 168.0
303.378021 440.0
303.448273 200.0
303.49588 196.0
303.895111 164.0
304.009277 164.0
304.085571 552.0
304.117798 476.0
304.14386 580.0
304.286957 176.0
304.342499 160.0
304.543335 136.0
304.630768 152.0
304.856323 124.0
304.910309 176.0
305.092377 7956.0
305.146484 364.0
305.256378 128.0
305.451141 176.0
305.503326 144.0
305.59021 144.0
305.866455 204.0
305.911316 176.0
306.096405 2504.0
306.159607 992.0
306.429382 168.0
306.514679 276.0
306.547852 184.0
306.655884 192.0
306.738464 164.0
306.823212 176.0
306.942932 200.0
306.973145 156.0
307.002838 116.0
307.120056 256.0
307.162476 672.0
307.287048 172.0
307.344055 96.0
307.393738 152.0
307.545288 140.0
307.577515 140.0
307.636932 104.0
307.737183 160.0
307.763 176.0
307.803528 256.0
307.934723 172.0
307.971588 180.0
308.061218 128.0
308.099304 680.0
308.136566 304.0
308.171722 592.0
308.245667 140.0
308.58078 220.0
308.768768 152.0
308.940582 172.0
309.125458 612.0
309.218628 116.0
309.299957 200.0
309.4505 140.0
309.485504 264.0
309.534515 196.0
309.650085 208.0
309.778778 156.0
309.822815 156.0
309.859344 184.0
309.896027 156.0
309.981262 128.0
310.023468 160.0
310.062592 116.0
310.118469 288.0
310.15564 148.0
310.242279 204.0
310.27533 196.0
310.534515 116.0
310.706238 284.0
310.795319 168.0
310.891144 184.0
310.940277 160.0
311.024506 172.0
311.11377 2184.0
311.292664 204.0
311.37915 148.0
311.465729 104.0
311.72171 272.0
311.85025 136.0
311.922363 112.0
312.051971 344.0
312.115662 4532.0
312.335144 148.0
312.391449 168.0
312.676453 176.0
312.753998 120.0
312.794464 188.0
312.870056 208.0
312.904846 252.0
313.058228 216.0
313.126984 2504.0
313.216644 112.0
313.271332 144.0
313.461761 144.0
313.576965 180.0
313.609772 168.0
313.701416 156.0
313.818634 156.0
313.909119 180.0
313.971588 196.0
314.001892 160.0
314.101898 1132.0
314.131989 1084.0
314.39978 188.0
314.565674 224.0
314.606445 112.0
314.8396 156.0
314.968903 148.0
315.062531 156.0
315.135223 860.0
315.204926 168.0
315.319305 128.0
315.355194 148.0
315.402863 152.0
315.428558 132.0
315.575226 112.0
315.702545 188.0
315.753998 140.0
315.897888 176.0
316.069519 116.0
316.102722 336.0
316.14621 1988.0
316.191589 300.0
316.275787 96.0
316.347321 168.0
316.598694 144.0
316.708405 160.0
316.825409 152.0
316.85907 152.0
316.940857 116.0
317.089661 212.0
317.148773 680.0
317.279022 176.0
317.318024 172.0
317.379761 112.0
317.516327 144.0
317.555267 172.0
317.594635 208.0
317.632477 220.0
317.640625 148.0
318.099579 168.0
318.153259 140.0
318.304413 204.0
318.343903 176.0
318.393188 144.0
318.425751 188.0
318.497589 180.0
318.881104 104.0
318.943909 208.0
319.004333 140.0
319.051208 104.0
319.112061 336.0
319.152039 132.0
319.272736 148.0
319.424957 340.0
319.504974 128.0
319.673523 168.0
319.744141 240.0
319.774719 136.0
319.83313 152.0
320.10965 112.0
320.140808 348.0
320.289764 132.0
320.381836 180.0
320.521667 144.0
320.561768 224.0
320.787231 160.0
320.902557 200.0
321.094513 156.0
321.145142 684.0
321.247803 172.0
321.343628 148.0
321.534912 128.0
321.583191 152.0
321.717865 160.0
321.802063 168.0
321.905609 208.0
321.936249 184.0
322.114777 596.0
322.157379 168.0
322.263702 272.0
322.317047 188.0
322.414856 144.0
322.469452 116.0
322.539856 168.0
322.573303 248.0
322.670685 220.0
322.862244 148.0
323.026764 208.0
323.126495 3792.0
323.162537 4004.0
323.252533 136.0
323.305847 168.0
323.398895 168.0
323.565735 152.0
323.663818 216.0
323.719635 324.0
323.906372 240.0
324.091187 428.0
324.129181 1372.0
324.15799 924.0
324.254883 140.0
324.386169 172.0
324.602356 216.0
324.749573 276.0
324.824982 224.0
324.877441 140.0
324.957733 164.0
325.005615 116.0
325.046722 160.0
325.102081 860.0
325.135132 972.0
325.167328 372.0
325.667145 244.0
325.930756 212.0
326.106781 1912.0
326.158569 1464.0
326.236267 140.0
326.36438 192.0
326.404022 164.0
326.44104 96.0
326.682159 176.0
326.860657 112.0
326.964874 140.0
326.998657 172.0
327.058533 120.0
327.113007 480.0
327.172424 3816.0
327.227966 140.0
327.373413 168.0
327.469421 208.0
327.57132 180.0
327.650574 200.0
327.686615 280.0
327.715179 120.0
327.828003 164.0
327.859558 156.0
327.956879 180.0
328.021759 208.0
328.109497 2508.0
328.180298 756.0
328.355225 108.0
328.533539 100.0
328.596741 128.0
328.627625 196.0
328.657867 124.0
328.960541 96.0
328.999359 176.0
329.100128 216.0
329.152527 276.0
329.179535 136.0
329.468842 148.0
329.555603 264.0
329.602509 160.0
329.712524 120.0
329.794189 108.0
329.92569 192.0
329.960358 144.0
330.026215 144.0
330.125671 1172.0
330.419647 192.0
330.483612 184.0
330.522827 132.0
330.598816 148.0
330.639832 132.0
330.793518 128.0
330.824982 172.0
330.880798 144.0
331.011566 164.0
331.127625 504.0
331.202148 152.0
331.404449 192.0
331.460999 132.0
331.5112 168.0
331.589264 200.0
331.650879 172.0
331.789825 96.0
331.861023 152.0
331.956085 192.0
332.006165 200.0
332.049683 160.0
332.133698 232.0
332.28186 156.0
332.351654 136.0
332.444092 152.0
332.488678 212.0
332.640839 160.0
333.016815 120.0
333.106934 308.0
333.221558 252.0
333.549255 148.0
333.674591 132.0
333.792847 224.0
333.924194 152.0
334.093811 144.0
334.124908 276.0
334.236603 152.0
334.444031 140.0
334.518433 100.0
334.587341 240.0
334.691803 148.0
334.811768 140.0
334.866394 144.0
334.983185 120.0
335.045471 200.0
335.124084 184.0
335.135834 304.0
335.24411 156.0
335.304291 136.0
335.340057 164.0
335.375 148.0
335.44574 260.0
335.509918 192.0
335.544189 156.0
335.649902 212.0
335.726501 144.0
335.755676 204.0
336.113159 148.0
336.176331 376.0
336.30658 160.0
336.392914 320.0
336.507355 172.0
336.565765 180.0
336.825073 164.0
336.985931 120.0
337.014313 296.0
337.066193 164.0
337.099487 156.0
337.16861 196.0
337.355774 104.0
337.515808 148.0
337.562958 224.0
337.741455 172.0
337.87384 148.0
338.013275 336.0
338.139832 256.0
338.187347 3024.0
338.296967 164.0
338.340027 144.0
338.688995 112.0
338.856964 160.0
338.917694 216.0
338.972961 144.0
339.116547 668.0
339.18927 1384.0
339.313538 240.0
339.394196 124.0
339.556763 164.0
339.628479 176.0
339.791687 140.0
339.917664 152.0
339.988464 220.0
340.082642 236.0
340.130371 156.0
340.143555 344.0
340.19223 480.0
340.269012 176.0
340.495087 144.0
340.546509 160.0
340.67923 152.0
340.706116 200.0
340.738953 156.0
340.847748 192.0
340.912933 260.0
341.010345 148.0
341.153137 11132.0
341.343994 152.0
341.417542 164.0
341.508606 132.0
341.580841 140.0
341.606354 136.0
341.720093 188.0
341.871918 180.0
341.971771 168.0
342.029602 152.0
342.15741 2720.0
342.243011 148.0
342.750641 116.0
343.05011 152.0
343.134247 2196.0
343.165649 3780.0
343.303833 192.0
343.411438 124.0
343.49649 164.0
343.564301 168.0
343.599457 124.0
343.777557 128.0
343.817474 184.0
344.139984 668.0
344.1716 904.0
344.263214 236.0
344.325317 160.0
344.39917 168.0
344.455566 136.0
344.628235 156.0
344.69342 108.0
344.789337 196.0
345.108459 120.0
345.133881 116.0
345.171356 260.0
345.430481 208.0
345.463776 144.0
345.529388 152.0
345.687042 212.0
345.850464 128.0
346.035187 136.0
346.126251 248.0
346.37439 196.0
346.407745 172.0
346.520142 176.0
346.714844 172.0
346.848694 224.0
347.012634 176.0
347.075928 280.0
347.123596 288.0
347.190765 172.0
347.302094 188.0
347.476837 160.0
347.724426 124.0
347.85733 324.0
348.029266 192.0
348.084137 160.0
348.126892 260.0
348.181366 200.0
348.21994 128.0
348.266113 184.0
348.332947 188.0
348.377533 188.0
348.486877 252.0
348.663635 148.0
348.936523 156.0
349.143829 576.0
349.347809 152.0
349.392426 224.0
349.609802 124.0
349.690125 196.0
350.046112 264.0
350.127319 140.0
350.143402 188.0
350.206024 136.0
350.311035 160.0
350.644043 160.0
350.725555 160.0
350.766571 144.0
350.947144 148.0
351.103302 116.0
351.620819 152.0
351.699097 428.0
351.73053 152.0
352.138245 760.0
352.267914 120.0
352.386536 144.0
352.658997 176.0
352.713013 176.0
352.840942 160.0
353.088959 184.0
353.139496 288.0
353.616486 204.0
353.72052 172.0
353.776794 136.0
353.899231 120.0
353.982117 120.0
354.099274 148.0
354.122101 152.0
354.151123 324.0
354.298004 168.0
354.419586 144.0
354.500336 144.0
354.596863 232.0
354.793793 168.0
355.130157 256.0
355.170105 184.0
355.212677 244.0
355.357117 132.0
355.459747 136.0
355.621063 124.0
355.675385 196.0
355.783081 140.0
355.885925 128.0
355.920532 112.0
355.982086 240.0
356.141541 1172.0
356.174866 640.0
356.268463 224.0
356.300568 132.0
356.38092 288.0
356.439423 160.0
356.560608 160.0
356.797424 204.0
356.850067 176.0
357.04657 200.0
357.143982 356.0
357.178162 520.0
357.218994 108.0
357.445618 144.0
357.599091 172.0
357.665436 212.0
357.713898 148.0
357.843781 132.0
358.019714 264.0
358.072174 148.0
358.12973 348.0
358.139374 260.0
358.193481 42092.0
358.289001 196.0
358.421753 136.0
358.538483 124.0
358.603424 168.0
358.651031 128.0
358.764465 112.0
358.824371 176.0
358.882599 180.0
358.986053 132.0
359.067078 148.0
359.194733 8744.0
359.357117 156.0
359.400299 136.0
359.54715 160.0
359.591797 152.0
359.703674 176.0
359.776184 156.0
359.913422 148.0
360.047638 112.0
360.119324 152.0
360.197449 1192.0
360.320282 160.0
360.397125 184.0
360.500549 156.0
360.627289 144.0
360.72937 212.0
360.779205 236.0
360.924561 164.0
361.07193 148.0
361.136444 232.0
361.19693 120.0
361.395905 244.0
361.449066 140.0
361.606903 220.0
361.8367 144.0
361.929962 176.0
362.092896 196.0
362.136505 136.0
362.163025 156.0
362.268036 116.0
362.299744 164.0
362.331482 328.0
362.469788 144.0
362.550598 108.0
362.642242 100.0
362.69986 144.0
362.746368 144.0
362.882568 156.0
362.919769 172.0
362.989655 204.0
363.085388 128.0
363.120392 192.0
363.156525 368.0
363.330994 180.0
363.414459 148.0
363.452423 200.0
363.478973 180.0
363.505524 152.0
363.546143 148.0
363.653656 156.0
363.737366 204.0
363.938049 172.0
364.002808 204.0
364.042542 336.0
364.106567 200.0
364.165833 26908.0
364.292847 176.0
364.450928 144.0
364.489014 272.0
364.519409 164.0
364.668243 180.0
364.864288 180.0
364.989563 140.0
365.004089 144.0
365.168823 3872.0
365.375214 172.0
365.464142 160.0
365.686707 128.0
365.945129 252.0
365.991486 144.0
366.060028 240.0
366.168884 1048.0
366.346436 104.0
366.442108 168.0
366.646698 152.0
366.764862 160.0
366.793365 132.0
366.881775 136.0
367.061401 112.0
367.159119 252.0
367.266693 176.0
367.477966 140.0
367.577179 160.0
367.673676 124.0
367.755554 200.0
367.919525 196.0
368.035339 136.0
368.144531 180.0
368.222351 268.0
368.251556 180.0
368.433868 148.0
368.511383 112.0
368.68335 132.0
368.764862 164.0
368.81073 164.0
368.887543 132.0
368.936615 108.0
369.118134 284.0
369.151245 632.0
369.235565 176.0
369.370331 152.0
369.481354 228.0
369.549927 124.0
369.634491 184.0
369.801453 136.0
369.874023 168.0
369.923859 208.0
370.024811 140.0
370.084656 180.0
370.145142 472.0
370.264618 192.0
370.383362 140.0
370.536591 140.0
370.646332 132.0
370.687439 164.0
370.748932 224.0
370.862335 156.0
370.94281 192.0
370.99649 192.0
371.167267 280.0
371.241882 200.0
371.687683 112.0
371.746735 164.0
371.851593 116.0
372.105225 208.0
372.16925 588.0
372.237671 136.0
372.28952 356.0
372.539185 208.0
372.611664 152.0
372.816254 268.0
373.085175 160.0
373.14386 7220.0
373.223297 168.0
373.518616 116.0
373.557892 180.0
373.661743 208.0
373.696381 164.0
373.742554 148.0
373.775635 160.0
373.868378 224.0
374.144958 748.0
374.219818 168.0
374.385406 176.0
374.515076 240.0
374.558716 160.0
374.66687 108.0
374.763763 160.0
374.851624 176.0
374.893921 176.0
374.925934 116.0
375.148224 104.0
375.317932 176.0
375.368073 184.0
375.628693 132.0
375.661194 220.0
375.90094 176.0
376.006348 124.0
376.157379 168.0
376.246002 208.0
376.39743 100.0
376.704681 140.0
376.792328 164.0
376.970062 160.0
377.074402 140.0
377.147827 144.0
377.176208 256.0
377.226593 204.0
377.26767 156.0
377.385071 164.0
377.501007 200.0
377.66983 156.0
377.731812 144.0
378.116669 204.0
378.186157 188.0
378.377991 156.0
378.410431 188.0
378.505737 124.0
378.571564 276.0
378.627197 144.0
378.676147 144.0
378.757477 216.0
378.8284 224.0
378.898834 132.0
379.102295 140.0
379.272491 184.0
379.435638 156.0
379.466644 176.0
379.627075 108.0
379.672363 120.0
379.885498 200.0
380.031342 128.0
380.24469 148.0
380.349182 196.0
380.379486 108.0
380.437897 172.0
380.713226 260.0
380.849915 176.0
380.889069 196.0
380.953033 180.0
381.046265 148.0
381.176514 128.0
381.260437 176.0
381.413879 156.0
381.468109 176.0
381.710938 148.0
381.768707 116.0
381.86319 148.0
381.920929 96.0
382.097687 152.0
382.176025 4964.0
382.267181 180.0
382.38913 120.0
382.466492 136.0
382.538239 216.0
382.714539 212.0
382.823425 216.0
382.909546 168.0
382.969574 156.0
383.001099 180.0
383.180908 676.0
383.317993 104.0
383.374664 152.0
383.468842 172.0
383.494476 156.0
383.587494 172.0
383.682159 132.0
383.726379 184.0
383.807007 160.0
383.871674 144.0
383.953644 124.0
383.991608 244.0
384.0466 156.0
384.106323 632.0
384.172974 117972.0
384.388062 272.0
384.490051 256.0
384.545074 176.0
384.614258 152.0
384.684326 148.0
384.742767 104.0
384.811951 248.0
384.885132 420.0
384.927032 104.0
384.99939 112.0
385.070892 176.0
385.103333 184.0
385.175079 27360.0
385.376221 156.0
385.439453 100.0
385.517792 204.0
385.58139 176.0
385.694122 192.0
385.94989 180.0
386.014343 296.0
386.100891 116.0
386.175751 3164.0
386.245605 128.0
386.285217 160.0
386.394653 132.0
386.482666 128.0
386.528748 140.0
386.606018 236.0
386.842194 144.0
386.886261 136.0
387.022736 228.0
387.167145 1364.0
387.341553 108.0
387.364044 144.0
387.447784 224.0
387.491486 96.0
387.521759 208.0
387.689362 116.0
387.740021 208.0
387.79184 424.0
387.865509 100.0
387.900391 120.0
388.060669 176.0
388.158325 288.0
388.212524 144.0
388.342255 264.0
388.374451 164.0
388.418121 160.0
388.54657 164.0
388.631866 220.0
388.688416 212.0
388.839264 272.0
388.91391 176.0
389.000397 152.0
389.055817 128.0
389.111359 140.0
389.160797 160.0
389.278809 160.0
389.377655 124.0
389.67041 116.0
389.708344 156.0
389.738434 212.0
389.877319 164.0
389.924469 160.0
390.002625 124.0
390.100159 132.0
390.581085 204.0
390.66095 184.0
390.76236 96.0
390.918579 128.0
390.999237 156.0
391.088654 152.0
391.152069 188.0
392.01416 140.0
392.054962 156.0
392.144714 132.0
392.384674 184.0
392.460907 108.0
392.51001 112.0
392.812531 172.0
393.056946 144.0
393.151184 220.0
393.201202 156.0
393.232788 192.0
393.374878 144.0
393.758209 100.0
393.809235 220.0
393.87326 112.0
394.109467 144.0
394.228149 100.0
394.280975 148.0
394.362366 140.0
394.524689 124.0
394.562927 180.0
394.615387 164.0
394.67865 204.0
394.708374 340.0
394.73999 192.0
394.792511 408.0
394.878296 156.0
395.074127 140.0
395.115295 128.0
395.377655 192.0
395.408508 96.0
395.53363 104.0
395.56485 252.0
395.616302 140.0
395.7034 140.0
395.758057 164.0
395.893219 128.0
395.960602 164.0
396.043945 176.0
396.202423 164.0
396.282654 140.0
396.354248 100.0
396.619568 152.0
396.739807 284.0
397.057098 116.0
397.238586 184.0
397.360046 264.0
397.403717 152.0
397.457458 264.0
397.625519 156.0
397.785156 136.0
397.927094 180.0
398.021973 120.0
398.066162 156.0
398.098724 192.0
398.142029 160.0
398.177765 240.0
398.213196 196.0
398.274231 128.0
398.510742 176.0
398.544708 128.0
398.609955 136.0
398.672913 108.0
398.813202 184.0
398.918884 200.0
398.990356 148.0
399.01712 208.0
399.054443 456.0
399.122681 212.0
399.155457 164.0
399.197845 152.0
399.307922 168.0
399.374115 248.0
399.477081 100.0
399.515625 264.0
399.549988 168.0
399.640839 148.0
399.704834 120.0
399.773315 168.0
399.846527 152.0
400.016571 140.0
400.11377 244.0
400.16861 500.0
400.278107 132.0
400.367767 144.0
400.410492 212.0
400.461639 180.0
400.503387 112.0
400.529388 296.0
400.560822 252.0
400.608093 144.0
400.639862 124.0
400.680878 248.0
400.710327 228.0
400.751556 208.0
400.789642 276.0
400.869659 296.0
400.945343 212.0
400.97757 156.0
401.045135 160.0
401.072998 256.0
401.117828 152.0
401.167542 328.0
401.20401 376.0
401.255249 608.0
401.291809 248.0
401.322662 272.0
401.355743 452.0
401.383087 648.0
401.412872 384.0
401.4487 292.0
401.537354 584.0
401.572571 228.0
401.645569 340.0
401.708099 596.0
401.75 432.0
401.788269 892.0
401.834869 752.0
401.874725 512.0
401.917175 668.0
401.968933 956.0
402.00058 580.0
402.053223 1224.0
402.121399 1656.0
402.184753 270796.0
402.309753 144.0
402.321686 212.0
402.419769 200.0
402.465118 244.0
402.555847 1108.0
402.618042 800.0
402.650757 500.0
402.662811 500.0
402.732178 352.0
402.789978 504.0
402.846985 18208.0
402.893616 820.0
402.936401 692.0
402.977783 404.0
402.990814 260.0
403.001068 284.0
403.066162 216.0
403.187469 185556.0
403.451996 296.0
403.514771 520.0
403.552582 520.0
403.572418 560.0
403.637604 264.0
403.695953 120.0
403.793457 248.0
403.846558 1728.0
403.889618 492.0
403.941559 132.0
404.084991 108.0
404.188324 34284.0
404.279602 124.0
404.34848 120.0
404.43335 108.0
404.466797 168.0
404.532898 192.0
404.625061 156.0
404.738831 156.0
404.926392 136.0
405.042114 188.0
405.124969 288.0
405.190094 3408.0
405.340942 236.0
405.395782 340.0
405.453064 384.0
405.544952 396.0
405.628265 284.0
405.642578 448.0
405.716919 332.0
405.781433 512.0
405.847015 392.0
405.897675 312.0
405.964569 444.0
406.008118 220.0
406.161926 152.0
406.191498 272.0
406.237915 144.0
406.364838 156.0
406.416626 192.0
406.452179 100.0
406.540253 100.0
406.624359 168.0
406.710541 136.0
406.779449 200.0
406.857452 156.0
406.995636 164.0
407.138885 196.0
407.186371 144.0
407.265137 184.0
407.4487 144.0
407.493713 140.0
407.59317 156.0
407.696533 132.0
407.804443 200.0
407.924072 136.0
408.02655 172.0
408.17572 96.0
408.437866 112.0
410.22583 144.0
411.035248 128.0
411.071075 104.0
412.149445 140.0
413.103088 104.0
414.264221 96.0
414.331726 160.0
414.377533 132.0
414.491943 144.0
414.695648 148.0
415.375732 120.0
415.689758 148.0
416.435272 140.0
416.639313 120.0
416.867645 156.0
417.821198 100.0
418.729431 100.0
419.003815 192.0
419.18811 120.0
420.088226 168.0
420.373199 108.0
421.174011 156.0
421.400574 104.0
421.752106 108.0
423.240479 96.0
424.817169 148.0
425.820374 128.0
426.015869 168.0
430.934937 152.0
431.001068 140.0
443.221069 212.0
456.115479 144.0
459.923492 144.0
475.409271 180.0
525.904724 112.0
530.903992 144.0
555.088928 148.0
557.86499 116.0
571.467163 116.0
583.126953 116.0
591.969604 100.0
598.347229 152.0
599.511353 184.0
609.282715 140.0
629.939392 96.0
642.281616 120.0
672.869812 188.0
675.652039 96.0
705.052917 112.0
713.728455 112.0
715.354126 184.0
761.474487 128.0
796.93158 168.0
800.109253 188.0
827.620911 116.0
931.763184 144.0
946.601562 120.0
969.668579 140.0
1137.986938 144.0
1177.979004 164.0
1242.904663 156.0
1246.232788 184.0
1260.854736 156.0
1278.371338 176.0
1284.997925 156.0
1368.606079 164.0
1369.115845 108.0
1379.044678 160.0
1379.266357 188.0
1396.096558 212.0
1409.00647 188.0
1419.35022 188.0
1422.456299 140.0
1426.572876 176.0
1430.386719 164.0
1442.274536 184.0
1447.570435 192.0
1457.796143 224.0
1458.168457 152.0
1458.578979 180.0
1472.560547 164.0
1478.761108 140.0
1484.230835 188.0
1487.28418 148.0
1489.188354 164.0
1492.046997 140.0
1497.487305 184.0
1498.5625 140.0
1498.650513 156.0
1512.265137 172.0
1512.574707 144.0
1529.745483 156.0
1538.187744 176.0
1543.03894 160.0
1556.869019 168.0
1566.110107 152.0
1567.748901 248.0
1574.494019 144.0
1579.995483 168.0
1581.839355 176.0
1583.106079 168.0
1583.755615 224.0
1595.396484 164.0
1607.734497 164.0
1608.46875 180.0
1613.813354 168.0
1623.293823 144.0
1624.144043 140.0
1634.041016 180.0
1642.177002 216.0
1660.974609 180.0
1662.045532 140.0
1662.670288 228.0
1673.896851 144.0
1687.25354 152.0
1695.397827 148.0
1703.726074 148.0
1704.202637 164.0
1704.555908 172.0
1704.753174 148.0
1706.865723 152.0
1710.732666 224.0
1712.898315 152.0
1715.081909 148.0
1716.236084 152.0
1716.763794 168.0
1737.483765 192.0
1739.442139 260.0
1741.052856 176.0
1741.160889 144.0
1742.963501 180.0
1747.503296 164.0
1748.094116 176.0
1754.349121 176.0
1754.774292 188.0
1755.599854 164.0
1756.200317 192.0
1758.928833 140.0
1767.168823 160.0
1770.592529 164.0
1772.494141 160.0
1775.813843 192.0
1776.770142 144.0
1778.32251 160.0
1781.765381 148.0
1787.095825 160.0
1787.659546 236.0
1795.283325 192.0
1795.747192 204.0
1797.354614 208.0
1797.531372 140.0
1798.9198 148.0
1800.37207 156.0
1802.84729 188.0
1808.259888 204.0
1811.324951 172.0
1813.019531 156.0
1815.316895 180.0
1815.715454 172.0
1819.525391 204.0
1825.515625 172.0
1833.313477 164.0
1838.856812 144.0
1844.553955 196.0
1844.895874 216.0
1846.965332 204.0
1848.950317 188.0
1854.688721 148.0
1854.843018 168.0
1857.595581 148.0
1857.758545 180.0
1860.599121 156.0
1864.438599 172.0
1864.533203 196.0
1865.306763 164.0
1866.080444 180.0
1867.292969 164.0
1868.56604 140.0
1870.295776 152.0
1870.769165 152.0
1871.147949 168.0
1874.57605 168.0
1875.403442 156.0
1876.618042 164.0
1879.068359 140.0
1881.769775 160.0
1885.354492 168.0
1887.481079 172.0
1891.928223 156.0
1895.522583 164.0
1896.735962 140.0
1899.493408 148.0
1901.289429 140.0
1904.988159 140.0
1905.483398 236.0
1905.618286 144.0
1913.818726 180.0
1915.121948 140.0
1924.7323 160.0
1928.462646 160.0
1928.698608 268.0
1928.777344 204.0
1929.878784 180.0
1930.394775 176.0
1934.521362 176.0
1935.032104 172.0
1939.762817 180.0
1939.868042 152.0
1942.911011 148.0
1945.938843 140.0
1947.475708 256.0
1952.626099 168.0
1958.874512 124.0
1959.042725 140.0
1963.388184 164.0
1971.342163 144.0
1972.296631 152.0
1975.303101 160.0
1975.621582 144.0
1976.577026 172.0
1978.063965 196.0
1979.179443 204.0
1983.414062 224.0
1985.107544 204.0
1988.35437 168.0
1993.007568 184.0
1993.345215 160.0
1993.887329 144.0
1995.354004 152.0
1995.851929 168.0
1998.638428 160.0
2001.564453 196.0
2002.559082 168.0
2002.998291 168.0
