>compound Irinotecan
>formula C33H38N4O6 
>ionization [M+H]+
>parentmass 587.2854
#inchi InChI=1S/C33H38N4O6/c1-3-22-23-16-21(43-32(40)36-14-10-20(11-15-36)35-12-6-5-7-13-35)8-9-27(23)34-29-24(22)18-37-28(29)17-26-25(30(37)38)19-42-31(39)33(26,41)4-2/h8-9,16-17,20,41H,3-7,10-15,18-19H2,1-2H3/t33-/m0/s1
#inchikey UWKQSNNFCGGAFS
#Ion_Source LC-ESI
#Instrument qTof
#Compound_Source Isolated
#PI Sirenas
#Data_Collector Ed Esquenazi 
#Scan -1
#Precursor_MZ 587.288
#ExactMass 0.0
#Charge 1
#CAS_Number N/A
#Pubmed_ID N/A
#Smiles N/A
#INCHI_AUX N/A
#Library_Class 3
#SpectrumID CCMSLIB00000005258
#IonMode Positive
#UpdateWorkflowName UPDATE-SINGLE-ANNOTATED-BRONZE
#LibraryQualityString Bronze
#TaskID d19310cd93df49b68e9fcbec27720eb5
##Scan# 2
#SpectrumFile Irinotecan.mgf
#LibraryName fda_library.mgf
#MQScore -1
#Organism fda_library
#TIC_Query 0
#RT_Query -1
#MZErrorPPM -1
#SharedPeaks 0
#MassDiff 0
#LibMZ -1
#SpecMZ 587.288
#SpecCharge 0
#internalFilename spec-00000.mgf

>collision 10
124.110016 6.380208
138.065918 66.718353
167.118851 22.578699
195.148331 91.308311
195.311752 9.057693
230.603058 3.75
303.148285 13.34314
375.124023 24.46188
380.015411 22.391199
384.174286 6.222222
458.195496 57.230301
502.191071 10.70027
543.307434 44.694439
544.450256 4.354167
557.103943 3.337121
583.396057 4.898148
583.496399 6.444445
583.622437 4.686404
583.774048 16.17708
583.812317 45.67728
584.867859 26.821239
585.622498 4.115741
586.112793 8.049797
586.146484 5.075
587.2854 2035.134033
587.520325 25.02976
587.576538 35.143379
587.605957 14.79543
587.674622 22.098631
587.789856 16.146391
587.857544 40.603909
587.908142 9.405142
587.995789 14.38051
588.430054 24.128469
588.701965 5.19853
588.747742 14.50417
589.330078 7.375
589.393616 11.3555
589.630615 14.60093
590.105957 27.000481
592.505798 9.722222
