>compound Nimodipine (Nimotop)
>formula C21H26N2O7
>ionization [M+H]+
>parentmass 419.181
#inchi InChI=1S/C21H26N2O7/c1-12(2)30-21(25)18-14(4)22-13(3)17(20(24)29-10-9-28-5)19(18)15-7-6-8-16(11-15)23(26)27/h6-8,11-12,19,22H,9-10H2,1-5H3
#inchikey UIAGMCDKSXEBJQ
#Ion_Source LC-ESI
#Instrument qTof
#Compound_Source Commercial
#PI Dorrestein
#Data_Collector Garg_Neha
#Scan -1
#Precursor_MZ 419.181
#ExactMass 418.174
#Charge 1
#CAS_Number 66085-59-4
#Pubmed_ID N/A
#Smiles C1(=C(C(C(=C(N1)C)C(OCCOC)=O)C2=CC=CC(=C2)[N+](=O)[O-])C(OC(C)C)=O)C
#INCHI_AUX N/A
#Library_Class 1
#SpectrumID CCMSLIB00000078273
#IonMode Positive
#UpdateWorkflowName UPDATE-SINGLE-ANNOTATED-GOLD
#LibraryQualityString Gold
#TaskID 77f51c88eb8b467eb4a01dd2d0cb90d2
##Scan# 1990
#SpectrumFile Plate4_41_60_GH4_01_16505.mzXML
#LibraryName FDALibrary_2_04302014.mgf
#MQScore -1
#Organism FDALibrary_2_04302014
#TIC_Query 0
#RT_Query -1
#MZErrorPPM -1
#SharedPeaks 0
#MassDiff 0
#LibMZ -1
#SpecMZ 419.181
#SpecCharge 0
#internalFilename spec-00000.mgf

>collision 10
45.470726 156.0
45.765121 140.0
46.552101 172.0
46.907204 172.0
47.163822 172.0
47.200733 144.0
48.186245 180.0
49.26701 204.0
49.539909 172.0
50.347267 172.0
50.55508 152.0
50.719372 152.0
50.736382 180.0
51.128414 148.0
51.501961 168.0
52.129471 196.0
52.574451 188.0
52.619198 160.0
52.87505 160.0
53.03437 192.0
53.580753 140.0
54.711868 224.0
55.00029 152.0
55.678398 156.0
56.169567 228.0
57.161381 192.0
57.483856 200.0
58.155807 152.0
58.207424 212.0
58.353291 148.0
59.367897 176.0
60.724358 160.0
60.95256 208.0
63.022503 224.0
63.266064 168.0
63.625935 176.0
65.84211 164.0
66.540009 180.0
67.499702 160.0
67.51606 212.0
68.066666 164.0
68.207954 204.0
68.581596 152.0
68.807594 164.0
70.1147 156.0
70.580444 196.0
71.119881 192.0
71.299591 172.0
71.326485 220.0
72.052795 224.0
72.29628 172.0
72.463913 224.0
72.611389 140.0
72.81675 140.0
73.769234 140.0
73.930008 152.0
74.758881 220.0
75.127602 184.0
75.177643 140.0
76.251373 224.0
76.733551 152.0
76.991798 156.0
77.168282 160.0
77.909622 204.0
77.944763 168.0
78.016396 212.0
78.513359 188.0
79.333305 164.0
79.663857 160.0
79.74382 188.0
80.039124 220.0
80.067619 188.0
80.668915 184.0
81.02504 168.0
82.489922 152.0
82.507996 168.0
83.299927 172.0
83.343529 140.0
84.01535 232.0
84.168663 204.0
84.62394 152.0
84.825455 172.0
85.13942 240.0
85.174103 156.0
85.328468 160.0
85.657875 176.0
87.109985 164.0
87.147141 168.0
87.264236 184.0
87.670578 104.0
88.244942 172.0
88.370247 176.0
88.488159 148.0
88.924934 144.0
89.219841 220.0
90.427902 164.0
90.555817 200.0
90.59938 188.0
90.886765 104.0
91.531937 196.0
91.916656 232.0
92.02578 164.0
92.511383 168.0
92.568825 148.0
92.662674 252.0
93.13266 164.0
93.474869 144.0
93.661613 192.0
93.729042 164.0
94.923637 144.0
95.092415 180.0
95.593819 148.0
95.767082 188.0
95.889832 188.0
95.975601 192.0
96.287834 152.0
96.76104 216.0
97.616524 156.0
98.165924 248.0
98.236931 188.0
98.304016 204.0
98.335587 172.0
98.454048 184.0
98.873161 140.0
98.955391 124.0
99.132584 196.0
99.301094 140.0
100.048225 172.0
100.074112 144.0
101.673279 300.0
102.425232 144.0
103.12336 144.0
103.679718 156.0
104.010521 156.0
104.355873 228.0
104.512939 180.0
105.655029 164.0
105.679581 188.0
105.695953 148.0
105.802383 196.0
105.999008 156.0
106.431816 140.0
106.638695 288.0
106.828468 192.0
107.07341 160.0
108.445274 148.0
108.853966 148.0
109.161514 148.0
109.659073 252.0
109.675743 180.0
109.779984 164.0
110.506889 156.0
111.698479 180.0
111.782631 156.0
112.682968 192.0
113.417282 164.0
113.536018 216.0
113.780029 168.0
113.811874 164.0
113.951538 148.0
114.415695 196.0
114.432724 188.0
114.733124 152.0
114.967751 212.0
115.053131 228.0
115.61956 168.0
115.640961 156.0
116.41597 200.0
116.543777 148.0
116.9739 164.0
117.974838 180.0
118.061325 196.0
118.658165 132.0
118.6828 184.0
119.108162 204.0
119.216789 164.0
119.780296 176.0
119.991684 168.0
120.220711 144.0
120.714409 200.0
121.331856 168.0
121.770721 200.0
121.821236 232.0
122.059166 220.0
122.160423 216.0
122.238976 148.0
124.027885 216.0
125.381439 192.0
125.535255 208.0
125.776215 168.0
125.861046 172.0
126.827492 168.0
126.964256 144.0
127.188622 168.0
127.833641 140.0
128.65181 200.0
129.031998 96.0
129.087875 208.0
129.97583 156.0
130.000778 240.0
130.062637 224.0
130.146057 152.0
130.607391 228.0
130.919189 164.0
131.557617 180.0
132.756424 156.0
132.891876 172.0
133.475296 180.0
133.50058 168.0
133.677719 164.0
133.774384 192.0
133.910233 180.0
134.216736 152.0
134.689835 168.0
134.768387 208.0
135.133698 200.0
135.37442 244.0
136.186142 148.0
136.372009 176.0
136.555695 232.0
136.942047 140.0
136.981644 160.0
137.093475 160.0
137.214676 148.0
137.989807 160.0
138.082169 160.0
138.251785 152.0
138.720215 224.0
139.065018 152.0
140.057251 172.0
140.122513 204.0
140.370697 148.0
141.010468 172.0
141.263458 172.0
141.575882 148.0
141.98114 188.0
142.358459 144.0
142.453461 164.0
142.878998 176.0
143.35997 212.0
143.73912 160.0
143.992706 160.0
144.082932 148.0
144.834076 148.0
145.420303 200.0
145.534332 168.0
145.969254 144.0
146.019745 192.0
146.388855 128.0
147.024368 216.0
147.415588 152.0
147.558197 204.0
147.807327 156.0
148.037292 276.0
148.580231 148.0
148.771942 152.0
149.022095 240.0
149.318649 156.0
149.834702 152.0
150.016083 336.0
150.051254 480.0
150.129639 208.0
150.31015 176.0
150.410202 220.0
150.607986 164.0
151.006378 208.0
151.023514 140.0
151.058548 336.0
151.451843 160.0
151.532684 208.0
151.662109 152.0
152.063278 184.0
152.111435 168.0
152.251389 204.0
152.806915 208.0
152.942261 188.0
153.062897 140.0
153.62236 184.0
154.046951 176.0
154.331161 188.0
154.380615 176.0
154.546356 180.0
154.704742 156.0
154.722076 168.0
155.073822 212.0
155.259766 144.0
155.324249 232.0
155.825714 164.0
155.952454 168.0
156.096634 200.0
157.026688 156.0
157.27005 140.0
157.512253 192.0
157.647171 144.0
158.093307 148.0
158.114822 164.0
158.758667 216.0
159.609924 232.0
159.630051 164.0
159.848892 176.0
160.920135 256.0
161.036301 140.0
161.056503 144.0
161.643036 140.0
161.883514 156.0
161.934158 160.0
162.814209 148.0
163.505707 168.0
163.892776 176.0
163.997253 156.0
164.160416 204.0
164.599319 164.0
164.977463 200.0
165.128326 148.0
165.187149 144.0
165.669571 168.0
166.057938 236.0
166.358231 160.0
167.063568 128.0
167.378937 144.0
168.020706 164.0
168.054245 332.0
168.079041 1980.0
168.136826 196.0
168.464737 148.0
169.081772 416.0
169.188828 196.0
169.52037 172.0
170.057205 216.0
170.096649 324.0
170.470123 184.0
170.637497 184.0
171.044907 152.0
171.076477 156.0
171.106354 628.0
171.949341 144.0
172.017197 156.0
173.003738 164.0
173.080078 212.0
173.107452 160.0
173.201736 168.0
173.382523 188.0
173.702393 184.0
173.804703 180.0
174.085297 192.0
174.30098 200.0
174.847961 152.0
176.039047 624.0
176.075378 128.0
176.599823 188.0
176.626266 192.0
177.03569 116.0
177.115952 160.0
177.163635 156.0
177.465775 156.0
178.045929 316.0
178.357758 184.0
179.090439 188.0
179.459885 152.0
180.076157 160.0
180.621582 156.0
180.693817 144.0
180.75 184.0
180.795486 144.0
180.827606 224.0
181.089279 136.0
181.357925 172.0
182.094635 1008.0
182.278427 152.0
182.62793 180.0
183.066605 188.0
183.102264 1220.0
183.133926 144.0
183.352158 208.0
183.770126 160.0
184.073364 396.0
184.106323 692.0
184.758957 152.0
185.0867 172.0
185.12706 152.0
185.197479 172.0
185.476456 108.0
186.016357 164.0
186.035355 184.0
186.089661 164.0
187.100769 132.0
187.177261 220.0
188.522095 156.0
188.552155 160.0
188.601349 176.0
188.636887 180.0
188.688828 152.0
188.884979 160.0
189.060349 272.0
190.074753 156.0
190.610199 160.0
190.810837 172.0
191.047348 140.0
191.160156 204.0
191.391388 192.0
191.504288 160.0
191.633759 148.0
192.455688 168.0
192.861786 200.0
193.99115 180.0
194.412735 164.0
194.622757 176.0
194.720901 148.0
195.096024 148.0
195.332382 160.0
195.722015 176.0
195.855682 156.0
196.068375 576.0
196.159409 180.0
196.597305 176.0
196.92395 168.0
196.963043 144.0
197.080276 424.0
197.125092 164.0
197.340317 220.0
197.491333 156.0
198.091049 1260.0
198.631348 196.0
198.99617 176.0
199.095749 368.0
199.344467 140.0
200.029221 520.0
200.093262 296.0
200.394012 188.0
200.455994 172.0
200.529266 160.0
200.588455 140.0
200.88736 248.0
201.079239 176.0
201.127213 148.0
201.672348 160.0
201.694962 200.0
202.088516 124.0
202.898056 208.0
203.089264 172.0
203.383133 152.0
204.144547 180.0
204.921616 144.0
205.369171 152.0
205.631668 148.0
205.967972 188.0
206.16571 140.0
206.274323 152.0
206.591736 148.0
207.061172 144.0
207.964294 172.0
208.077606 364.0
208.102081 144.0
208.308853 164.0
208.420898 164.0
208.829117 224.0
208.893417 124.0
209.021866 228.0
209.080322 956.0
209.199142 108.0
209.424911 144.0
209.77356 176.0
209.799515 196.0
209.883118 232.0
210.090759 2292.0
210.191757 168.0
210.559723 112.0
210.610367 188.0
210.650803 172.0
210.879669 188.0
211.032288 168.0
211.095856 1152.0
211.145065 192.0
211.474884 212.0
212.070038 1788.0
212.099258 520.0
212.172989 232.0
212.219376 176.0
212.294769 180.0
213.034897 144.0
213.075958 408.0
214.048462 256.0
214.078384 192.0
214.591888 148.0
214.886475 164.0
215.094101 1404.0
215.122864 204.0
215.233795 184.0
215.730469 172.0
216.058838 184.0
216.094162 308.0
216.456055 204.0
216.945343 204.0
217.060791 488.0
218.051941 236.0
218.071167 248.0
218.419464 204.0
218.487122 140.0
218.804962 160.0
219.036102 228.0
219.388275 164.0
219.535706 196.0
219.630081 204.0
219.665482 176.0
219.957611 184.0
220.056396 112.0
220.468567 176.0
220.790802 160.0
221.164688 260.0
221.785599 184.0
222.132523 164.0
222.607391 224.0
223.064941 168.0
223.087082 156.0
223.612228 160.0
223.933777 176.0
225.010254 156.0
225.079483 484.0
225.697449 140.0
225.72435 160.0
226.050415 192.0
226.084534 1960.0
226.589371 140.0
226.973007 172.0
227.093033 1880.0
227.170959 208.0
227.520203 168.0
227.804352 168.0
228.069595 540.0
228.408554 168.0
228.802277 148.0
228.838898 156.0
228.878036 164.0
229.085556 320.0
229.682693 184.0
229.878799 160.0
230.0448 148.0
230.074295 296.0
230.162552 208.0
230.593002 188.0
231.048203 144.0
231.086487 316.0
231.163086 156.0
231.805054 176.0
233.05603 192.0
233.398666 192.0
233.80629 148.0
233.845856 140.0
234.119858 340.0
234.391205 160.0
234.817764 168.0
234.859482 248.0
235.070526 408.0
235.364014 184.0
235.40065 196.0
235.455612 184.0
235.840576 180.0
235.993439 144.0
236.066772 320.0
237.074036 616.0
237.236404 140.0
237.843582 128.0
238.031052 140.0
238.071152 164.0
238.123184 156.0
238.485733 192.0
238.544128 176.0
238.667114 172.0
238.884354 120.0
239.020844 164.0
239.079681 640.0
239.426346 176.0
240.064087 532.0
240.087204 784.0
240.524796 200.0
240.689072 136.0
240.863693 208.0
240.991119 264.0
241.07254 556.0
241.365112 184.0
242.039673 156.0
242.079788 1032.0
242.120178 196.0
242.606644 148.0
243.08667 348.0
243.801636 148.0
243.873108 172.0
244.088715 356.0
244.417343 168.0
244.495132 200.0
245.545029 140.0
245.735321 180.0
246.016479 172.0
247.00679 208.0
247.051468 156.0
247.153824 192.0
247.485611 168.0
247.758087 160.0
249.031631 140.0
249.06897 144.0
249.613022 144.0
249.685349 140.0
250.116394 296.0
250.317886 204.0
251.086807 144.0
251.120087 320.0
251.280746 196.0
251.455933 152.0
252.063004 172.0
252.195007 180.0
252.561783 140.0
252.636581 124.0
252.68515 180.0
252.944656 140.0
253.071594 3292.0
253.335434 176.0
253.885651 148.0
253.961761 160.0
254.079712 8860.0
254.225967 204.0
254.331329 228.0
254.597336 140.0
254.867401 160.0
254.895126 188.0
254.945969 208.0
254.996811 180.0
255.086929 15832.0
255.139862 140.0
255.212982 200.0
255.437302 172.0
255.489685 180.0
255.618286 124.0
256.09024 3148.0
256.241028 144.0
256.667511 108.0
256.728607 144.0
257.060608 284.0
257.087067 640.0
257.612823 184.0
257.751923 156.0
257.896027 116.0
258.037842 168.0
258.079498 284.0
258.662903 168.0
259.002869 100.0
259.083344 448.0
259.908356 184.0
260.078918 156.0
260.210052 260.0
261.003662 216.0
261.388184 140.0
261.415405 204.0
262.500977 184.0
262.562256 204.0
262.824219 140.0
263.110809 208.0
263.17215 348.0
263.320679 168.0
263.663147 164.0
265.054626 180.0
265.310669 176.0
265.339874 192.0
266.063263 504.0
266.10553 184.0
266.196442 152.0
266.479034 196.0
266.618774 152.0
266.833527 236.0
266.976349 160.0
267.075867 532.0
267.930054 148.0
268.05246 220.0
268.098145 164.0
268.161072 196.0
268.451569 184.0
269.064545 412.0
269.099548 296.0
269.721588 176.0
269.966797 268.0
270.074615 736.0
270.356079 144.0
270.73584 220.0
271.080292 824.0
272.081146 172.0
272.776611 160.0
273.08667 1104.0
273.859161 180.0
273.882233 148.0
273.964569 184.0
274.096375 140.0
274.195221 140.0
274.90094 228.0
275.075867 160.0
275.184814 172.0
275.47876 148.0
275.642273 124.0
275.792664 172.0
275.822418 152.0
276.510376 184.0
277.225708 140.0
277.25885 228.0
277.868652 216.0
278.257263 148.0
278.35025 152.0
278.963348 196.0
279.107849 148.0
279.403839 216.0
279.600159 164.0
280.099609 196.0
280.170044 184.0
280.536133 256.0
281.216583 144.0
281.754211 208.0
282.108429 184.0
282.329132 172.0
282.753998 168.0
282.866364 192.0
283.015106 184.0
283.07016 6096.0
283.319885 260.0
283.423737 248.0
283.519196 140.0
283.671753 204.0
283.809204 204.0
284.020477 156.0
284.077362 10108.0
284.422241 108.0
284.805908 172.0
284.89325 196.0
284.973877 152.0
285.064972 3720.0
285.137512 140.0
285.185577 156.0
285.624969 148.0
285.939209 172.0
286.0672 704.0
286.325317 148.0
286.497925 152.0
287.01358 192.0
287.077911 7524.0
287.503876 128.0
287.880798 156.0
287.911194 168.0
288.081299 1132.0
288.34024 168.0
288.75946 164.0
289.050415 260.0
289.079987 248.0
290.079987 304.0
290.132446 144.0
290.164734 192.0
290.855774 176.0
291.057068 156.0
291.281219 172.0
291.328796 188.0
291.733185 176.0
291.79776 188.0
291.96347 140.0
292.726654 148.0
293.024292 148.0
293.356964 188.0
294.121063 164.0
294.274689 300.0
294.804138 148.0
295.532471 140.0
296.157806 172.0
296.307526 236.0
296.340485 168.0
296.846039 132.0
297.087891 156.0
297.155792 156.0
298.051086 196.0
298.141968 164.0
298.70929 144.0
298.987976 156.0
299.067047 984.0
299.246155 176.0
299.514771 168.0
299.707672 160.0
299.858673 176.0
300.069244 312.0
300.139221 160.0
300.555908 160.0
300.580048 152.0
300.692902 160.0
300.814728 224.0
300.891754 268.0
300.966644 148.0
300.998535 156.0
301.032837 200.0
301.081665 69680.0
301.181671 140.0
301.315643 176.0
301.388824 160.0
301.445282 128.0
301.473938 100.0
301.606842 168.0
301.6604 168.0
301.922974 224.0
301.993011 152.0
302.083832 11848.0
302.23468 112.0
302.287079 152.0
302.411652 192.0
302.498199 156.0
302.935699 132.0
303.083038 1220.0
303.143677 192.0
303.461304 152.0
303.513916 304.0
303.580261 156.0
304.090668 140.0
304.126007 104.0
304.318512 116.0
305.13147 120.0
305.266205 104.0
305.336426 144.0
307.217316 164.0
308.394073 140.0
309.05777 160.0
311.214111 156.0
312.12323 216.0
312.154877 152.0
312.479401 200.0
313.132843 368.0
314.134979 360.0
314.360992 148.0
314.523346 160.0
315.095398 164.0
316.485382 212.0
316.609314 164.0
316.738342 132.0
316.800598 172.0
316.924591 180.0
317.034454 216.0
317.073639 1036.0
317.119507 168.0
317.769287 180.0
318.076141 248.0
318.112671 172.0
318.577881 172.0
319.077667 160.0
319.701416 184.0
320.189148 192.0
320.884003 180.0
322.45105 148.0
323.224121 156.0
324.014771 140.0
324.369537 152.0
324.771149 144.0
326.660522 180.0
327.091522 188.0
328.093781 156.0
328.73941 164.0
328.977631 192.0
329.143707 156.0
329.504883 144.0
329.973419 196.0
330.3255 192.0
331.110779 240.0
331.641785 116.0
332.002441 216.0
332.133026 164.0
332.158417 156.0
335.201447 200.0
335.452911 220.0
335.792023 148.0
336.233459 404.0
336.474365 168.0
337.325562 164.0
338.536591 192.0
338.855286 148.0
339.947937 156.0
340.002991 244.0
340.381104 168.0
340.594116 144.0
340.810852 168.0
341.068115 164.0
341.270294 200.0
341.312897 164.0
341.593384 200.0
341.639893 128.0
341.920715 300.0
342.076294 348.0
342.10318 124.0
342.160645 156.0
342.278534 220.0
342.365997 120.0
342.490753 216.0
342.556671 208.0
342.593384 316.0
342.629517 260.0
342.703644 224.0
342.764709 180.0
342.792633 104.0
342.947968 124.0
342.998291 192.0
343.04776 196.0
343.077484 304.0
343.129547 139656.0
343.25293 148.0
343.369019 140.0
343.466736 168.0
343.513855 404.0
343.614319 204.0
343.696381 156.0
343.736481 468.0
343.838959 180.0
343.955933 148.0
344.072296 412.0
344.131195 28828.0
344.250702 100.0
344.374298 156.0
344.411133 212.0
344.64389 120.0
344.90152 140.0
345.010071 120.0
345.046967 112.0
345.132935 3928.0
345.721558 112.0
345.832672 172.0
345.911346 220.0
345.987885 148.0
346.087769 164.0
346.13266 164.0
346.186737 140.0
346.254211 112.0
346.306458 136.0
346.36557 204.0
346.451385 108.0
346.535431 204.0
346.632538 132.0
346.658997 108.0
346.773407 128.0
347.110931 152.0
347.137695 152.0
347.18338 112.0
347.363922 140.0
347.425781 112.0
347.591248 128.0
350.966644 136.0
354.065521 184.0
357.48172 196.0
358.053955 148.0
358.913116 192.0
359.035492 160.0
359.123688 16212.0
359.387482 100.0
360.041412 148.0
360.12738 4308.0
360.345978 108.0
361.128876 480.0
361.923615 108.0
362.128998 188.0
362.314972 104.0
362.630219 120.0
363.65802 108.0
374.947479 184.0
375.119873 780.0
376.124115 464.0
377.066284 156.0
377.126465 160.0
383.259705 152.0
386.324463 148.0
386.762726 172.0
387.152954 772.0
388.161102 120.0
401.168213 268.0
402.154663 144.0
403.964752 144.0
417.167023 348.0
418.174683 352.0
419.174255 584.0
419.296997 164.0
422.231873 144.0
445.806122 160.0
499.731232 140.0
917.185303 156.0
1031.503296 164.0
1192.509399 192.0
1226.654907 172.0
1525.312134 208.0
1532.463989 160.0
1553.674683 148.0
1576.271362 156.0
1603.236328 152.0
1690.286499 208.0
1704.628174 144.0
1754.696899 140.0
1756.056152 212.0
1828.634521 208.0
1860.415039 180.0
1865.827271 200.0
1899.775269 212.0
1960.332642 208.0
1966.83252 196.0
1998.087402 164.0
