>compound MLS002172467-01!Podofilox
>formula C22H22O8
>ionization [M+H]+
>parentmass 415.1387441160905
#inchi InChI=1S/C22H22O8/c1-25-16-4-10(5-17(26-2)21(16)27-3)18-11-6-14-15(30-9-29-14)7-12(11)20(23)13-8-28-22(24)19(13)18/h4-7,13,18-20,23H,8-9H2,1-3H3/t13-,18+,19-,20-/m0/s1
#inchikey YJGVMLPVUAXIQN
#Ion_Source LC-ESI
#Instrument qTof
#Compound_Source NIH Pharmacologically Active Library
#PI Dorrestein
#Data_Collector VP/LMS
#Scan -1
#Precursor_MZ 415.131
#ExactMass 414.131
#Charge 1
#CAS_Number N/A
#Pubmed_ID N/A
#Smiles COc1cc(cc(OC)c1OC)[C@H]2[C@@H]3[C@H](COC3=O)[C@@H](O)c4cc5OCOc5cc24
#INCHI_AUX N/A
#Library_Class 1
#SpectrumID CCMSLIB00000085314
#IonMode Positive
#UpdateWorkflowName UPDATE-SINGLE-ANNOTATED-GOLD
#LibraryQualityString Gold
#TaskID d252d724072548979f1f6f1ced849daf
##Scan# 1863
#SpectrumFile p3-H03_GH3_01_18308.mzXML
#LibraryName Pharm_Active_Library.mgf
#MQScore -1
#Organism Pharm_Active_Library
#TIC_Query 0
#RT_Query -1
#MZErrorPPM -1
#SharedPeaks 0
#MassDiff 0
#LibMZ -1
#SpecMZ 415.131
#SpecCharge 0
#internalFilename spec-00000.mgf

>collision 10
44.898384 144.0
45.033192 80.0
45.08931 72.0
45.948769 144.0
46.454769 196.0
46.726494 88.0
47.075459 176.0
47.357208 188.0
47.379128 72.0
47.627438 108.0
47.736019 192.0
48.098389 132.0
48.394257 128.0
48.449657 192.0
48.706306 52.0
48.77301 216.0
49.189529 128.0
49.203491 152.0
50.049004 84.0
50.219532 120.0
50.486481 152.0
50.937225 124.0
51.958008 152.0
51.976662 124.0
52.576778 72.0
52.647678 148.0
53.129555 140.0
53.216637 100.0
53.889587 212.0
53.940739 184.0
54.106056 92.0
55.338448 224.0
57.087414 136.0
57.47155 212.0
58.148029 196.0
58.286232 164.0
58.71376 116.0
59.359409 184.0
59.399284 180.0
59.628078 192.0
59.701878 124.0
60.93391 88.0
61.356522 228.0
61.664791 52.0
62.070278 208.0
62.373299 124.0
62.461361 184.0
62.913654 192.0
63.364407 96.0
63.50391 176.0
63.540398 168.0
63.697571 148.0
64.270744 168.0
64.595078 132.0
64.822441 144.0
65.006859 192.0
65.034142 152.0
65.170654 156.0
65.608444 172.0
65.650375 144.0
66.18383 184.0
66.436501 192.0
67.147369 120.0
67.235474 212.0
67.255058 240.0
68.114761 152.0
68.254463 136.0
68.282425 128.0
68.293938 256.0
69.059296 48.0
69.324203 108.0
69.719185 128.0
70.408936 108.0
71.20282 176.0
71.66713 116.0
71.759834 48.0
72.81073 164.0
73.307503 92.0
73.365463 144.0
73.621414 152.0
74.299271 112.0
75.31842 80.0
75.802872 216.0
76.388 196.0
76.400177 112.0
76.821785 120.0
78.049583 188.0
79.191444 236.0
79.857063 68.0
79.87307 64.0
80.300568 164.0
80.498672 152.0
80.856232 140.0
80.917091 200.0
81.780594 72.0
82.193306 128.0
82.303421 156.0
83.544991 160.0
83.903778 140.0
84.241409 140.0
84.799522 172.0
84.918701 136.0
85.041634 48.0
85.177521 168.0
86.274025 64.0
86.388687 124.0
86.760941 36.0
87.22319 224.0
87.394295 160.0
87.517143 100.0
88.98307 176.0
89.118309 96.0
89.65274 128.0
90.011177 104.0
90.209564 80.0
90.521759 188.0
90.709335 156.0
91.297951 176.0
91.63298 212.0
91.926636 232.0
92.05645 128.0
92.144318 152.0
95.030602 80.0
95.629158 176.0
96.598976 220.0
97.00631 44.0
97.22403 136.0
98.416992 168.0
99.656967 176.0
100.108269 136.0
100.804756 268.0
100.8927 220.0
101.038704 100.0
101.074715 200.0
101.28093 84.0
102.021431 92.0
102.254768 144.0
102.520622 96.0
102.770081 68.0
102.815071 256.0
103.052025 512.0
103.099564 180.0
103.512535 136.0
103.619888 212.0
104.021446 56.0
104.828926 120.0
105.070435 292.0
106.76358 172.0
106.80677 180.0
106.843803 164.0
107.049637 196.0
107.600197 216.0
107.746834 192.0
108.332321 216.0
108.496048 60.0
108.765068 188.0
109.091881 200.0
109.117737 180.0
109.720612 232.0
109.808197 216.0
109.829056 172.0
110.267532 204.0
111.153412 72.0
111.30455 164.0
111.93541 72.0
111.983849 168.0
112.032303 72.0
112.937912 108.0
113.083916 136.0
113.40799 164.0
114.131935 40.0
114.302109 176.0
114.536308 192.0
115.05468 1900.0
115.090813 240.0
115.184792 200.0
115.888664 96.0
115.987244 164.0
116.059448 468.0
116.779587 52.0
116.915131 88.0
117.068993 2380.0
117.169228 240.0
117.190773 72.0
117.22525 80.0
117.898575 140.0
118.072426 440.0
118.22731 92.0
118.274925 164.0
118.361526 40.0
118.383179 248.0
118.445992 64.0
118.487152 156.0
119.048965 152.0
119.08371 156.0
119.70137 144.0
119.856033 72.0
120.678947 160.0
120.847366 184.0
121.028175 196.0
121.467377 140.0
121.781273 164.0
122.036346 620.0
123.047775 180.0
123.28389 160.0
123.345772 144.0
123.883522 108.0
124.773476 152.0
125.058228 188.0
125.263084 112.0
125.34552 212.0
125.715714 156.0
125.889839 188.0
126.044365 116.0
126.133385 164.0
126.278725 32.0
126.351891 68.0
126.988747 72.0
127.055618 156.0
127.361351 60.0
127.590569 108.0
127.754745 168.0
127.783997 152.0
128.059875 348.0
128.135239 188.0
128.333572 136.0
129.071121 532.0
129.284607 212.0
129.835129 120.0
130.064301 148.0
130.276352 180.0
131.049149 740.0
131.856888 188.0
132.055008 148.0
132.140457 152.0
132.477005 224.0
133.063751 940.0
133.947235 96.0
134.068024 176.0
134.618423 80.0
134.997421 196.0
135.043869 2412.0
135.256561 40.0
135.604004 28.0
135.645737 48.0
136.0466 356.0
136.702545 144.0
137.056503 204.0
138.064224 308.0
138.207687 240.0
138.786255 172.0
139.06308 92.0
139.316681 124.0
140.128372 180.0
140.288635 88.0
140.431137 184.0
140.519775 208.0
140.635406 204.0
140.748734 248.0
141.100784 168.0
142.04335 184.0
142.128754 144.0
142.14537 108.0
142.468292 140.0
142.515808 212.0
143.047302 936.0
143.477371 160.0
143.999969 208.0
144.05127 416.0
144.31543 84.0
144.473282 44.0
145.016861 136.0
145.06459 3732.0
145.166611 236.0
145.249451 48.0
145.275848 88.0
145.292633 56.0
145.309433 64.0
145.427017 148.0
146.067474 1672.0
146.210556 96.0
146.232224 32.0
146.335739 52.0
146.641678 52.0
147.041809 308.0
147.080856 248.0
147.189331 96.0
147.430908 72.0
147.800903 184.0
148.316757 232.0
148.518021 92.0
149.091019 188.0
149.945282 128.0
150.350143 144.0
151.038025 560.0
151.075867 204.0
151.553299 68.0
152.053574 228.0
152.621063 124.0
152.899048 124.0
153.04921 196.0
153.130478 96.0
153.275833 60.0
153.971527 180.0
154.062744 468.0
154.141983 32.0
154.750488 180.0
155.049362 800.0
155.099808 176.0
155.350266 52.0
156.058319 132.0
156.110321 204.0
156.219757 104.0
156.603104 96.0
157.048019 196.0
157.186493 116.0
158.128677 140.0
158.539413 196.0
158.795151 132.0
158.815216 132.0
159.043488 440.0
159.184158 88.0
160.079407 232.0
160.142365 180.0
160.270859 132.0
161.060257 1028.0
161.169159 152.0
162.026901 168.0
162.058792 340.0
163.301239 176.0
163.665161 176.0
164.187576 48.0
164.320221 132.0
164.455475 104.0
165.252808 148.0
166.054642 228.0
167.028137 172.0
167.074448 132.0
169.082764 596.0
169.372009 240.0
169.545609 152.0
170.46431 236.0
170.643661 160.0
171.041183 200.0
172.63327 40.0
172.706497 32.0
172.782364 100.0
172.894882 92.0
173.059128 1636.0
173.096466 68.0
173.127884 168.0
173.185516 56.0
173.227417 96.0
173.371536 80.0
173.57077 160.0
174.066757 380.0
174.137634 68.0
174.232208 80.0
174.28476 160.0
174.889633 116.0
175.041656 172.0
175.074738 1652.0
175.168762 36.0
175.237259 44.0
175.529846 56.0
176.076096 448.0
176.123672 60.0
176.440796 140.0
176.562439 100.0
177.051178 304.0
177.722733 160.0
177.980209 128.0
178.450516 76.0
179.033295 200.0
179.081223 100.0
180.041397 224.0
181.085709 412.0
183.036911 204.0
184.029205 132.0
184.180435 108.0
184.26149 160.0
184.631821 132.0
185.05806 4056.0
185.250824 76.0
185.986557 184.0
186.059708 756.0
186.119583 48.0
186.3396 144.0
187.043655 348.0
187.06517 328.0
187.34079 136.0
187.594238 224.0
187.935165 112.0
188.044525 1200.0
188.238159 160.0
188.503143 152.0
188.626129 64.0
188.749161 172.0
188.992615 64.0
189.053711 1540.0
189.165039 184.0
189.633438 44.0
190.058212 160.0
190.291824 48.0
190.582977 104.0
190.616302 160.0
191.075439 244.0
191.220993 124.0
192.080688 188.0
193.534424 148.0
194.071976 172.0
194.818573 148.0
195.068329 276.0
195.096481 196.0
197.791306 44.0
198.135773 128.0
199.041443 348.0
199.078247 136.0
199.690933 152.0
200.044388 164.0
200.665298 136.0
201.054321 1068.0
202.058014 192.0
202.23317 140.0
202.697647 136.0
202.734482 48.0
203.073334 1024.0
203.562851 40.0
204.073105 312.0
204.281952 48.0
204.577927 132.0
204.922531 72.0
205.057785 148.0
205.092133 180.0
206.060959 296.0
206.32962 84.0
206.34964 212.0
206.381088 96.0
207.079376 260.0
207.770218 228.0
208.074448 132.0
208.677811 160.0
209.05751 168.0
209.616196 160.0
210.054443 152.0
210.074631 136.0
211.072098 240.0
212.133667 200.0
213.059433 148.0
214.132828 104.0
214.698242 148.0
215.025009 164.0
216.378464 124.0
216.996674 144.0
217.03772 152.0
217.099304 144.0
218.079926 164.0
218.930206 148.0
218.965546 144.0
219.065704 1688.0
219.201233 48.0
219.224808 92.0
219.283752 112.0
219.661194 92.0
220.068909 324.0
221.067596 184.0
221.594681 140.0
221.935547 108.0
222.055161 216.0
222.772507 48.0
223.081985 172.0
223.105362 152.0
223.158875 136.0
223.923676 232.0
224.046005 188.0
224.099442 168.0
224.838989 176.0
224.937485 152.0
225.062881 128.0
225.1017 92.0
225.367554 128.0
226.057907 324.0
227.031952 120.0
228.570038 148.0
228.756653 96.0
229.046326 1556.0
229.696854 72.0
229.880905 160.0
229.935226 216.0
230.025787 164.0
230.052734 164.0
231.058365 172.0
232.077316 328.0
233.082504 132.0
234.057907 132.0
234.929916 124.0
235.067017 176.0
235.41217 108.0
235.775726 76.0
236.069214 116.0
237.052292 396.0
237.104004 164.0
237.281784 124.0
237.327789 132.0
238.0504 196.0
238.399109 164.0
238.817245 136.0
239.007996 184.0
239.032608 100.0
239.071503 664.0
240.045517 212.0
240.072678 376.0
241.077194 128.0
241.701859 68.0
242.457474 68.0
242.696182 120.0
242.959808 152.0
243.403671 96.0
243.636612 132.0
245.051468 192.0
245.251694 80.0
245.766266 184.0
245.834915 56.0
246.069641 184.0
246.44072 180.0
247.059509 1400.0
248.055511 300.0
248.092773 156.0
249.033768 152.0
249.056458 132.0
249.079483 192.0
249.191742 92.0
249.392868 152.0
249.543762 152.0
249.701004 84.0
249.936951 104.0
250.06282 248.0
250.084854 168.0
250.525711 172.0
251.070374 252.0
251.108185 172.0
252.079193 276.0
253.033356 188.0
253.990417 136.0
254.054886 176.0
254.095108 204.0
254.212524 96.0
254.45694 32.0
255.064651 164.0
255.105042 168.0
255.356247 84.0
256.059662 232.0
257.089417 180.0
257.318939 172.0
258.068359 124.0
259.069519 140.0
260.077789 76.0
260.528381 48.0
260.885132 188.0
261.057007 176.0
261.101257 180.0
262.061584 172.0
262.092072 188.0
262.414398 112.0
262.694977 148.0
262.872437 112.0
263.071503 336.0
264.070923 192.0
264.116333 176.0
265.09021 180.0
266.059326 116.0
266.088409 124.0
266.726685 68.0
267.065216 916.0
268.063293 156.0
268.918854 164.0
269.042664 160.0
269.078064 572.0
269.336792 44.0
269.614532 104.0
270.045685 128.0
270.743225 68.0
270.874268 120.0
271.077393 132.0
274.047943 188.0
275.07019 348.0
275.113251 184.0
275.305695 124.0
275.687958 236.0
275.744171 148.0
276.075043 332.0
276.108154 164.0
276.898865 144.0
277.021423 164.0
277.05307 152.0
277.088226 372.0
278.080994 264.0
278.371368 72.0
278.484283 192.0
278.510834 60.0
278.570648 48.0
278.597229 180.0
279.055878 108.0
279.095764 120.0
279.215485 60.0
279.894379 72.0
280.085876 168.0
280.10379 96.0
280.108826 156.0
281.070282 208.0
281.111115 112.0
281.915955 192.0
282.052185 180.0
282.085419 2864.0
282.139893 64.0
282.541229 40.0
283.05835 1220.0
283.411743 48.0
284.032684 96.0
284.067535 344.0
285.113525 176.0
286.061676 144.0
286.182892 52.0
286.610657 192.0
286.67807 92.0
287.44693 96.0
288.073792 152.0
288.186432 116.0
289.083923 356.0
290.06424 172.0
290.091797 296.0
291.069336 416.0
291.096405 264.0
291.201477 60.0
291.364532 84.0
292.069458 228.0
292.11264 368.0
293.041901 168.0
293.071533 344.0
293.094086 328.0
293.239563 44.0
293.901154 52.0
294.047882 132.0
294.75824 128.0
295.093597 176.0
295.134247 152.0
295.318909 144.0
295.483124 68.0
295.794556 56.0
296.54129 96.0
296.65097 80.0
297.014465 148.0
297.070618 860.0
297.203461 44.0
298.080994 1204.0
299.094269 360.0
299.923523 160.0
300.0896 144.0
300.289032 76.0
301.072479 168.0
303.060577 180.0
304.053101 196.0
305.07663 404.0
305.314514 112.0
306.047455 176.0
306.089355 784.0
306.853668 112.0
307.045441 108.0
307.092651 332.0
307.966888 80.0
308.101929 468.0
308.186981 76.0
309.075287 280.0
309.113647 148.0
309.796387 100.0
310.069702 100.0
310.188873 92.0
311.089539 108.0
311.132568 160.0
311.863251 112.0
312.097107 880.0
313.103333 720.0
314.076538 260.0
314.090851 148.0
314.10022 204.0
314.554443 80.0
315.303284 152.0
317.094147 160.0
318.067932 248.0
319.097748 248.0
319.316772 180.0
319.359436 32.0
319.765045 172.0
320.099548 804.0
321.111908 1128.0
322.057709 176.0
322.092987 168.0
322.114014 332.0
323.08371 312.0
323.115295 152.0
323.4487 148.0
324.0867 312.0
325.079468 192.0
325.104584 64.0
325.136902 152.0
331.110992 52.0
332.071014 152.0
333.075714 696.0
334.044922 176.0
334.093414 160.0
334.848297 92.0
335.0466 152.0
335.086609 160.0
336.100586 276.0
336.803345 68.0
337.099731 452.0
338.110504 484.0
339.00592 92.0
339.091583 312.0
339.130524 152.0
340.093262 204.0
340.223694 176.0
344.824554 116.0
347.084442 124.0
348.095276 156.0
349.065887 284.0
349.107422 196.0
350.07428 140.0
350.107788 144.0
351.122681 480.0
351.218475 44.0
352.098633 168.0
352.122528 176.0
353.044891 196.0
353.104736 108.0
353.138397 140.0
355.118744 144.0
357.189484 136.0
357.757721 108.0
361.994171 68.0
362.149475 36.0
362.865692 128.0
363.066681 104.0
364.030609 100.0
364.086731 304.0
365.09787 140.0
366.103302 364.0
366.240326 28.0
366.461304 40.0
367.087402 300.0
367.110107 156.0
367.902985 60.0
368.110443 132.0
377.130249 88.0
379.030487 124.0
379.1138 96.0
379.549927 56.0
380.10022 148.0
380.123566 168.0
381.118103 160.0
382.103394 168.0
382.374207 84.0
397.12735 336.0
398.139801 172.0
399.134125 168.0
410.971008 96.0
412.049042 180.0
417.875366 156.0
443.251709 84.0
472.780151 88.0
476.744019 60.0
481.108551 80.0
488.483032 80.0
515.01825 92.0
523.130798 96.0
525.683289 124.0
529.061096 36.0
529.76178 116.0
555.938049 68.0
632.109253 68.0
697.065186 164.0
697.659119 48.0
753.361938 36.0
804.579224 116.0
827.921875 188.0
848.111084 168.0
848.57489 52.0
873.654297 112.0
911.802002 236.0
928.283569 192.0
935.04541 160.0
945.12085 116.0
988.095032 140.0
1000.484131 156.0
1009.058228 224.0
1021.335938 196.0
1029.238647 36.0
1050.631592 240.0
1071.273682 156.0
1077.164429 48.0
1111.60022 136.0
1121.256714 92.0
1122.93689 184.0
1180.96167 120.0
1204.822632 292.0
1206.619507 124.0
1207.317993 196.0
1234.674927 20.0
1235.000122 140.0
1235.258911 168.0
1239.452759 164.0
1243.457153 196.0
1254.113159 116.0
1255.410522 252.0
1260.669922 196.0
1267.562622 180.0
1278.577393 172.0
1281.49707 176.0
1289.611206 152.0
1294.354492 136.0
1306.153809 196.0
1313.660034 244.0
1316.662842 168.0
1321.36145 140.0
1323.047852 104.0
1323.750122 124.0
1323.84436 80.0
1332.512573 196.0
1335.005859 204.0
1337.639771 172.0
1338.258667 164.0
1338.824951 168.0
1339.737183 144.0
1342.011108 140.0
1342.259033 148.0
1342.682007 36.0
1348.457275 72.0
1348.713135 72.0
1351.023926 212.0
1354.340088 76.0
1365.592407 196.0
1375.517944 156.0
1385.234985 76.0
1385.90918 200.0
1388.459351 172.0
1389.215942 112.0
1400.939697 116.0
1402.310791 160.0
1402.780396 176.0
1407.017944 144.0
1415.504639 116.0
1418.75647 152.0
1420.27124 252.0
1421.914551 188.0
1427.977783 188.0
1437.508301 100.0
1442.946899 152.0
1448.145752 168.0
1450.161255 232.0
1450.282471 184.0
1450.858643 76.0
1457.560791 204.0
1496.711548 120.0
1498.775879 176.0
1500.086182 152.0
1503.325684 48.0
