>compound MLS001142434-01!
>formula C23H28N4O5
>ionization [M+H]+
>parentmass 441.214
#inchi InChI=1S/C23H28N4O5/c1-13(20(28)24-12-15-5-4-10-32-15)27-21(29)23(2)19-16(8-9-26(23)22(27)30)17-11-14(31-3)6-7-18(17)25-19/h6-7,11,13,15,25H,4-5,8-10,12H2,1-3H3,(H,24,28)/t13-,15?,23-/m0/s1
#inchikey XGDXGVGJOYVJQV
#Ion_Source LC-ESI
#Instrument qTof
#Compound_Source NIH Natural Product Library
#PI Dorrestein
#Data_Collector VVP/LMS
#Scan -1
#Precursor_MZ 441.214
#ExactMass 440.206
#Charge 1
#CAS_Number N/A
#Pubmed_ID N/A
#Smiles COc1ccc2[nH]c3c(CCN4C(=O)N([C@@H](C)C(=O)NCC5CCCO5)C(=O)[C@@]43C)c2c1
#INCHI_AUX N/A
#Library_Class 1
#SpectrumID CCMSLIB00000080315
#IonMode Positive
#UpdateWorkflowName UPDATE-SINGLE-ANNOTATED-GOLD
#LibraryQualityString Gold
#TaskID b1d8e8f6646f4e71acdff9ca3d919d08
##Scan# 1933
#SpectrumFile p2-B07_GB7_01_17995.mzXML
#LibraryName NIH_Natural_Products_Library.mgf
#MQScore -1
#Organism NIH_Natural_Products_Library
#TIC_Query 0
#RT_Query -1
#MZErrorPPM -1
#SharedPeaks 0
#MassDiff 0
#LibMZ -1
#SpecMZ 441.214
#SpecCharge 0
#internalFilename spec-00000.mgf

>collision 10
95.328819 264.0
95.521332 128.0
95.715988 132.0
95.790009 168.0
96.041504 60.0
96.078575 128.0
97.239136 192.0
97.44339 164.0
98.071243 188.0
98.304001 92.0
101.651787 124.0
102.128937 192.0
102.609375 104.0
102.655762 236.0
103.385155 184.0
103.72953 132.0
104.373222 48.0
104.735535 176.0
104.782394 280.0
105.031143 184.0
105.286308 116.0
105.535652 56.0
105.699318 216.0
106.462021 88.0
106.517487 168.0
107.574043 204.0
107.706223 132.0
108.119804 132.0
108.324821 144.0
108.438805 212.0
109.529831 104.0
109.661118 112.0
111.079025 84.0
112.103111 184.0
112.584175 136.0
112.641212 212.0
112.918152 160.0
113.318298 172.0
113.345848 80.0
113.899666 160.0
114.930244 112.0
115.09491 180.0
115.881874 176.0
116.237869 72.0
116.413918 184.0
117.225052 236.0
118.866623 224.0
120.440941 148.0
121.32077 180.0
123.138626 140.0
123.180603 136.0
125.007835 80.0
125.729996 196.0
126.094093 52.0
126.649063 184.0
127.645973 156.0
128.084412 208.0
128.147705 208.0
128.388947 60.0
129.360672 64.0
129.539352 144.0
130.113449 156.0
130.192932 48.0
130.220184 176.0
130.472458 124.0
130.649872 204.0
130.779602 188.0
130.982285 180.0
131.27179 192.0
131.57074 192.0
132.075836 100.0
132.664444 56.0
132.877762 156.0
133.279633 68.0
133.500351 148.0
134.334259 176.0
134.585861 136.0
134.878967 136.0
134.934799 152.0
135.12912 164.0
135.272614 172.0
135.534378 160.0
135.865982 108.0
136.040054 140.0
136.937744 164.0
137.159134 156.0
137.210434 232.0
137.793991 216.0
137.885147 140.0
138.170471 184.0
138.198547 104.0
140.19458 176.0
142.070175 196.0
142.12001 224.0
143.12323 144.0
143.41153 180.0
144.125198 188.0
144.766388 208.0
144.823868 148.0
144.970047 148.0
145.03476 120.0
145.303391 256.0
145.983261 68.0
146.0867 132.0
146.293686 196.0
146.459869 120.0
146.529739 64.0
146.862473 116.0
147.135193 108.0
147.1521 36.0
148.037231 192.0
148.126862 204.0
149.223969 136.0
149.3918 124.0
151.00441 192.0
151.34462 184.0
151.520996 108.0
151.648438 132.0
152.016373 144.0
152.080185 200.0
152.608444 148.0
152.726257 156.0
153.391449 168.0
154.052902 120.0
154.911438 128.0
155.120514 112.0
155.429703 76.0
155.475891 124.0
156.100494 128.0
158.961227 184.0
159.124908 152.0
160.122879 180.0
160.402603 152.0
161.010773 156.0
161.564423 152.0
162.926041 60.0
164.505203 164.0
166.125351 184.0
167.12944 144.0
167.133423 144.0
167.704437 144.0
168.139923 180.0
168.228165 168.0
168.357285 52.0
168.887192 228.0
169.073502 300.0
169.147202 240.0
170.050735 124.0
170.149399 148.0
171.663986 132.0
172.131927 152.0
172.784714 112.0
172.808258 224.0
172.842285 144.0
173.145996 168.0
173.594208 148.0
173.890701 132.0
174.150635 3004.0
174.42662 84.0
174.550201 188.0
175.15213 300.0
176.319382 56.0
176.97818 144.0
177.351776 92.0
177.502914 128.0
177.548004 160.0
177.640854 148.0
179.510925 204.0
180.659607 224.0
182.123444 232.0
182.760681 172.0
183.131882 156.0
184.127197 172.0
184.142715 344.0
185.142929 260.0
185.209686 92.0
185.242203 132.0
185.836014 224.0
186.147217 228.0
186.155212 160.0
187.165375 164.0
187.634094 112.0
188.108841 76.0
188.939331 184.0
189.14502 148.0
189.405197 140.0
190.049545 124.0
192.182312 172.0
193.830566 188.0
194.310318 144.0
194.696213 128.0
194.782333 104.0
195.032455 112.0
195.068588 160.0
195.160355 184.0
195.366196 136.0
196.536545 176.0
196.871567 196.0
197.148193 140.0
198.119263 120.0
198.160919 820.0
198.640762 104.0
199.163727 572.0
199.421494 220.0
199.494583 132.0
199.832123 152.0
200.170746 344.0
200.491135 148.0
200.629272 52.0
201.075027 88.0
201.167709 260.0
201.394119 148.0
201.580612 28.0
202.174576 168.0
202.250549 124.0
202.721222 136.0
203.438934 232.0
205.009232 196.0
206.574127 76.0
206.677139 132.0
206.7258 116.0
208.150726 104.0
208.308716 84.0
209.145782 204.0
209.570053 36.0
209.914978 148.0
210.145676 132.0
211.512924 40.0
211.866272 88.0
211.987991 208.0
212.135834 124.0
212.159027 156.0
212.260513 208.0
212.806107 92.0
212.954239 84.0
213.055923 144.0
213.175461 968.0
213.50943 252.0
213.625793 44.0
214.181168 548.0
215.097626 220.0
215.192032 4920.0
215.377991 48.0
216.194702 812.0
216.589157 220.0
216.65361 84.0
217.175476 172.0
217.196014 216.0
217.279343 60.0
217.812531 84.0
217.844849 132.0
218.156403 176.0
218.353439 148.0
218.959808 140.0
220.021515 212.0
220.778061 124.0
222.34552 148.0
224.176834 144.0
225.187714 284.0
225.350616 164.0
225.443253 116.0
225.51799 140.0
225.724304 220.0
226.151459 228.0
226.19165 332.0
226.514557 112.0
226.877213 88.0
227.158508 188.0
228.162338 64.0
228.209671 260.0
229.077347 152.0
229.203903 164.0
230.048523 116.0
230.184402 112.0
230.465378 128.0
232.015228 132.0
233.147598 152.0
235.59169 104.0
236.016586 204.0
237.202209 156.0
237.634064 52.0
238.288147 152.0
239.198578 100.0
240.141602 120.0
240.589096 108.0
240.8022 64.0
240.954742 128.0
240.978302 192.0
241.18013 4840.0
241.214996 812.0
241.286102 160.0
241.364731 64.0
241.454422 68.0
241.491547 92.0
241.615295 76.0
241.766937 184.0
241.918625 52.0
242.184326 784.0
242.221039 132.0
242.367783 28.0
242.764618 60.0
242.935242 72.0
243.197311 936.0
244.009537 176.0
244.187225 172.0
244.971756 100.0
245.012253 144.0
245.997879 160.0
246.678986 228.0
249.255661 56.0
251.302658 196.0
253.203979 256.0
253.294647 116.0
253.570358 188.0
254.19838 144.0
254.365753 88.0
255.199112 152.0
255.482208 64.0
255.733627 40.0
255.784576 156.0
256.204987 188.0
257.727112 172.0
257.85495 212.0
258.206696 104.0
258.984558 132.0
259.14798 220.0
259.840607 148.0
261.90155 76.0
262.539795 220.0
264.439789 64.0
266.840637 84.0
267.204987 180.0
268.054932 32.0
268.238281 440.0
269.183044 408.0
269.22113 460.0
269.41571 92.0
269.517029 112.0
270.176697 168.0
270.229553 332.0
270.534332 104.0
270.678406 40.0
271.602783 160.0
271.773376 168.0
271.825897 112.0
274.203949 152.0
274.398468 168.0
275.051758 72.0
275.451385 140.0
277.868439 76.0
278.562378 172.0
279.842987 108.0
280.086121 128.0
280.142761 100.0
281.764374 124.0
282.225677 132.0
282.362823 128.0
282.433075 56.0
282.499969 120.0
282.848053 104.0
282.878174 52.0
282.968567 112.0
283.045593 40.0
283.170074 144.0
283.300201 212.0
283.491211 120.0
283.531433 84.0
283.564941 120.0
283.605164 68.0
283.70636 152.0
283.732574 176.0
283.874481 128.0
283.913666 148.0
283.937134 192.0
283.984558 104.0
284.010956 216.0
284.061279 92.0
284.120056 188.0
284.127289 160.0
284.179077 148.0
284.237793 22712.0
284.34317 76.0
284.374359 136.0
284.43396 176.0
284.476318 96.0
284.587555 156.0
284.623993 124.0
284.677826 60.0
284.71405 100.0
284.746124 80.0
284.776337 200.0
284.872894 92.0
284.934265 84.0
285.01825 52.0
285.075409 196.0
285.098938 68.0
285.142609 212.0
285.241577 5244.0
285.320801 48.0
285.354431 84.0
285.40152 76.0
285.445221 52.0
285.483643 104.0
285.653778 40.0
285.731171 76.0
285.815308 52.0
285.842224 92.0
285.960022 56.0
286.098053 112.0
286.246277 760.0
286.337189 56.0
286.443054 76.0
286.48877 52.0
286.525848 52.0
286.579742 40.0
286.655365 100.0
286.859528 132.0
286.930328 108.0
286.978394 112.0
287.018005 48.0
287.098938 84.0
287.146179 64.0
287.199615 172.0
287.242615 308.0
287.291229 60.0
287.33194 64.0
287.424957 132.0
287.513977 92.0
287.584869 44.0
287.655762 84.0
287.699646 64.0
288.040771 32.0
288.287445 56.0
288.984131 64.0
289.02475 60.0
289.295532 44.0
289.918854 92.0
290.559814 68.0
290.70575 36.0
291.109772 96.0
294.464874 140.0
294.710846 120.0
295.207825 156.0
296.370605 36.0
297.780762 80.0
298.395966 132.0
298.609192 28.0
299.183929 48.0
299.559357 44.0
300.538635 152.0
301.160126 52.0
301.585205 68.0
302.235443 40.0
303.725403 204.0
305.253754 188.0
307.242889 88.0
310.791199 220.0
311.131683 108.0
311.844879 116.0
312.242065 7192.0
312.337524 176.0
312.372406 36.0
312.397034 60.0
312.43924 108.0
312.520721 104.0
312.696167 44.0
312.791199 48.0
312.942627 64.0
313.245483 1824.0
313.495728 48.0
313.763641 68.0
313.855347 32.0
314.021118 60.0
314.251892 292.0
314.758789 136.0
315.016663 40.0
315.15802 76.0
315.228699 52.0
315.826263 64.0
315.889954 116.0
316.9487 56.0
317.423767 56.0
319.889862 60.0
323.231018 144.0
329.047607 136.0
339.261566 152.0
340.2453 316.0
341.248077 144.0
342.256409 200.0
343.214569 196.0
344.314453 48.0
351.297455 144.0
353.285156 148.0
360.055878 160.0
378.311859 196.0
397.341553 148.0
423.335052 180.0
425.303284 120.0
426.317902 168.0
431.285004 132.0
436.946411 40.0
441.36615 104.0
441.61084 36.0
442.355774 172.0
442.385071 128.0
459.815979 56.0
467.940491 76.0
494.439148 76.0
496.144775 72.0
527.494324 92.0
545.605652 64.0
547.99823 100.0
568.817139 76.0
586.147766 80.0
654.231323 52.0
656.902039 44.0
720.476379 96.0
721.962524 64.0
732.316956 40.0
733.785645 20.0
853.196533 76.0
895.705444 92.0
993.430847 192.0
996.928589 112.0
1011.975098 20.0
1033.59436 100.0
1064.080078 252.0
1064.320435 72.0
1259.313843 196.0
1306.576416 156.0
1312.029053 128.0
1322.845093 140.0
1347.137207 68.0
1353.698853 180.0
1371.097534 104.0
1383.367798 84.0
1392.727173 168.0
1405.362305 96.0
1407.08667 136.0
1411.043213 20.0
1430.781128 76.0
1460.183105 248.0
1462.13855 212.0
1473.608887 100.0
1498.162842 144.0
