>compound MLS002694822-01!2-oxo-1H-quinoline-4-carboxylic acid
>formula C10H7NO3
>ionization [M+H]+
>parentmass 190.048737
#inchi InChI=1S/C10H7NO3/c12-9-5-7(10(13)14)6-3-1-2-4-8(6)11-9/h1-5H,(H,11,12)(H,13,14)
#inchikey MFSHNFBQNVGXJX
#origInchi InChI=1S/C10H7NO3.C4H10N2/c12-9-5-7(10(13)14)6-3-1-2-4-8(6)11-9;1-2-6-4-3-5-1/h1-5H,(H,11,12)(H,13,14);5-6H,1-4H2
#Ion_Source LC-ESI
#Instrument qTof
#Compound_Source NIH Natural Product Library
#PI Dorrestein
#Data_Collector VVP/LMS
#Scan -1
#Precursor_MZ 190.05
#ExactMass 189.043
#Charge 1
#CAS_Number N/A
#Pubmed_ID N/A
#Smiles OC(=O)c1cc(O)nc2ccccc12.C1CNCCN1
#INCHI_AUX N/A
#Library_Class 3
#SpectrumID CCMSLIB00000079640
#IonMode Positive
#UpdateWorkflowName UPDATE-SINGLE-ANNOTATED-BRONZE
#LibraryQualityString Bronze
#TaskID b1d8e8f6646f4e71acdff9ca3d919d08
##Scan# 1104
#SpectrumFile p1-B09_GB9_01_17893.mzXML
#LibraryName NIH_Natural_Products_Library.mgf
#MQScore -1
#Organism NIH_Natural_Products_Library
#TIC_Query 0
#RT_Query -1
#MZErrorPPM -1
#SharedPeaks 0
#MassDiff 0
#LibMZ -1
#SpecMZ 190.05
#SpecCharge 0
#internalFilename spec-00000.mgf

>collision 10
96.936996 136.0
100.017998 184.0
101.036858 324.0
102.032417 164.0
103.955284 96.0
115.70668 200.0
116.049828 672.0
119.050995 124.0
122.70076 124.0
122.941185 120.0
127.92057 176.0
128.051102 456.0
128.373428 32.0
128.504242 96.0
128.879044 104.0
129.057602 84.0
130.030762 368.0
130.045959 204.0
135.456818 20.0
136.703568 188.0
144.04335 208.0
145.074936 128.0
146.061874 196.0
154.030304 192.0
162.058075 364.0
163.048981 164.0
167.155991 48.0
172.038208 480.0
177.03476 136.0
190.048737 1008.0
191.048096 80.0
917.060913 136.0
931.637756 188.0
1004.056335 136.0
1153.662109 152.0
1207.07605 152.0
1280.979614 172.0
1334.437988 212.0
1368.231445 204.0
1419.58252 220.0
1497.747437 204.0
