>compound MLS001333972-01!Nalbuphine hydrochloride hydrate
>formula C21H27NO4
>ionization [M+H]+
>parentmass 358.2012847960906
#inchi InChI=1S/C21H27NO4/c23-14-5-4-13-10-16-21(25)7-6-15(24)19-20(21,17(13)18(14)26-19)8-9-22(16)11-12-2-1-3-12/h4-5,12,15-16,19,23-25H,1-3,6-11H2/t15-,16+,19-,20-,21+/m0/s1
#inchikey NETZHAKZCGBWSS
#origInchi InChI=1S/C21H27NO4.ClH.H2O/c23-14-5-4-13-10-16-21(25)7-6-15(24)19-20(21,17(13)18(14)26-19)8-9-22(16)11-12-2-1-3-12;;/h4-5,12,15-16,19,23-25H,1-3,6-11H2;1H;1H2/t15-,16+,19-,20-,21+;;/m0../s1
#Ion_Source LC-ESI
#Instrument qTof
#Compound_Source NIH Pharmacologically Active Library
#PI Dorrestein
#Data_Collector VP/LMS
#Scan -1
#Precursor_MZ 358.201
#ExactMass 357.194
#Charge 1
#CAS_Number N/A
#Pubmed_ID N/A
#Smiles O[C@H]1CC[C@@]2(O)[C@H]3Cc4ccc(O)c5O[C@@H]1[C@]2(CCN3CC6CCC6)c54.O.Cl
#INCHI_AUX N/A
#Library_Class 1
#SpectrumID CCMSLIB00000084982
#IonMode Positive
#UpdateWorkflowName UPDATE-SINGLE-ANNOTATED-GOLD
#LibraryQualityString Gold
#TaskID d252d724072548979f1f6f1ced849daf
##Scan# 1267
#SpectrumFile p3-D05_GD5_01_18262.mzXML
#LibraryName Pharm_Active_Library.mgf
#MQScore -1
#Organism Pharm_Active_Library
#TIC_Query 0
#RT_Query -1
#MZErrorPPM -1
#SharedPeaks 0
#MassDiff 0
#LibMZ -1
#SpecMZ 358.201
#SpecCharge 0
#internalFilename spec-00000.mgf

>collision 10
45.041779 132.0
45.529331 156.0
45.717548 176.0
46.231739 48.0
47.39473 100.0
48.235661 180.0
48.480652 164.0
48.552746 176.0
48.580486 204.0
49.14397 156.0
49.921425 180.0
50.468567 148.0
50.859589 156.0
50.88372 28.0
52.094837 76.0
52.554123 80.0
52.769337 156.0
52.82719 216.0
53.05891 192.0
53.780464 100.0
53.809658 232.0
53.825722 208.0
53.875381 56.0
53.923603 200.0
54.330696 188.0
54.408478 44.0
55.216003 204.0
56.338299 228.0
57.039642 144.0
57.08926 176.0
57.860332 172.0
57.925453 152.0
58.022446 96.0
58.251606 148.0
58.583244 164.0
58.618286 128.0
58.854729 152.0
58.883743 208.0
58.934158 132.0
59.091644 164.0
60.465858 184.0
60.478241 232.0
60.702892 224.0
60.743217 124.0
61.047646 212.0
61.162781 184.0
61.307632 136.0
61.388699 136.0
61.405853 152.0
63.086075 184.0
63.274342 148.0
63.307594 176.0
66.123901 164.0
66.224289 116.0
67.722832 220.0
67.898201 132.0
67.95726 180.0
68.64814 128.0
69.702637 116.0
69.757484 188.0
69.83065 180.0
70.847244 188.0
71.355774 152.0
71.677261 168.0
72.390137 164.0
72.858284 112.0
73.157608 188.0
73.23423 164.0
74.006149 128.0
74.102066 128.0
74.192902 120.0
74.618683 132.0
74.814812 220.0
75.214752 160.0
76.057755 200.0
76.118515 200.0
76.205368 48.0
76.255768 92.0
76.896721 164.0
77.23394 184.0
78.378426 176.0
79.258614 140.0
79.480263 124.0
79.629387 168.0
79.767982 128.0
79.981445 152.0
80.33606 168.0
81.485451 164.0
82.23098 140.0
82.256248 204.0
82.702728 140.0
83.025238 152.0
84.511711 224.0
85.316879 76.0
85.493164 148.0
86.136948 180.0
86.760597 96.0
87.224701 172.0
87.990372 132.0
88.517654 232.0
89.166763 224.0
89.916359 212.0
90.604668 220.0
90.739227 236.0
90.851128 52.0
91.058029 220.0
91.305107 152.0
91.760216 44.0
92.597206 48.0
92.740906 120.0
92.760071 172.0
93.769203 220.0
93.819321 164.0
94.062393 184.0
94.128036 208.0
94.417915 172.0
94.663689 140.0
94.855507 40.0
95.162033 220.0
96.436081 232.0
97.127281 148.0
98.090134 184.0
98.351196 240.0
98.69693 228.0
98.783951 80.0
99.039894 136.0
99.114594 176.0
99.344582 180.0
99.386246 92.0
99.439827 196.0
99.711929 156.0
100.620285 204.0
101.336304 204.0
101.856651 204.0
102.090485 208.0
102.687202 164.0
102.901108 228.0
103.208229 212.0
103.763008 236.0
103.820229 212.0
103.957733 176.0
104.166862 252.0
104.687546 212.0
104.795509 136.0
104.89537 176.0
105.070755 204.0
105.234032 208.0
105.757378 88.0
105.888412 120.0
106.023636 172.0
106.06736 204.0
106.415436 156.0
106.499634 180.0
107.0467 132.0
107.075531 180.0
109.090942 124.0
109.226112 144.0
109.255234 212.0
109.365524 152.0
109.423813 140.0
109.769707 188.0
110.032608 168.0
110.057663 108.0
111.02655 192.0
111.099968 152.0
111.36866 168.0
111.726021 224.0
112.111351 160.0
112.231506 144.0
113.521416 172.0
113.72509 140.0
114.715828 196.0
115.038361 148.0
115.054863 228.0
115.162323 44.0
115.577065 112.0
115.737602 132.0
115.765442 104.0
115.904678 176.0
116.535515 140.0
116.621475 124.0
117.435364 140.0
118.063866 372.0
119.64135 48.0
119.719734 188.0
119.809036 68.0
120.082359 208.0
120.535606 124.0
120.743286 84.0
120.787033 144.0
121.085693 160.0
121.172333 116.0
121.240257 192.0
121.327934 100.0
122.960114 116.0
123.043991 204.0
123.152199 136.0
123.2715 196.0
124.070541 232.0
124.110695 184.0
124.18364 148.0
124.667633 160.0
124.71875 56.0
125.399841 164.0
126.004585 180.0
126.093971 160.0
126.230949 132.0
126.45182 144.0
126.783287 176.0
127.555389 124.0
128.060669 164.0
128.733749 240.0
128.946121 92.0
129.029755 180.0
129.068192 164.0
129.344208 108.0
130.067139 188.0
130.183105 200.0
130.325211 208.0
130.43985 80.0
131.011032 188.0
131.040649 120.0
131.078873 172.0
131.711365 80.0
132.078476 464.0
133.089005 236.0
133.271515 172.0
133.61409 172.0
134.053879 144.0
135.042236 124.0
135.190079 112.0
135.393799 120.0
135.692719 152.0
136.038391 224.0
136.075607 284.0
136.658936 140.0
137.036118 128.0
137.059814 472.0
137.080399 136.0
137.122345 44.0
137.271545 48.0
137.85675 140.0
138.063217 132.0
138.194214 172.0
138.789154 184.0
139.785126 96.0
140.058228 172.0
140.425934 84.0
140.898041 144.0
141.067795 212.0
141.425385 112.0
141.593491 40.0
141.920517 144.0
141.975052 136.0
142.034348 112.0
142.07402 160.0
142.214676 132.0
142.656509 228.0
143.052887 180.0
143.087112 324.0
144.045181 200.0
144.058502 216.0
144.282394 192.0
144.332596 152.0
144.729813 44.0
144.861526 140.0
144.952576 52.0
145.061981 184.0
145.269058 216.0
146.028107 156.0
146.059372 224.0
146.100266 184.0
146.536041 156.0
147.043945 540.0
147.271805 88.0
147.4216 168.0
147.467529 80.0
148.07666 156.0
148.1035 176.0
148.186249 232.0
149.059219 300.0
149.091354 144.0
149.446381 124.0
149.699539 60.0
150.008972 48.0
150.084549 124.0
150.255295 76.0
150.926956 104.0
150.953857 184.0
151.063919 112.0
152.062881 176.0
153.049454 132.0
153.069977 280.0
153.165207 112.0
153.895187 136.0
154.06485 196.0
154.137268 164.0
154.800217 132.0
154.953781 84.0
155.086624 424.0
157.063782 712.0
157.278992 204.0
157.571167 88.0
157.66362 216.0
157.788605 136.0
158.065125 556.0
158.19429 80.0
158.401733 176.0
159.082184 128.0
159.191788 56.0
159.219421 44.0
159.485733 168.0
159.722107 172.0
160.054306 116.0
160.07193 164.0
160.712189 56.0
160.734894 112.0
160.989868 168.0
161.059494 2548.0
161.121216 48.0
161.171738 156.0
161.315796 36.0
161.424515 220.0
161.877487 288.0
162.061783 504.0
162.090271 220.0
162.128189 160.0
163.055756 376.0
163.077499 288.0
163.179184 164.0
164.071609 172.0
164.141663 236.0
164.297241 172.0
164.547363 172.0
164.685257 144.0
164.784882 160.0
165.069122 548.0
165.260452 228.0
165.977646 76.0
166.083435 112.0
166.120346 144.0
166.341965 136.0
167.08049 148.0
167.12326 156.0
167.290543 136.0
167.857376 132.0
168.052795 284.0
168.088242 96.0
168.179855 84.0
168.882675 228.0
169.062332 460.0
169.101089 452.0
170.068192 188.0
170.329041 64.0
171.044128 148.0
171.07901 448.0
171.367065 108.0
171.617279 132.0
172.069626 248.0
172.107819 256.0
172.136551 116.0
172.774307 160.0
173.038147 196.0
173.058609 556.0
173.097305 128.0
173.468277 64.0
174.021835 216.0
174.058334 536.0
174.097992 168.0
174.125687 176.0
174.521057 212.0
174.981506 136.0
175.053009 204.0
175.074402 328.0
175.128769 152.0
175.983414 212.0
176.069427 164.0
176.496017 100.0
176.519806 76.0
176.83728 120.0
177.735672 144.0
178.072815 240.0
178.269424 100.0
178.567169 92.0
178.657288 160.0
179.084259 480.0
179.643295 232.0
179.931519 48.0
180.08226 228.0
180.118454 64.0
181.063034 328.0
181.106003 260.0
181.290344 180.0
182.053604 180.0
182.093048 512.0
182.154282 176.0
182.26712 72.0
182.807632 80.0
183.079193 1332.0
184.047623 400.0
184.076965 364.0
184.111816 232.0
184.169144 140.0
184.212357 36.0
184.317734 32.0
184.99382 164.0
185.058533 3816.0
185.102188 176.0
185.153641 60.0
185.351395 116.0
185.760788 44.0
185.93988 36.0
185.958878 132.0
186.061523 456.0
186.124481 152.0
187.072739 804.0
187.107788 172.0
187.141403 100.0
187.400162 152.0
187.432861 108.0
187.460114 220.0
187.593658 144.0
188.071579 196.0
188.101059 128.0
188.945496 84.0
189.087814 304.0
189.150742 128.0
189.671188 200.0
190.055145 144.0
190.093552 180.0
190.211578 168.0
190.552109 40.0
190.626297 84.0
190.727982 44.0
191.097382 224.0
191.41304 148.0
191.572784 136.0
191.931076 136.0
192.035873 136.0
192.080002 128.0
192.289703 128.0
192.328354 60.0
192.806168 40.0
192.927795 132.0
193.062485 372.0
193.090927 108.0
194.06041 164.0
195.02623 212.0
195.066803 160.0
195.958481 136.0
196.074615 308.0
196.460312 108.0
197.056396 144.0
197.080505 352.0
197.097321 244.0
197.365234 172.0
197.619766 152.0
197.706512 164.0
197.765289 132.0
198.068146 224.0
198.131439 180.0
198.841263 188.0
198.953842 180.0
199.072952 1396.0
199.749115 48.0
200.07724 512.0
200.106735 1112.0
200.139877 944.0
200.985931 168.0
201.090332 584.0
201.149139 368.0
201.686325 40.0
202.084137 580.0
202.430405 148.0
202.764694 204.0
202.897919 160.0
203.008499 48.0
203.20253 140.0
203.278 188.0
204.135452 376.0
204.332169 76.0
204.679413 68.0
205.086807 168.0
205.389053 132.0
206.417206 172.0
207.076019 252.0
207.806427 108.0
208.101013 524.0
208.199692 48.0
208.400772 72.0
208.688187 108.0
208.975815 208.0
209.059265 356.0
209.093765 316.0
209.125458 124.0
209.482513 140.0
209.577591 32.0
210.059052 168.0
210.091888 444.0
210.451553 140.0
210.572845 100.0
210.925354 104.0
211.073669 1756.0
211.185577 136.0
211.230499 76.0
211.63414 168.0
211.709427 68.0
211.778946 36.0
211.868744 60.0
211.93248 180.0
212.076599 808.0
212.106018 324.0
212.338333 64.0
212.36734 36.0
212.645874 156.0
212.933304 80.0
213.081421 792.0
213.194778 96.0
213.261627 40.0
213.348831 84.0
213.392441 52.0
213.962677 200.0
214.082672 464.0
214.38504 60.0
214.554092 148.0
215.055832 128.0
215.089966 276.0
215.117126 180.0
215.391617 164.0
215.412079 160.0
216.100723 592.0
216.135193 300.0
216.304871 204.0
216.380081 148.0
216.435699 104.0
217.091751 164.0
217.107346 180.0
217.145966 124.0
217.981583 236.0
218.093262 176.0
218.144516 196.0
219.079041 148.0
220.086365 104.0
220.211746 76.0
220.76442 72.0
221.061127 148.0
221.10463 232.0
221.717682 228.0
222.049728 96.0
222.070496 136.0
222.094223 140.0
222.732407 76.0
223.088684 196.0
223.526215 124.0
223.621445 224.0
224.06813 176.0
224.103882 92.0
224.446655 48.0
225.09137 444.0
226.085968 1088.0
226.12233 336.0
226.442932 96.0
226.604706 56.0
226.883423 156.0
227.057343 148.0
227.093185 472.0
227.384369 100.0
227.835373 60.0
227.897873 184.0
227.927917 240.0
228.10144 3496.0
228.384888 92.0
228.488235 180.0
228.78009 60.0
228.965775 132.0
229.090088 764.0
229.279099 68.0
229.453934 40.0
229.580566 52.0
229.96373 44.0
230.009003 136.0
230.089203 296.0
230.116196 884.0
230.208267 52.0
230.455963 48.0
230.528488 188.0
230.600815 56.0
230.876144 128.0
231.093292 168.0
231.699478 136.0
232.072266 148.0
232.239059 204.0
232.484802 120.0
232.515152 128.0
232.60318 56.0
232.791 144.0
233.165085 40.0
234.254395 56.0
235.08371 40.0
235.98175 108.0
236.070435 160.0
236.101471 256.0
236.269241 172.0
236.915207 132.0
237.089249 300.0
237.093369 180.0
237.88121 160.0
238.086929 484.0
238.929153 148.0
239.046066 84.0
239.095154 152.0
239.098938 192.0
240.105835 116.0
240.136673 136.0
241.106628 196.0
241.436905 60.0
242.113556 276.0
242.495743 44.0
243.101822 320.0
243.90181 176.0
244.100693 172.0
244.474091 148.0
245.131165 164.0
245.258942 64.0
246.507339 128.0
246.982559 144.0
250.126694 108.0
250.388031 140.0
251.097153 144.0
251.141312 152.0
251.699905 92.0
252.436188 144.0
253.110199 208.0
253.147064 236.0
253.274887 96.0
253.899277 120.0
254.029327 268.0
254.057877 64.0
254.115814 2248.0
254.1548 80.0
254.200653 92.0
254.333954 96.0
254.381561 168.0
254.406967 64.0
254.489502 52.0
254.53714 44.0
254.56572 44.0
254.660995 48.0
255.113876 424.0
255.722946 52.0
255.745224 140.0
256.086914 304.0
256.126709 124.0
256.132324 148.0
256.305725 160.0
256.74884 184.0
257.110168 252.0
257.454132 108.0
257.888641 68.0
258.105133 340.0
261.165558 164.0
262.647247 184.0
265.153046 128.0
266.155457 156.0
266.207397 220.0
266.499756 56.0
267.131897 144.0
267.159729 100.0
267.195526 244.0
268.131012 660.0
268.17099 144.0
269.132263 116.0
270.110809 164.0
270.259216 152.0
270.478485 160.0
270.599609 76.0
271.04834 60.0
271.118195 916.0
271.72052 180.0
271.802551 100.0
272.074951 72.0
272.126678 2132.0
272.449341 100.0
272.498627 64.0
272.669495 44.0
272.876587 124.0
273.044312 60.0
273.130127 624.0
273.393036 96.0
273.531281 68.0
273.735413 68.0
274.23288 88.0
275.173035 68.0
275.447144 44.0
276.928986 112.0
278.31189 48.0
278.840057 76.0
279.123108 168.0
279.46524 184.0
280.177734 224.0
281.139709 224.0
281.829285 116.0
282.151154 504.0
282.591614 100.0
283.152771 188.0
284.122711 156.0
284.154297 312.0
284.206604 132.0
284.458313 76.0
285.130096 120.0
285.933899 88.0
286.061798 28.0
286.13858 172.0
286.516418 148.0
287.27832 56.0
288.541382 52.0
288.63269 172.0
290.936615 220.0
291.018097 128.0
292.62973 120.0
293.116821 52.0
294.150024 292.0
295.153229 252.0
295.356445 128.0
295.746521 164.0
296.034119 180.0
296.163239 2704.0
296.290985 44.0
296.469177 76.0
297.160034 524.0
297.594299 136.0
298.173096 252.0
298.453308 64.0
298.762848 72.0
299.220581 48.0
300.923767 152.0
301.746063 140.0
306.835846 56.0
307.156677 136.0
308.948761 156.0
311.360352 84.0
311.852203 36.0
312.091278 208.0
312.157867 1092.0
312.203308 176.0
312.298767 68.0
312.425385 56.0
312.516876 100.0
312.562622 100.0
312.671692 144.0
312.770264 52.0
312.840668 40.0
312.868805 64.0
313.159912 144.0
313.210388 104.0
313.513397 52.0
314.17276 172.0
314.970551 104.0
315.956848 152.0
316.491302 96.0
318.182526 192.0
321.939117 36.0
322.179291 780.0
323.166779 188.0
323.189117 272.0
323.215271 136.0
324.157043 180.0
325.297607 96.0
325.355042 68.0
326.156097 64.0
330.476532 88.0
333.53009 152.0
334.592346 88.0
337.631897 116.0
338.169739 88.0
338.532166 144.0
338.620056 156.0
338.90213 72.0
339.437317 108.0
339.887115 172.0
340.077423 116.0
340.130707 88.0
340.18924 12976.0
340.253906 180.0
340.29483 188.0
340.431763 104.0
340.508911 64.0
340.565125 196.0
340.622772 32.0
340.777069 72.0
340.894653 36.0
341.052673 208.0
341.191437 2492.0
341.339447 144.0
341.611603 76.0
341.696228 44.0
342.19574 688.0
342.281464 76.0
342.671906 52.0
343.106781 136.0
343.210022 136.0
343.372284 80.0
343.501373 40.0
343.56778 148.0
343.888824 60.0
343.933105 48.0
345.677551 76.0
345.881104 36.0
346.218018 64.0
347.871704 80.0
351.194641 64.0
351.79541 176.0
353.62326 32.0
356.131622 100.0
358.199219 972.0
359.206207 160.0
360.207489 124.0
369.892731 48.0
375.525757 48.0
386.035217 52.0
391.828766 52.0
393.9552 76.0
409.992096 152.0
416.209717 128.0
424.001465 80.0
448.728821 128.0
450.721039 96.0
462.84848 72.0
501.265686 108.0
504.193176 124.0
522.114502 84.0
532.062134 80.0
532.268738 76.0
539.516296 100.0
557.734436 48.0
564.760071 48.0
566.786316 104.0
647.955566 104.0
680.381104 48.0
683.130249 72.0
713.135864 80.0
865.689758 168.0
870.780273 96.0
894.366394 140.0
927.991638 56.0
934.995667 104.0
976.266174 112.0
981.889893 188.0
1010.680908 120.0
1014.791687 56.0
1095.172363 108.0
1191.854736 52.0
1194.611694 48.0
1195.341064 84.0
1201.811401 152.0
1244.445068 116.0
1246.299438 176.0
1270.233032 180.0
1270.743896 208.0
1293.563843 244.0
1305.100342 256.0
1326.91272 148.0
1332.130737 44.0
1342.218262 148.0
1351.370605 256.0
1365.344849 32.0
1372.864014 124.0
1380.633179 172.0
1418.712769 192.0
1439.184814 252.0
1465.177368 48.0
1482.576294 232.0
1482.660522 160.0
1498.813843 152.0
1500.640625 140.0
