>compound MLS001165720-01!doxazosin
>formula C23H25N5O5
>ionization [M+H]+
>parentmass 452.194794
#inchi InChI=1S/C23H25N5O5/c1-30-18-11-14-15(12-19(18)31-2)25-23(26-21(14)24)28-9-7-27(8-10-28)22(29)20-13-32-16-5-3-4-6-17(16)33-20/h3-6,11-12,20H,7-10,13H2,1-2H3,(H2,24,25,26)/t20-/m1/s1
#inchikey RUZYUOTYCVRMRZ
#Ion_Source LC-ESI
#Instrument qTof
#Compound_Source NIH Pharmacologically Active Library
#PI Dorrestein
#Data_Collector VP/LMS
#Scan -1
#Precursor_MZ 452.191
#ExactMass 451.186
#Charge 1
#CAS_Number N/A
#Pubmed_ID N/A
#Smiles COc1cc2nc(nc(N)c2cc1OC)N3CCN(CC3)C(=O)[C@H]4COc5ccccc5O4
#INCHI_AUX N/A
#Library_Class 1
#SpectrumID CCMSLIB00000085981
#IonMode Positive
#UpdateWorkflowName UPDATE-SINGLE-ANNOTATED-GOLD
#LibraryQualityString Gold
#TaskID d252d724072548979f1f6f1ced849daf
##Scan# 1629
#SpectrumFile p4-H11_GH11_01_18419.mzXML
#LibraryName Pharm_Active_Library.mgf
#MQScore -1
#Organism Pharm_Active_Library
#TIC_Query 0
#RT_Query -1
#MZErrorPPM -1
#SharedPeaks 0
#MassDiff 0
#LibMZ -1
#SpecMZ 452.191
#SpecCharge 0
#internalFilename spec-00000.mgf

>collision 10
44.91412 144.0
44.932018 116.0
44.945869 168.0
44.973766 184.0
44.992367 148.0
45.024124 160.0
45.037094 124.0
45.040394 88.0
45.044655 140.0
45.097607 184.0
45.106964 108.0
45.123009 152.0
45.161648 128.0
45.180515 124.0
45.19791 328.0
45.226013 120.0
45.254128 148.0
45.276447 132.0
45.310379 84.0
45.349243 88.0
45.385437 96.0
45.408234 148.0
45.430714 116.0
45.444454 84.0
45.457874 116.0
45.485851 104.0
45.498825 244.0
45.526157 148.0
45.542454 180.0
45.566757 132.0
45.577908 192.0
45.592167 192.0
45.615017 196.0
45.62394 188.0
45.70647 56.0
45.723965 100.0
45.753582 128.0
45.770203 116.0
45.786598 208.0
45.800091 172.0
45.809422 224.0
45.82909 124.0
45.84248 104.0
45.851913 132.0
45.867172 100.0
45.902802 380.0
45.920673 92.0
45.950352 128.0
45.97599 164.0
45.986786 148.0
46.028637 104.0
46.051598 144.0
46.077263 152.0
46.100597 104.0
46.115101 128.0
46.128616 124.0
46.14484 156.0
46.165123 84.0
46.23457 144.0
46.259834 104.0
46.286915 172.0
46.309937 132.0
46.357708 184.0
46.371803 148.0
46.388531 92.0
46.422424 180.0
46.433235 272.0
46.444195 136.0
46.498699 196.0
46.51619 188.0
46.537766 72.0
46.56144 148.0
46.582584 120.0
46.598698 260.0
46.610889 96.0
46.65189 44.0
46.664845 148.0
46.691322 76.0
46.700844 64.0
46.744377 60.0
46.763653 124.0
46.834232 144.0
46.863781 296.0
46.890099 160.0
46.907818 104.0
46.935085 44.0
46.967815 128.0
46.978729 120.0
47.01284 220.0
47.023758 208.0
47.040138 160.0
47.05925 168.0
47.082191 120.0
47.104591 120.0
47.128239 152.0
47.138901 320.0
47.165615 84.0
47.170822 72.0
47.18042 192.0
47.197903 84.0
47.22871 72.0
47.253334 136.0
47.28344 100.0
47.30397 116.0
47.319031 76.0
47.340012 128.0
47.374222 212.0
47.391621 152.0
47.405647 68.0
47.428623 160.0
47.441647 200.0
47.446171 100.0
47.449795 180.0
47.460155 196.0
47.477982 112.0
47.493069 80.0
47.517761 80.0
47.533772 120.0
47.579525 212.0
47.594627 144.0
47.607342 216.0
47.663837 124.0
47.689106 176.0
47.705914 172.0
47.721039 100.0
47.745789 108.0
47.788918 68.0
47.803246 188.0
47.826477 236.0
47.846237 212.0
47.875156 168.0
47.887218 100.0
47.890957 76.0
47.896664 136.0
47.919762 136.0
47.934391 168.0
47.968441 176.0
47.979877 84.0
47.997799 52.0
48.027157 168.0
48.063671 156.0
48.093998 144.0
48.139271 108.0
48.149601 68.0
48.200714 100.0
48.221447 152.0
48.24218 148.0
48.269833 144.0
48.281437 224.0
48.289562 120.0
48.301643 152.0
48.329311 68.0
48.348686 112.0
48.384373 184.0
48.402157 192.0
48.463623 152.0
48.477478 52.0
48.49411 36.0
48.509357 172.0
48.54216 152.0
48.566086 44.0
48.60228 120.0
48.636974 64.0
48.673073 204.0
48.721684 184.0
48.762726 112.0
48.773102 128.0
48.787003 192.0
48.837063 108.0
48.849583 176.0
48.885757 36.0
48.909664 160.0
48.934479 88.0
48.948402 116.0
48.960934 140.0
48.976254 92.0
48.992973 144.0
49.046997 208.0
49.057774 184.0
49.132298 128.0
49.164257 152.0
49.180511 164.0
49.218922 148.0
49.241264 224.0
49.260818 120.0
49.271381 132.0
49.283875 144.0
49.337074 156.0
49.36145 80.0
49.411564 348.0
49.442589 140.0
49.478985 68.0
49.518192 156.0
49.537849 128.0
49.599705 116.0
49.616646 108.0
49.6278 188.0
49.666615 256.0
49.703842 188.0
49.709419 80.0
49.715363 220.0
49.735523 140.0
49.781857 60.0
49.811008 132.0
49.827347 172.0
49.873177 44.0
49.908325 104.0
49.951496 176.0
49.964584 104.0
49.975838 188.0
49.993633 124.0
50.008846 116.0
50.069489 184.0
50.092693 84.0
50.115234 100.0
50.131538 96.0
50.145874 140.0
50.230839 128.0
50.269024 124.0
50.283047 148.0
50.292927 88.0
50.307041 160.0
50.324688 168.0
50.329838 200.0
50.345165 164.0
50.359287 204.0
50.36898 172.0
50.421455 236.0
50.431347 68.0
50.461956 160.0
50.51902 108.0
50.530338 104.0
50.55864 128.0
50.588364 76.0
50.620785 160.0
50.663868 152.0
50.686749 112.0
50.723675 108.0
50.731842 236.0
50.798096 232.0
50.809444 172.0
50.843498 92.0
50.862812 132.0
50.877567 48.0
50.888924 96.0
50.917324 152.0
50.947155 96.0
50.958519 208.0
50.976994 268.0
50.994637 116.0
51.000561 48.0
51.006367 144.0
51.023647 360.0
51.048073 228.0
51.067883 116.0
51.109238 204.0
51.151936 132.0
51.1619 148.0
51.195885 216.0
51.254478 112.0
51.282135 176.0
51.317196 112.0
51.360504 108.0
51.364513 200.0
51.382801 136.0
51.404205 176.0
51.432304 192.0
51.459305 312.0
51.487007 100.0
51.527794 296.0
51.542786 88.0
51.559868 32.0
51.569874 64.0
51.629982 96.0
51.654507 148.0
51.66568 72.0
51.727215 168.0
51.751186 280.0
51.797382 36.0
51.828903 176.0
51.851208 172.0
51.916348 64.0
51.931324 160.0
51.965118 40.0
51.998123 96.0
52.008167 124.0
52.04406 140.0
52.114441 128.0
52.175884 160.0
52.217945 216.0
52.228012 96.0
52.246456 212.0
52.304276 124.0
52.335636 148.0
52.360428 152.0
52.370472 144.0
52.389648 112.0
52.413036 56.0
52.429379 168.0
52.44696 144.0
52.520969 148.0
52.563435 132.0
52.606998 88.0
52.630096 120.0
52.660423 140.0
52.67487 156.0
52.689316 164.0
52.712433 108.0
52.737106 56.0
52.768806 128.0
52.780373 172.0
52.792263 324.0
52.842567 28.0
52.859718 188.0
52.881599 140.0
52.914192 152.0
52.933079 172.0
52.957542 88.0
52.985905 72.0
53.068909 116.0
53.096352 164.0
53.177319 160.0
53.203472 112.0
53.247009 156.0
53.273945 176.0
53.292923 112.0
53.308025 212.0
53.333332 108.0
53.394726 88.0
53.415615 124.0
53.434944 140.0
53.450535 120.0
53.486031 144.0
53.524349 124.0
53.562695 208.0
53.59375 168.0
53.648506 160.0
53.674862 76.0
53.685066 76.0
53.755089 136.0
53.778442 112.0
53.828079 136.0
53.839306 128.0
53.857288 48.0
53.884609 188.0
53.897148 184.0
53.916496 128.0
53.933914 200.0
53.962154 116.0
53.980682 84.0
54.013695 96.0
54.02832 168.0
54.046932 100.0
54.05349 100.0
54.060024 120.0
54.062462 180.0
54.082466 76.0
54.119961 144.0
54.124123 88.0
54.187557 192.0
54.202557 184.0
54.255322 88.0
54.272915 52.0
54.298161 112.0
54.337452 120.0
54.34919 40.0
54.359463 104.0
54.386147 176.0
54.413773 124.0
54.431393 184.0
54.45195 128.0
54.469578 184.0
54.490143 28.0
54.500431 112.0
54.521004 232.0
54.531292 148.0
54.543049 112.0
54.56216 116.0
54.577488 160.0
54.58918 172.0
54.605537 76.0
54.62981 112.0
54.640106 196.0
54.656292 120.0
54.68198 132.0
54.744194 140.0
54.759342 176.0
54.790279 148.0
54.827114 132.0
54.837433 132.0
54.850391 172.0
54.860466 148.0
54.890686 164.0
54.905254 244.0
54.917561 212.0
54.937267 136.0
54.953064 136.0
54.96743 136.0
54.984921 188.0
55.064648 112.0
55.10453 124.0
55.125217 116.0
55.153301 120.0
55.167412 188.0
55.184345 124.0
55.197651 144.0
55.216877 112.0
55.236721 164.0
55.294193 156.0
55.310093 180.0
55.321938 80.0
55.342663 72.0
55.358952 176.0
55.371265 204.0
55.380489 140.0
55.398945 44.0
55.412277 164.0
55.474522 124.0
55.544216 52.0
55.576855 116.0
55.625263 116.0
55.637505 144.0
55.659718 136.0
55.679901 164.0
55.694973 192.0
55.714527 160.0
55.727161 192.0
55.74614 124.0
55.759514 188.0
55.775658 148.0
55.820465 136.0
55.868198 132.0
55.899307 56.0
55.911213 132.0
55.932049 164.0
55.952778 156.0
55.976715 180.0
56.005547 212.0
56.01693 64.0
56.03429 336.0
56.046421 176.0
56.082424 240.0
56.10038 100.0
56.14064 156.0
56.175114 140.0
56.203293 180.0
56.222691 168.0
56.252026 196.0
56.283897 120.0
56.306297 124.0
56.323189 168.0
56.337975 116.0
56.34803 128.0
56.372028 64.0
56.389965 36.0
56.407074 152.0
56.427013 148.0
56.445278 144.0
56.468178 220.0
56.493603 168.0
56.518574 60.0
56.593414 104.0
56.605392 128.0
56.620369 200.0
56.668304 172.0
56.694679 180.0
56.705769 164.0
56.729752 264.0
56.744236 212.0
56.75824 104.0
56.783733 116.0
56.855747 80.0
56.88773 232.0
56.899277 128.0
56.939819 172.0
56.964756 140.0
57.037487 76.0
57.051014 60.0
57.080154 84.0
57.09137 148.0
57.111877 160.0
57.142193 192.0
57.158321 116.0
57.176899 116.0
57.183357 196.0
57.20145 128.0
57.230053 168.0
57.252228 116.0
57.290943 276.0
57.318062 144.0
57.357864 148.0
57.379379 148.0
57.394569 152.0
57.415672 204.0
57.42907 136.0
57.442554 120.0
57.486309 144.0
57.505829 120.0
57.537628 92.0
57.553646 204.0
57.587463 148.0
57.603909 144.0
57.673588 72.0
57.691727 76.0
57.709869 148.0
57.735577 176.0
57.767342 88.0
57.818787 116.0
57.834995 284.0
57.858883 204.0
57.879337 152.0
57.891453 68.0
57.902054 88.0
57.93811 204.0
57.971745 124.0
57.990082 120.0
58.005089 112.0
58.054379 180.0
58.070843 164.0
58.091522 72.0
58.102142 136.0
58.116005 204.0
58.154716 248.0
58.168774 128.0
58.171288 120.0
58.189663 168.0
58.210819 120.0
58.23233 132.0
58.25848 188.0
58.308659 128.0
58.322338 148.0
58.35487 180.0
58.41053 132.0
58.425743 76.0
58.451607 148.0
58.479893 116.0
58.482857 180.0
58.490883 144.0
58.507221 320.0
58.539963 96.0
58.556652 192.0
58.575325 108.0
58.60083 108.0
58.638927 60.0
58.670937 144.0
58.724804 160.0
58.751766 216.0
58.785336 92.0
58.818913 184.0
58.835705 72.0
58.847919 156.0
58.861057 132.0
58.881512 220.0
58.904854 100.0
58.919388 136.0
58.938587 128.0
58.960957 192.0
58.973186 104.0
58.991055 112.0
59.009872 192.0
59.054222 116.0
59.069519 136.0
59.103176 196.0
59.130722 108.0
59.142628 144.0
59.155212 84.0
59.172054 116.0
59.184303 104.0
59.198082 100.0
59.211868 96.0
59.250309 156.0
59.291534 148.0
59.316292 288.0
59.345188 56.0
59.369667 116.0
59.40807 264.0
59.426479 132.0
59.452564 132.0
59.486332 144.0
59.512432 96.0
59.538536 96.0
59.615349 44.0
59.643017 56.0
59.653774 144.0
59.727589 84.0
59.750111 156.0
59.762604 184.0
59.790756 72.0
59.816837 124.0
59.836166 316.0
59.869186 136.0
59.916935 100.0
59.947754 120.0
59.961624 144.0
59.973953 112.0
60.006329 80.0
60.023163 148.0
60.055676 140.0
60.08955 100.0
60.109673 172.0
60.132687 92.0
60.144493 128.0
60.171413 64.0
60.214977 76.0
60.233185 188.0
60.30117 336.0
60.315083 116.0
60.37693 160.0
60.410957 136.0
60.429523 68.0
60.455032 148.0
60.466663 120.0
60.49762 108.0
60.514648 128.0
60.534473 244.0
60.564465 192.0
60.611488 316.0
60.63393 72.0
60.675056 164.0
60.700588 172.0
60.713242 152.0
60.743343 140.0
60.775047 40.0
60.829365 96.0
60.851852 140.0
60.879051 92.0
60.906445 144.0
60.931152 184.0
60.970711 144.0
60.987808 88.0
61.004906 192.0
61.020451 120.0
61.04895 180.0
61.076435 100.0
61.095104 124.0
61.152679 32.0
61.174473 136.0
61.186211 252.0
61.205608 100.0
61.224998 80.0
61.286606 76.0
61.300255 252.0
61.340237 204.0
61.3661 152.0
61.41177 180.0
61.486992 128.0
61.513615 140.0
61.533043 104.0
61.554901 188.0
61.596436 196.0
61.618942 236.0
61.64238 100.0
61.681454 140.0
61.709595 108.0
61.720539 32.0
61.740868 244.0
61.784218 140.0
61.805008 128.0
61.855087 64.0
61.867611 136.0
61.887966 96.0
61.908321 304.0
61.975681 116.0
62.007824 156.0
62.021683 124.0
62.060322 172.0
62.071667 152.0
62.083057 192.0
62.135605 100.0
62.174835 220.0
62.212505 144.0
62.237762 184.0
62.250896 156.0
62.261181 168.0
62.299595 316.0
62.317734 116.0
62.356056 124.0
62.382168 168.0
62.397888 140.0
62.410469 112.0
62.434055 168.0
62.448212 28.0
62.465515 32.0
62.487537 36.0
62.54734 156.0
62.559429 112.0
62.585125 188.0
62.643673 160.0
62.66703 172.0
62.722385 96.0
62.748989 120.0
62.769485 116.0
62.798141 140.0
62.805706 120.0
62.834774 124.0
62.857822 72.0
62.88623 160.0
62.902016 108.0
62.920959 44.0
62.942131 176.0
62.987286 80.0
63.051224 120.0
63.078938 156.0
63.120045 180.0
63.142185 76.0
63.169071 164.0
63.190037 128.0
63.230782 132.0
63.248192 140.0
63.269268 272.0
63.287773 140.0
63.309544 112.0
63.35014 184.0
63.363796 168.0
63.384396 88.0
63.435112 84.0
63.482677 88.0
63.495365 164.0
63.539326 112.0
63.557236 252.0
63.594311 132.0
63.647411 148.0
63.664337 272.0
63.684238 148.0
63.696709 108.0
63.728718 48.0
63.743114 68.0
63.820908 196.0
63.850349 148.0
63.867641 184.0
63.879753 72.0
63.905781 220.0
63.927246 132.0
63.953983 160.0
63.958633 168.0
64.005981 376.0
64.032562 148.0
64.083534 84.0
64.101067 136.0
64.134232 168.0
64.166351 196.0
64.183952 48.0
64.21904 116.0
64.232597 120.0
64.294029 148.0
64.327362 104.0
64.383705 92.0
64.390236 136.0
64.442535 72.0
64.471298 108.0
64.490471 80.0
64.511253 272.0
64.531158 124.0
64.543228 172.0
64.607895 176.0
64.629745 92.0
64.656815 180.0
64.675011 184.0
64.708038 184.0
64.72084 100.0
64.772095 208.0
64.800583 168.0
64.832977 168.0
64.851212 148.0
64.872871 144.0
64.878761 128.0
64.897095 100.0
64.972176 84.0
64.985313 148.0
65.002968 180.0
65.027222 104.0
65.051117 184.0
65.062355 92.0
65.084831 120.0
65.123474 124.0
65.160553 132.0
65.185226 136.0
65.208527 144.0
65.229279 172.0
65.248718 152.0
65.343246 160.0
65.359695 48.0
65.370964 164.0
65.3899 156.0
65.396553 120.0
65.445587 100.0
65.464333 140.0
65.511604 148.0
65.530373 180.0
65.546486 176.0
65.569046 60.0
65.58033 152.0
65.59967 52.0
65.612572 128.0
65.644279 120.0
65.675545 152.0
65.706108 108.0
65.729881 120.0
65.746719 168.0
65.773453 132.0
65.826057 192.0
65.857368 40.0
65.870773 156.0
65.912834 284.0
65.941872 72.0
65.954666 184.0
65.983177 172.0
66.008156 180.0
66.048592 152.0
66.070648 188.0
66.095505 64.0
66.110069 204.0
66.127617 176.0
66.15863 292.0
66.200089 132.0
66.215302 104.0
66.227562 224.0
66.280067 184.0
66.296303 120.0
66.369682 120.0
66.38871 48.0
66.424057 172.0
66.442238 72.0
66.478951 300.0
66.510399 100.0
66.573174 424.0
66.607826 144.0
66.623505 204.0
66.635445 172.0
66.663063 112.0
66.680283 128.0
66.702072 100.0
66.747086 192.0
66.767921 120.0
66.80024 124.0
66.828926 128.0
66.856857 120.0
66.871605 212.0
66.89402 156.0
66.933372 168.0
66.971764 108.0
66.999878 136.0
67.019432 160.0
67.034927 304.0
67.049629 64.0
67.071579 192.0
67.118858 208.0
67.143616 176.0
67.166153 156.0
67.183189 96.0
67.208572 128.0
67.239578 240.0
67.289482 268.0
67.302299 188.0
67.305374 144.0
67.334846 148.0
67.349106 148.0
67.370827 176.0
67.424126 120.0
67.467857 176.0
67.484612 172.0
67.533127 144.0
67.559845 132.0
67.631844 48.0
67.64399 124.0
67.675911 120.0
67.713135 148.0
67.760986 172.0
67.765678 116.0
67.772011 280.0
67.793991 168.0
67.815292 76.0
67.851357 196.0
67.880547 220.0
67.884895 176.0
67.891609 124.0
67.952171 256.0
67.98465 168.0
68.013763 120.0
68.025253 136.0
68.094223 140.0
68.113701 144.0
68.180656 320.0
68.201019 116.0
68.25856 244.0
68.271713 44.0
68.283226 124.0
68.310181 124.0
68.333733 160.0
68.363846 152.0
68.391014 112.0
68.404991 228.0
68.418159 148.0
68.438652 72.0
68.453209 140.0
68.467072 136.0
68.484032 268.0
68.510384 64.0
68.535095 140.0
68.560699 180.0
68.574646 124.0
68.62056 160.0
68.652138 192.0
68.663681 152.0
68.709869 144.0
68.744522 124.0
68.803055 260.0
68.826019 176.0
68.866692 96.0
68.879906 168.0
68.906334 100.0
68.923683 320.0
68.943161 140.0
68.965828 168.0
68.982925 164.0
68.996185 164.0
69.079597 148.0
69.086311 144.0
69.108047 40.0
69.165977 44.0
69.187492 204.0
69.2173 140.0
69.266983 164.0
69.307312 128.0
69.313797 172.0
69.336571 136.0
69.365234 164.0
69.384644 176.0
69.431076 156.0
69.459267 60.0
69.473022 144.0
69.510704 160.0
69.522316 80.0
69.557175 84.0
69.569801 160.0
69.612473 196.0
69.660133 104.0
69.679276 152.0
69.70665 140.0
69.76815 120.0
69.798538 172.0
69.877129 144.0
69.912857 80.0
69.929688 236.0
69.962151 144.0
70.003967 148.0
70.021599 152.0
70.057022 276.0
70.081673 160.0
70.09771 196.0
70.111038 80.0
70.135086 216.0
70.162712 136.0
70.179382 108.0
70.244431 172.0
70.261147 368.0
70.29615 188.0
70.33287 108.0
70.352898 132.0
70.371262 100.0
70.388367 116.0
70.428894 204.0
70.486519 120.0
70.511581 368.0
70.544205 124.0
70.578453 108.0
70.630295 152.0
70.659851 340.0
70.678818 168.0
70.698898 92.0
70.713959 80.0
70.737396 72.0
70.757484 156.0
70.779747 80.0
70.800011 160.0
70.814415 176.0
70.86132 124.0
70.873047 152.0
70.898376 108.0
70.921387 176.0
70.974388 140.0
71.042389 168.0
71.06501 140.0
71.088852 52.0
71.117943 512.0
71.131325 180.0
71.146439 220.0
71.16658 32.0
71.181694 280.0
71.197441 308.0
71.215286 348.0
71.240479 152.0
71.300972 132.0
71.329491 132.0
71.346321 220.0
71.37072 240.0
71.411377 228.0
71.428757 136.0
71.440529 140.0
71.452309 376.0
71.492691 164.0
71.519455 80.0
71.538376 84.0
71.566757 36.0
71.633354 148.0
71.672874 140.0
71.692337 252.0
71.738152 164.0
71.78244 72.0
71.795937 124.0
71.826294 148.0
71.849915 96.0
71.870155 124.0
71.89547 176.0
71.915886 140.0
71.946106 104.0
71.966736 328.0
71.989227 148.0
72.008812 148.0
72.037811 172.0
72.061493 164.0
72.07785 132.0
72.104889 188.0
72.160675 140.0
72.175888 148.0
72.197876 168.0
72.209511 100.0
72.253113 140.0
72.260315 92.0
72.263641 132.0
72.290916 72.0
72.328064 156.0
72.367088 312.0
72.434837 172.0
72.446693 128.0
72.502777 80.0
72.530922 164.0
72.639221 140.0
72.665398 124.0
72.684059 28.0
72.715614 112.0
72.738884 144.0
72.751282 112.0
72.818176 76.0
72.880821 164.0
72.910408 152.0
72.92691 112.0
72.949013 76.0
72.968559 72.0
72.983017 160.0
73.036766 236.0
73.051849 272.0
73.117401 136.0
73.152435 264.0
73.191101 388.0
73.335411 64.0
73.358749 156.0
73.386551 184.0
73.429359 160.0
73.472137 156.0
73.521317 60.0
73.551567 184.0
73.560219 96.0
73.562988 164.0
73.590393 204.0
73.606667 156.0
73.626007 124.0
73.65107 72.0
73.666451 128.0
73.708626 132.0
73.738213 60.0
73.760429 84.0
73.774109 56.0
73.787788 184.0
73.802872 184.0
73.832756 144.0
73.846703 140.0
73.875412 68.0
73.895538 104.0
73.931473 36.0
73.952866 160.0
73.975586 176.0
73.979965 108.0
74.00679 112.0
74.039276 148.0
74.053452 160.0
74.066437 256.0
74.087929 96.0
74.123268 160.0
74.143829 264.0
74.181541 184.0
74.219261 88.0
74.248413 72.0
74.315117 208.0
74.318993 192.0
74.38224 88.0
74.394257 128.0
74.418297 208.0
74.435471 72.0
74.51104 172.0
74.53933 172.0
74.556213 152.0
74.594444 140.0
74.609848 92.0
74.632072 124.0
74.647949 148.0
74.686386 108.0
74.709137 124.0
74.724236 128.0
74.743164 96.0
74.772415 120.0
74.823334 228.0
74.852715 224.0
74.872269 148.0
74.902771 192.0
74.921364 120.0
74.95668 108.0
74.974876 176.0
74.997154 116.0
75.015282 212.0
75.058388 140.0
75.082527 144.0
75.109337 244.0
75.136002 152.0
75.160515 156.0
75.17569 56.0
75.199852 204.0
75.216377 152.0
75.239555 56.0
75.262001 148.0
75.287903 156.0
75.319221 148.0
75.351814 96.0
75.382912 80.0
75.401924 208.0
75.468269 192.0
75.484909 88.0
75.500473 116.0
75.517769 280.0
75.533333 152.0
75.600807 128.0
75.630234 124.0
75.674713 92.0
75.693954 164.0
75.711662 132.0
75.746956 88.0
75.763344 184.0
75.804192 144.0
75.855423 272.0
75.870842 76.0
75.890091 96.0
75.918869 168.0
75.950447 220.0
76.00489 108.0
76.023659 100.0
76.041771 120.0
76.052643 172.0
76.08609 112.0
76.100037 200.0
76.133034 160.0
76.16082 124.0
76.188408 120.0
76.232811 184.0
76.275032 104.0
76.31897 120.0
76.332878 84.0
76.367599 220.0
76.383316 156.0
76.40419 36.0
76.417007 240.0
76.438988 144.0
76.463356 144.0
76.498169 84.0
76.523285 112.0
76.548866 168.0
76.565224 164.0
76.61026 152.0
76.618713 180.0
76.637497 148.0
76.657913 184.0
76.682014 168.0
76.71418 172.0
76.738586 128.0
76.768959 124.0
76.796501 144.0
76.815323 144.0
76.851959 132.0
76.880135 164.0
76.924072 128.0
77.00209 204.0
77.025963 356.0
77.052658 152.0
77.102043 132.0
77.176842 44.0
77.198654 76.0
77.238289 120.0
77.257294 72.0
77.318535 176.0
77.342545 204.0
77.362297 136.0
77.386452 392.0
77.401802 224.0
77.414825 132.0
77.43409 176.0
77.462784 104.0
77.485535 152.0
77.498901 92.0
77.535706 160.0
77.586006 92.0
77.604774 192.0
77.631805 184.0
77.686501 80.0
77.702065 156.0
77.730103 160.0
77.758865 132.0
77.797058 180.0
77.830421 140.0
77.852509 204.0
77.880997 140.0
77.944519 96.0
77.989426 204.0
78.009621 168.0
78.030159 172.0
78.042946 136.0
78.06089 204.0
78.076439 240.0
78.138008 160.0
78.17144 168.0
78.194351 180.0
78.222481 236.0
78.23941 136.0
78.250771 228.0
78.313705 148.0
78.342224 72.0
78.356003 312.0
78.41095 124.0
78.451973 232.0
78.472641 128.0
78.500854 136.0
78.531281 64.0
78.545547 164.0
78.576706 120.0
78.611992 164.0
78.645523 152.0
78.669144 112.0
78.689659 76.0
78.721443 108.0
78.733803 132.0
78.774429 76.0
78.822136 64.0
78.841362 132.0
78.861015 132.0
78.88166 120.0
78.89637 180.0
78.912834 140.0
78.942337 56.0
78.99192 120.0
79.006012 276.0
79.020172 100.0
79.085648 228.0
79.103348 236.0
79.138435 200.0
79.163544 144.0
79.206779 160.0
79.220222 64.0
79.237671 184.0
79.260971 100.0
79.280235 184.0
79.284546 160.0
79.326553 176.0
79.353142 160.0
79.408775 108.0
79.431175 116.0
79.450691 156.0
79.472862 72.0
79.51989 108.0
79.535866 156.0
79.569595 116.0
79.583801 76.0
79.619316 204.0
79.647087 88.0
79.704773 116.0
79.734795 136.0
79.762627 328.0
79.785851 144.0
79.816574 200.0
79.846802 92.0
79.877037 136.0
79.905502 172.0
79.928825 76.0
79.948212 112.0
79.996269 96.0
80.022972 104.0
80.063927 136.0
80.092506 92.0
80.114601 176.0
80.144089 132.0
80.163689 280.0
80.199905 176.0
80.229637 152.0
80.27243 232.0
80.322372 164.0
80.343781 124.0
80.363403 136.0
80.388382 148.0
80.431221 108.0
80.455559 132.0
80.475716 208.0
80.542572 144.0
80.547836 52.0
80.553848 160.0
80.571426 164.0
80.643776 104.0
80.665222 84.0
80.683105 148.0
80.697075 172.0
80.729591 88.0
80.752838 124.0
80.775162 144.0
80.787697 168.0
80.80114 156.0
80.847664 100.0
80.87809 124.0
80.921349 196.0
80.957214 184.0
81.012093 144.0
81.033836 136.0
81.152924 156.0
81.170113 48.0
81.201309 132.0
81.232887 36.0
81.258003 236.0
81.306458 216.0
81.353127 148.0
81.376465 40.0
81.45369 44.0
81.477043 144.0
81.512978 148.0
81.539932 144.0
81.581276 152.0
81.602852 60.0
81.644585 172.0
81.658592 136.0
81.709778 132.0
81.74855 196.0
81.771553 164.0
81.800858 196.0
81.865562 304.0
81.886063 220.0
81.950226 64.0
82.000679 68.0
82.013298 132.0
82.032486 192.0
82.061974 140.0
82.096237 160.0
82.126892 156.0
82.16478 68.0
82.199059 108.0
82.226006 116.0
82.265839 48.0
82.28389 136.0
82.316391 108.0
82.330147 240.0
82.354652 152.0
82.375595 232.0
82.392921 152.0
82.44104 116.0
82.464539 192.0
82.524193 160.0
82.546822 148.0
82.59198 144.0
82.614624 208.0
82.694077 176.0
82.72863 156.0
82.753975 48.0
82.781754 248.0
82.795624 192.0
82.822502 148.0
82.825127 208.0
82.866272 140.0
82.89444 184.0
82.947823 36.0
82.967529 184.0
82.984718 212.0
83.017677 168.0
83.040298 68.0
83.052994 72.0
83.09713 208.0
83.121132 208.0
83.146545 172.0
83.169121 160.0
83.194542 176.0
83.223587 192.0
83.236298 120.0
83.278786 140.0
83.296234 100.0
83.325905 140.0
83.345284 112.0
83.368355 144.0
83.397987 152.0
83.424347 192.0
83.439995 84.0
83.500076 160.0
83.54528 100.0
83.587128 68.0
83.616249 100.0
83.645905 204.0
83.667213 136.0
83.714111 132.0
83.743736 180.0
83.775116 116.0
83.80381 132.0
83.824966 180.0
83.841187 196.0
83.880356 156.0
83.910439 208.0
83.944168 148.0
83.999519 240.0
84.020775 140.0
84.086464 216.0
84.105591 232.0
84.156746 264.0
84.191696 176.0
84.199402 112.0
84.20256 272.0
84.229912 128.0
84.294655 124.0
84.329384 124.0
84.351318 152.0
84.403656 172.0
84.41748 212.0
84.495789 116.0
84.526894 112.0
84.559837 196.0
84.575966 148.0
84.601288 196.0
84.680672 124.0
84.731964 68.0
84.759453 88.0
84.777779 200.0
84.792435 144.0
84.819931 168.0
84.851097 80.0
84.867599 260.0
84.881279 148.0
84.92984 196.0
84.936806 184.0
84.968063 216.0
84.997421 144.0
85.02903 132.0
85.054726 108.0
85.091042 92.0
85.106041 132.0
85.132149 188.0
85.153259 216.0
85.194695 144.0
85.223579 208.0
85.245705 256.0
85.259056 144.0
85.2733 80.0
85.310066 152.0
85.322929 92.0
85.346832 116.0
85.377693 172.0
85.409363 168.0
85.447533 64.0
85.482956 148.0
85.495834 28.0
85.528969 172.0
85.589722 192.0
85.604454 64.0
85.635757 124.0
85.656021 148.0
85.680199 208.0
85.725266 124.0
85.737465 156.0
85.757034 156.0
85.782227 188.0
85.812668 148.0
85.842171 136.0
85.859123 124.0
85.883339 124.0
85.978813 176.0
85.993454 192.0
86.022858 172.0
86.054375 84.0
86.104607 176.0
86.126396 152.0
86.180656 160.0
86.222473 140.0
86.241959 140.0
86.325073 72.0
86.338943 156.0
86.368538 100.0
86.407639 176.0
86.44809 336.0
86.512871 160.0
86.565475 156.0
86.590027 108.0
86.596725 212.0
86.612267 220.0
86.683273 96.0
86.714783 316.0
86.769135 148.0
86.793839 136.0
86.826614 100.0
86.832153 104.0
86.839394 132.0
86.87796 196.0
86.913208 212.0
86.967995 144.0
86.98188 248.0
87.004234 188.0
87.02829 160.0
87.063469 140.0
87.095253 140.0
87.145309 80.0
87.163887 120.0
87.269836 112.0
87.305168 132.0
87.337074 180.0
87.35321 152.0
87.398178 80.0
87.447708 104.0
87.460625 144.0
87.49205 172.0
87.504951 120.0
87.511887 44.0
87.517662 68.0
87.589104 152.0
87.614151 224.0
87.662598 100.0
87.67675 196.0
87.722244 116.0
87.755798 64.0
87.781967 116.0
87.806381 64.0
87.816231 108.0
87.823555 108.0
87.840965 84.0
87.844765 216.0
87.866882 100.0
87.89196 84.0
87.919952 172.0
87.969193 116.0
88.002953 112.0
88.041412 132.0
88.061844 156.0
88.084457 200.0
88.120834 132.0
88.157127 168.0
88.17363 212.0
88.218811 184.0
88.239296 100.0
88.251572 136.0
88.306206 92.0
88.343842 144.0
88.372169 112.0
88.415985 144.0
88.441406 76.0
88.460129 120.0
88.474251 228.0
88.510681 120.0
88.524948 252.0
88.551422 292.0
88.579979 136.0
88.622505 208.0
88.651176 96.0
88.666168 140.0
88.68866 104.0
88.737396 56.0
88.753548 124.0
88.789902 68.0
88.810532 108.0
88.878075 148.0
88.915604 164.0
88.951942 156.0
89.022675 204.0
89.047028 308.0
89.071449 144.0
89.10714 116.0
89.121826 180.0
89.142838 100.0
89.171288 116.0
89.195465 176.0
89.219902 104.0
89.234047 92.0
89.251328 168.0
89.287598 136.0
89.320251 100.0
89.349808 164.0
89.370369 76.0
89.387299 128.0
89.449409 76.0
89.46447 208.0
89.49794 144.0
89.577461 56.0
89.590645 276.0
89.603836 100.0
89.628555 100.0
89.653488 164.0
89.679214 144.0
89.735405 84.0
89.752739 116.0
89.794228 120.0
89.856789 168.0
89.894211 160.0
89.91497 52.0
89.977264 164.0
90.045517 84.0
90.078568 172.0
90.138695 100.0
90.160492 76.0
90.192734 136.0
90.265755 76.0
90.288338 128.0
90.301765 188.0
90.32225 108.0
90.338669 448.0
90.360931 32.0
90.376068 140.0
90.411392 168.0
90.439819 232.0
90.472588 160.0
90.502579 124.0
90.527496 156.0
90.545876 228.0
90.56369 112.0
90.605156 104.0
90.635475 108.0
90.660652 140.0
90.688538 208.0
90.711861 184.0
90.727608 144.0
90.751099 176.0
90.779541 88.0
90.831894 248.0
90.851936 300.0
90.880074 72.0
90.900948 128.0
90.955986 132.0
90.976089 136.0
90.982658 80.0
90.989075 140.0
91.011635 168.0
91.023422 108.0
91.038986 120.0
91.053825 204.0
91.068436 108.0
91.103302 132.0
91.115509 200.0
91.132607 140.0
91.151611 172.0
91.176315 100.0
91.218132 196.0
91.231438 100.0
91.258827 128.0
91.286835 88.0
91.305054 196.0
91.346214 168.0
91.362656 212.0
91.416718 132.0
91.467819 168.0
91.528099 156.0
91.531006 332.0
91.623474 156.0
91.639885 176.0
91.659058 148.0
91.680893 120.0
91.723045 208.0
91.74926 116.0
91.773621 144.0
91.808372 68.0
91.857269 188.0
91.877655 124.0
91.915199 184.0
91.934975 120.0
91.97245 120.0
91.994217 180.0
91.999527 220.0
92.027817 136.0
92.046913 140.0
92.069824 112.0
92.095612 160.0
92.122391 220.0
92.153877 140.0
92.183517 172.0
92.206772 264.0
92.234138 68.0
92.278648 100.0
92.295319 112.0
92.332245 168.0
92.367996 112.0
92.404892 80.0
92.490456 164.0
92.50663 152.0
92.542145 84.0
92.56321 168.0
92.590981 180.0
92.624496 120.0
92.642822 200.0
92.669609 176.0
92.698982 160.0
92.726051 120.0
92.744812 172.0
92.792305 124.0
92.855713 216.0
92.86985 172.0
92.885193 224.0
92.922691 176.0
92.942749 52.0
92.986015 184.0
92.999107 76.0
93.003021 128.0
93.045166 168.0
93.065598 156.0
93.094398 212.0
93.12513 152.0
93.194283 104.0
93.213219 108.0
93.218849 92.0
93.225639 88.0
93.233231 120.0
93.260696 324.0
93.303841 144.0
93.334602 100.0
93.365372 228.0
93.380478 168.0
93.402657 124.0
93.440392 168.0
93.503487 152.0
93.532761 200.0
93.568611 116.0
93.599663 64.0
93.612923 132.0
93.630188 108.0
93.652145 120.0
93.709457 160.0
93.740768 140.0
93.75811 124.0
93.775459 104.0
93.806297 156.0
93.837143 104.0
93.941284 148.0
93.977943 96.0
94.025009 184.0
94.039696 372.0
94.06665 376.0
94.101471 132.0
94.129044 128.0
94.16906 168.0
94.214531 236.0
94.24762 120.0
94.28125 188.0
94.306236 128.0
94.337975 316.0
94.367104 140.0
94.387436 172.0
94.414513 152.0
94.44352 100.0
94.49575 92.0
94.532516 132.0
94.55574 96.0
94.593201 228.0
94.604897 132.0
94.620956 180.0
94.648666 192.0
94.685455 100.0
94.71064 100.0
94.730011 140.0
94.75132 72.0
94.795883 160.0
94.846275 176.0
94.881172 108.0
94.918007 76.0
94.941277 124.0
94.961456 148.0
95.020805 264.0
95.035095 132.0
95.048653 152.0
95.083206 280.0
95.097206 124.0
95.119781 176.0
95.133369 120.0
95.162262 168.0
95.19162 64.0
95.219963 168.0
95.249619 228.0
95.283447 72.0
95.319626 116.0
95.346558 228.0
95.431419 176.0
95.449059 128.0
95.477295 124.0
95.516663 132.0
95.572609 152.0
95.605522 136.0
95.620506 72.0
95.627792 112.0
95.652405 40.0
95.687958 168.0
95.702202 104.0
95.781105 128.0
95.808197 156.0
95.821831 64.0
95.849159 152.0
95.868599 144.0
95.88224 232.0
95.922073 184.0
95.950462 160.0
95.96801 112.0
95.993362 100.0
96.024017 128.0
96.042679 208.0
96.083412 992.0
96.104546 208.0
96.119347 116.0
96.154579 128.0
96.19976 112.0
96.272423 80.0
96.344696 68.0
96.374001 108.0
96.391586 84.0
96.411972 236.0
96.453835 208.0
96.465858 224.0
96.49752 284.0
96.547974 164.0
96.562767 148.0
96.595932 108.0
96.605057 240.0
96.64167 116.0
96.67514 160.0
96.73468 76.0
96.771049 112.0
96.818665 132.0
96.843513 64.0
96.863098 204.0
96.886475 176.0
96.923676 248.0
96.941467 148.0
96.957359 148.0
96.977165 260.0
97.010399 168.0
97.036713 88.0
97.043236 144.0
97.082405 196.0
97.159836 76.0
97.195328 196.0
97.210129 300.0
97.223869 120.0
97.24852 200.0
97.272934 136.0
97.316124 116.0
97.347542 132.0
97.368164 192.0
97.396645 132.0
97.410393 124.0
97.437897 160.0
97.453377 164.0
97.510605 144.0
97.544479 188.0
97.587273 120.0
97.620697 92.0
97.642334 196.0
97.663963 136.0
97.680687 168.0
97.701515 132.0
97.732948 124.0
97.762833 320.0
97.817451 208.0
97.878479 128.0
97.898476 280.0
97.913048 124.0
97.948067 216.0
97.96711 60.0
97.98484 88.0
98.000603 172.0
98.060661 15340.0
98.099823 152.0
98.131638 200.0
98.162239 112.0
98.187088 120.0
98.204567 52.0
98.221405 100.0
98.272697 92.0
98.288483 124.0
98.319832 176.0
98.345718 100.0
98.375153 184.0
98.378105 276.0
98.392853 164.0
98.418121 136.0
98.422623 88.0
98.450356 88.0
98.536003 224.0
98.562286 288.0
98.627533 184.0
98.658417 204.0
98.695389 84.0
98.760651 36.0
98.778458 112.0
98.797226 148.0
98.845726 172.0
98.859581 244.0
98.911514 200.0
98.929558 224.0
98.955887 160.0
98.970116 352.0
98.990173 128.0
99.010033 208.0
99.063583 616.0
99.08432 156.0
99.116692 200.0
99.142769 120.0
99.16259 152.0
99.184395 120.0
99.204216 116.0
99.224037 112.0
99.24585 144.0
99.278503 188.0
99.330009 120.0
99.36882 100.0
99.388664 60.0
99.436295 96.0
99.464172 84.0
99.539154 172.0
99.573814 120.0
99.592293 116.0
99.609039 164.0
99.646942 152.0
99.676277 128.0
99.716331 104.0
99.762054 168.0
99.78566 192.0
99.81369 136.0
99.846054 180.0
99.851906 148.0
99.903252 96.0
99.939064 276.0
99.962189 192.0
99.982841 84.0
100.000755 80.0
100.06414 76.0
100.177971 88.0
100.193863 220.0
100.216911 72.0
100.278419 104.0
100.303391 168.0
100.392677 244.0
100.409187 96.0
100.425148 76.0
100.447083 172.0
100.510208 144.0
100.535713 124.0
100.554337 128.0
100.57679 152.0
100.593948 188.0
100.62899 160.0
100.655495 228.0
100.710129 144.0
100.738533 120.0
100.766563 128.0
100.788483 164.0
100.81646 180.0
100.854431 48.0
100.892418 128.0
100.922401 140.0
100.949692 136.0
100.978401 196.0
101.002403 136.0
101.020401 184.0
101.034409 92.0
101.090431 112.0
101.110847 100.0
101.148476 156.0
101.172256 168.0
101.222549 136.0
101.256599 156.0
101.2911 124.0
101.342735 196.0
101.388725 156.0
101.427872 108.0
101.471008 96.0
101.505096 100.0
101.530014 160.0
101.62326 176.0
101.634949 120.0
101.723068 100.0
101.765945 128.0
101.87294 160.0
101.920609 276.0
101.952766 160.0
101.966827 176.0
102.015076 108.0
102.041649 236.0
102.061066 196.0
102.091316 148.0
102.143768 120.0
102.177971 200.0
102.216202 84.0
102.250214 160.0
102.257622 100.0
102.265114 144.0
102.32489 96.0
102.363152 132.0
102.382454 212.0
102.399399 76.0
102.413498 32.0
102.44371 144.0
102.464897 140.0
102.47998 184.0
102.510201 96.0
102.528267 112.0
102.548492 116.0
102.586792 48.0
102.605461 184.0
102.677528 116.0
102.701736 156.0
102.746162 164.0
102.779938 256.0
102.811516 204.0
102.844994 80.0
102.871231 92.0
102.889221 176.0
102.913635 52.0
102.948418 160.0
102.997658 136.0
103.032066 144.0
103.077248 128.0
103.112846 384.0
103.137878 220.0
103.180016 128.0
103.223633 256.0
103.258026 212.0
103.294144 100.0
103.401207 124.0
103.417007 68.0
103.440811 100.0
103.448013 76.0
103.452202 124.0
103.469643 196.0
103.48584 208.0
103.520866 148.0
103.556023 128.0
103.637749 140.0
103.684357 208.0
103.716675 148.0
103.73394 216.0
103.766869 216.0
103.785713 284.0
103.805992 168.0
103.831253 152.0
103.858727 76.0
103.88459 192.0
103.892586 192.0
103.932678 168.0
103.979233 212.0
104.01091 240.0
104.035263 148.0
104.08046 200.0
104.12587 84.0
104.147072 136.0
104.231537 120.0
104.279228 164.0
104.303413 140.0
104.327805 136.0
104.351448 108.0
104.355522 204.0
104.398972 100.0
104.440178 104.0
104.510849 128.0
104.556953 104.0
104.604469 148.0
104.626862 144.0
104.67067 132.0
104.677528 68.0
104.684799 124.0
104.710915 188.0
104.738869 28.0
104.802025 128.0
104.818321 148.0
104.84787 128.0
104.866737 172.0
104.889107 204.0
104.903328 136.0
104.930428 112.0
104.954895 136.0
104.990852 196.0
105.01033 196.0
105.038513 144.0
105.05825 148.0
105.099716 108.0
105.13147 136.0
105.160942 120.0
105.214012 156.0
105.28344 108.0
105.313446 208.0
105.334503 116.0
105.368973 160.0
105.39579 156.0
105.430534 108.0
105.50325 160.0
105.530693 84.0
105.562119 76.0
105.599625 192.0
105.649315 76.0
105.673866 112.0
105.70047 224.0
105.751633 88.0
105.804855 184.0
105.827377 96.0
105.868332 204.0
105.92363 160.0
105.947128 212.0
105.954956 300.0
105.972801 96.0
105.987144 132.0
106.042473 144.0
106.067436 524.0
106.112167 140.0
106.126526 88.0
106.155228 80.0
106.192146 128.0
106.206505 288.0
106.23317 128.0
106.250542 128.0
106.257072 184.0
106.275963 140.0
106.280701 168.0
106.303032 156.0
106.331223 132.0
106.36245 152.0
106.383965 216.0
106.397568 300.0
106.423111 124.0
106.454842 84.0
106.53746 260.0
106.561653 96.0
106.606857 92.0
106.62394 180.0
106.658241 36.0
106.713745 148.0
106.75708 220.0
106.781609 152.0
106.796005 112.0
106.827377 192.0
106.900932 188.0
106.921509 128.0
106.970482 140.0
107.012085 148.0
107.028419 180.0
107.049408 3260.0
107.076508 156.0
107.122475 148.0
107.210571 176.0
107.259071 108.0
107.288162 136.0
107.308777 88.0
107.339706 144.0
107.375923 100.0
107.409828 180.0
107.430458 32.0
107.457275 164.0
107.483658 112.0
107.48909 192.0
107.560463 124.0
107.592712 116.0
107.614136 92.0
107.638916 192.0
107.669891 240.0
107.702942 72.0
107.732788 80.0
107.751434 168.0
107.789711 288.0
107.829689 116.0
107.855072 180.0
107.875565 52.0
107.930298 160.0
107.988174 136.0
108.031616 184.0
108.051323 396.0
108.101967 220.0
108.137146 104.0
108.154877 148.0
108.172333 124.0
108.196213 180.0
108.226166 116.0
108.251015 160.0
108.284149 136.0
108.302643 188.0
108.331787 40.0
108.375298 168.0
108.400421 160.0
108.456917 52.0
108.472702 168.0
108.491982 120.0
108.522461 132.0
108.555893 192.0
108.580521 140.0
108.607483 160.0
108.625389 152.0
108.642754 100.0
108.663498 96.0
108.705505 224.0
108.724533 116.0
108.748581 100.0
108.804626 84.0
108.831619 144.0
108.875229 128.0
108.897964 156.0
108.939018 152.0
108.966499 204.0
108.995712 200.0
109.027725 168.0
109.054077 168.0
109.076767 136.0
109.121529 128.0
109.138184 148.0
109.250885 132.0
109.314941 132.0
109.330521 128.0
109.382553 144.0
109.416382 160.0
109.443947 188.0
109.483864 152.0
109.505402 144.0
109.543076 92.0
109.572708 184.0
109.59935 204.0
109.623444 188.0
109.654678 136.0
109.688766 84.0
109.70961 100.0
109.74614 92.0
109.758011 148.0
109.785522 256.0
109.848869 72.0
109.877586 176.0
109.899399 240.0
109.97747 104.0
109.995399 120.0
110.041885 136.0
110.0755 224.0
110.114883 180.0
110.152016 96.0
110.1856 52.0
110.206825 68.0
110.242851 160.0
110.259689 216.0
110.274788 164.0
110.280418 124.0
110.288025 144.0
110.31501 124.0
110.366669 192.0
110.450935 40.0
110.498924 260.0
110.51001 152.0
110.592262 192.0
110.653931 100.0
110.675957 100.0
110.695808 172.0
110.718842 276.0
110.732864 144.0
110.743973 144.0
110.776443 124.0
110.798439 156.0
110.821487 268.0
110.84269 100.0
110.854866 156.0
110.888687 120.0
110.91655 200.0
110.974762 284.0
110.994034 100.0
111.077255 84.0
111.10453 92.0
111.134048 116.0
111.156067 72.0
111.173767 40.0
111.227188 168.0
111.25563 128.0
111.274529 164.0
111.297623 200.0
111.31472 140.0
111.349121 92.0
111.381851 112.0
111.397659 192.0
111.423409 108.0
111.481384 92.0
111.541153 196.0
111.595985 160.0
111.659073 368.0
111.673195 112.0
111.692001 116.0
111.72007 176.0
111.745323 320.0
111.777565 108.0
111.793716 88.0
111.814758 52.0
111.858078 152.0
111.876038 108.0
111.96003 136.0
111.994255 112.0
112.04583 164.0
112.086723 448.0
112.116753 112.0
112.153862 276.0
112.180138 164.0
112.195915 224.0
112.212891 136.0
112.229599 112.0
112.289818 100.0
112.318336 104.0
112.366806 160.0
112.387833 212.0
112.413277 136.0
112.449242 96.0
112.466042 156.0
112.489258 132.0
112.530754 128.0
112.586388 100.0
112.645523 300.0
112.679794 72.0
112.709831 312.0
112.733765 68.0
112.744728 148.0
112.806221 88.0
112.834579 80.0
112.873787 132.0
112.922424 184.0
112.979744 164.0
113.036362 112.0
113.063393 140.0
113.09169 112.0
113.117607 112.0
113.15731 84.0
113.182854 132.0
113.201782 28.0
113.22084 236.0
113.25972 120.0
113.284386 108.0
113.367569 216.0
113.386093 92.0
113.4412 72.0
113.462402 196.0
113.529442 136.0
113.538368 160.0
113.54171 268.0
113.563179 168.0
113.591759 144.0
113.624084 152.0
113.646919 228.0
113.660439 212.0
113.693604 108.0
113.713135 128.0
113.742912 260.0
113.794861 160.0
113.834465 160.0
113.875816 112.0
113.90168 260.0
113.946297 148.0
114.003662 92.0
114.090813 148.0
114.107307 132.0
114.124832 88.0
114.153481 144.0
114.180122 36.0
114.197136 180.0
114.239677 176.0
114.271591 156.0
114.290741 84.0
114.324783 212.0
114.346848 196.0
114.382484 148.0
114.497307 112.0
114.515648 136.0
114.537697 140.0
114.552612 96.0
114.573914 100.0
114.61013 148.0
114.642097 188.0
114.6698 180.0
114.687515 168.0
114.712433 176.0
114.74646 204.0
114.774261 296.0
114.801201 220.0
114.829704 152.0
114.84935 288.0
114.864738 104.0
114.886749 108.0
114.930305 136.0
114.993996 136.0
115.019608 96.0
115.060165 104.0
115.096298 156.0
115.136887 176.0
115.201118 104.0
115.229378 88.0
115.269485 140.0
115.285095 148.0
115.299408 100.0
115.316505 32.0
115.335739 44.0
115.357117 196.0
115.378494 120.0
115.421257 76.0
115.467918 44.0
115.473167 176.0
115.516533 168.0
115.534409 148.0
115.581635 160.0
115.597466 172.0
115.616531 284.0
115.648216 136.0
115.672966 160.0
115.687187 212.0
115.735878 116.0
115.761497 108.0
115.777367 116.0
115.818405 224.0
115.834625 160.0
115.894943 148.0
115.92585 100.0
115.995827 152.0
116.033485 240.0
116.057205 184.0
116.129929 156.0
116.166588 48.0
116.184982 160.0
116.205208 188.0
116.224518 248.0
116.247223 124.0
116.267433 148.0
116.287529 132.0
116.323036 168.0
116.364029 104.0
116.385498 68.0
116.4263 108.0
116.445633 128.0
116.476318 208.0
116.512222 112.0
116.528419 252.0
116.554535 156.0
116.572083 172.0
116.614563 236.0
116.654404 96.0
116.680786 92.0
116.713036 148.0
116.750816 88.0
116.772324 212.0
116.814621 156.0
116.860703 188.0
116.887215 196.0
116.925232 112.0
116.944443 84.0
116.965271 136.0
116.98568 312.0
117.041275 172.0
117.103249 148.0
117.135468 136.0
117.152443 148.0
117.170555 76.0
117.189354 88.0
117.204758 160.0
117.24382 160.0
117.258667 108.0
117.267166 96.0
117.272888 188.0
117.347282 176.0
117.371002 120.0
117.401192 164.0
117.438667 224.0
117.477371 328.0
117.501259 164.0
117.539253 104.0
117.568443 104.0
117.583641 296.0
117.616951 144.0
117.678818 152.0
117.701149 156.0
117.748657 208.0
117.772415 88.0
117.794014 116.0
117.862877 188.0
117.868317 164.0
117.875092 168.0
117.925827 128.0
117.980049 140.0
118.016617 168.0
118.054489 172.0
118.082298 148.0
118.10096 156.0
118.126915 184.0
118.143623 216.0
118.182938 112.0
118.188187 100.0
118.207657 144.0
118.228615 196.0
118.254585 192.0
118.285469 192.0
118.313026 168.0
118.356331 124.0
118.408302 40.0
118.462914 132.0
118.513802 200.0
118.521385 140.0
118.526123 228.0
118.579353 152.0
118.60981 112.0
118.644493 136.0
118.719261 324.0
118.781113 156.0
118.817993 68.0
118.846199 108.0
118.885262 132.0
118.922157 100.0
118.939522 156.0
119.000305 268.0
119.022018 76.0
119.059334 228.0
119.074135 164.0
119.099831 148.0
119.165375 72.0
119.195793 112.0
119.245697 148.0
119.303543 132.0
119.339256 108.0
119.371872 96.0
119.399185 164.0
119.418579 176.0
119.43399 144.0
119.500992 144.0
119.534477 128.0
119.580719 140.0
119.59507 192.0
119.616402 184.0
119.635811 104.0
119.656296 132.0
119.683037 176.0
119.705269 248.0
119.776161 240.0
119.857971 168.0
119.883446 96.0
119.935753 88.0
119.972809 184.0
119.988075 132.0
120.006905 88.0
120.055748 112.0
120.080292 152.0
120.144341 92.0
120.177238 324.0
120.209579 224.0
120.229668 116.0
120.263809 108.0
120.286942 140.0
120.309196 104.0
120.337158 132.0
120.35244 76.0
120.376465 160.0
120.457626 124.0
120.482368 156.0
120.518448 276.0
120.575455 164.0
120.614601 128.0
120.649582 132.0
120.663841 136.0
120.681992 220.0
120.753471 100.0
120.780792 148.0
120.798286 164.0
120.818436 228.0
120.894562 152.0
120.917221 124.0
120.930161 120.0
120.955841 168.0
120.974861 128.0
120.997955 168.0
121.026413 392.0
121.051414 172.0
121.074844 284.0
121.146355 192.0
121.166077 128.0
121.198944 160.0
121.218658 116.0
121.237976 192.0
121.245575 156.0
121.254837 168.0
121.296577 196.0
121.341301 276.0
121.359497 144.0
121.382469 132.0
121.399246 180.0
121.441734 80.0
121.447449 124.0
121.487434 164.0
121.548935 156.0
121.590485 168.0
121.597397 92.0
121.60659 140.0
121.625977 156.0
121.646355 180.0
121.66172 188.0
121.68367 96.0
121.725395 96.0
121.76976 216.0
121.79567 44.0
121.859383 132.0
121.909134 248.0
121.926208 136.0
121.958267 364.0
122.010452 76.0
122.030312 188.0
122.048759 196.0
122.062508 268.0
122.098984 120.0
122.125587 144.0
122.162773 348.0
122.180374 140.0
122.206955 192.0
122.231323 204.0
122.26619 148.0
122.314613 92.0
122.334045 116.0
122.400475 128.0
122.46386 128.0
122.517929 208.0
122.559067 176.0
122.574493 92.0
122.607552 80.0
122.643929 308.0
122.683945 212.0
122.736649 192.0
122.761871 120.0
122.812592 88.0
122.832443 68.0
122.869949 224.0
122.967041 136.0
123.048103 172.0
123.070473 108.0
123.091713 832.0
123.124863 132.0
123.156929 100.0
123.173477 140.0
123.225243 216.0
123.2696 132.0
123.408859 156.0
123.451927 192.0
123.461723 256.0
123.466827 168.0
123.497559 180.0
123.515991 144.0
123.544998 80.0
123.564697 144.0
123.603508 80.0
123.648575 132.0
123.674324 128.0
123.703102 52.0
123.745834 132.0
123.778381 76.0
123.825386 160.0
123.835518 160.0
123.841377 288.0
123.895027 172.0
123.922356 196.0
123.97554 144.0
123.993195 120.0
124.076775 9320.0
124.113716 132.0
124.148865 172.0
124.187592 68.0
124.230522 104.0
124.246048 204.0
124.279335 112.0
124.310394 124.0
124.33754 156.0
124.365883 152.0
124.394264 300.0
124.402679 236.0
124.412674 200.0
124.43692 208.0
124.451736 160.0
124.470985 164.0
124.497452 260.0
124.527969 48.0
124.574921 144.0
124.589287 172.0
124.657158 184.0
124.688835 208.0
124.715057 124.0
124.738564 72.0
124.759209 120.0
124.819092 184.0
124.878876 136.0
124.915512 256.0
124.983734 156.0
125.005463 128.0
125.017761 144.0
125.079361 732.0
125.117241 104.0
125.143959 164.0
125.160126 292.0
125.169273 76.0
125.176834 320.0
125.201859 152.0
125.259766 84.0
125.281136 236.0
125.314377 148.0
125.337021 100.0
125.354088 168.0
125.384438 168.0
125.473701 84.0
125.504921 76.0
125.553978 184.0
125.57254 152.0
125.618057 88.0
125.656662 124.0
125.67289 328.0
125.721298 104.0
125.760445 148.0
125.807335 264.0
125.859703 220.0
125.889671 152.0
125.908829 144.0
125.935631 148.0
125.955559 100.0
125.978073 180.0
126.000412 220.0
126.025848 156.0
126.056274 236.0
126.076195 188.0
126.11438 68.0
126.154869 176.0
126.20401 128.0
126.238319 156.0
126.284309 164.0
126.32457 32.0
126.344704 236.0
126.371552 128.0
126.390495 212.0
126.424362 200.0
126.487114 276.0
126.530464 144.0
126.546135 88.0
126.561806 372.0
126.586441 76.0
126.641983 120.0
126.662018 212.0
126.680161 128.0
126.714569 144.0
126.745895 200.0
126.7715 144.0
126.846336 168.0
126.870995 120.0
126.898605 140.0
126.959488 112.0
126.981277 176.0
127.000885 416.0
127.017296 84.0
127.075089 144.0
127.106499 136.0
127.168053 140.0
127.197113 160.0
127.292816 136.0
127.320473 200.0
127.342224 44.0
127.364685 184.0
127.384903 92.0
127.406456 208.0
127.445557 132.0
127.478783 112.0
127.495262 272.0
127.607307 104.0
127.657822 140.0
127.80323 112.0
127.836823 48.0
128.034927 124.0
128.058472 172.0
128.075989 152.0
128.10025 160.0
128.130997 204.0
128.174606 160.0
128.215332 108.0
128.265182 84.0
128.313431 128.0
128.354935 96.0
128.41777 352.0
128.44191 160.0
128.503143 136.0
128.546677 120.0
128.596329 128.0
128.617615 168.0
128.655014 224.0
128.700165 152.0
128.725586 172.0
128.799042 164.0
128.816742 156.0
128.885757 124.0
128.903473 72.0
128.922806 172.0
129.007431 104.0
129.036682 192.0
129.077316 340.0
129.154999 156.0
129.186966 220.0
129.204193 108.0
129.223419 108.0
129.244919 180.0
129.321854 188.0
129.342224 112.0
129.371033 140.0
129.408951 144.0
129.444931 408.0
129.459564 132.0
129.502991 164.0
129.531693 204.0
129.564163 104.0
129.591339 136.0
129.61853 140.0
129.634399 100.0
129.691055 164.0
129.72052 104.0
129.754532 212.0
129.774933 108.0
129.801041 188.0
129.833893 128.0
129.862 204.0
129.883057 112.0
129.903854 180.0
129.929214 188.0
129.97908 104.0
130.013123 64.0
130.038086 184.0
130.076675 148.0
130.100464 184.0
130.123825 212.0
130.128891 164.0
130.139175 112.0
130.168808 124.0
130.201553 144.0
130.232697 152.0
130.262878 40.0
130.290146 244.0
130.342392 120.0
130.403763 280.0
130.477188 136.0
130.496964 156.0
130.525467 328.0
130.554108 136.0
130.579895 188.0
130.587357 112.0
130.596115 160.0
130.611679 144.0
130.69191 348.0
130.715317 116.0
130.747345 160.0
130.759964 104.0
130.793808 148.0
130.80249 212.0
130.834244 156.0
130.879608 184.0
130.901031 172.0
130.933868 116.0
130.958054 220.0
130.993088 196.0
131.033463 124.0
131.063721 112.0
131.125244 128.0
131.148041 76.0
131.1651 116.0
131.186783 148.0
131.24379 100.0
131.261887 132.0
131.280273 160.0
131.348587 80.0
131.356644 156.0
131.387939 140.0
131.410172 80.0
131.416046 168.0
131.433105 184.0
131.500244 96.0
131.52211 232.0
131.538666 80.0
131.59111 124.0
131.606583 164.0
131.622025 100.0
131.645401 148.0
131.677383 52.0
131.699371 196.0
131.732193 128.0
131.755035 160.0
131.791595 80.0
131.828156 184.0
131.888214 104.0
131.915009 180.0
131.95462 124.0
131.990463 144.0
132.024765 224.0
132.040771 80.0
132.070374 148.0
132.089386 140.0
132.113968 132.0
132.154388 120.0
132.173462 116.0
132.212357 32.0
132.240997 280.0
132.265869 136.0
132.300613 116.0
132.318939 216.0
132.345123 136.0
132.370316 152.0
132.410431 132.0
132.444214 256.0
132.480423 336.0
132.530655 36.0
132.554062 168.0
132.61087 152.0
132.639755 132.0
132.695679 136.0
132.712799 112.0
132.721436 52.0
132.726822 124.0
132.766769 120.0
132.814941 180.0
132.8452 188.0
132.871384 212.0
132.888351 140.0
132.92276 132.0
132.938828 132.0
132.95871 144.0
132.994797 72.0
133.017532 192.0
133.042725 144.0
133.067642 400.0
133.10463 176.0
133.156784 192.0
133.179901 160.0
133.231842 216.0
133.249588 164.0
133.29303 148.0
133.324097 128.0
133.339737 84.0
133.383057 324.0
133.406662 256.0
133.439575 124.0
133.483261 112.0
133.50441 120.0
133.542633 108.0
133.595963 132.0
133.614365 208.0
133.632767 80.0
133.652679 152.0
133.669708 396.0
133.68782 156.0
133.714844 156.0
133.77002 120.0
133.790558 192.0
133.846832 72.0
133.872162 148.0
133.897491 268.0
133.914291 68.0
133.948776 136.0
133.964294 164.0
133.989639 148.0
134.020172 156.0
134.056458 152.0
134.088715 172.0
134.133408 144.0
134.179779 200.0
134.294632 156.0
134.316254 88.0
134.388504 112.0
134.404663 260.0
134.434036 120.0
134.47348 164.0
134.494659 108.0
134.524673 140.0
134.549408 140.0
134.587433 132.0
134.607742 180.0
134.616501 176.0
134.656082 204.0
134.710007 172.0
134.754791 64.0
134.77179 188.0
134.804504 128.0
134.86087 132.0
134.881607 112.0
134.92775 284.0
134.959015 176.0
134.981628 180.0
135.016693 276.0
135.044662 20544.0
135.115021 292.0
135.149292 92.0
135.183395 60.0
135.21579 128.0
135.241257 180.0
135.273666 112.0
135.292175 84.0
135.32074 188.0
135.343414 224.0
135.381165 164.0
135.436783 188.0
135.475128 236.0
135.540009 36.0
135.570679 204.0
135.66748 36.0
135.683716 144.0
135.718491 132.0
135.737045 128.0
135.754761 184.0
135.781845 200.0
135.815887 132.0
135.901733 200.0
135.9319 120.0
135.950455 160.0
136.002777 88.0
136.047623 2368.0
136.069366 172.0
136.138504 140.0
136.157791 284.0
136.173676 284.0
136.231567 164.0
136.260529 256.0
136.31041 108.0
136.349915 92.0
136.371811 160.0
136.399643 216.0
136.470795 212.0
136.528351 164.0
136.556839 168.0
136.577896 216.0
136.613281 200.0
136.67247 164.0
136.712692 324.0
136.758698 180.0
136.78331 144.0
136.818832 148.0
136.838409 72.0
136.886307 96.0
136.90593 52.0
136.93161 204.0
136.95018 104.0
136.971146 200.0
136.994446 96.0
137.031143 128.0
137.047256 104.0
137.069794 128.0
137.115021 352.0
137.134247 136.0
137.150574 52.0
137.188812 204.0
137.221756 240.0
137.25412 112.0
137.340378 348.0
137.362213 120.0
137.368057 164.0
137.384674 192.0
137.42247 144.0
137.477097 76.0
137.512238 128.0
137.550781 108.0
137.586792 204.0
137.633499 128.0
137.649841 112.0
137.710556 40.0
137.750275 96.0
137.778839 468.0
137.820358 240.0
137.84465 96.0
137.888123 216.0
137.916168 148.0
137.961548 132.0
137.996994 84.0
138.033066 112.0
138.061127 128.0
138.079834 152.0
138.111435 112.0
138.137146 112.0
138.159378 124.0
138.177505 160.0
138.2108 140.0
138.233856 96.0
138.239609 136.0
138.257645 48.0
138.282837 68.0
138.304459 128.0
138.347214 204.0
138.37999 196.0
138.403366 128.0
138.426193 136.0
138.478638 288.0
138.524872 124.0
138.569077 124.0
138.598404 248.0
138.67688 92.0
138.702652 128.0
138.723221 228.0
138.75589 108.0
138.761871 120.0
138.778778 128.0
138.810806 104.0
138.862106 92.0
138.894943 192.0
138.915665 96.0
138.928513 116.0
138.967407 216.0
138.998169 104.0
139.055634 148.0
139.085007 84.0
139.10144 108.0
139.136642 188.0
139.167999 148.0
139.190659 84.0
139.242325 76.0
139.31749 104.0
139.365295 140.0
139.392715 208.0
139.413818 60.0
139.444366 52.0
139.485199 120.0
139.507843 104.0
139.55777 152.0
139.601883 124.0
139.634811 188.0
139.671692 164.0
139.688599 148.0
139.696472 188.0
139.732452 328.0
139.775223 156.0
139.835358 168.0
139.863037 136.0
139.931305 148.0
139.959564 92.0
139.987823 80.0
140.011368 152.0
140.041992 48.0
140.058487 116.0
140.093811 128.0
140.154999 128.0
140.161591 136.0
140.225128 140.0
140.24678 384.0
140.277618 156.0
140.301193 108.0
140.340607 208.0
140.412033 48.0
140.591324 324.0
140.658218 176.0
140.69519 128.0
140.756577 136.0
140.780182 144.0
140.806671 112.0
140.843369 324.0
140.905029 216.0
140.935394 188.0
140.959717 120.0
140.982925 180.0
141.014084 88.0
141.102829 484.0
141.133347 44.0
141.181915 420.0
141.213043 156.0
141.243423 60.0
141.379211 144.0
141.401962 124.0
141.4422 184.0
141.468231 120.0
141.50972 172.0
141.532166 104.0
141.555847 128.0
141.607941 152.0
141.631622 184.0
141.66243 132.0
141.702225 80.0
141.731125 212.0
141.762436 96.0
141.78801 148.0
141.842514 136.0
141.887558 104.0
141.958694 164.0
141.98175 172.0
141.99971 176.0
142.031525 152.0
142.057556 164.0
142.105759 124.0
142.148468 60.0
142.189194 152.0
142.225723 180.0
142.334457 92.0
142.373993 76.0
142.400116 180.0
142.419128 168.0
142.497879 80.0
142.549484 188.0
142.585434 120.0
142.623474 44.0
142.648376 108.0
142.699539 116.0
142.73941 104.0
142.766037 120.0
142.799423 164.0
142.839859 168.0
142.866013 168.0
142.913071 276.0
142.931839 84.0
142.940811 148.0
142.970718 244.0
142.989746 176.0
143.025452 200.0
143.052841 148.0
143.082596 156.0
143.11116 220.0
143.130203 88.0
143.151901 148.0
143.188812 204.0
143.209274 136.0
143.246643 144.0
143.270264 180.0
143.285324 176.0
143.308853 92.0
143.325531 36.0
143.351746 120.0
143.385574 164.0
143.413193 224.0
143.438919 152.0
143.46463 156.0
143.54245 84.0
143.634781 112.0
143.66333 152.0
143.672256 104.0
143.699753 152.0
143.721344 124.0
143.742828 124.0
143.773285 232.0
143.799408 180.0
143.86319 148.0
143.89798 156.0
143.936172 44.0
143.956726 124.0
144.001266 152.0
144.059219 152.0
144.08905 232.0
144.123566 224.0
144.148773 136.0
144.199951 272.0
144.223953 88.0
144.246765 324.0
144.2659 160.0
144.285019 76.0
144.33902 116.0
144.378281 144.0
144.405319 168.0
144.43486 344.0
144.460449 124.0
144.481934 108.0
144.505569 96.0
144.567261 104.0
144.59967 356.0
144.617523 124.0
144.653427 80.0
144.677368 248.0
144.703705 76.0
144.726288 140.0
144.765961 84.0
144.791 124.0
144.81485 340.0
144.852188 176.0
144.899216 164.0
144.926453 324.0
144.945618 160.0
144.988754 176.0
145.02951 124.0
145.053116 280.0
145.155182 176.0
145.180557 104.0
145.219009 112.0
145.278885 84.0
145.311569 196.0
145.370422 192.0
145.394073 124.0
145.427673 104.0
145.454865 120.0
145.513733 188.0
145.557312 156.0
145.655777 120.0
145.683899 136.0
145.763885 148.0
145.838394 136.0
145.878937 180.0
145.927338 172.0
145.970032 132.0
145.988297 204.0
146.022064 92.0
146.04277 136.0
146.10051 80.0
146.154449 116.0
146.177185 124.0
146.213593 36.0
146.254608 100.0
146.30748 152.0
146.349899 84.0
146.396561 112.0
146.425461 304.0
146.466873 144.0
146.495163 124.0
146.52002 156.0
146.559006 144.0
146.606155 108.0
146.630096 196.0
146.636368 152.0
146.695328 160.0
146.720123 380.0
146.754303 176.0
146.799866 180.0
146.82312 92.0
146.873779 64.0
146.946152 80.0
146.996811 176.0
147.052689 372.0
147.069443 308.0
147.118805 104.0
147.169632 148.0
147.248352 116.0
147.291367 40.0
147.320358 136.0
147.359009 124.0
147.400085 176.0
147.482864 176.0
147.505966 124.0
147.535431 288.0
147.581375 144.0
147.600723 68.0
147.656128 184.0
147.664291 168.0
147.670273 84.0
147.709549 100.0
147.757935 104.0
147.786972 116.0
147.859482 216.0
147.888931 120.0
147.947311 80.0
147.95961 176.0
147.988846 168.0
148.021759 96.0
148.052139 44.0
148.071381 304.0
148.102936 208.0
148.1259 124.0
148.160919 176.0
148.179199 120.0
148.206802 132.0
148.225235 156.0
148.295517 104.0
148.365311 232.0
148.409454 232.0
148.438446 88.0
148.492447 184.0
148.519287 168.0
148.54985 140.0
148.590759 144.0
148.618057 256.0
148.640182 332.0
148.656021 112.0
148.700562 308.0
148.751541 132.0
148.793961 168.0
148.824371 192.0
148.842606 188.0
148.8871 144.0
148.911987 100.0
148.991959 112.0
149.021118 220.0
149.086716 148.0
149.103729 104.0
149.13121 132.0
149.151093 140.0
149.165237 224.0
149.191696 128.0
149.219849 52.0
149.253128 124.0
149.286072 120.0
149.307953 88.0
149.344437 100.0
149.373627 152.0
149.395523 96.0
149.420654 312.0
149.461929 148.0
149.494827 176.0
149.576218 100.0
149.600464 56.0
149.617737 128.0
149.648636 156.0
149.708878 156.0
149.741714 160.0
149.760651 164.0
149.792313 140.0
149.817825 128.0
149.849274 180.0
149.867844 112.0
149.884583 92.0
149.898605 212.0
149.923889 112.0
149.957001 164.0
150.001694 148.0
150.036011 48.0
150.054916 152.0
150.123795 168.0
150.145737 148.0
150.173126 312.0
150.203339 144.0
150.232239 112.0
150.249725 152.0
150.266861 172.0
150.3013 104.0
150.318954 108.0
150.350677 56.0
150.410126 200.0
150.497147 80.0
150.521561 96.0
150.541092 72.0
150.588593 124.0
150.636826 176.0
150.662033 144.0
150.689911 360.0
150.754257 272.0
150.819611 144.0
150.857712 232.0
151.007614 108.0
151.046051 192.0
151.062653 308.0
151.091049 60.0
151.111847 144.0
151.162018 156.0
151.193039 100.0
151.232986 216.0
151.261185 140.0
151.303284 176.0
151.356232 164.0
151.379227 120.0
151.428864 280.0
151.447418 76.0
151.514603 124.0
151.547409 152.0
151.626328 300.0
151.65918 164.0
151.69104 304.0
151.73027 112.0
151.763062 276.0
151.811188 104.0
151.833252 188.0
151.856583 196.0
151.906845 88.0
151.948547 252.0
151.980438 148.0
152.024872 76.0
152.114716 260.0
152.142578 132.0
152.162064 40.0
152.223282 116.0
152.299591 160.0
152.331528 196.0
152.372589 128.0
152.395401 112.0
152.432709 172.0
152.46666 188.0
152.489502 108.0
152.514618 172.0
152.555145 216.0
152.594421 196.0
152.63382 76.0
152.666092 164.0
152.69632 68.0
152.714981 100.0
152.737122 64.0
152.771561 204.0
152.854523 128.0
152.892517 152.0
152.964615 132.0
153.007812 248.0
153.048447 112.0
153.076019 172.0
153.084152 120.0
153.092285 172.0
153.116165 144.0
153.138321 136.0
153.162964 68.0
153.189056 140.0
153.210068 172.0
153.229935 212.0
153.290802 144.0
153.300079 128.0
153.362549 92.0
153.428635 168.0
153.43483 136.0
153.478714 128.0
153.579529 136.0
153.646133 212.0
153.687622 324.0
153.710281 108.0
153.742355 140.0
153.771973 96.0
153.789261 88.0
153.846024 84.0
153.863312 148.0
153.884186 140.0
153.911453 200.0
154.046555 112.0
154.095474 52.0
154.115234 120.0
154.132538 100.0
154.15274 200.0
154.206665 104.0
154.228912 48.0
154.285767 100.0
154.326843 72.0
154.346481 144.0
154.417374 160.0
154.478668 112.0
154.510834 112.0
154.551498 200.0
154.585754 164.0
154.619659 96.0
154.641983 192.0
154.685974 176.0
154.71376 200.0
154.745956 88.0
154.792999 156.0
154.812805 80.0
154.830139 244.0
154.868973 424.0
154.897018 216.0
154.924271 152.0
154.940933 116.0
154.950348 84.0
154.957947 160.0
155.018875 260.0
155.090302 172.0
155.15007 172.0
155.189713 204.0
155.231613 220.0
155.296967 148.0
155.31842 168.0
155.34819 144.0
155.370895 340.0
155.40773 160.0
155.444946 80.0
155.490616 100.0
155.534302 76.0
155.583939 144.0
155.646011 128.0
155.701309 148.0
155.725479 28.0
155.756134 188.0
155.780136 272.0
155.809937 144.0
155.865524 76.0
155.903625 188.0
155.931808 184.0
155.951584 276.0
155.996323 108.0
156.032654 164.0
156.037399 216.0
156.069489 244.0
156.088242 136.0
156.14801 108.0
156.211609 180.0
156.232986 72.0
156.299759 208.0
156.347885 200.0
156.451324 160.0
156.469009 188.0
156.514496 156.0
156.554688 196.0
156.57608 112.0
156.598495 140.0
156.622742 152.0
156.641541 156.0
156.673233 164.0
156.705612 60.0
156.728043 40.0
156.782867 144.0
156.820251 112.0
156.922455 80.0
156.947723 204.0
157.077835 240.0
157.130722 332.0
157.151917 72.0
157.181213 232.0
157.249237 88.0
157.316635 148.0
157.337402 176.0
157.359085 84.0
157.382202 324.0
157.40477 120.0
157.462433 184.0
157.526703 164.0
157.593857 112.0
157.616348 84.0
157.648392 156.0
157.653992 128.0
157.662827 160.0
157.690445 68.0
157.708817 92.0
157.728806 72.0
157.751312 180.0
157.775879 300.0
157.818817 48.0
157.836319 104.0
157.861328 132.0
157.885925 124.0
157.920547 152.0
157.947693 112.0
157.979782 192.0
158.027313 152.0
158.073959 140.0
158.113998 200.0
158.141525 160.0
158.205475 124.0
158.236435 136.0
158.269196 132.0
158.296753 172.0
158.335205 164.0
158.368164 140.0
158.419479 92.0
158.450775 260.0
158.498566 92.0
158.520554 316.0
158.54335 164.0
158.553513 324.0
158.584854 148.0
158.607422 116.0
158.657547 168.0
158.780212 100.0
158.834076 172.0
158.859589 128.0
158.927292 92.0
158.95784 188.0
158.986145 180.0
159.052124 136.0
159.078278 152.0
159.110367 168.0
159.149307 68.0
159.169388 40.0
159.195084 236.0
159.26001 284.0
159.306168 104.0
159.365311 104.0
159.400497 188.0
159.421692 212.0
159.4422 280.0
159.491989 148.0
159.524841 76.0
159.572449 184.0
159.61113 248.0
159.644333 204.0
159.671844 256.0
159.719711 248.0
159.766296 148.0
159.794861 152.0
159.827972 88.0
159.848099 148.0
159.878296 104.0
159.900955 160.0
159.921082 112.0
159.948776 72.0
159.988785 112.0
159.994888 100.0
160.004929 144.0
160.033508 140.0
160.077179 120.0
160.114944 112.0
160.145172 148.0
160.226288 140.0
160.245361 176.0
160.267059 136.0
160.293808 128.0
160.311447 128.0
160.329926 268.0
160.371857 116.0
160.404404 168.0
160.46521 112.0
160.4879 192.0
160.530777 32.0
160.582336 188.0
160.669495 136.0
160.693268 208.0
160.740311 124.0
160.828476 128.0
160.858765 112.0
160.885529 160.0
160.934509 52.0
160.987534 140.0
161.007202 132.0
161.033966 156.0
161.073151 420.0
161.110123 180.0
161.139099 320.0
161.174469 220.0
161.197205 168.0
161.266754 208.0
161.304031 256.0
161.356445 132.0
161.39772 248.0
161.419662 140.0
161.477829 216.0
161.569839 140.0
161.60495 176.0
161.637207 312.0
161.654495 124.0
161.675171 164.0
161.771347 80.0
161.795944 152.0
161.816345 176.0
161.85997 164.0
161.900482 160.0
161.954941 96.0
161.981537 120.0
162.047745 352.0
162.067017 188.0
162.089554 176.0
162.138626 40.0
162.174103 108.0
162.250015 76.0
162.28714 164.0
162.306732 140.0
162.359192 228.0
162.390808 180.0
162.428558 108.0
162.435791 140.0
162.524078 180.0
162.562134 252.0
162.60788 196.0
162.648438 204.0
162.668747 96.0
162.711899 120.0
162.737289 164.0
162.767761 168.0
162.800766 112.0
162.832642 116.0
162.963333 156.0
162.983673 496.0
163.03978 3812.0
163.096207 364.0
163.131073 144.0
163.153961 72.0
163.2043 128.0
163.232773 364.0
163.265839 72.0
163.320908 184.0
163.353607 220.0
163.37146 160.0
163.412766 152.0
163.439728 112.0
163.471771 156.0
163.540619 48.0
163.573318 156.0
163.581024 132.0
163.622589 120.0
163.660446 328.0
163.678604 180.0
163.709015 164.0
163.745743 204.0
163.768356 108.0
163.795242 136.0
163.855209 156.0
163.899078 132.0
163.917542 132.0
163.959946 160.0
164.005478 204.0
164.046707 208.0
164.091614 188.0
164.12146 160.0
164.172516 132.0
164.196411 256.0
164.218369 144.0
164.240219 144.0
164.271927 188.0
164.297058 160.0
164.385681 180.0
164.439789 168.0
164.443741 132.0
164.523987 156.0
164.547546 132.0
164.56636 120.0
164.682892 172.0
164.721542 244.0
164.781555 360.0
164.810623 96.0
164.871124 244.0
164.89093 152.0
164.909714 196.0
164.951187 100.0
165.004883 184.0
165.039047 164.0
165.067429 228.0
165.089264 100.0
165.119949 212.0
165.13887 136.0
165.157364 324.0
165.223969 216.0
165.31694 136.0
165.339966 176.0
165.363007 56.0
165.419312 116.0
165.442352 156.0
165.460281 176.0
165.498688 80.0
165.521729 176.0
165.557358 188.0
165.580627 168.0
165.613068 120.0
165.639542 176.0
165.701019 112.0
165.721527 208.0
165.745667 132.0
165.784912 108.0
165.799454 136.0
165.829147 132.0
165.884964 140.0
165.934143 184.0
165.959244 120.0
165.995789 132.0
166.03125 292.0
166.062057 208.0
166.096817 216.0
166.124039 112.0
166.152771 216.0
166.183044 156.0
166.226135 192.0
166.270294 140.0
166.295364 140.0
166.301849 108.0
166.309738 172.0
166.342163 100.0
166.380402 120.0
166.387604 108.0
166.442291 192.0
166.493591 172.0
166.547119 220.0
166.611008 180.0
166.719727 48.0
166.750565 92.0
166.799393 172.0
166.829315 144.0
166.864227 168.0
166.884232 68.0
166.902237 216.0
166.922379 168.0
166.953674 140.0
166.970139 108.0
167.001831 148.0
167.062531 172.0
167.100281 180.0
167.117111 148.0
167.135056 164.0
167.15947 72.0
167.188675 160.0
167.217194 244.0
167.2547 100.0
167.293304 64.0
167.331924 76.0
167.367966 188.0
167.414322 104.0
167.4478 284.0
167.489014 112.0
167.521393 224.0
167.539169 212.0
167.594635 156.0
167.617828 72.0
167.635864 116.0
167.659561 184.0
167.691849 128.0
167.726364 216.0
167.76474 168.0
167.857559 156.0
167.902084 180.0
167.922043 52.0
167.972366 148.0
167.993149 56.0
168.038116 96.0
168.079407 228.0
168.107727 160.0
168.117844 156.0
168.149078 92.0
168.174896 164.0
168.204987 188.0
168.229095 120.0
168.270203 156.0
168.29364 188.0
168.33313 136.0
168.360779 140.0
168.382935 104.0
168.463623 208.0
168.520935 128.0
168.544189 120.0
168.612747 132.0
168.639435 188.0
168.689972 160.0
168.740982 252.0
168.77858 148.0
168.802689 100.0
168.839233 212.0
168.916183 136.0
168.939774 128.0
168.99231 220.0
169.030746 264.0
169.073837 156.0
169.127167 124.0
169.224457 156.0
169.258118 92.0
169.278122 292.0
169.299545 152.0
169.320099 120.0
169.328491 112.0
169.336319 140.0
169.391632 144.0
169.418701 244.0
169.454636 188.0
169.511978 92.0
169.543854 172.0
169.571579 152.0
169.618896 156.0
169.653046 100.0
169.674835 72.0
169.715164 176.0
169.732315 208.0
169.766022 164.0
169.807892 168.0
169.893112 144.0
169.92424 148.0
169.942337 140.0
170.004684 132.0
170.03064 36.0
170.048813 116.0
170.069016 204.0
170.090332 80.0
170.148987 196.0
170.220154 108.0
170.246124 188.0
170.268082 172.0
170.290268 232.0
170.323807 136.0
170.352615 208.0
170.407166 168.0
170.456543 144.0
170.49292 156.0
170.525497 156.0
170.554352 164.0
170.623779 164.0
170.645081 328.0
170.693085 192.0
170.726349 132.0
170.750305 176.0
170.790085 112.0
170.824387 108.0
170.843948 148.0
170.862152 68.0
170.890778 188.0
170.910812 148.0
170.945419 252.0
170.979248 92.0
170.997467 60.0
171.050339 140.0
171.093262 120.0
171.107376 124.0
171.177094 76.0
171.240494 140.0
171.276062 108.0
171.335983 112.0
171.393295 124.0
171.455841 84.0
171.474091 244.0
171.499115 160.0
171.545105 148.0
171.636169 256.0
171.680923 132.0
171.698608 176.0
171.738251 152.0
171.760895 132.0
171.807297 112.0
171.845932 196.0
171.896576 140.0
171.961807 112.0
171.980087 144.0
172.00618 68.0
172.029678 324.0
172.076675 252.0
172.115112 116.0
172.136337 160.0
172.17067 120.0
172.198578 252.0
172.225525 268.0
172.269058 204.0
172.298676 108.0
172.332947 168.0
172.358765 176.0
172.383987 80.0
172.445633 204.0
172.484695 232.0
172.515579 144.0
172.536499 184.0
172.562637 120.0
172.598129 136.0
172.620163 108.0
172.664627 136.0
172.68457 108.0
172.713379 188.0
172.732635 48.0
172.77449 52.0
172.822815 76.0
172.86467 92.0
172.886383 68.0
172.931488 128.0
172.960434 132.0
172.999542 136.0
173.036194 168.0
173.067184 120.0
173.114746 136.0
173.147156 96.0
173.185471 140.0
173.209045 160.0
173.237503 292.0
173.269287 76.0
173.296829 188.0
173.328552 176.0
173.37149 76.0
173.413422 184.0
173.463226 216.0
173.507782 84.0
173.530975 152.0
173.554092 200.0
173.596939 152.0
173.634583 124.0
173.674789 176.0
173.708206 184.0
173.733765 120.0
173.759567 152.0
173.790512 232.0
173.804779 240.0
173.827789 164.0
173.854034 108.0
173.886108 144.0
173.908005 252.0
173.962357 176.0
173.992416 144.0
174.039139 124.0
174.089294 1124.0
174.121811 240.0
174.153824 64.0
174.184845 140.0
174.205872 128.0
174.237396 96.0
174.27417 188.0
174.326523 152.0
174.362335 156.0
174.42923 152.0
174.479172 176.0
174.544907 144.0
174.563324 192.0
174.618546 204.0
174.64975 264.0
174.686935 156.0
174.72377 108.0
174.774796 152.0
174.842178 192.0
174.89064 196.0
174.91925 212.0
174.966888 148.0
174.988602 256.0
175.016891 108.0
175.056732 600.0
175.074829 128.0
175.099228 240.0
175.126526 124.0
175.144958 92.0
175.175522 240.0
175.237167 140.0
175.309998 156.0
175.347839 156.0
175.392654 76.0
175.436096 100.0
175.473282 240.0
175.521835 140.0
175.557098 108.0
175.606232 100.0
175.649673 144.0
175.669525 68.0
175.690628 200.0
175.750336 140.0
175.801453 52.0
175.829193 132.0
175.872681 160.0
175.904099 176.0
175.980957 176.0
176.025848 124.0
176.071732 352.0
176.101059 248.0
176.130463 108.0
176.180191 128.0
176.221298 124.0
176.258301 172.0
176.308502 284.0
176.326782 152.0
176.3685 80.0
176.440674 68.0
176.477173 164.0
176.583466 76.0
176.625778 44.0
176.654877 36.0
176.685852 136.0
176.698349 192.0
176.732391 136.0
176.789825 164.0
176.832932 188.0
176.853958 104.0
176.949539 232.0
176.999786 176.0
177.036026 128.0
177.072769 1088.0
177.160904 136.0
177.181702 124.0
177.223465 236.0
177.293961 220.0
177.339218 180.0
177.389191 124.0
177.409622 120.0
177.459518 108.0
177.515671 136.0
177.594177 60.0
177.621765 88.0
177.640335 56.0
177.667236 140.0
177.688095 124.0
177.718216 132.0
177.743805 352.0
177.778305 116.0
177.806595 164.0
177.86058 156.0
177.88121 88.0
177.979111 148.0
178.069595 324.0
178.08168 104.0
178.090714 464.0
178.124847 184.0
178.144714 160.0
178.214401 316.0
178.239197 132.0
178.282623 176.0
178.325027 112.0
178.350998 188.0
178.449234 144.0
178.477478 156.0
178.543411 152.0
178.653183 132.0
178.700684 228.0
178.74559 220.0
178.790924 128.0
178.83342 176.0
178.852051 132.0
178.892105 156.0
178.939545 464.0
178.962128 208.0
178.987534 144.0
179.011795 112.0
179.052948 204.0
179.078552 412.0
179.132416 124.0
179.154602 156.0
179.222641 128.0
179.2509 84.0
179.288269 408.0
179.355484 212.0
179.374146 140.0
179.430725 404.0
179.472183 160.0
179.502686 244.0
179.55217 164.0
179.562866 36.0
179.57103 136.0
179.636902 104.0
179.678162 200.0
179.705215 172.0
179.775223 160.0
179.82724 152.0
179.888977 192.0
179.91835 312.0
179.971741 156.0
180.022491 176.0
180.088989 208.0
180.111603 196.0
180.14267 44.0
180.164047 84.0
180.219971 116.0
180.251022 116.0
180.284286 108.0
180.311691 116.0
180.348434 92.0
180.376709 152.0
180.407242 148.0
180.428406 204.0
180.470154 164.0
180.505203 112.0
180.538254 188.0
180.594421 128.0
180.613144 76.0
180.64621 212.0
180.693405 120.0
180.76564 136.0
180.805786 140.0
180.856644 128.0
180.91217 188.0
180.951874 184.0
180.974426 152.0
180.997375 152.0
181.042816 164.0
181.061539 128.0
181.083313 200.0
181.118622 152.0
181.161209 124.0
181.18187 168.0
181.287842 212.0
181.311951 140.0
181.341446 60.0
181.408829 256.0
181.473541 200.0
181.506058 196.0
181.531296 200.0
181.555923 116.0
181.580322 208.0
181.600525 224.0
181.618637 156.0
181.64444 120.0
181.690033 124.0
181.725143 48.0
181.833359 88.0
181.85791 100.0
181.908447 52.0
181.939621 104.0
181.961105 156.0
181.991714 120.0
182.014801 156.0
182.040558 108.0
182.068512 92.0
182.129089 252.0
182.178635 112.0
182.205505 364.0
182.267303 160.0
182.2901 140.0
182.312073 176.0
182.321701 116.0
182.335098 204.0
182.38678 352.0
182.417816 172.0
182.444687 280.0
182.463654 312.0
182.493088 124.0
182.514603 168.0
182.534897 248.0
182.615631 56.0
182.662521 196.0
182.705566 184.0
182.775513 248.0
182.819534 172.0
182.896622 184.0
182.917175 176.0
182.94104 156.0
182.977219 268.0
182.990936 380.0
183.04335 136.0
183.073715 248.0
183.169159 300.0
183.268265 204.0
183.297913 124.0
183.323334 176.0
183.348389 196.0
183.389542 108.0
183.42395 136.0
183.518936 148.0
183.572037 176.0
183.598282 176.0
183.661072 144.0
183.680359 356.0
183.713394 120.0
183.756287 156.0
183.777878 112.0
183.801071 208.0
183.864792 176.0
183.924164 252.0
183.960297 372.0
184.030075 172.0
184.074799 144.0
184.107422 140.0
184.118439 124.0
184.125839 160.0
184.158585 152.0
184.190933 72.0
184.234146 128.0
184.266571 332.0
184.350327 140.0
184.380234 128.0
184.44223 56.0
184.485474 172.0
184.512634 184.0
184.534134 196.0
184.55983 48.0
184.61467 128.0
184.620804 80.0
184.73027 156.0
184.753204 124.0
184.782242 180.0
184.802383 196.0
184.834381 156.0
184.884872 216.0
184.928696 80.0
184.992233 108.0
185.042801 68.0
185.078156 364.0
185.153168 168.0
185.183609 228.0
185.218903 192.0
185.246933 328.0
185.331726 240.0
185.367828 148.0
185.394928 56.0
185.431503 268.0
185.473526 88.0
185.495209 124.0
185.528336 148.0
185.560287 112.0
185.612 156.0
185.635437 92.0
185.750122 104.0
185.769104 152.0
185.807007 140.0
185.82608 196.0
185.872559 156.0
185.893906 136.0
185.960373 112.0
185.994598 40.0
186.067795 784.0
186.086197 280.0
186.139297 152.0
186.178207 124.0
186.214264 96.0
186.254883 180.0
186.293045 140.0
186.312057 84.0
186.348465 180.0
186.382584 184.0
186.435791 112.0
186.468201 188.0
186.507706 100.0
186.548492 172.0
186.583832 180.0
186.611008 116.0
186.649078 140.0
186.673553 140.0
186.708069 144.0
186.771469 148.0
186.828598 132.0
186.8694 128.0
186.908432 104.0
186.944565 64.0
187.002747 144.0
187.054459 228.0
187.095993 332.0
187.120941 172.0
187.155197 164.0
187.211243 144.0
187.239609 112.0
187.258682 140.0
187.303772 272.0
187.341263 164.0
187.381256 160.0
187.439362 112.0
187.460281 124.0
187.487534 112.0
187.547653 136.0
187.588379 92.0
187.639709 92.0
187.66713 312.0
187.736618 132.0
187.781982 128.0
187.806519 124.0
187.838745 128.0
187.863815 152.0
187.888367 92.0
187.924545 168.0
188.027527 176.0
188.050217 128.0
188.070602 728.0
188.10704 160.0
188.178238 152.0
188.232269 232.0
188.251389 372.0
188.291992 240.0
188.379761 120.0
188.418228 148.0
188.497772 164.0
188.506485 188.0
188.514191 236.0
188.538239 132.0
188.568298 152.0
188.609299 104.0
188.691498 144.0
188.740677 172.0
188.790924 204.0
188.81163 96.0
188.836243 140.0
188.883591 180.0
188.925308 216.0
188.964569 136.0
188.994904 96.0
189.035233 136.0
189.042847 100.0
189.074432 1464.0
189.186493 92.0
189.216614 148.0
189.247162 124.0
189.290527 176.0
189.30748 168.0
189.359589 276.0
189.45311 224.0
189.476791 144.0
189.495972 88.0
189.518936 208.0
189.535172 116.0
189.610596 164.0
189.679001 120.0
189.707001 72.0
189.756348 80.0
189.780029 244.0
189.855057 140.0
189.878769 144.0
189.934601 212.0
189.962021 136.0
190.002869 120.0
190.072891 784.0
190.166458 144.0
190.190933 128.0
190.220184 104.0
190.247437 196.0
190.27597 172.0
190.333786 132.0
190.370987 48.0
190.398453 168.0
190.436462 152.0
190.454712 116.0
190.4655 68.0
190.537338 328.0
190.573395 76.0
190.585709 24.0
190.636047 288.0
190.667297 84.0
190.695175 104.0
190.763885 168.0
190.81337 156.0
190.861847 140.0
190.887115 44.0
190.902573 164.0
190.957245 88.0
191.001694 136.0
191.080765 1116.0
191.135193 112.0
191.165451 84.0
191.209488 136.0
191.265915 160.0
191.300247 144.0
191.339447 172.0
191.386444 244.0
191.449005 164.0
191.486435 156.0
191.52887 240.0
191.557053 256.0
191.575516 168.0
191.579971 132.0
191.603256 148.0
191.646133 176.0
191.693146 148.0
191.756516 192.0
191.887131 72.0
191.947006 112.0
191.989151 60.0
192.035873 132.0
192.056244 148.0
192.076416 88.0
192.270554 164.0
192.307739 144.0
192.347839 192.0
192.381409 244.0
192.461029 136.0
192.480362 104.0
192.54837 140.0
192.591766 172.0
192.61293 136.0
192.632263 184.0
192.67392 152.0
192.720673 164.0
192.762115 172.0
192.781097 92.0
192.833878 108.0
192.849426 132.0
192.88205 112.0
192.932587 160.0
192.958374 148.0
193.071167 272.0
193.142303 264.0
193.202133 172.0
193.214462 188.0
193.220795 108.0
193.293701 152.0
193.319595 236.0
193.373306 84.0
193.423126 128.0
193.442505 168.0
193.479202 344.0
193.517899 172.0
193.597549 108.0
193.630005 112.0
193.661255 64.0
193.697266 108.0
193.720764 140.0
193.753662 156.0
193.801025 180.0
193.822189 136.0
193.843521 172.0
193.854126 136.0
193.935562 156.0
193.996552 52.0
194.039749 172.0
194.08078 196.0
194.115005 160.0
194.119766 100.0
194.168854 112.0
194.246124 112.0
194.286453 216.0
194.359558 144.0
194.366989 128.0
194.38707 180.0
194.439896 124.0
194.444351 136.0
194.498642 108.0
194.559708 192.0
194.584427 84.0
194.610718 128.0
194.643005 124.0
194.71521 88.0
194.759323 172.0
194.792404 136.0
194.839569 156.0
194.902176 176.0
194.925064 156.0
194.96524 112.0
195.00972 132.0
195.033401 192.0
195.065308 112.0
195.090424 140.0
195.129242 96.0
195.189255 196.0
195.235016 108.0
195.261292 132.0
195.310806 180.0
195.348953 180.0
195.375687 164.0
195.406845 176.0
195.488495 176.0
195.51033 240.0
195.540024 192.0
195.571564 148.0
195.593826 212.0
195.632797 132.0
195.681656 88.0
195.75325 180.0
195.786148 108.0
195.821457 128.0
195.864609 180.0
195.891785 52.0
195.960464 136.0
196.008804 128.0
196.046387 180.0
196.075684 116.0
196.123062 200.0
196.170166 152.0
196.207062 208.0
196.235321 164.0
196.273727 100.0
196.313843 160.0
196.348267 196.0
196.368439 216.0
196.502335 140.0
196.53302 212.0
196.555344 56.0
196.591629 156.0
196.627899 152.0
196.686508 140.0
196.710129 100.0
196.729874 136.0
196.792603 184.0
196.820526 104.0
196.845657 76.0
196.962952 124.0
196.985336 196.0
197.028824 124.0
197.062164 188.0
197.158798 176.0
197.250778 176.0
197.284058 128.0
197.443695 80.0
197.463272 136.0
197.493561 164.0
197.583557 140.0
197.603439 176.0
197.630402 140.0
197.655579 168.0
197.717163 168.0
197.75705 68.0
197.788467 180.0
197.866226 136.0
197.919418 104.0
197.965195 324.0
198.020981 136.0
198.056656 108.0
198.103683 152.0
198.157501 112.0
198.198883 256.0
198.224518 144.0
198.258148 100.0
198.27951 284.0
198.325638 204.0
198.409744 124.0
198.432175 56.0
198.479843 172.0
198.554672 360.0
198.600189 96.0
198.643387 164.0
198.667511 92.0
198.711411 200.0
198.732285 88.0
198.780716 144.0
198.808044 156.0
198.852951 108.0
198.918411 136.0
199.004532 160.0
199.0242 116.0
199.06871 136.0
199.093643 260.0
199.124557 108.0
199.143036 136.0
199.167419 172.0
199.211075 140.0
199.234848 76.0
199.349091 188.0
199.404449 156.0
199.450577 140.0
199.46843 132.0
199.488083 228.0
199.542282 152.0
199.589615 88.0
199.608658 148.0
199.687408 152.0
199.738037 192.0
199.77153 168.0
199.793945 236.0
199.864639 140.0
199.915283 184.0
199.934982 152.0
199.953415 180.0
199.977203 224.0
200.042282 136.0
200.074707 100.0
200.105667 120.0
200.166626 156.0
200.177811 156.0
200.241867 272.0
200.290207 224.0
200.347733 164.0
200.401062 172.0
200.437073 164.0
200.469147 168.0
200.568466 92.0
200.616623 112.0
200.639175 96.0
200.661743 52.0
200.687119 120.0
200.726593 192.0
200.757004 320.0
200.795151 128.0
200.826782 112.0
200.903595 132.0
200.960709 108.0
201.019958 252.0
201.075897 568.0
201.111023 76.0
201.137024 292.0
201.172821 156.0
201.197784 84.0
201.22319 76.0
201.254242 152.0
201.293777 160.0
201.322021 100.0
201.379623 132.0
201.408478 176.0
201.440704 184.0
201.531052 56.0
201.565063 104.0
201.655396 112.0
201.730301 128.0
201.754333 80.0
201.791611 152.0
201.816528 220.0
201.861771 112.0
201.881577 80.0
201.907028 88.0
201.928833 112.0
201.976944 180.0
202.017807 144.0
202.029968 164.0
202.085999 1504.0
202.175781 108.0
202.202972 296.0
202.235748 172.0
202.283264 136.0
202.303162 168.0
202.344528 144.0
202.352188 88.0
202.391068 168.0
202.481689 156.0
202.504196 116.0
202.528412 176.0
202.566513 172.0
202.586349 108.0
202.614685 108.0
202.661774 148.0
202.669601 208.0
202.680786 228.0
202.686905 284.0
202.756363 36.0
202.814468 112.0
202.842285 176.0
202.899277 172.0
202.934952 160.0
202.975815 164.0
203.025146 244.0
203.053085 328.0
203.092117 9608.0
203.157578 144.0
203.176025 188.0
203.203033 156.0
203.244827 280.0
203.287018 136.0
203.308655 172.0
203.337662 152.0
203.45462 216.0
203.552063 140.0
203.584763 92.0
203.613159 132.0
203.661438 140.0
203.753372 176.0
203.800644 172.0
203.82196 104.0
203.852539 184.0
203.880203 96.0
203.905792 132.0
203.948822 244.0
203.971161 148.0
204.033707 52.0
204.079041 5292.0
204.142868 204.0
204.169739 176.0
204.190536 132.0
204.228455 248.0
204.269745 116.0
204.29808 108.0
204.313614 180.0
204.356949 116.0
204.391342 224.0
204.437607 84.0
204.494171 172.0
204.523209 352.0
204.544434 60.0
204.57579 212.0
204.611237 156.0
204.631165 176.0
204.664749 176.0
204.707336 112.0
204.736526 72.0
204.784164 176.0
204.831207 116.0
204.870834 52.0
204.902878 340.0
204.955872 108.0
204.989044 176.0
205.027969 128.0
205.072632 8284.0
205.13559 212.0
205.172485 208.0
205.206696 136.0
205.243774 44.0
205.272705 136.0
205.353104 224.0
205.390411 112.0
205.434937 136.0
205.470749 96.0
205.477203 76.0
205.50238 108.0
205.519821 72.0
205.526337 196.0
205.556595 120.0
205.567291 128.0
205.610718 208.0
205.649399 128.0
205.685867 220.0
205.750107 200.0
205.785889 104.0
205.8116 136.0
205.833511 148.0
205.871567 148.0
205.89978 180.0
205.967712 112.0
206.026962 216.0
206.080704 5324.0
206.168671 152.0
206.196701 212.0
206.270996 100.0
206.287445 180.0
206.331604 84.0
206.353378 84.0
206.384583 128.0
206.4039 112.0
206.467285 220.0
206.549744 100.0
206.599792 108.0
206.643341 60.0
206.67482 52.0
206.719131 148.0
206.746719 168.0
206.777832 120.0
206.800735 184.0
206.82843 172.0
206.906647 104.0
206.935272 32.0
206.961044 104.0
207.000046 284.0
207.010315 304.0
207.085342 680.0
207.135742 84.0
207.201889 128.0
207.252533 268.0
207.327972 204.0
207.371384 152.0
207.406387 268.0
207.462051 148.0
207.48645 192.0
207.542648 204.0
207.609238 160.0
207.631607 76.0
207.701462 192.0
207.746338 260.0
207.794785 104.0
207.813263 148.0
207.851883 112.0
207.902618 184.0
207.925369 132.0
207.949509 196.0
207.973862 124.0
208.00174 164.0
208.035095 136.0
208.080292 340.0
208.136063 424.0
208.205597 88.0
208.231445 112.0
208.265915 116.0
208.288376 204.0
208.345078 136.0
208.370758 140.0
208.447525 180.0
208.487137 184.0
208.55899 144.0
208.623199 252.0
208.644257 176.0
208.707138 128.0
208.768875 88.0
208.800507 84.0
208.826401 92.0
208.866669 164.0
208.897247 184.0
208.934692 112.0
208.980698 156.0
209.002441 144.0
209.027771 80.0
209.07225 120.0
209.138733 140.0
209.190109 156.0
209.252899 292.0
209.262711 148.0
209.315628 108.0
209.368576 124.0
209.427948 92.0
209.446274 172.0
209.514374 172.0
209.562149 164.0
209.669968 140.0
209.69545 152.0
209.719147 180.0
209.772537 164.0
209.816528 104.0
209.853912 128.0
209.883286 152.0
209.92366 132.0
209.958069 228.0
209.968033 176.0
209.998642 156.0
210.033264 168.0
210.076523 144.0
210.178192 136.0
210.212463 152.0
210.261383 124.0
210.284286 160.0
210.310257 212.0
210.373764 132.0
210.404282 268.0
210.426437 244.0
210.457733 244.0
210.557953 168.0
210.616333 48.0
210.668671 200.0
210.758713 84.0
210.797333 160.0
210.82724 148.0
210.847473 148.0
210.873489 148.0
210.933456 240.0
210.973862 144.0
211.000671 232.0
211.058411 116.0
211.115463 224.0
211.198654 104.0
211.247726 188.0
211.270828 116.0
211.339081 156.0
211.362228 396.0
211.397736 116.0
211.419373 96.0
211.460617 160.0
211.499985 292.0
211.546051 124.0
211.581787 140.0
211.647797 140.0
211.698013 180.0
211.76149 392.0
211.795197 72.0
211.844254 236.0
211.877594 184.0
211.947144 160.0
211.984146 332.0
212.018265 128.0
212.040695 144.0
212.068497 320.0
212.107056 112.0
212.155823 88.0
212.190613 140.0
212.233047 132.0
212.251495 176.0
212.306595 108.0
212.352997 232.0
212.373306 124.0
212.408112 132.0
212.43132 160.0
212.495132 360.0
212.530334 308.0
212.573486 140.0
212.648941 60.0
212.675064 112.0
212.762009 164.0
212.794785 232.0
212.8573 156.0
212.916046 160.0
212.973724 172.0
212.98056 132.0
213.030777 224.0
213.076996 444.0
213.116486 148.0
213.139725 352.0
213.160965 116.0
213.215286 280.0
213.268433 152.0
213.311737 176.0
213.363419 100.0
213.389694 160.0
213.412949 164.0
213.471832 96.0
213.62236 84.0
213.659393 148.0
213.731506 132.0
213.757065 212.0
213.796936 84.0
213.830627 312.0
213.86969 220.0
213.936646 104.0
213.97998 136.0
213.998428 144.0
214.084045 432.0
214.119949 180.0
214.138702 288.0
214.185501 184.0
214.250946 132.0
214.306519 144.0
214.334427 132.0
214.376465 240.0
214.4021 212.0
214.450806 136.0
214.507614 64.0
214.564438 228.0
214.636307 116.0
214.674957 152.0
214.697174 204.0
214.749634 176.0
214.831314 184.0
214.875076 72.0
214.942184 160.0
214.96489 128.0
215.091293 744.0
215.149414 80.0
215.189774 184.0
215.217728 140.0
215.280807 44.0
215.326111 156.0
215.37204 348.0
215.408096 308.0
215.418991 180.0
215.450211 116.0
215.48056 144.0
215.53302 164.0
215.624039 172.0
215.68956 192.0
215.710068 224.0
215.758301 336.0
215.814819 188.0
215.873886 164.0
215.915009 180.0
215.939255 200.0
215.981491 180.0
216.072128 312.0
216.097717 352.0
216.122681 136.0
216.159653 88.0
216.210464 152.0
216.260223 32.0
216.28685 120.0
216.357849 164.0
216.432938 88.0
216.479797 132.0
216.525162 292.0
216.589233 164.0
216.643814 120.0
216.679565 148.0
216.768661 192.0
216.816696 228.0
216.84938 200.0
216.860397 144.0
216.918106 220.0
216.961502 300.0
217.019882 128.0
217.071381 5128.0
217.115005 112.0
217.122284 220.0
217.189056 148.0
217.224258 104.0
217.249176 292.0
217.278839 172.0
217.380524 292.0
217.398239 108.0
217.429642 180.0
217.484833 100.0
217.531052 204.0
217.563828 112.0
217.602844 104.0
217.626328 96.0
217.652374 216.0
217.676117 148.0
217.715088 352.0
217.738892 120.0
217.782837 164.0
217.826035 60.0
217.882996 188.0
217.934631 116.0
217.990219 168.0
218.035858 136.0
218.077484 2332.0
218.137527 136.0
218.17691 180.0
218.234543 176.0
218.267639 140.0
218.30217 184.0
218.322754 64.0
218.359055 92.0
218.408051 132.0
218.440399 208.0
218.469818 36.0
218.513947 108.0
218.537491 208.0
218.582016 184.0
218.620483 168.0
218.641525 124.0
218.652786 44.0
218.661804 132.0
218.701447 108.0
218.761169 56.0
218.811218 76.0
218.843597 136.0
218.898071 156.0
218.97023 116.0
219.025452 128.0
219.046814 52.0
219.088257 2080.0
219.170288 92.0
219.188461 104.0
219.235382 208.0
219.290314 80.0
219.317062 212.0
219.353271 128.0
219.381332 172.0
219.396271 48.0
219.408356 152.0
219.429916 120.0
219.459259 168.0
219.518387 156.0
219.574921 116.0
219.65892 148.0
219.678833 136.0
219.742554 132.0
219.780548 64.0
219.818268 152.0
219.862579 396.0
219.90892 96.0
219.969604 124.0
220.001495 320.0
220.029495 260.0
220.095657 13816.0
220.154602 212.0
220.185333 120.0
220.22374 112.0
220.244415 44.0
220.271835 28.0
220.317932 176.0
220.357162 72.0
220.385468 204.0
220.436447 208.0
220.471176 176.0
220.532837 208.0
220.571991 144.0
220.61084 132.0
220.639801 208.0
220.683609 136.0
220.694183 168.0
220.71727 100.0
220.763916 360.0
220.805145 212.0
220.815994 292.0
220.842331 160.0
220.870514 160.0
220.89978 96.0
220.935623 92.0
220.974274 172.0
220.981537 152.0
221.038605 408.0
221.104065 64620.0
221.179276 244.0
221.200912 192.0
221.222656 260.0
221.262283 192.0
221.282974 104.0
221.309219 212.0
221.340637 60.0
221.373047 136.0
221.418045 128.0
221.426605 180.0
221.467896 88.0
221.49736 268.0
221.517105 96.0
221.558838 108.0
221.590027 120.0
221.657227 236.0
221.680252 64.0
221.733871 148.0
221.75351 188.0
221.789856 136.0
221.828613 120.0
221.878403 196.0
221.916687 52.0
221.950058 216.0
222.006821 136.0
222.018951 64.0
222.028595 172.0
222.104706 6280.0
222.171524 72.0
222.19606 108.0
222.230865 92.0
222.263504 56.0
222.296738 216.0
222.338623 304.0
222.372879 56.0
222.413376 120.0
222.465744 172.0
222.496246 96.0
222.5047 152.0
222.517639 136.0
222.526428 96.0
222.547653 120.0
222.558136 228.0
222.598557 192.0
222.649414 120.0
222.714478 128.0
222.738205 148.0
222.782578 164.0
222.806442 148.0
222.866409 128.0
222.898712 160.0
222.92952 56.0
222.953674 212.0
222.978424 128.0
223.106415 712.0
223.184311 104.0
223.211075 96.0
223.2397 128.0
223.268631 68.0
223.327057 176.0
223.361343 152.0
223.396713 204.0
223.420761 240.0
223.510147 140.0
223.54245 84.0
223.574005 88.0
223.600006 260.0
223.619476 272.0
223.667709 76.0
223.696884 140.0
223.73027 72.0
223.770966 140.0
223.829742 44.0
223.857529 184.0
223.898499 92.0
223.912796 60.0
223.93541 176.0
223.947021 152.0
223.958984 180.0
223.999176 244.0
224.004166 160.0
224.041473 124.0
224.065308 48.0
224.110001 152.0
224.162018 96.0
224.202377 148.0
224.253052 156.0
224.306702 132.0
224.342468 256.0
224.399124 172.0
224.432724 148.0
224.444138 40.0
224.45459 152.0
224.46698 132.0
224.502182 156.0
224.579117 188.0
224.610168 156.0
224.640686 176.0
224.679474 188.0
224.729446 96.0
224.746902 180.0
224.773026 112.0
224.798813 232.0
224.827103 84.0
224.906906 144.0
224.930145 56.0
224.955429 144.0
224.974915 300.0
225.021439 108.0
225.050064 168.0
225.057663 168.0
225.094345 236.0
225.157425 132.0
225.183945 144.0
225.204849 104.0
225.234726 240.0
225.260849 232.0
225.312393 80.0
225.34639 124.0
225.405014 88.0
225.470016 32.0
225.537827 280.0
225.563416 100.0
225.590317 88.0
225.62619 32.0
225.658569 140.0
225.709915 32.0
225.752716 128.0
225.775696 64.0
225.808167 192.0
225.832611 76.0
225.855072 232.0
225.928253 72.0
226.013733 204.0
226.080566 164.0
226.137711 164.0
226.227509 224.0
226.280899 144.0
226.344635 208.0
226.399979 156.0
226.42131 100.0
226.448639 180.0
226.484131 128.0
226.562927 80.0
226.65715 224.0
226.709747 84.0
226.757706 108.0
226.817642 52.0
226.84433 164.0
226.867111 184.0
226.925568 100.0
226.988541 144.0
227.022537 180.0
227.061966 224.0
227.100281 352.0
227.172867 140.0
227.211075 204.0
227.357529 104.0
227.390533 120.0
227.418427 96.0
227.508224 136.0
227.545074 100.0
227.633331 148.0
227.708786 60.0
227.732819 128.0
227.80426 184.0
227.848816 188.0
227.907059 148.0
227.956467 216.0
227.984634 88.0
228.002655 148.0
228.059189 272.0
228.098389 356.0
228.12645 128.0
228.171829 44.0
228.205994 132.0
228.31691 128.0
228.370026 184.0
228.397095 180.0
228.433182 136.0
228.466278 164.0
228.485565 132.0
228.541489 144.0
228.583618 200.0
228.622742 152.0
228.649826 76.0
228.731003 132.0
228.774567 272.0
228.827423 192.0
228.887848 120.0
228.932022 228.0
228.974976 220.0
229.031891 356.0
229.070801 2372.0
229.109589 1292.0
229.164764 180.0
229.219528 136.0
229.244537 156.0
229.312424 204.0
229.360657 252.0
229.404251 200.0
229.445053 196.0
229.472198 148.0
229.512787 104.0
229.54068 168.0
229.562653 72.0
229.655014 172.0
229.67717 140.0
229.713455 128.0
229.751068 172.0
229.792465 148.0
229.819046 100.0
229.852066 168.0
229.882156 140.0
229.931076 192.0
230.004349 52.0
230.082855 1252.0
230.122864 244.0
230.15892 196.0
230.201355 160.0
230.273026 52.0
230.302078 104.0
230.336609 232.0
230.374573 208.0
230.408844 116.0
230.444595 112.0
230.501602 180.0
230.558884 172.0
230.61026 80.0
230.63327 228.0
230.707291 124.0
230.747849 140.0
230.772644 112.0
230.822372 324.0
230.883759 140.0
230.905289 180.0
230.985672 208.0
230.996094 284.0
231.006546 308.0
231.013824 244.0
231.03952 180.0
231.088425 43848.0
231.170166 184.0
231.250931 60.0
231.258545 200.0
231.296875 152.0
231.341141 88.0
231.368225 176.0
231.398666 144.0
231.435532 220.0
231.469238 56.0
231.509537 84.0
231.533188 120.0
231.576202 148.0
231.605743 120.0
231.6259 84.0
231.647171 100.0
231.655457 68.0
231.679321 196.0
231.711761 100.0
231.741577 68.0
231.763062 116.0
231.795746 28.0
231.835434 64.0
231.861755 96.0
231.890549 200.0
231.914413 124.0
231.949539 184.0
232.002701 104.0
232.043289 212.0
232.095413 35776.0
232.178497 172.0
232.185623 92.0
232.197632 156.0
232.211685 48.0
232.220078 152.0
232.246216 240.0
232.293915 144.0
232.335297 120.0
232.359558 48.0
232.368164 96.0
232.395996 160.0
232.429245 140.0
232.481262 88.0
232.535065 48.0
232.603882 184.0
232.617371 104.0
232.628479 192.0
232.654236 220.0
232.687408 180.0
232.757294 176.0
232.761917 176.0
232.80368 144.0
232.837143 204.0
232.875458 44.0
232.918137 156.0
232.958206 168.0
232.982224 212.0
233.028259 376.0
233.042068 240.0
233.103592 47548.0
233.172073 240.0
233.208847 92.0
233.222717 120.0
233.228119 180.0
233.270782 112.0
233.306702 68.0
233.333298 100.0
233.379745 184.0
233.41478 196.0
233.460419 192.0
233.469971 112.0
233.512711 148.0
233.542068 60.0
233.567215 100.0
233.601242 240.0
233.638641 100.0
233.681137 124.0
233.689163 120.0
233.725891 272.0
233.769989 180.0
233.82132 100.0
233.851959 208.0
233.868744 136.0
233.909332 140.0
233.942368 100.0
233.969635 128.0
233.981766 104.0
234.040924 124.0
234.107788 9164.0
234.196686 52.0
234.233246 120.0
234.271179 132.0
234.32254 64.0
234.359055 108.0
234.383545 72.0
234.42804 60.0
234.473953 116.0
234.508072 180.0
234.570282 152.0
234.630356 116.0
234.660095 124.0
234.69899 112.0
234.795761 188.0
234.811401 76.0
234.819092 136.0
234.86969 172.0
234.929321 152.0
234.957474 112.0
235.003632 132.0
235.062531 56.0
235.109894 756.0
235.144058 112.0
235.184601 212.0
235.236115 60.0
235.246872 108.0
235.317841 124.0
235.381683 232.0
235.410522 52.0
235.437607 60.0
235.476547 84.0
235.53302 224.0
235.559021 104.0
235.589035 180.0
235.641891 228.0
235.665237 104.0
235.74321 80.0
235.77713 136.0
235.818298 212.0
235.861633 304.0
235.909607 116.0
235.966644 112.0
235.988052 412.0
236.008209 100.0
236.036514 240.0
236.079117 128.0
236.110168 140.0
236.18071 124.0
236.22438 116.0
236.25267 92.0
236.273407 108.0
236.300766 84.0
236.339798 124.0
236.370392 148.0
236.403656 92.0
236.449966 128.0
236.497025 192.0
236.571686 208.0
236.621384 80.0
236.645462 180.0
236.667831 188.0
236.739685 112.0
236.764191 176.0
236.814301 40.0
236.858978 260.0
236.88475 144.0
236.932388 212.0
236.985855 40.0
237.034882 160.0
237.07634 460.0
237.129883 96.0
237.171234 200.0
237.19426 116.0
237.2341 144.0
237.276443 188.0
237.329147 308.0
237.441803 152.0
237.482483 164.0
237.572861 168.0
237.605194 168.0
237.680679 164.0
237.71312 204.0
237.748123 116.0
237.78624 116.0
237.850693 68.0
237.875626 64.0
237.951996 132.0
238.036438 88.0
238.090286 224.0
238.117813 92.0
238.214462 104.0
238.223999 184.0
238.250107 184.0
238.285034 256.0
238.344315 132.0
238.406601 112.0
238.446564 68.0
238.585724 160.0
238.696381 168.0
238.733078 216.0
238.75708 72.0
238.80014 152.0
238.837051 96.0
238.889343 132.0
238.930969 168.0
238.954895 184.0
238.993942 92.0
239.017426 180.0
239.074692 140.0
239.10556 188.0
239.200806 148.0
239.355499 312.0
239.400269 112.0
239.421936 112.0
239.498825 100.0
239.538879 148.0
239.575836 76.0
239.603561 144.0
239.631302 116.0
239.707123 92.0
239.773041 136.0
239.819275 68.0
239.863083 132.0
239.895782 180.0
239.96376 92.0
239.991913 80.0
240.0905 132.0
240.121429 60.0
240.158447 36.0
240.226303 48.0
240.256775 128.0
240.311401 200.0
240.372543 144.0
240.411804 200.0
240.483917 156.0
240.524948 128.0
240.530319 100.0
240.58429 160.0
240.627502 136.0
240.789963 144.0
240.855423 228.0
240.934921 148.0
240.998138 132.0
241.022858 72.0
241.063034 124.0
241.084656 44.0
241.110947 268.0
241.151749 164.0
241.235748 100.0
241.257309 164.0
241.291763 156.0
241.347412 104.0
241.426178 104.0
241.438461 108.0
241.447144 144.0
241.49324 196.0
241.531525 136.0
241.543457 72.0
241.56456 172.0
241.625092 144.0
241.663971 164.0
241.70932 228.0
241.755737 108.0
241.80481 84.0
241.834015 164.0
241.853546 120.0
241.878967 168.0
241.948654 148.0
242.008148 200.0
242.044327 236.0
242.104019 152.0
242.148926 100.0
242.18631 276.0
242.217072 136.0
242.248047 64.0
242.272385 56.0
242.323746 192.0
242.362671 144.0
242.409164 140.0
242.444229 228.0
242.474091 88.0
242.501816 200.0
242.542526 120.0
242.595123 236.0
242.626129 128.0
242.678833 168.0
242.719147 40.0
242.747055 124.0
242.768753 124.0
242.800507 100.0
242.840012 152.0
242.871109 168.0
242.89592 64.0
242.925583 100.0
243.009552 140.0
243.015884 48.0
243.030212 224.0
243.089386 736.0
243.118576 152.0
243.148102 180.0
243.187592 140.0
243.21553 108.0
243.272385 92.0
243.317978 76.0
243.397903 204.0
243.453339 168.0
243.552185 228.0
243.585907 164.0
243.609894 260.0
243.632675 36.0
243.683655 260.0
243.716248 204.0
243.748383 120.0
243.791656 232.0
243.814972 176.0
243.84549 232.0
243.920746 116.0
244.00618 164.0
244.051224 164.0
244.094421 660.0
244.100571 656.0
244.113037 1068.0
244.165497 148.0
244.19252 144.0
244.232498 124.0
244.301468 112.0
244.340134 148.0
244.392807 120.0
244.432266 208.0
244.45871 84.0
244.486145 216.0
244.541962 176.0
244.611221 72.0
244.637375 220.0
244.686127 208.0
244.748215 96.0
244.781509 184.0
244.850327 200.0
244.870773 168.0
244.907028 84.0
244.938187 180.0
245.011551 196.0
245.046494 128.0
245.103867 15892.0
245.163635 136.0
245.187439 148.0
245.218048 132.0
245.229706 136.0
245.241623 144.0
245.292068 232.0
245.325394 240.0
245.379593 156.0
245.414749 148.0
245.449509 124.0
245.480484 76.0
245.505432 128.0
245.553528 252.0
245.612244 164.0
245.654129 172.0
245.695312 120.0
245.738785 144.0
245.751175 144.0
245.818741 104.0
245.836517 140.0
245.865143 260.0
245.932861 184.0
245.956665 148.0
245.985535 220.0
246.020325 216.0
246.049423 344.0
246.108261 4100.0
246.20903 216.0
246.239868 308.0
246.275833 320.0
246.310684 452.0
246.343002 152.0
246.390182 112.0
246.452927 144.0
246.4953 320.0
246.524979 108.0
246.561279 140.0
246.592407 192.0
246.624527 64.0
246.671722 288.0
246.710846 176.0
246.765106 148.0
246.798752 248.0
246.824677 144.0
246.847565 72.0
246.891373 176.0
246.934235 244.0
246.979218 328.0
247.031921 912.0
247.120377 226380.0
247.194168 160.0
247.226089 236.0
247.294556 268.0
247.320709 332.0
247.340881 236.0
247.371796 220.0
247.414581 264.0
247.462631 148.0
247.511765 156.0
247.576462 308.0
247.606461 124.0
247.636169 2408.0
247.675735 264.0
247.738876 152.0
247.784149 112.0
247.792572 104.0
247.814804 80.0
247.865753 80.0
247.905884 184.0
247.932297 212.0
247.960068 136.0
247.967743 112.0
247.989944 140.0
248.043747 100.0
248.122238 37512.0
248.185776 140.0
248.208252 188.0
248.235733 108.0
248.295273 148.0
248.324356 48.0
248.34761 176.0
248.378296 220.0
248.413132 152.0
248.455154 212.0
248.475449 136.0
248.525009 124.0
248.560989 156.0
248.565659 112.0
248.599289 108.0
248.63858 100.0
248.686401 112.0
248.708511 68.0
248.72876 196.0
248.764435 48.0
248.820694 48.0
248.866043 204.0
248.906586 112.0
248.954514 228.0
249.008789 116.0
249.12439 3492.0
249.199905 132.0
249.247849 64.0
249.265442 40.0
249.275162 84.0
249.335907 156.0
249.370193 104.0
249.40065 128.0
249.446136 124.0
249.500031 148.0
249.543564 124.0
249.579041 296.0
249.620834 104.0
249.657608 236.0
249.668823 104.0
249.724136 152.0
249.748627 136.0
249.75853 164.0
249.767242 340.0
249.781631 100.0
249.789581 144.0
249.810577 248.0
249.866196 276.0
249.899918 348.0
249.920471 452.0
249.949295 152.0
249.980911 276.0
249.998993 88.0
250.053421 164.0
250.083725 304.0
250.123886 388.0
250.177551 112.0
250.233002 96.0
250.255295 112.0
250.264114 88.0
250.273361 76.0
250.309036 64.0
250.343338 180.0
250.407486 80.0
250.434052 128.0
250.457687 152.0
250.483627 180.0
250.506866 144.0
250.542969 64.0
250.6064 136.0
250.630783 100.0
250.667511 256.0
250.698807 240.0
250.727051 132.0
250.780411 192.0
250.858643 136.0
250.896301 212.0
250.932159 104.0
250.98172 168.0
251.043732 116.0
251.072113 160.0
251.109634 176.0
251.117004 284.0
251.20639 216.0
251.270844 132.0
251.301315 152.0
251.360489 68.0
251.383759 224.0
251.388229 176.0
251.43808 48.0
251.465927 268.0
251.563049 196.0
251.604279 160.0
251.671677 160.0
251.715057 76.0
251.751419 296.0
251.816956 68.0
251.905396 140.0
251.933823 180.0
251.962265 100.0
251.98761 164.0
252.02832 144.0
252.053604 92.0
252.081909 312.0
252.122208 216.0
252.180298 176.0
252.242126 88.0
252.275742 104.0
252.301422 252.0
252.36998 96.0
252.445862 140.0
252.495865 188.0
252.569214 120.0
252.629318 116.0
252.719589 60.0
252.749542 140.0
252.778854 92.0
252.853973 156.0
252.895126 36.0
252.920441 60.0
252.994492 112.0
253.050232 128.0
253.080093 344.0
253.136078 556.0
253.180069 72.0
253.219238 144.0
253.251526 156.0
253.295898 140.0
253.317993 176.0
253.351501 196.0
253.427139 140.0
253.455658 76.0
253.490524 188.0
253.528549 188.0
253.557068 88.0
253.610947 108.0
253.648132 176.0
253.690201 192.0
253.731415 228.0
253.803284 72.0
253.82428 180.0
253.847015 96.0
253.889954 80.0
253.92485 28.0
253.975693 128.0
254.044388 128.0
254.102478 120.0
254.134476 144.0
254.184982 180.0
254.207199 168.0
254.238937 76.0
254.283356 72.0
254.335052 128.0
254.356705 188.0
254.379379 184.0
254.451553 136.0
254.524231 128.0
254.565918 308.0
254.585983 100.0
254.621094 168.0
254.70076 160.0
254.768051 212.0
254.799835 124.0
254.869644 168.0
254.905807 140.0
254.943954 92.0
254.967377 236.0
255.061554 152.0
255.089386 288.0
255.1185 120.0
255.226868 140.0
255.251907 128.0
255.319092 272.0
255.375046 108.0
255.425476 152.0
255.492767 120.0
255.519485 120.0
255.589478 128.0
255.614944 160.0
255.643585 116.0
255.703064 52.0
255.72673 280.0
255.789993 40.0
255.87117 152.0
255.89505 132.0
255.982834 96.0
256.00882 104.0
256.09137 600.0
256.159363 116.0
256.183899 160.0
256.206696 168.0
256.242218 64.0
256.280426 104.0
256.32019 108.0
256.376038 44.0
256.410248 104.0
256.442963 84.0
256.522858 64.0
256.632965 168.0
256.672516 100.0
256.736267 96.0
256.778168 196.0
256.803253 132.0
256.840302 244.0
256.889374 100.0
256.92926 208.0
256.972321 44.0
256.999695 132.0
257.039337 64.0
257.066376 304.0
257.102753 2592.0
257.150116 152.0
257.198914 124.0
257.282654 156.0
257.323425 188.0
257.368103 64.0
257.412811 128.0
257.44281 164.0
257.514496 76.0
257.543762 44.0
257.614532 180.0
257.640045 168.0
257.670929 84.0
257.71579 52.0
257.762421 216.0
257.821716 32.0
257.844086 116.0
257.879242 160.0
257.906219 292.0
257.99472 168.0
258.017059 188.0
258.10907 2228.0
258.171692 204.0
258.230957 44.0
258.266571 116.0
258.313843 48.0
258.378113 116.0
258.435699 156.0
258.493286 136.0
258.544495 132.0
258.592499 144.0
258.691711 124.0
258.74295 188.0
258.76535 120.0
258.816772 176.0
258.891113 164.0
258.942261 100.0
258.986328 76.0
259.013367 128.0
259.082092 264.0
259.11908 8132.0
259.188141 48.0
259.233032 172.0
259.295685 80.0
259.368896 136.0
259.42572 136.0
259.454193 76.0
259.500214 156.0
259.521057 56.0
259.554749 176.0
259.613007 68.0
259.632812 124.0
259.654816 144.0
259.704315 80.0
259.761017 176.0
259.773926 120.0
259.781708 124.0
259.842133 116.0
259.877838 260.0
259.906403 56.0
259.94812 116.0
259.973816 76.0
260.009644 48.0
260.054047 48.0
260.116852 3784.0
260.195282 84.0
260.220978 52.0
260.243439 76.0
260.291595 56.0
260.386444 112.0
260.440155 48.0
260.477112 200.0
260.513214 104.0
260.586243 160.0
260.625854 140.0
260.672028 112.0
260.708771 132.0
260.735168 184.0
260.786926 136.0
260.848022 156.0
260.913788 144.0
260.984589 180.0
261.043396 168.0
261.070312 140.0
261.123322 1024.0
261.217041 64.0
261.238953 128.0
261.300873 44.0
261.342712 68.0
261.387756 52.0
261.414246 100.0
261.452606 132.0
261.487518 100.0
261.511353 248.0
261.552338 116.0
261.59375 28.0
261.666138 140.0
261.830963 324.0
261.882629 196.0
261.955048 152.0
262.023743 140.0
262.08017 332.0
262.131348 472.0
262.246063 140.0
262.317169 160.0
262.357239 72.0
262.395905 60.0
262.478851 204.0
262.514191 228.0
262.540527 132.0
262.545563 224.0
262.601898 260.0
262.637787 116.0
262.689392 72.0
262.717743 308.0
262.744232 112.0
262.777893 172.0
262.808746 84.0
262.840118 228.0
262.950745 152.0
262.986847 132.0
263.037903 52.0
263.095428 92.0
263.140717 316.0
263.179138 48.0
263.218689 36.0
263.244537 324.0
263.289734 88.0
263.315582 136.0
263.35434 172.0
263.389862 160.0
263.438324 148.0
263.460938 32.0
263.50293 112.0
263.55069 236.0
263.571564 200.0
263.609558 188.0
263.635406 120.0
263.767639 84.0
263.832062 280.0
263.906952 164.0
263.932831 64.0
264.088043 240.0
264.133698 140.0
264.214203 48.0
264.246552 104.0
264.279907 220.0
264.375 136.0
264.412842 108.0
264.499939 136.0
264.554016 80.0
264.609039 144.0
264.651154 104.0
264.711548 180.0
264.738586 100.0
264.788879 264.0
264.861633 56.0
264.926422 164.0
264.975037 132.0
265.023163 136.0
265.059265 132.0
265.083069 196.0
265.112854 172.0
265.137054 136.0
265.271637 192.0
265.323914 116.0
265.381744 140.0
265.447266 200.0
265.516357 68.0
265.578003 144.0
265.608917 156.0
265.681702 196.0
265.707764 96.0
265.779144 128.0
265.84079 68.0
265.868164 184.0
265.893646 152.0
265.928406 132.0
266.001129 112.0
266.042542 100.0
266.099487 200.0
266.121674 120.0
266.144928 212.0
266.17627 196.0
266.350525 164.0
266.37326 96.0
266.395996 204.0
266.438232 124.0
266.469879 168.0
266.584442 196.0
266.620209 68.0
266.662445 92.0
266.701996 192.0
266.731232 124.0
266.756714 168.0
266.798981 204.0
266.846619 200.0
266.887787 176.0
266.945282 84.0
267.029846 100.0
267.099335 160.0
267.162109 148.0
267.254303 128.0
267.348663 84.0
267.439789 52.0
267.530945 60.0
267.611023 148.0
267.660828 208.0
267.710022 76.0
267.768646 80.0
267.817505 104.0
267.885925 60.0
267.925018 104.0
267.960846 128.0
267.984772 180.0
268.031525 52.0
268.090973 136.0
268.167694 184.0
268.226227 120.0
268.26532 224.0
268.312836 136.0
268.368256 100.0
268.440186 72.0
268.46933 160.0
268.518311 144.0
268.593475 144.0
268.757782 188.0
268.847778 52.0
268.90033 112.0
268.962006 92.0
269.015381 188.0
269.050323 196.0
269.107239 548.0
269.216675 208.0
269.288513 132.0
269.311371 204.0
269.389771 252.0
269.462982 140.0
269.50412 120.0
269.633026 224.0
269.674072 80.0
269.714844 84.0
269.824951 116.0
269.856384 124.0
269.902893 168.0
269.956055 176.0
270.046814 120.0
270.104126 268.0
270.172394 112.0
270.222412 76.0
270.22998 92.0
270.2435 192.0
270.343872 160.0
270.351471 100.0
270.386047 80.0
270.462891 144.0
270.537628 72.0
270.599823 64.0
270.657013 144.0
270.722473 204.0
270.805023 192.0
270.861816 116.0
270.921509 200.0
270.979767 120.0
271.01651 132.0
271.04184 136.0
271.072052 184.0
271.117706 1784.0
271.18869 280.0
271.232758 196.0
271.287842 48.0
271.323059 128.0
271.445221 152.0
271.48941 84.0
271.537048 72.0
271.605927 196.0
271.651825 48.0
271.674805 32.0
271.745117 180.0
271.789642 96.0
271.901215 96.0
271.934021 164.0
271.958221 164.0
271.983276 116.0
272.012817 48.0
272.06546 248.0
272.116089 2836.0
272.213074 120.0
272.234802 76.0
272.318176 32.0
272.371826 156.0
272.42868 88.0
272.451202 88.0
272.504333 180.0
272.573975 120.0
272.604004 32.0
272.65567 248.0
272.676788 268.0
272.765045 136.0
272.863007 120.0
272.922852 172.0
272.996368 236.0
273.038452 160.0
273.133942 8600.0
273.208984 196.0
273.255066 68.0
273.300018 156.0
273.323425 72.0
273.352905 200.0
273.382843 48.0
273.419586 60.0
273.447693 148.0
273.535797 124.0
273.636078 136.0
273.693085 188.0
273.753632 60.0
273.801483 56.0
273.82373 48.0
273.866302 176.0
273.878448 120.0
273.896088 100.0
273.905182 192.0
273.948639 136.0
273.973663 164.0
274.033997 248.0
274.129669 11620.0
274.222198 52.0
274.242981 112.0
274.311035 68.0
274.34729 168.0
274.397919 60.0
274.457703 124.0
274.514343 140.0
274.551239 80.0
274.636627 100.0
274.70462 168.0
274.733551 208.0
274.742554 160.0
274.816162 188.0
274.853821 136.0
274.87851 224.0
274.905884 72.0
274.935577 232.0
275.054413 64.0
275.132233 4944.0
275.19516 100.0
275.219482 60.0
275.249207 156.0
275.275604 36.0
275.301849 136.0
275.335052 208.0
275.376343 116.0
275.396332 136.0
275.430847 60.0
275.453949 276.0
275.488037 152.0
275.556183 128.0
275.589417 248.0
275.612549 84.0
275.683014 184.0
275.71817 100.0
275.784393 88.0
275.85611 112.0
275.903168 120.0
275.910828 112.0
275.9711 124.0
276.043823 152.0
276.123901 656.0
276.197723 68.0
276.232056 148.0
276.261993 252.0
276.29364 68.0
276.343262 232.0
276.373047 100.0
276.419373 88.0
276.445862 32.0
276.498505 140.0
276.563904 168.0
276.596619 104.0
276.65741 48.0
276.716858 204.0
276.821533 132.0
276.891418 184.0
276.944641 200.0
277.022705 180.0
277.053192 104.0
277.078278 108.0
277.122955 264.0
277.153503 188.0
277.208527 64.0
277.215271 104.0
277.233032 80.0
277.24231 160.0
277.289398 112.0
277.336761 168.0
277.379852 112.0
277.418549 172.0
277.440002 160.0
277.477844 136.0
277.499207 176.0
277.555573 36.0
277.611938 236.0
277.68158 112.0
277.764496 40.0
277.817596 180.0
277.864014 100.0
277.907379 204.0
277.98349 48.0
278.048035 252.0
278.095184 200.0
278.144135 188.0
278.167419 132.0
278.202545 72.0
278.292175 108.0
278.428345 88.0
278.464874 76.0
278.514435 316.0
278.548798 196.0
278.624298 172.0
278.730347 92.0
278.798218 120.0
278.880188 148.0
278.95459 84.0
279.032043 228.0
279.069672 52.0
279.102509 132.0
279.144592 136.0
279.169434 72.0
279.229279 152.0
279.257782 256.0
279.299133 196.0
279.328278 216.0
279.372314 192.0
279.417084 176.0
279.465485 176.0
279.558655 68.0
279.651825 188.0
279.703308 120.0
279.771667 120.0
279.803314 128.0
279.848236 100.0
279.964783 96.0
280.020538 176.0
280.0625 220.0
280.114685 128.0
280.154663 44.0
280.244598 148.0
280.280365 148.0
280.303406 168.0
280.35791 216.0
280.381226 124.0
280.4552 192.0
280.481232 124.0
280.504547 116.0
280.553802 164.0
280.661255 216.0
280.683746 144.0
280.774628 84.0
280.831329 196.0
280.853424 96.0
280.873474 164.0
280.945251 180.0
280.978119 332.0
281.018188 252.0
281.124939 1012.0
281.204315 148.0
281.326294 48.0
281.351898 164.0
281.408417 168.0
281.450073 148.0
281.514191 132.0
281.578949 144.0
281.736267 224.0
281.799438 168.0
281.826172 124.0
281.862915 96.0
281.916382 132.0
281.943115 160.0
282.016663 100.0
282.133972 3616.0
282.177551 204.0
282.203094 124.0
282.230621 52.0
282.256348 112.0
282.314819 132.0
282.360748 48.0
282.441284 116.0
282.561737 116.0
282.662109 148.0
282.708954 104.0
282.769836 124.0
282.811859 172.0
282.849335 80.0
282.878113 104.0
282.970428 204.0
283.050415 52.0
283.138519 1356.0
283.248016 128.0
283.291565 156.0
283.33847 172.0
283.369171 140.0
283.46579 64.0
283.509338 120.0
283.558899 168.0
283.666443 208.0
283.711578 108.0
283.812134 160.0
283.908295 68.0
283.985443 76.0
284.022339 116.0
284.05957 80.0
284.085114 100.0
284.114807 688.0
284.160614 212.0
284.206848 116.0
284.25528 148.0
284.354492 128.0
284.545837 200.0
284.605286 108.0
284.73053 128.0
284.878326 96.0
284.901825 112.0
284.938934 96.0
285.012695 88.0
285.099976 956.0
285.128723 704.0
285.214447 132.0
285.301758 160.0
285.329987 132.0
285.386658 144.0
285.426147 128.0
285.500122 108.0
285.572357 136.0
285.631317 92.0
285.664948 152.0
285.698578 184.0
285.738953 84.0
285.765869 84.0
285.802887 136.0
285.829803 140.0
285.862823 152.0
285.918243 148.0
286.048584 132.0
286.102509 628.0
286.129181 776.0
286.206818 60.0
286.230377 72.0
286.264038 40.0
286.321289 120.0
286.367188 184.0
286.431488 120.0
286.524292 136.0
286.573944 96.0
286.663574 120.0
286.734589 120.0
286.776154 156.0
286.809845 156.0
286.836823 132.0
286.882385 216.0
286.957611 412.0
287.138336 1204.0
287.217926 168.0
287.265076 92.0
287.315674 136.0
287.338013 136.0
287.396362 152.0
287.418823 84.0
287.566498 176.0
287.592377 44.0
287.655212 144.0
287.690277 180.0
287.730804 144.0
287.764557 64.0
287.859924 116.0
287.889496 64.0
287.936768 48.0
287.970551 184.0
288.014893 252.0
288.042755 128.0
288.05899 112.0
288.068054 148.0
288.080688 92.0
288.146057 30612.0
288.194733 336.0
288.219421 180.0
288.294342 200.0
288.342529 200.0
288.409271 152.0
288.474152 156.0
288.50705 228.0
288.561707 60.0
288.569 176.0
288.609253 72.0
288.658813 276.0
288.714081 36.0
288.746521 136.0
288.772491 164.0
288.793701 96.0
288.827454 72.0
288.865387 148.0
288.872589 56.0
288.906799 200.0
288.958862 156.0
288.9888 304.0
289.018524 152.0
289.047119 144.0
289.073578 60.0
289.148224 5344.0
289.195465 188.0
289.24118 188.0
289.266815 276.0
289.323853 76.0
289.330963 180.0
289.366516 260.0
289.407013 104.0
289.440521 228.0
289.522858 228.0
289.563568 196.0
289.600159 120.0
289.644867 120.0
289.689758 192.0
289.756134 260.0
289.783081 132.0
289.81778 308.0
289.864594 268.0
289.922943 108.0
289.97522 88.0
289.997498 340.0
290.044708 132.0
290.082397 380.0
290.161865 128272.0
290.295227 240.0
290.328522 188.0
290.368164 164.0
290.402618 124.0
290.427917 180.0
290.45929 68.0
290.505341 108.0
290.53244 144.0
290.565216 192.0
290.589813 136.0
290.595215 96.0
290.626892 92.0
290.676727 92.0
290.720978 540.0
290.75885 224.0
290.786072 76.0
290.822021 116.0
290.83844 92.0
290.861481 140.0
290.874939 92.0
290.888611 204.0
290.941132 280.0
290.981018 180.0
291.012054 84.0
291.05011 324.0
291.098511 388.0
291.164062 19436.0
291.242493 136.0
291.282623 136.0
291.354675 108.0
291.388489 140.0
291.395874 136.0
291.463684 156.0
291.505188 172.0
291.554047 328.0
291.612854 116.0
291.635742 144.0
291.67218 168.0
291.741638 52.0
291.783508 100.0
291.795471 44.0
291.807739 96.0
291.863373 196.0
291.891022 68.0
291.899567 144.0
291.927032 164.0
291.95752 84.0
292.014038 208.0
292.049072 176.0
292.073578 88.0
292.112366 472.0
292.16568 2728.0
292.226135 92.0
292.248779 148.0
292.298035 60.0
292.334351 216.0
292.362946 100.0
292.399414 152.0
292.432526 52.0
292.47406 80.0
292.526245 68.0
292.56189 56.0
292.596252 172.0
292.651855 148.0
292.674896 196.0
292.737366 272.0
292.790039 168.0
292.822266 128.0
292.851044 192.0
292.889709 136.0
292.933075 212.0
292.961151 348.0
292.986847 112.0
293.025238 244.0
293.04187 116.0
293.053375 188.0
293.095245 208.0
293.100586 108.0
293.167999 264.0
293.230469 136.0
293.260193 172.0
293.29184 112.0
293.330017 116.0
293.38562 204.0
293.413605 84.0
293.454498 92.0
293.503204 72.0
293.567047 40.0
293.608368 220.0
293.660522 92.0
293.708771 260.0
293.734161 64.0
293.798981 104.0
293.839905 176.0
293.885406 96.0
293.959351 80.0
293.986633 64.0
294.031006 60.0
294.075806 132.0
294.113953 228.0
294.139587 164.0
294.164825 216.0
294.219299 100.0
294.269958 100.0
294.304108 92.0
294.335632 120.0
294.372925 180.0
294.404266 84.0
294.457764 80.0
294.491943 156.0
294.526093 32.0
294.553192 124.0
294.582458 136.0
294.621613 104.0
294.696411 144.0
294.83017 56.0
294.867767 152.0
294.901947 28.0
294.952362 128.0
294.981354 152.0
295.074341 196.0
295.108307 192.0
295.193939 136.0
295.266785 196.0
295.340759 100.0
295.386505 84.0
295.408447 188.0
295.524323 76.0
295.559662 136.0
295.613312 56.0
295.656891 136.0
295.752106 164.0
295.831146 160.0
295.908112 152.0
296.017242 92.0
296.113037 1536.0
296.174774 104.0
296.211884 92.0
296.294678 52.0
296.416595 152.0
296.453003 168.0
296.524261 92.0
296.565826 184.0
296.609131 148.0
296.633942 108.0
296.699097 120.0
296.855255 100.0
296.980286 124.0
297.048889 112.0
297.122314 1676.0
297.269714 244.0
297.300873 108.0
297.352356 72.0
297.45993 128.0
297.544037 148.0
297.602448 148.0
297.658844 156.0
297.719635 76.0
297.782898 268.0
297.841827 52.0
297.886475 180.0
297.943604 108.0
297.986115 36.0
298.03421 84.0
298.121399 568.0
298.186523 132.0
298.315826 144.0
298.355591 220.0
298.384796 160.0
298.453461 128.0
298.513947 128.0
298.719116 132.0
298.776855 80.0
298.845673 212.0
298.883514 152.0
298.93399 60.0
298.959015 120.0
299.000519 132.0
299.03299 112.0
299.134491 1056.0
299.213959 48.0
299.349335 164.0
299.38266 88.0
299.413574 148.0
299.44809 36.0
299.492889 112.0
299.641846 148.0
299.680542 112.0
299.756104 152.0
299.794525 80.0
299.839233 92.0
299.864868 176.0
299.927032 364.0
299.976654 184.0
300.021179 156.0
300.060486 368.0
300.146942 6940.0
300.210449 284.0
300.25647 172.0
300.269623 112.0
300.279846 180.0
300.330475 144.0
300.376251 160.0
300.402893 68.0
300.448883 308.0
300.552948 236.0
300.612274 104.0
300.647888 172.0
300.685852 216.0
300.723816 76.0
300.747986 180.0
300.779022 112.0
300.812653 152.0
300.854218 152.0
300.930939 72.0
301.026886 132.0
301.039581 104.0
301.130432 14168.0
301.191284 184.0
301.20993 76.0
301.215515 120.0
301.26413 96.0
301.298889 60.0
301.33313 72.0
301.360809 132.0
301.395538 148.0
301.446136 208.0
301.483612 72.0
301.545837 156.0
301.649536 108.0
301.687561 36.0
301.750031 168.0
301.787964 156.0
301.83548 200.0
301.85257 148.0
301.902954 160.0
301.976532 144.0
302.029907 48.0
302.06366 220.0
302.135162 3736.0
302.265167 60.0
302.321167 204.0
302.350861 156.0
302.373657 92.0
302.465363 132.0
302.523743 136.0
302.557983 72.0
302.61026 68.0
302.663239 128.0
302.722107 88.0
302.753265 48.0
302.793396 196.0
302.900787 148.0
303.004822 116.0
303.066406 60.0
303.139618 520.0
303.165009 832.0
303.206543 100.0
303.238312 120.0
303.289581 124.0
303.345764 128.0
303.370026 40.0
303.412842 112.0
303.53714 180.0
303.615173 116.0
303.692505 108.0
303.773193 136.0
303.899933 156.0
303.922974 228.0
304.014191 132.0
304.063751 96.0
304.088043 80.0
304.16803 128.0
304.209534 164.0
304.256866 352.0
304.291107 104.0
304.327576 112.0
304.422577 88.0
304.507294 128.0
304.572571 88.0
304.695221 108.0
304.772156 192.0
304.813873 136.0
304.858734 188.0
304.914124 80.0
304.944824 128.0
304.994781 72.0
305.132568 144.0
305.218536 48.0
305.275726 108.0
305.317932 96.0
305.363159 116.0
305.404877 224.0
305.459442 128.0
305.534851 200.0
305.550781 188.0
305.60318 36.0
305.693665 60.0
305.773682 60.0
305.903076 116.0
305.998413 88.0
306.028595 88.0
306.071259 172.0
306.099243 132.0
306.184509 144.0
306.237976 104.0
306.333588 156.0
306.392029 144.0
306.448364 156.0
306.471252 168.0
306.529388 76.0
306.658539 156.0
306.703674 68.0
306.7659 108.0
306.800354 124.0
306.814148 156.0
306.823517 252.0
306.867523 104.0
306.912842 144.0
306.949707 104.0
307.115112 112.0
307.189667 128.0
307.238251 132.0
307.268585 48.0
307.306976 344.0
307.338379 164.0
307.429108 76.0
307.457031 148.0
307.581696 120.0
307.628052 236.0
307.701385 64.0
307.7258 64.0
307.760742 112.0
307.848907 416.0
307.886444 164.0
307.950226 76.0
307.999359 144.0
308.068085 140.0
308.110443 104.0
308.148438 140.0
308.176361 56.0
308.21817 100.0
308.320831 236.0
308.410522 48.0
308.455292 124.0
308.548401 172.0
308.608673 152.0
308.621338 104.0
308.632294 184.0
308.774139 80.0
308.871979 196.0
308.92804 224.0
308.994507 112.0
309.053986 80.0
309.129608 648.0
309.207977 144.0
309.257965 140.0
309.302551 160.0
309.357117 144.0
309.411011 128.0
309.438995 76.0
309.481171 88.0
309.533539 112.0
309.569214 128.0
309.604584 128.0
309.71698 172.0
309.760956 120.0
309.824249 104.0
309.858093 128.0
309.949585 256.0
310.018005 292.0
310.046417 140.0
310.057739 164.0
310.130127 20644.0
310.19516 188.0
310.217834 176.0
310.281677 152.0
310.314911 52.0
310.349976 36.0
310.447144 180.0
310.502045 128.0
310.553864 188.0
310.581451 140.0
310.637573 60.0
310.685333 168.0
310.711548 44.0
310.723846 108.0
310.773224 48.0
310.841064 40.0
310.893707 136.0
310.94986 204.0
310.999237 172.0
311.037598 200.0
311.065155 52.0
311.134674 5216.0
311.212494 108.0
311.25528 228.0
311.297424 48.0
311.33252 132.0
311.371155 236.0
311.399261 120.0
311.430878 96.0
311.490601 108.0
311.560852 120.0
311.591492 100.0
311.618774 140.0
311.6828 236.0
311.757599 104.0
311.859528 260.0
311.941162 228.0
311.996643 132.0
312.02124 112.0
312.140472 1436.0
312.229736 108.0
312.31311 236.0
312.346008 180.0
312.440155 152.0
312.496033 84.0
312.52771 176.0
312.580505 96.0
312.612152 132.0
312.643829 92.0
312.693115 92.0
312.778595 84.0
312.812775 28.0
312.858551 232.0
312.893768 232.0
312.932343 104.0
312.943756 100.0
313.006439 96.0
313.076172 144.0
313.135162 300.0
313.213531 84.0
313.244598 244.0
313.356537 100.0
313.383331 60.0
313.464355 96.0
313.517212 116.0
313.561646 152.0
313.582947 68.0
313.620575 108.0
313.698944 36.0
313.715424 120.0
313.760437 184.0
313.805695 88.0
313.848572 56.0
313.8909 148.0
313.943787 132.0
313.980652 124.0
314.054932 180.0
314.065857 92.0
314.080048 148.0
314.125031 848.0
314.154846 536.0
314.197754 400.0
314.235382 88.0
314.284485 96.0
314.395355 76.0
314.426147 144.0
314.451813 120.0
314.54007 180.0
314.668701 120.0
314.731873 124.0
314.782654 152.0
314.932007 36.0
314.994141 132.0
315.035431 172.0
315.129059 656.0
315.238281 168.0
315.345398 192.0
315.373016 168.0
315.393494 132.0
315.529205 104.0
315.621155 68.0
315.677734 144.0
315.748932 116.0
315.808594 216.0
315.971313 84.0
316.047058 136.0
316.13736 692.0
316.180328 296.0
316.224426 144.0
316.263397 160.0
316.303955 32.0
316.360596 120.0
316.395996 84.0
316.466797 76.0
316.64386 156.0
316.700958 164.0
316.752258 100.0
316.792633 152.0
316.952087 188.0
317.005219 264.0
317.0513 60.0
317.136414 324.0
317.173004 144.0
317.277344 180.0
317.331329 124.0
317.370331 60.0
317.397919 132.0
317.466064 160.0
317.544098 96.0
317.622131 160.0
317.654053 116.0
317.682434 268.0
317.707275 108.0
317.735657 148.0
317.798065 156.0
317.847504 144.0
317.884674 56.0
317.923706 152.0
318.020752 156.0
318.155365 204.0
318.197021 56.0
318.243958 116.0
318.275146 88.0
318.303558 36.0
318.415558 208.0
318.470459 96.0
318.541504 72.0
318.633881 100.0
318.73172 252.0
318.834045 208.0
318.994812 124.0
319.024811 64.0
319.088806 140.0
319.167023 84.0
319.226257 196.0
319.399902 92.0
319.437317 188.0
319.544037 64.0
319.577698 236.0
319.615204 60.0
319.661469 124.0
319.705902 224.0
319.743317 60.0
319.786041 112.0
319.842987 144.0
319.869781 144.0
319.974701 128.0
320.038788 128.0
320.117126 140.0
320.195465 152.0
320.23465 76.0
320.277405 96.0
320.305878 120.0
320.355774 68.0
320.384247 128.0
320.469757 196.0
320.503265 40.0
320.601624 88.0
320.62738 88.0
320.780731 224.0
320.822601 148.0
320.851135 120.0
320.904602 244.0
320.96167 240.0
321.026154 92.0
321.093597 132.0
321.164948 160.0
321.343292 112.0
321.425385 196.0
321.518158 128.0
321.544525 156.0
321.566925 180.0
321.614532 96.0
321.641327 184.0
321.718048 152.0
321.7966 152.0
321.8573 168.0
321.938141 160.0
321.968658 192.0
322.013367 188.0
322.040771 128.0
322.116211 280.0
322.157928 116.0
322.203735 64.0
322.250183 164.0
322.310944 116.0
322.343964 164.0
322.396698 88.0
322.511047 132.0
322.604004 40.0
322.657623 116.0
322.786346 156.0
322.822113 172.0
322.850037 172.0
322.907928 52.0
323.061737 108.0
323.152527 176.0
323.226318 156.0
323.306732 164.0
323.343201 140.0
323.369476 160.0
323.44989 128.0
323.501923 244.0
323.544891 112.0
323.591858 132.0
323.645142 76.0
323.673767 60.0
323.777618 184.0
323.938812 144.0
323.98291 288.0
324.014038 200.0
324.071564 156.0
324.144989 1748.0
324.264893 132.0
324.350708 196.0
324.379578 84.0
324.48175 148.0
324.56958 64.0
324.659637 148.0
324.734558 96.0
324.788361 64.0
324.840363 332.0
324.942627 164.0
325.008728 84.0
325.07782 160.0
325.14917 660.0
325.241699 152.0
325.283539 60.0
325.308685 108.0
325.362518 88.0
325.408112 104.0
325.588593 92.0
325.664185 164.0
325.716125 112.0
325.789886 56.0
325.894745 128.0
325.952271 224.0
326.019958 176.0
326.048615 152.0
326.087799 212.0
326.161469 31928.0
326.237579 84.0
326.269928 56.0
326.302917 104.0
326.34848 104.0
326.375092 212.0
326.422333 100.0
326.466522 132.0
326.524323 88.0
326.602295 104.0
326.664429 176.0
326.697723 160.0
326.769653 124.0
326.833527 148.0
326.876373 88.0
326.933319 164.0
326.981293 248.0
326.998444 40.0
327.00592 180.0
327.073364 188.0
327.08139 288.0
327.163971 5876.0
327.242004 116.0
327.283295 180.0
327.372925 140.0
327.414673 96.0
327.448151 32.0
327.541779 88.0
327.588623 56.0
327.643799 76.0
327.692139 168.0
327.74646 148.0
327.783173 108.0
327.822601 148.0
327.85675 144.0
327.909027 140.0
327.986145 76.0
328.054871 168.0
328.069336 100.0
328.081238 204.0
328.141357 30556.0
328.227875 156.0
328.257996 100.0
328.279053 244.0
328.321686 260.0
328.350861 144.0
328.377289 212.0
328.450378 120.0
328.460968 32.0
328.474609 144.0
328.504059 76.0
328.565582 164.0
328.619049 148.0
328.656799 76.0
328.72406 100.0
328.74942 76.0
328.782288 76.0
328.82785 88.0
328.839386 64.0
328.901031 288.0
328.928955 280.0
328.992737 100.0
329.019745 152.0
329.146698 19336.0
329.228302 176.0
329.253723 188.0
329.361237 108.0
329.409668 84.0
329.468872 120.0
329.502472 120.0
329.544006 112.0
329.603149 44.0
329.643097 76.0
329.684937 196.0
329.75 76.0
329.788788 148.0
329.876923 68.0
329.91626 104.0
329.957062 200.0
329.994446 128.0
330.031982 96.0
330.095886 184.0
330.150269 2596.0
330.230865 160.0
330.256195 152.0
330.346619 56.0
330.407471 108.0
330.469635 168.0
330.516663 68.0
330.58905 84.0
330.616638 208.0
330.657806 112.0
330.684143 160.0
330.780853 72.0
330.846039 88.0
330.926941 172.0
330.951019 132.0
331.092255 216.0
331.145905 488.0
331.237122 164.0
331.26413 132.0
331.344788 56.0
331.359222 40.0
331.371185 84.0
331.384583 40.0
331.43277 136.0
331.465393 64.0
331.503784 120.0
331.604919 120.0
331.650208 144.0
331.697327 48.0
331.72995 96.0
331.758972 124.0
331.809723 180.0
331.913605 104.0
331.975647 168.0
332.038177 72.0
332.164062 140.0
332.22403 212.0
332.261597 76.0
332.299347 236.0
332.362946 180.0
332.422699 116.0
332.457794 84.0
332.488037 48.0
332.527863 136.0
332.606812 136.0
332.676788 60.0
332.753021 64.0
332.824219 152.0
332.854675 144.0
332.938202 248.0
333.039917 60.0
333.086517 120.0
333.119812 144.0
333.185211 148.0
333.214264 80.0
333.254242 64.0
333.29422 44.0
333.362335 128.0
333.441803 240.0
333.534088 104.0
333.570435 28.0
333.617676 80.0
333.690399 164.0
333.736633 112.0
333.791077 116.0
333.835846 96.0
333.908569 76.0
333.977692 60.0
334.054077 156.0
334.167816 196.0
334.23233 148.0
334.290558 168.0
334.31604 244.0
334.403381 128.0
334.525177 52.0
334.5672 228.0
334.636353 128.0
334.666748 188.0
334.692993 144.0
334.791138 104.0
334.865784 160.0
334.98233 36.0
335.030457 228.0
335.066132 104.0
335.097809 52.0
335.143646 72.0
335.182739 156.0
335.378937 144.0
335.474304 160.0
335.601898 128.0
335.733185 84.0
335.917755 292.0
335.95636 192.0
336.043243 176.0
336.090668 116.0
336.123505 188.0
336.200165 44.0
336.243958 220.0
336.286835 176.0
336.316956 152.0
336.430328 124.0
336.481201 144.0
336.559845 164.0
336.66745 44.0
336.700317 148.0
336.747803 56.0
336.791626 88.0
336.842743 120.0
336.917725 104.0
336.977936 100.0
337.010803 140.0
337.131409 348.0
337.213226 136.0
337.272949 96.0
337.36969 124.0
337.442108 100.0
337.476532 148.0
337.526184 112.0
337.559113 116.0
337.646881 208.0
337.687103 120.0
337.800873 152.0
337.987091 152.0
338.02002 184.0
338.062927 336.0
338.098541 140.0
338.137146 172.0
338.192474 160.0
338.243286 248.0
338.30072 104.0
338.364075 140.0
338.415344 100.0
338.525208 96.0
338.565491 104.0
338.598236 112.0
338.627747 132.0
338.685211 180.0
338.730286 112.0
338.772644 188.0
338.826721 136.0
338.889404 356.0
339.026337 136.0
339.069031 108.0
339.109009 148.0
339.334991 92.0
339.413361 160.0
339.46698 52.0
339.522003 132.0
339.584351 200.0
339.610474 200.0
339.670715 144.0
339.705383 124.0
339.765717 72.0
339.91452 156.0
340.065002 160.0
340.136261 140.0
340.158203 164.0
340.226501 272.0
340.263611 116.0
340.314636 180.0
340.39563 136.0
340.432129 160.0
340.468842 92.0
340.542297 76.0
340.643555 232.0
340.710022 140.0
340.767365 152.0
340.79071 104.0
340.817841 28.0
340.845123 112.0
340.860382 48.0
340.876312 92.0
340.889862 132.0
340.903198 172.0
341.0242 128.0
341.078766 204.0
341.151184 188.0
341.2258 116.0
341.278931 160.0
341.316498 36.0
341.348755 120.0
341.4198 168.0
341.444977 100.0
341.49057 116.0
341.51474 80.0
341.578491 124.0
341.601196 136.0
341.693146 168.0
341.747284 92.0
341.800201 396.0
341.898315 200.0
341.96521 112.0
342.002747 120.0
342.054382 360.0
342.10141 80.0
342.156219 2608.0
342.211273 100.0
342.232361 196.0
342.262634 96.0
342.298584 80.0
342.351776 192.0
342.415131 156.0
342.459778 136.0
342.497375 248.0
342.522522 184.0
342.552612 84.0
342.594727 88.0
342.630402 168.0
342.70047 220.0
342.732422 120.0
342.789795 136.0
342.839447 148.0
342.894623 116.0
342.930603 224.0
342.97467 248.0
343.024261 332.0
343.091919 92.0
343.160156 616.0
343.225037 232.0
343.270813 376.0
343.315338 168.0
343.388489 160.0
343.454865 136.0
343.486359 144.0
343.544312 124.0
343.554077 288.0
343.570892 156.0
343.618439 260.0
343.631287 244.0
343.674683 432.0
343.748138 300.0
343.777344 372.0
343.818634 168.0
343.861389 244.0
343.929504 428.0
343.958221 364.0
344.004272 672.0
344.040436 500.0
344.109283 808.0
344.114746 1324.0
344.172974 342080.0
344.293457 588.0
344.397064 116.0
344.403931 196.0
344.436523 208.0
344.477844 236.0
344.548615 508.0
344.610809 232.0
344.653442 288.0
344.697968 208.0
344.716064 316.0
344.781952 2380.0
344.817322 316.0
344.844818 336.0
344.907288 216.0
344.948486 380.0
344.981659 224.0
345.014709 276.0
345.079285 240.0
345.115967 232.0
345.17511 78568.0
345.298706 120.0
345.35434 256.0
345.381073 184.0
345.413757 68.0
345.464661 296.0
345.508942 64.0
345.561798 148.0
345.592682 184.0
345.621674 160.0
345.650604 84.0
345.68277 164.0
345.722595 156.0
345.778107 168.0
345.819794 132.0
345.884491 324.0
345.959198 56.0
345.993805 136.0
346.037079 156.0
346.06665 120.0
346.177246 7660.0
346.23764 196.0
346.273102 100.0
346.294769 68.0
346.320862 148.0
346.331879 120.0
346.349243 176.0
346.410706 112.0
346.450317 52.0
346.491791 92.0
346.574463 96.0
346.608185 88.0
346.643066 100.0
346.676147 252.0
346.751678 116.0
346.78952 52.0
346.857941 176.0
346.887787 136.0
346.896667 192.0
346.940887 228.0
346.990417 80.0
347.038116 156.0
347.086456 244.0
347.125763 312.0
347.139252 388.0
347.181732 920.0
347.236237 176.0
347.303833 124.0
347.310638 92.0
347.356506 156.0
347.428864 224.0
347.494232 252.0
347.545929 240.0
347.584351 244.0
347.644958 476.0
347.69577 120.0
347.752014 68.0
347.815033 108.0
347.860138 200.0
347.890045 140.0
347.900604 164.0
347.914581 232.0
347.970245 144.0
348.01059 92.0
348.051788 256.0
348.099945 96.0
348.138367 112.0
348.179474 132.0
348.260742 84.0
348.28949 68.0
348.363831 288.0
348.432861 152.0
348.473053 100.0
348.528534 64.0
348.535645 48.0
348.556213 120.0
348.592621 172.0
348.616791 120.0
348.693298 132.0
348.730133 48.0
348.76358 36.0
348.789612 48.0
348.834595 280.0
348.906403 96.0
348.981171 288.0
349.034973 108.0
349.066254 68.0
349.171051 108.0
349.228363 84.0
349.254395 96.0
349.318085 92.0
349.374268 124.0
349.483826 108.0
349.530762 100.0
349.5867 140.0
349.639648 192.0
349.70462 36.0
349.764801 48.0
349.841156 224.0
349.90564 80.0
349.966797 64.0
350.021057 140.0
350.050842 228.0
350.154266 512.0
350.222168 100.0
350.275482 176.0
350.39267 52.0
350.458618 60.0
350.557465 96.0
350.60965 64.0
350.679474 136.0
350.751282 92.0
350.803467 160.0
350.885498 148.0
350.939636 84.0
351.012268 100.0
351.0849 48.0
351.162354 256.0
351.236023 88.0
351.366058 140.0
351.477356 140.0
351.579285 68.0
351.750977 36.0
351.975006 84.0
352.110535 96.0
352.187866 160.0
352.273773 168.0
352.311127 76.0
352.426971 64.0
352.497345 48.0
352.722198 100.0
352.748383 56.0
352.853058 84.0
353.013824 120.0
353.114807 168.0
353.161163 172.0
353.208313 128.0
353.243134 196.0
353.309326 68.0
353.417816 356.0
353.496399 80.0
353.545044 80.0
353.578735 160.0
353.713654 84.0
353.73175 68.0
353.745392 144.0
353.837006 92.0
353.968079 68.0
354.054199 120.0
354.080414 116.0
354.241486 80.0
354.308899 44.0
354.410065 100.0
354.466278 72.0
354.608673 180.0
354.676147 64.0
354.738281 56.0
355.012115 72.0
355.103607 72.0
355.142029 132.0
355.193604 52.0
355.257385 76.0
355.291931 76.0
355.562836 128.0
355.782776 32.0
355.824097 128.0
355.921692 96.0
356.207123 28.0
356.316071 124.0
356.387482 72.0
356.425049 84.0
356.477661 104.0
356.52652 128.0
356.746338 164.0
356.804962 104.0
356.838501 64.0
356.894897 128.0
356.936615 132.0
357.04483 156.0
357.169434 80.0
357.294525 96.0
357.462891 164.0
357.583313 96.0
357.713257 108.0
357.774536 100.0
357.809174 64.0
357.924561 112.0
357.982391 52.0
358.016266 56.0
358.189545 112.0
358.227203 188.0
358.268646 84.0
358.389221 140.0
358.61908 68.0
358.694489 112.0
358.7724 212.0
358.856598 84.0
358.882965 76.0
358.948578 180.0
359.014954 152.0
359.075317 32.0
359.101715 132.0
359.22995 136.0
359.301636 76.0
359.341614 128.0
359.437927 64.0
359.493408 164.0
359.554443 144.0
359.686554 40.0
359.72052 72.0
359.788483 68.0
359.848877 52.0
359.91571 160.0
359.936798 156.0
359.984833 160.0
360.010986 100.0
360.161133 164.0
360.338348 128.0
360.392792 48.0
360.453247 60.0
360.517487 84.0
360.608398 136.0
360.695129 64.0
360.744263 48.0
360.823639 72.0
360.914398 80.0
361.012695 56.0
361.095917 212.0
361.123688 176.0
361.364502 60.0
361.50827 88.0
361.579529 92.0
361.761871 140.0
361.837585 100.0
361.879883 116.0
361.939819 168.0
362.114014 36.0
362.159485 72.0
362.216309 104.0
362.292053 120.0
362.432251 64.0
362.481506 164.0
362.610352 92.0
362.693726 64.0
362.720276 124.0
362.784729 60.0
362.85675 44.0
362.933929 108.0
362.959961 92.0
363.031158 140.0
363.129791 56.0
363.171509 116.0
363.232178 148.0
363.258728 36.0
363.349792 32.0
363.463623 40.0
363.604034 96.0
363.66095 72.0
363.896332 124.0
363.979858 80.0
364.019562 256.0
364.160461 168.0
364.352081 92.0
364.378662 116.0
364.561066 108.0
364.614258 88.0
364.673248 100.0
364.758698 104.0
364.789124 140.0
364.849945 60.0
364.907288 92.0
365.123199 316.0
365.176971 124.0
365.359558 68.0
365.386169 92.0
365.55896 88.0
365.591644 60.0
365.850494 80.0
365.998962 88.0
366.11853 352.0
366.142273 376.0
366.170349 64.0
366.414124 68.0
366.589417 44.0
366.654205 124.0
366.917206 40.0
366.995636 204.0
367.113586 112.0
367.149811 92.0
367.207001 132.0
367.317627 128.0
367.393921 84.0
367.424438 148.0
367.44989 120.0
367.460876 80.0
367.634308 92.0
367.775513 56.0
367.89386 60.0
367.924408 68.0
368.035126 104.0
368.112335 216.0
368.271881 92.0
368.417053 108.0
368.497284 92.0
368.527832 188.0
368.585175 92.0
368.738037 52.0
368.804321 140.0
368.902374 180.0
369.166199 120.0
369.288605 196.0
369.315369 64.0
369.483673 160.0
369.60611 136.0
369.747711 128.0
370.023315 152.0
370.096069 236.0
370.253082 160.0
370.314362 52.0
370.398621 144.0
370.559509 60.0
370.617004 64.0
370.701294 80.0
370.896759 144.0
371.07309 96.0
371.13446 48.0
371.161285 76.0
371.387543 84.0
371.663788 68.0
371.774017 272.0
371.924744 120.0
372.013031 160.0
372.082123 116.0
372.312531 104.0
372.420074 112.0
372.493042 108.0
372.89267 152.0
373.073334 44.0
373.304016 104.0
373.330933 152.0
373.573242 60.0
373.707916 148.0
373.796417 84.0
373.838745 188.0
374.127411 36.0
374.185181 36.0
374.303131 172.0
374.597229 124.0
374.716675 112.0
374.82901 144.0
374.862457 144.0
374.977142 208.0
375.03653 112.0
375.113617 64.0
375.229279 140.0
375.48761 72.0
375.762695 156.0
375.803955 76.0
375.854095 136.0
375.962158 148.0
376.151276 48.0
376.197601 120.0
376.332733 140.0
376.38678 68.0
376.448578 64.0
376.674438 56.0
376.742126 140.0
376.803925 108.0
376.904388 132.0
377.076355 184.0
377.136261 108.0
377.252228 184.0
377.281769 44.0
377.472626 52.0
377.782043 204.0
378.149292 92.0
378.167114 140.0
378.251221 164.0
378.316101 188.0
378.432251 36.0
378.5755 120.0
378.676208 112.0
379.052002 116.0
379.102356 116.0
379.144379 128.0
379.188965 128.0
379.232361 44.0
379.292267 180.0
379.381439 128.0
379.509369 120.0
379.574371 116.0
379.614075 124.0
379.726532 132.0
379.757568 160.0
380.149414 112.0
380.277496 132.0
380.335724 92.0
380.611359 64.0
380.656647 148.0
380.716187 56.0
380.774445 120.0
380.984222 64.0
381.048584 120.0
381.153412 464.0
381.396118 168.0
381.464752 276.0
381.572845 376.0
381.617706 108.0
381.691589 156.0
381.769257 160.0
381.860138 128.0
382.13501 172.0
382.167664 164.0
382.2323 84.0
382.325684 92.0
382.376282 104.0
382.450226 44.0
382.500824 88.0
382.682922 196.0
382.785034 104.0
382.827728 104.0
382.891663 128.0
382.929138 88.0
383.134766 212.0
383.630524 164.0
383.712524 128.0
383.786469 88.0
383.833252 84.0
384.024353 208.0
384.055573 68.0
384.106262 192.0
384.140259 192.0
384.172577 76.0
384.426208 132.0
384.453522 180.0
384.560364 132.0
384.730652 68.0
384.761871 40.0
384.820435 72.0
384.91806 172.0
385.203186 92.0
385.238342 268.0
385.375061 136.0
385.444061 196.0
385.519653 92.0
385.937927 160.0
386.133453 116.0
386.325104 56.0
386.528564 88.0
386.826019 96.0
386.880829 140.0
387.10791 120.0
387.213654 124.0
387.335083 132.0
387.483948 132.0
387.744049 128.0
387.89151 152.0
387.954224 128.0
388.060089 200.0
388.146362 84.0
388.173798 112.0
388.260071 192.0
388.311066 56.0
388.342438 36.0
388.538574 124.0
388.797028 92.0
388.837433 100.0
388.883881 124.0
389.142975 108.0
389.281586 192.0
389.355042 140.0
389.82254 172.0
389.86969 112.0
389.919403 160.0
390.007233 132.0
390.10553 112.0
390.134949 132.0
390.163055 176.0
390.296021 172.0
390.361084 148.0
391.049561 120.0
391.138153 284.0
391.164032 204.0
391.234558 64.0
391.340881 124.0
391.458984 104.0
391.557465 152.0
391.620483 120.0
391.699249 48.0
391.89624 76.0
392.155945 172.0
392.392853 36.0
392.505005 108.0
392.641266 64.0
392.923767 76.0
393.091003 104.0
393.117096 92.0
393.162048 112.0
393.331757 148.0
393.687103 116.0
393.752838 204.0
394.012268 100.0
394.066315 76.0
394.146637 132.0
394.287598 160.0
394.599884 168.0
394.738281 72.0
394.932068 160.0
395.205017 116.0
395.46225 92.0
395.672058 140.0
395.810638 40.0
396.052216 152.0
396.15918 196.0
396.424652 144.0
396.573608 340.0
396.749664 92.0
396.806793 108.0
396.868591 104.0
396.912231 124.0
397.229492 52.0
397.292694 164.0
397.542938 76.0
397.832703 128.0
397.860474 116.0
398.241852 96.0
398.539642 116.0
398.587341 48.0
398.677399 192.0
398.996735 120.0
399.167694 68.0
399.389771 148.0
399.493835 64.0
399.69278 120.0
399.752472 168.0
400.5914 68.0
400.687317 168.0
400.73996 104.0
400.915283 168.0
401.110596 156.0
401.214233 104.0
401.293976 128.0
401.413605 120.0
401.565155 76.0
401.740662 64.0
401.836426 220.0
401.876312 220.0
402.167633 112.0
402.449188 136.0
402.458832 72.0
402.473633 204.0
402.514954 204.0
402.978302 36.0
403.106171 140.0
403.158112 68.0
403.246033 152.0
403.477905 104.0
403.521881 112.0
403.813782 48.0
403.90979 84.0
403.953796 200.0
404.0578 184.0
404.14624 116.0
404.209839 136.0
404.281891 72.0
404.361908 76.0
404.438446 188.0
404.578064 144.0
404.911377 152.0
405.114716 196.0
405.262939 88.0
405.375153 184.0
405.595581 112.0
405.647675 100.0
405.73587 176.0
405.918579 120.0
406.116821 184.0
406.161652 204.0
406.610352 68.0
406.722839 140.0
406.778931 148.0
406.930237 104.0
407.043915 156.0
407.072021 136.0
407.154663 368.0
407.20166 156.0
407.276825 152.0
407.513855 76.0
407.618347 108.0
407.702728 64.0
407.791138 84.0
408.163116 1404.0
408.243103 76.0
408.325867 84.0
408.595398 52.0
408.708038 80.0
408.77243 72.0
408.812683 120.0
409.15448 568.0
409.279816 84.0
409.350647 176.0
409.505127 120.0
409.553467 192.0
409.581665 40.0
409.64209 108.0
409.783112 76.0
409.819366 104.0
410.1651 312.0
410.234467 184.0
410.282867 48.0
410.37558 88.0
410.609467 120.0
410.674011 56.0
410.891846 156.0
411.004822 44.0
411.052704 136.0
411.170258 108.0
411.210632 148.0
411.307495 104.0
411.5578 72.0
411.630493 104.0
411.787994 84.0
411.833801 140.0
411.929352 60.0
412.575958 96.0
412.778107 140.0
412.822601 120.0
412.964142 148.0
413.008636 108.0
413.105713 80.0
413.190674 152.0
413.401093 268.0
413.429413 64.0
413.793732 84.0
413.886841 116.0
413.939484 220.0
414.105316 160.0
414.154144 200.0
414.1987 132.0
414.60791 152.0
414.652496 52.0
414.86731 148.0
414.915985 124.0
414.99707 64.0
415.191711 112.0
415.256592 180.0
415.362061 88.0
415.658234 44.0
415.763733 68.0
415.848969 84.0
415.897675 212.0
415.966675 128.0
416.01944 136.0
416.116882 44.0
416.230591 48.0
416.291504 40.0
416.356476 60.0
416.417389 112.0
416.713928 84.0
417.079681 72.0
417.425262 160.0
417.465912 104.0
417.628601 44.0
417.868622 96.0
418.139832 224.0
418.324432 72.0
418.37735 128.0
418.564636 160.0
418.59314 80.0
418.651459 212.0
418.690887 40.0
419.008606 32.0
419.086029 140.0
419.161591 316.0
419.293854 128.0
419.424286 44.0
419.619965 92.0
419.778992 168.0
419.811615 84.0
419.872772 156.0
420.101196 48.0
420.154236 64.0
420.264374 112.0
420.329681 208.0
420.43985 156.0
420.476593 64.0
420.517395 108.0
420.6521 36.0
420.70517 80.0
420.750092 196.0
420.823578 124.0
420.901154 204.0
421.011414 152.0
421.117584 140.0
421.167297 120.0
421.203369 184.0
421.501617 148.0
421.530212 232.0
421.558838 84.0
421.787689 156.0
422.045258 164.0
422.145569 480.0
422.184875 136.0
422.315186 108.0
422.408447 240.0
422.501892 136.0
422.793854 72.0
422.851166 136.0
422.995697 180.0
423.068115 128.0
423.148163 180.0
423.184418 108.0
423.375214 184.0
423.40387 88.0
423.493958 172.0
423.907745 132.0
423.942993 120.0
423.989716 64.0
424.038391 128.0
424.049011 112.0
424.186401 308.0
424.303772 136.0
424.534973 176.0
424.649811 132.0
424.84671 44.0
424.990295 56.0
425.158539 124.0
425.195465 132.0
425.236511 76.0
425.486908 36.0
425.704529 96.0
425.757935 56.0
426.165741 116.0
426.353638 164.0
426.781158 128.0
426.994995 112.0
427.032013 124.0
427.07312 112.0
427.624481 132.0
427.65741 88.0
427.690338 60.0
427.805603 92.0
428.085571 108.0
428.139099 40.0
428.217377 48.0
428.320343 112.0
428.35022 188.0
428.397583 180.0
428.608734 88.0
428.703491 80.0
428.75296 108.0
429.181061 108.0
429.338379 124.0
429.412628 128.0
429.594116 40.0
429.622986 104.0
429.870544 128.0
429.911804 32.0
430.349365 88.0
430.493896 44.0
430.564087 44.0
430.663239 40.0
430.77063 152.0
430.849121 52.0
430.993713 120.0
431.134216 92.0
431.196228 136.0
431.419434 40.0
431.464905 228.0
431.502106 124.0
431.63855 168.0
431.729523 140.0
431.785004 164.0
431.874298 116.0
431.998383 52.0
432.081116 60.0
432.155609 40.0
432.259033 152.0
432.387329 52.0
432.457703 28.0
432.693665 152.0
432.766113 112.0
432.917236 52.0
432.97522 172.0
433.070496 116.0
433.327332 200.0
433.406067 120.0
433.483032 224.0
433.73761 112.0
433.864624 100.0
434.00708 280.0
434.081726 148.0
434.18573 1240.0
434.334717 84.0
434.471588 68.0
434.529694 168.0
434.571167 180.0
434.630249 204.0
434.741302 96.0
435.133575 272.0
435.186432 260.0
435.408813 56.0
435.446594 148.0
435.546753 108.0
435.837585 48.0
435.870819 136.0
435.964569 128.0
436.013336 108.0
436.159668 10832.0
436.269836 44.0
436.329742 116.0
436.410278 148.0
436.456909 48.0
436.504059 156.0
436.563934 152.0
436.631592 184.0
436.685638 92.0
436.727234 52.0
436.803711 52.0
436.84668 168.0
436.876984 56.0
436.986755 168.0
437.072632 160.0
437.167664 6136.0
437.315674 152.0
437.36557 108.0
437.375214 44.0
437.391083 96.0
437.455444 176.0
437.488739 104.0
437.623291 188.0
437.721893 84.0
437.760925 140.0
437.838501 80.0
437.880157 120.0
437.913483 88.0
438.003418 128.0
438.080109 56.0
438.171173 1520.0
438.492615 148.0
438.559296 56.0
438.619507 180.0
438.868103 52.0
439.034607 52.0
439.18631 328.0
439.293182 56.0
439.343262 48.0
439.388947 84.0
439.430878 64.0
439.472595 168.0
439.521423 160.0
439.564392 180.0
439.710297 108.0
439.871399 72.0
439.955353 168.0
440.052765 84.0
440.13208 92.0
440.171356 108.0
440.233002 48.0
440.353424 36.0
440.411896 144.0
440.487091 116.0
440.520508 52.0
440.570648 44.0
440.733582 240.0
440.875671 100.0
440.946564 124.0
441.017761 116.0
441.06665 200.0
441.352203 124.0
441.460938 52.0
441.509399 160.0
441.619843 128.0
441.757904 92.0
441.883392 152.0
442.034027 40.0
442.193054 272.0
442.267456 148.0
442.297699 40.0
442.481903 40.0
442.527954 68.0
442.586578 84.0
442.708008 72.0
442.791779 92.0
442.833649 116.0
443.013763 32.0
443.059845 96.0
443.185547 156.0
443.549011 88.0
443.687073 164.0
443.826843 40.0
443.88974 84.0
443.977814 128.0
444.086853 100.0
444.158173 108.0
444.2211 140.0
444.325958 40.0
444.397308 36.0
444.460236 92.0
444.594513 100.0
444.816986 100.0
445.03949 92.0
445.226013 96.0
445.329498 132.0
445.497284 48.0
445.892242 76.0
446.01413 68.0
446.08139 128.0
446.157074 44.0
446.232758 100.0
446.308441 120.0
446.399597 100.0
446.510925 176.0
446.762909 140.0
447.010895 192.0
447.044556 140.0
447.153992 156.0
447.209381 244.0
447.339203 180.0
447.446411 180.0
447.497467 196.0
447.560089 68.0
447.666016 64.0
447.701172 136.0
447.831848 96.0
447.878204 132.0
447.931 148.0
447.979279 48.0
448.181519 196.0
448.267273 80.0
448.400665 92.0
448.446442 172.0
448.624329 120.0
448.663971 184.0
448.756866 112.0
448.81189 128.0
448.922333 132.0
449.048309 156.0
449.079468 88.0
449.145844 92.0
449.16098 136.0
449.191315 76.0
449.235535 168.0
449.344757 144.0
449.456268 212.0
449.49292 44.0
449.591644 160.0
449.662964 160.0
449.74472 96.0
449.800995 80.0
449.851837 88.0
449.904083 140.0
449.940918 136.0
449.98941 324.0
450.039032 232.0
450.081482 128.0
450.167023 260.0
450.283691 176.0
450.379974 180.0
450.463989 132.0
450.512909 164.0
450.621002 164.0
450.651642 500.0
450.742828 144.0
450.782379 220.0
450.824524 192.0
450.875641 124.0
450.928711 176.0
451.018066 172.0
451.049866 232.0
451.061371 92.0
451.076111 180.0
451.145142 172.0
451.181824 380.0
451.229645 308.0
451.26532 124.0
451.294708 192.0
451.340759 164.0
451.404785 128.0
451.454407 240.0
451.527924 300.0
451.540985 40.0
451.560852 336.0
451.619141 472.0
451.665619 196.0
451.696564 396.0
451.739441 460.0
451.773041 268.0
451.821136 412.0
451.883636 432.0
451.894592 128.0
451.972076 808.0
452.055786 556.0
452.114227 856.0
452.125519 1000.0
452.194794 245588.0
452.315704 256.0
452.34906 136.0
452.41983 168.0
452.450867 344.0
452.50415 120.0
452.556732 220.0
452.589203 252.0
452.607513 284.0
452.683136 532.0
452.721069 284.0
452.766571 92.0
452.781403 180.0
452.840454 188.0
452.893036 2300.0
452.949829 272.0
452.998535 480.0
453.038452 420.0
453.114563 452.0
453.129822 192.0
453.19696 99016.0
453.31424 240.0
453.369598 188.0
453.376587 160.0
453.467682 184.0
453.474884 152.0
453.503845 184.0
453.570984 160.0
453.60907 148.0
453.638672 336.0
453.68866 112.0
453.725769 136.0
453.768097 72.0
453.818939 176.0
453.892883 172.0
453.947845 148.0
454.004028 164.0
454.05896 112.0
454.1026 116.0
454.134613 188.0
454.197083 10404.0
454.279633 156.0
454.341766 220.0
454.381012 96.0
454.404633 64.0
454.476715 124.0
454.488037 132.0
454.505829 72.0
454.523956 108.0
454.572998 52.0
454.622223 76.0
454.675598 112.0
454.726227 212.0
454.799622 100.0
454.83905 232.0
454.887787 116.0
454.913147 80.0
455.006927 108.0
455.061279 136.0
455.092346 156.0
455.200775 940.0
455.278625 104.0
455.325653 216.0
455.381256 104.0
455.443939 140.0
455.496338 368.0
455.570068 124.0
455.592651 160.0
455.665039 292.0
455.70108 396.0
455.74942 244.0
455.79068 124.0
455.857178 172.0
455.904907 200.0
455.938873 280.0
456.006195 140.0
456.051575 216.0
456.072571 124.0
456.079468 340.0
456.209625 304.0
456.279449 128.0
456.32547 164.0
456.381378 88.0
456.418701 48.0
456.471375 160.0
456.53299 100.0
456.570129 52.0
456.587585 60.0
456.627197 144.0
456.660675 124.0
456.699524 116.0
456.757507 104.0
456.794403 140.0
456.825684 236.0
456.895874 184.0
456.940735 356.0
457.032623 132.0
457.090088 288.0
457.11731 268.0
457.172913 172.0
457.204559 148.0
457.297607 68.0
457.34552 112.0
457.410217 148.0
457.448303 104.0
457.55899 60.0
457.605804 68.0
457.655487 72.0
457.7117 92.0
457.749176 60.0
457.782379 60.0
457.935577 184.0
457.949829 56.0
457.960754 116.0
458.022552 56.0
458.134857 108.0
458.21933 80.0
458.265991 44.0
458.381042 96.0
458.419373 32.0
458.462006 48.0
458.508881 100.0
458.542969 68.0
458.581329 60.0
458.653809 40.0
458.849884 84.0
458.892517 96.0
458.966614 128.0
459.130463 60.0
459.199554 52.0
459.307343 60.0
459.353119 36.0
459.48111 60.0
459.519501 96.0
459.572571 64.0
459.64975 68.0
459.71579 100.0
459.886505 48.0
460.057251 84.0
460.104218 108.0
460.296356 72.0
460.390289 44.0
460.471436 76.0
460.509888 80.0
460.544037 80.0
460.57608 80.0
460.885803 48.0
460.940643 48.0
461.014008 100.0
461.167877 100.0
461.308929 40.0
461.355957 64.0
461.441467 88.0
461.706573 28.0
461.745056 64.0
461.779297 60.0
461.809235 136.0
461.931427 84.0
462.040222 48.0
462.125793 84.0
462.515228 28.0
462.562317 60.0
462.866302 52.0
462.926239 48.0
463.10611 48.0
463.33316 36.0
463.376007 48.0
463.427429 44.0
463.581665 72.0
463.81311 52.0
464.11322 72.0
464.151794 124.0
464.409119 72.0
464.593567 80.0
464.730865 56.0
465.099945 92.0
465.166473 68.0
465.318878 136.0
465.348938 28.0
465.550751 48.0
465.666718 44.0
465.804169 124.0
465.967407 120.0
466.006073 112.0
466.06192 92.0
466.126404 60.0
466.276794 60.0
466.440125 56.0
466.577698 84.0
466.943207 68.0
466.994812 96.0
467.080841 68.0
467.158966 148.0
467.300232 104.0
467.476654 52.0
467.512054 88.0
467.734894 80.0
467.882294 68.0
467.993195 68.0
468.040558 76.0
468.083618 76.0
468.259064 60.0
468.683868 92.0
468.84613 100.0
468.919403 104.0
469.070251 64.0
469.190979 56.0
469.307373 84.0
469.579071 104.0
469.635132 56.0
469.760223 88.0
469.820618 136.0
469.993195 108.0
470.040649 48.0
470.12265 72.0
470.208008 120.0
470.282349 60.0
470.523315 68.0
470.67627 128.0
470.761566 40.0
471.068237 56.0
471.128693 36.0
471.80722 96.0
471.888428 188.0
471.919617 52.0
471.980164 72.0
472.15744 120.0
472.282898 96.0
472.434296 56.0
472.499176 120.0
472.663605 92.0
472.698212 108.0
472.776123 72.0
472.819397 52.0
472.862671 136.0
473.025482 52.0
473.148376 32.0
473.468781 88.0
473.572723 92.0
473.763336 112.0
474.001648 68.0
474.174988 92.0
474.225616 88.0
474.378693 80.0
474.981445 72.0
475.337219 60.0
475.391113 48.0
475.463074 60.0
475.50647 72.0
475.623657 52.0
475.814667 48.0
475.944916 92.0
476.175537 76.0
476.522614 56.0
476.570404 56.0
476.709442 36.0
476.878937 68.0
477.044128 108.0
477.300629 36.0
477.369934 64.0
477.696411 84.0
478.336121 88.0
478.601685 52.0
478.797638 60.0
479.429352 52.0
479.490356 76.0
479.725739 64.0
479.974243 108.0
480.4104 72.0
480.528198 68.0
480.667816 52.0
481.243988 72.0
481.326965 76.0
481.606476 84.0
481.645782 48.0
482.445465 92.0
482.596436 68.0
482.878357 72.0
483.302704 92.0
483.880432 108.0
483.959259 48.0
484.940552 148.0
485.072052 108.0
485.172882 92.0
485.82193 44.0
486.181732 56.0
486.651428 72.0
486.778778 96.0
487.156494 100.0
487.446472 100.0
488.48407 104.0
488.756836 100.0
488.985687 48.0
489.276215 92.0
489.434723 120.0
489.751801 124.0
489.905975 88.0
490.355438 48.0
490.681641 80.0
490.985901 96.0
491.100555 72.0
491.188782 64.0
491.24173 100.0
491.422607 92.0
492.742737 132.0
493.824585 104.0
494.268158 32.0
494.387634 88.0
494.901123 72.0
494.949829 48.0
495.095978 56.0
495.379456 112.0
495.560516 92.0
495.667419 152.0
496.092926 96.0
496.483093 76.0
497.126373 52.0
497.623505 68.0
498.080933 144.0
498.307495 76.0
499.307678 68.0
499.699127 104.0
499.832611 60.0
500.23761 128.0
500.478027 40.0
500.562653 96.0
501.97525 40.0
502.193787 48.0
502.434662 84.0
502.630981 64.0
503.063904 136.0
503.760559 56.0
504.350403 44.0
505.383453 60.0
506.023499 48.0
506.381744 104.0
506.995544 40.0
508.551819 84.0
508.690979 96.0
509.189392 116.0
509.809357 64.0
510.353271 68.0
510.821014 116.0
511.063965 72.0
512.29303 104.0
512.932983 60.0
513.031311 108.0
513.077209 72.0
513.514587 76.0
513.965759 140.0
514.227478 100.0
514.791809 72.0
515.505554 56.0
515.772217 56.0
516.43689 104.0
517.097473 112.0
517.301208 60.0
517.550171 44.0
518.197876 100.0
518.302124 56.0
519.553467 64.0
520.379517 80.0
521.110718 128.0
521.783386 72.0
522.520203 36.0
523.084473 60.0
523.116333 100.0
523.362183 36.0
523.576233 128.0
524.724548 48.0
524.952515 104.0
525.285461 112.0
526.275818 108.0
526.339722 40.0
526.892395 80.0
527.308228 132.0
527.769958 56.0
528.154114 88.0
529.192932 76.0
529.321167 52.0
529.522644 48.0
529.890808 64.0
530.017395 52.0
530.535339 72.0
530.59491 104.0
530.727905 68.0
530.833374 68.0
531.475525 76.0
532.085999 96.0
532.797852 48.0
533.436646 104.0
534.117188 96.0
535.511841 76.0
535.746765 36.0
536.714661 48.0
536.783813 96.0
537.711121 88.0
540.803162 84.0
541.099426 72.0
541.256897 76.0
542.276062 68.0
542.410461 96.0
543.027161 124.0
543.175598 52.0
543.84845 88.0
544.712097 52.0
544.925781 120.0
545.24646 108.0
546.502014 48.0
546.809143 84.0
546.967407 52.0
548.471924 72.0
549.031433 56.0
550.230652 72.0
550.286682 80.0
551.281616 76.0
552.399048 112.0
552.848267 100.0
553.343018 136.0
553.569153 96.0
553.990723 112.0
555.040588 140.0
555.364136 108.0
556.002258 44.0
558.33252 60.0
558.755859 116.0
559.546509 44.0
560.073975 100.0
560.22467 64.0
560.85144 120.0
561.634155 56.0
561.931335 100.0
563.309875 60.0
564.288147 48.0
564.642822 48.0
565.347717 100.0
566.687805 76.0
566.768311 48.0
566.910522 44.0
567.100098 68.0
567.152222 100.0
567.702209 100.0
571.607056 88.0
571.84021 36.0
573.43103 56.0
574.050781 68.0
574.408508 32.0
574.480042 80.0
574.637451 40.0
575.467957 76.0
576.136597 80.0
576.480591 64.0
577.398499 76.0
577.685486 124.0
579.418518 52.0
579.5 36.0
580.67926 96.0
581.854919 72.0
582.42157 112.0
582.575256 112.0
583.560486 68.0
584.041443 144.0
584.344482 44.0
584.613953 68.0
584.835327 96.0
585.379395 84.0
586.444092 36.0
586.829773 48.0
587.022644 52.0
588.595764 56.0
588.697144 84.0
588.948303 76.0
589.107727 92.0
589.378296 68.0
590.137146 88.0
590.867432 104.0
591.254578 36.0
591.341675 64.0
592.063049 84.0
592.145386 60.0
593.817505 72.0
594.004272 120.0
594.996643 88.0
596.896484 116.0
597.139648 64.0
597.26123 84.0
597.304993 44.0
597.893738 76.0
599.169495 104.0
599.208496 84.0
599.408264 76.0
600.305176 60.0
600.422241 52.0
600.797852 60.0
601.16864 72.0
601.227234 88.0
601.783691 76.0
602.130432 64.0
603.044067 76.0
604.242126 100.0
604.893005 104.0
606.22522 88.0
606.445801 92.0
606.877197 56.0
607.460815 64.0
608.383362 44.0
608.982483 52.0
609.159302 112.0
609.454041 176.0
609.542542 84.0
610.333923 48.0
611.598267 88.0
611.854248 60.0
612.755554 40.0
613.317322 48.0
613.415894 116.0
613.795532 92.0
614.37262 92.0
615.532471 44.0
615.967102 92.0
617.064209 128.0
617.173035 104.0
617.405457 72.0
617.891541 52.0
618.954346 44.0
618.998901 136.0
619.791443 64.0
619.925293 96.0
620.059082 40.0
621.179688 48.0
621.804871 100.0
622.266541 48.0
622.400574 76.0
622.435303 72.0
622.676147 72.0
622.822693 68.0
622.867432 152.0
623.071106 96.0
623.30957 40.0
623.627625 48.0
624.234192 112.0
625.089783 92.0
625.174377 84.0
626.713074 40.0
627.17157 136.0
627.22644 44.0
627.695068 76.0
629.281799 68.0
629.471558 72.0
630.915527 104.0
632.035889 76.0
632.110901 36.0
632.956909 72.0
635.026672 84.0
635.257385 44.0
635.322571 36.0
635.939819 28.0
637.401245 92.0
637.455688 72.0
637.697754 100.0
638.622864 80.0
638.899536 100.0
639.000183 72.0
639.815491 52.0
640.264954 136.0
640.55072 108.0
640.591064 72.0
640.641418 76.0
641.054565 72.0
641.1604 32.0
641.336792 44.0
641.57373 52.0
641.76532 36.0
643.218262 56.0
643.293579 100.0
645.421021 96.0
645.977356 60.0
646.103821 64.0
647.181885 56.0
648.093628 72.0
648.696716 100.0
649.041504 76.0
649.792175 72.0
650.264099 72.0
650.304688 84.0
652.097595 64.0
653.114502 76.0
653.475708 112.0
653.784668 84.0
654.213684 40.0
654.488586 60.0
655.410522 72.0
656.991089 96.0
657.113525 120.0
658.270081 104.0
660.577271 56.0
663.050415 68.0
664.234802 68.0
664.347656 84.0
664.722229 88.0
665.035278 108.0
665.641052 56.0
666.298523 52.0
667.994995 36.0
668.031006 64.0
669.127197 92.0
669.189026 60.0
670.806702 72.0
671.822571 52.0
671.982544 100.0
672.076721 124.0
673.128418 96.0
673.779236 104.0
674.177124 36.0
674.766357 68.0
675.790466 84.0
676.447693 44.0
677.861633 100.0
678.06897 64.0
678.182983 76.0
678.431824 52.0
678.69104 40.0
678.997009 60.0
679.697327 32.0
680.247498 84.0
681.301697 52.0
681.530273 44.0
681.696533 116.0
682.523071 100.0
683.100403 104.0
683.532227 52.0
683.646667 56.0
684.225708 64.0
684.792053 68.0
686.350281 104.0
686.511902 144.0
686.558838 92.0
687.190063 68.0
687.800598 104.0
688.448059 72.0
689.519043 40.0
690.162048 112.0
690.386902 84.0
692.19751 48.0
692.386047 92.0
694.110168 60.0
694.445801 40.0
694.660889 100.0
694.729065 52.0
694.954651 48.0
695.001892 88.0
695.074097 88.0
697.722534 48.0
698.706055 96.0
701.154541 140.0
702.541321 96.0
703.322327 52.0
704.558044 76.0
704.758789 36.0
704.801086 68.0
705.276672 72.0
705.784241 60.0
706.360718 76.0
706.429443 96.0
706.799805 72.0
708.584167 52.0
708.653015 100.0
710.301819 92.0
711.007446 148.0
711.421509 44.0
711.994934 76.0
712.212708 68.0
712.510193 120.0
713.371155 76.0
713.647583 56.0
713.716736 32.0
714.041077 100.0
714.530518 56.0
714.839111 84.0
715.5896 68.0
716.750793 32.0
717.64624 80.0
717.76355 68.0
718.179565 40.0
719.177307 28.0
720.715393 60.0
720.923767 64.0
721.951843 92.0
722.372742 52.0
723.534058 64.0
723.609009 60.0
724.14447 36.0
724.915955 136.0
725.896973 72.0
725.961304 60.0
726.647888 92.0
727.232849 68.0
727.973694 44.0
728.849304 68.0
730.058838 76.0
730.602112 60.0
731.172485 32.0
732.448547 92.0
733.041199 28.0
733.423828 32.0
733.499268 88.0
734.39978 72.0
735.279236 92.0
736.180786 60.0
736.969482 64.0
737.423401 40.0
738.694092 48.0
739.202698 28.0
739.48407 44.0
739.711426 88.0
739.868408 84.0
741.623535 64.0
742.778503 136.0
742.897827 76.0
743.657532 88.0
743.760681 72.0
744.249268 96.0
744.423035 48.0
748.038635 48.0
750.615723 116.0
752.787598 44.0
753.027893 64.0
753.311951 52.0
753.738098 40.0
754.055054 48.0
754.164368 88.0
755.991089 48.0
757.425537 100.0
759.453613 112.0
761.138489 64.0
763.770996 48.0
763.903015 64.0
765.014587 144.0
765.102722 52.0
766.011353 44.0
767.130005 28.0
768.459167 72.0
769.739746 44.0
770.358337 52.0
770.640076 64.0
772.730042 72.0
772.840698 96.0
772.890503 56.0
773.643188 52.0
775.020569 156.0
775.792664 40.0
775.881409 48.0
775.970093 52.0
777.706421 48.0
779.550293 88.0
780.000488 80.0
781.32959 44.0
782.32019 68.0
784.097046 56.0
784.197388 92.0
784.487244 92.0
784.866394 72.0
785.128479 148.0
785.569092 116.0
786.322388 108.0
787.237976 92.0
787.645691 88.0
788.634705 60.0
789.702637 40.0
790.452332 48.0
791.291931 32.0
793.757324 56.0
794.25647 68.0
794.750122 44.0
797.119751 96.0
797.271484 84.0
797.496277 52.0
797.996643 40.0
801.632874 36.0
802.230347 72.0
802.918213 100.0
803.606445 60.0
804.272339 52.0
806.124817 120.0
806.424377 36.0
807.91156 64.0
808.4151 56.0
808.947144 120.0
809.235901 72.0
809.275513 72.0
809.937683 48.0
810.380005 76.0
813.289246 68.0
813.340332 124.0
813.402771 60.0
813.856934 28.0
815.510132 80.0
816.573303 64.0
818.849915 48.0
819.037903 36.0
819.630371 52.0
823.092834 52.0
825.847473 36.0
825.984741 68.0
826.08197 88.0
826.465332 100.0
828.46344 32.0
829.17395 56.0
829.397522 152.0
830.67627 108.0
834.014343 84.0
834.242432 116.0
835.438599 36.0
835.818298 140.0
836.013977 48.0
836.209656 52.0
836.399597 48.0
837.176819 56.0
837.810425 40.0
838.012085 68.0
839.59729 64.0
843.407959 44.0
845.785278 116.0
846.184753 64.0
846.312134 84.0
846.491638 72.0
847.279358 108.0
848.258728 92.0
848.91394 116.0
849.314087 260.0
849.389526 100.0
850.486206 60.0
851.026123 44.0
852.257446 92.0
854.46106 132.0
855.095337 120.0
855.526123 116.0
855.648376 76.0
855.700745 68.0
858.678467 48.0
860.067139 128.0
860.259766 68.0
860.557556 76.0
861.480286 100.0
863.444275 156.0
864.087708 148.0
865.147034 172.0
865.193848 144.0
865.586121 36.0
866.130798 156.0
866.76355 172.0
868.018005 48.0
868.223267 56.0
869.431763 144.0
871.968933 72.0
872.321594 108.0
873.862427 32.0
874.333191 32.0
874.862976 124.0
875.51062 44.0
875.781555 116.0
875.922913 32.0
877.7146 48.0
878.280762 156.0
879.080872 144.0
879.372314 116.0
879.885925 100.0
880.08075 68.0
880.629944 76.0
882.438232 96.0
884.775208 148.0
884.899536 104.0
886.084106 84.0
887.067871 64.0
888.348755 36.0
888.669128 28.0
888.953979 72.0
889.636536 80.0
890.545044 164.0
890.824219 44.0
891.180664 76.0
892.488342 72.0
893.838623 68.0
894.070679 148.0
894.475403 104.0
895.416199 52.0
895.577026 112.0
896.94751 132.0
897.179993 60.0
897.812012 48.0
898.635193 48.0
899.196167 68.0
899.799072 96.0
900.234924 60.0
901.842102 128.0
902.864441 208.0
903.648071 36.0
903.88739 148.0
904.180664 76.0
905.776855 88.0
907.295471 124.0
907.391357 144.0
907.697205 76.0
909.292969 56.0
910.169434 52.0
911.833496 112.0
912.236206 44.0
912.897583 84.0
913.589294 60.0
916.774475 112.0
917.389282 36.0
918.05249 92.0
921.970581 104.0
922.659668 84.0
923.107056 76.0
923.300598 104.0
923.717957 56.0
924.456116 28.0
924.679993 32.0
926.060486 52.0
928.539368 28.0
928.982178 48.0
931.671509 52.0
932.674194 48.0
933.391602 64.0
933.847717 200.0
934.583801 112.0
935.965515 88.0
937.39093 112.0
937.598145 60.0
940.348755 56.0
941.661438 80.0
943.011719 52.0
943.977661 92.0
944.540344 188.0
945.219482 64.0
946.976501 48.0
947.172485 60.0
947.411377 172.0
947.852539 60.0
948.955872 72.0
949.470947 156.0
950.654968 84.0
952.165222 140.0
952.810181 100.0
957.86084 56.0
959.635742 92.0
960.610168 108.0
960.764404 92.0
961.18396 56.0
961.560425 132.0
963.499329 120.0
964.586975 132.0
967.828857 200.0
968.528687 76.0
969.507568 100.0
971.864014 108.0
972.642578 124.0
972.844604 80.0
972.931519 152.0
974.93158 56.0
975.826721 84.0
976.709778 140.0
977.518616 108.0
977.829773 184.0
977.873352 76.0
979.174561 60.0
980.1651 80.0
981.948059 128.0
982.185059 36.0
982.503235 156.0
982.553101 164.0
982.61554 96.0
982.958679 36.0
984.238342 44.0
984.350769 180.0
984.425659 148.0
985.356384 140.0
985.500061 68.0
986.856384 56.0
987.816895 236.0
988.430054 176.0
988.9646 96.0
989.421631 192.0
989.588928 88.0
991.344543 68.0
992.460327 40.0
994.147766 92.0
994.863281 112.0
995.034912 96.0
995.472351 156.0
997.96698 116.0
999.243774 76.0
999.747131 176.0
999.986267 72.0
1000.030334 44.0
1000.420654 52.0
1000.666138 64.0
1003.709473 108.0
1003.791443 52.0
1004.655579 116.0
1005.431702 68.0
1009.618958 188.0
1011.898254 200.0
1015.282043 72.0
1015.643555 84.0
1016.442932 84.0
1020.290405 80.0
1021.271301 128.0
1022.70929 96.0
1024.638794 112.0
1025.830566 44.0
1027.814087 92.0
1029.512085 60.0
1030.169922 72.0
1031.249878 40.0
1031.409668 196.0
1032.323975 76.0
1033.156982 196.0
1033.596924 96.0
1033.904053 32.0
1036.004272 116.0
1037.010376 108.0
1039.579712 108.0
1040.67981 88.0
1042.722534 68.0
1043.024658 200.0
1043.609741 28.0
1044.214233 84.0
1047.55481 164.0
1047.99292 112.0
1048.656738 72.0
1048.888794 124.0
1049.11438 72.0
1049.965576 116.0
1050.01709 56.0
1050.255737 96.0
1053.489868 204.0
1054.497803 48.0
1055.208984 64.0
1055.88147 48.0
1056.644775 92.0
1057.518311 56.0
1058.38916 212.0
1059.337891 52.0
1060.569092 116.0
1061.100708 76.0
1061.165527 76.0
1062.375977 112.0
1063.06604 188.0
1063.728027 148.0
1065.62439 52.0
1066.930786 84.0
1067.847656 40.0
1068.198853 124.0
1069.025269 88.0
1069.318115 92.0
1070.014648 92.0
1070.314087 48.0
1070.392212 60.0
1070.841553 68.0
1072.679077 112.0
1073.005005 72.0
1075.098877 128.0
1075.216431 196.0
1078.776245 96.0
1079.351562 96.0
1079.462769 56.0
1079.743896 92.0
1084.379395 88.0
1084.798828 88.0
1085.644653 56.0
1086.635132 48.0
1088.216919 76.0
1090.871094 164.0
1093.02832 324.0
1093.383789 168.0
1094.074829 84.0
1094.753052 168.0
1096.828491 48.0
1097.468018 40.0
1099.249023 152.0
1099.409424 100.0
1101.744751 156.0
1102.577393 168.0
1104.488159 88.0
1105.063721 148.0
1105.513672 56.0
1107.129028 96.0
1107.347534 164.0
1108.164551 92.0
1110.528931 112.0
1110.847412 88.0
1111.046387 128.0
1111.504272 32.0
1111.578613 56.0
1111.882446 132.0
1112.73877 308.0
1113.064087 64.0
1113.582153 76.0
1115.947876 36.0
1116.992065 116.0
1117.21814 100.0
1118.416016 60.0
1119.241577 36.0
1119.401367 84.0
1119.887451 92.0
1121.819946 152.0
1122.182129 96.0
1122.880127 80.0
1123.413696 192.0
1124.548096 112.0
1124.908569 156.0
1125.509399 280.0
1125.703125 76.0
1126.050415 36.0
1126.197266 88.0
1126.437744 76.0
1126.718384 128.0
1127.005615 60.0
1127.279663 40.0
1128.369141 84.0
1129.164917 36.0
1129.860596 92.0
1130.21521 164.0
1131.011597 144.0
1131.058472 140.0
1132.203369 36.0
1132.457886 156.0
1135.447144 48.0
1135.541016 76.0
1136.621094 76.0
1136.788818 72.0
1137.157959 52.0
1137.963501 188.0
1138.500732 136.0
1138.662842 172.0
1139.6427 152.0
1140.771729 192.0
1141.666016 140.0
1143.570068 60.0
1144.020996 172.0
1144.391357 68.0
1144.653931 84.0
1144.835815 76.0
1145.266846 144.0
1145.408203 256.0
1146.418945 52.0
1147.011963 200.0
1148.441528 192.0
1148.724854 144.0
1151.134277 84.0
1151.188354 76.0
1151.411255 52.0
1151.904297 68.0
1152.593384 100.0
1152.708252 120.0
1153.120483 184.0
1153.302979 132.0
1153.728882 72.0
1155.595581 136.0
1155.670044 36.0
1156.603882 200.0
1156.725708 48.0
1157.768433 80.0
1159.238525 160.0
1159.387573 224.0
1160.17395 92.0
1160.36377 356.0
1160.756958 140.0
1161.306274 76.0
1161.672607 68.0
1162.513916 64.0
1162.860107 36.0
1163.464233 140.0
1164.048096 140.0
1164.143188 140.0
1164.516724 116.0
1164.571045 152.0
1165.963867 188.0
1166.827148 132.0
1167.180786 64.0
1167.643188 160.0
1169.350952 80.0
1171.441284 160.0
1171.611572 212.0
1172.572388 180.0
1172.94043 52.0
1175.061401 136.0
1175.225098 48.0
1178.67334 116.0
1179.52771 48.0
1180.655884 64.0
1180.943115 144.0
1181.832397 144.0
1182.336304 156.0
1182.92749 104.0
1183.516235 112.0
1184.032104 208.0
1185.180664 128.0
1185.262939 136.0
1185.475342 140.0
1185.578125 40.0
1185.667236 100.0
1187.504639 172.0
1187.566406 84.0
1187.868286 100.0
1188.163208 148.0
1188.238647 144.0
1188.732788 188.0
1189.185669 144.0
1189.350464 216.0
1189.686768 48.0
1189.741699 68.0
1190.483276 184.0
1191.046509 132.0
1191.341797 104.0
1191.767822 124.0
1193.169922 72.0
1193.665283 164.0
1193.747437 76.0
1195.136963 208.0
1195.563599 144.0
1196.362061 108.0
1196.616821 60.0
1197.828857 164.0
1198.455811 164.0
1199.020874 168.0
1199.117432 52.0
1199.351685 140.0
1199.448242 136.0
1200.551392 120.0
1200.937622 156.0
1201.489502 52.0
1202.075928 180.0
1204.133301 144.0
1206.282227 64.0
1206.42041 116.0
1207.706665 180.0
1209.277222 36.0
1210.883545 128.0
1211.52771 128.0
1213.787231 92.0
1215.576904 144.0
1218.868408 124.0
1219.911011 148.0
1220.168213 88.0
1220.98877 132.0
1221.239136 72.0
1221.3573 164.0
1221.691284 56.0
1222.714111 164.0
1222.867188 56.0
1222.916016 180.0
1223.890625 204.0
1225.868896 100.0
1226.642578 88.0
1228.699829 160.0
1229.718628 108.0
1230.472534 160.0
1232.463135 44.0
1232.994263 96.0
1233.630249 116.0
1234.937866 196.0
1238.843872 104.0
1239.019043 172.0
1239.173096 132.0
1239.495483 104.0
1240.028076 196.0
1240.161255 96.0
1240.448608 132.0
1242.21582 72.0
1242.510376 60.0
1242.622681 104.0
1243.668335 80.0
1243.731445 184.0
1243.78064 100.0
1244.728394 56.0
1245.437744 192.0
1246.955444 124.0
1247.953613 36.0
1248.002808 156.0
1249.078857 164.0
1250.21875 144.0
1251.035156 112.0
1251.637207 112.0
1252.830933 76.0
1254.141724 96.0
1255.833862 124.0
1256.003174 156.0
1256.525269 112.0
1256.659302 156.0
1257.181396 88.0
1257.35083 172.0
1258.317871 108.0
1258.791016 56.0
1259.094604 72.0
1261.263794 172.0
1264.906738 96.0
1267.307495 148.0
1267.492065 116.0
1267.640625 60.0
1268.484009 108.0
1269.405762 64.0
1269.994385 108.0
1271.228882 176.0
1271.519775 324.0
1274.850586 168.0
1275.16333 148.0
1275.532959 96.0
1275.717773 168.0
1275.810181 116.0
1276.016357 120.0
1277.787231 124.0
1277.851318 188.0
1279.57373 92.0
1280.107666 224.0
1280.164673 80.0
1280.713135 28.0
1281.532349 44.0
1282.380371 136.0
1285.546997 208.0
1285.868042 176.0
1287.124512 124.0
1289.582153 72.0
1289.74646 88.0
1291.183594 88.0
1291.369629 204.0
1291.834595 96.0
1292.750366 180.0
1293.158325 68.0
1295.120117 48.0
1295.27063 136.0
1295.435303 156.0
1295.535645 144.0
1296.674927 120.0
1297.262695 164.0
1298.123169 56.0
1298.840332 136.0
1299.055542 64.0
1301.143921 92.0
1302.716675 96.0
1302.831665 200.0
1303.104614 100.0
1304.498901 128.0
1304.894287 140.0
1306.030518 72.0
1306.814697 32.0
1307.296753 160.0
1307.656616 148.0
1307.901367 40.0
1308.347656 84.0
1308.894897 80.0
1310.537109 76.0
1310.827393 188.0
1311.877686 128.0
1311.949829 128.0
1312.057861 188.0
1312.46167 200.0
1313.507446 68.0
1313.666138 148.0
1313.976318 68.0
1314.481445 216.0
1316.972168 132.0
1317.60791 84.0
1317.680176 72.0
1317.932983 160.0
1318.178711 76.0
1318.814697 96.0
1319.580933 124.0
1321.685791 156.0
1322.134399 120.0
1323.184082 220.0
1324.46582 28.0
1324.545532 84.0
1325.87146 56.0
1326.545532 148.0
1328.50354 124.0
1329.962036 128.0
1330.847778 124.0
1330.993042 136.0
1331.065552 68.0
1332.380249 76.0
1332.525513 72.0
1334.458862 152.0
1334.829712 132.0
1334.953369 112.0
1335.018799 180.0
1335.317017 120.0
1335.782471 132.0
1336.357178 100.0
1336.932129 92.0
1337.004883 60.0
1337.572632 68.0
1337.841919 108.0
1337.958374 104.0
1339.717651 148.0
1341.601074 136.0
1343.468018 148.0
1343.635742 180.0
1345.015015 84.0
1345.204834 160.0
1345.620972 72.0
1346.015259 80.0
1346.39502 200.0
1346.840576 212.0
1346.972046 44.0
1348.411377 60.0
1348.981567 152.0
1349.120483 148.0
1350.092896 160.0
1350.451294 140.0
1351.870605 204.0
1352.170654 156.0
1352.63916 128.0
1353.503052 96.0
1353.957153 44.0
1354.513794 108.0
1355.635986 144.0
1356.213745 112.0
1356.455688 92.0
1357.10083 72.0
1357.753418 132.0
1357.929443 120.0
1358.391602 68.0
1359.367432 164.0
1361.518311 132.0
1362.840576 128.0
1363.097778 208.0
1364.281128 76.0
1365.567993 80.0
1365.737183 148.0
1367.179199 196.0
1368.36438 160.0
1368.828247 288.0
1369.108032 172.0
1370.161377 168.0
1371.148804 184.0
1372.195557 108.0
1373.375488 52.0
1373.545044 120.0
1375.699829 72.0
1376.526855 48.0
1376.630249 160.0
1377.34668 96.0
1378.026245 108.0
1378.144531 148.0
1378.343994 172.0
1378.735718 164.0
1379.496948 128.0
1380.265869 192.0
1380.680054 116.0
1380.820557 144.0
1381.626831 124.0
1381.974609 100.0
1382.179077 120.0
1382.277954 108.0
1382.721924 120.0
1384.294556 152.0
1384.706177 232.0
1384.921021 148.0
1385.476562 68.0
1385.669189 168.0
1385.809937 56.0
1386.269409 136.0
1386.395386 212.0
1386.602905 56.0
1387.099487 124.0
1387.190063 184.0
1388.063354 164.0
1388.31543 80.0
1388.753052 64.0
1389.057129 136.0
1389.131348 168.0
1389.74707 212.0
1390.311035 140.0
1392.709229 176.0
1393.28125 72.0
1394.55188 92.0
1394.603882 184.0
1394.908691 132.0
1397.74231 148.0
1398.0177 100.0
1398.203735 124.0
1398.620605 44.0
1398.94812 204.0
1400.079834 32.0
1400.467163 188.0
1400.750244 184.0
1401.264282 72.0
1401.703857 164.0
1401.815674 44.0
1402.38208 244.0
1403.395874 104.0
1403.880615 92.0
1404.767334 140.0
1405.484375 92.0
1405.812744 104.0
1406.282959 136.0
1406.992065 84.0
1407.858276 64.0
1408.067383 172.0
1408.986206 56.0
1409.778198 140.0
1410.099609 72.0
1410.405151 176.0
1410.615356 204.0
1411.407837 228.0
1411.841553 144.0
1412.948608 112.0
1413.000977 40.0
1413.337646 156.0
1413.569702 212.0
1413.824097 88.0
1414.003662 80.0
1414.100952 168.0
1416.766724 144.0
1417.163818 112.0
1417.763306 216.0
1417.988159 108.0
1418.09314 84.0
1418.542847 112.0
1418.925171 64.0
1419.135132 132.0
1419.210083 72.0
1420.027466 156.0
1420.605103 164.0
1420.800171 212.0
1421.205322 184.0
1421.432739 76.0
1422.233398 40.0
1422.661621 120.0
1423.397095 76.0
1423.609619 136.0
1423.735107 44.0
1424.523682 172.0
1426.500122 140.0
1426.560181 64.0
1426.635376 88.0
1426.875977 40.0
1427.244385 64.0
1429.230225 44.0
1429.644043 112.0
1429.877441 204.0
1430.125732 128.0
1430.185913 64.0
1430.434326 68.0
1430.65271 192.0
1430.901123 180.0
1431.255005 160.0
1432.023193 80.0
1432.211426 60.0
1432.761353 184.0
1432.889404 28.0
1434.155518 80.0
1434.554932 108.0
1434.924438 100.0
1435.565308 140.0
1436.39502 96.0
1436.892944 160.0
1436.97583 72.0
1437.149414 152.0
1438.160645 224.0
1438.515503 164.0
1439.481934 124.0
1439.640503 68.0
1440.410889 112.0
1441.854004 60.0
1442.587158 48.0
1442.655273 108.0
1442.723267 148.0
1443.04834 96.0
1443.426392 176.0
1444.341553 120.0
1445.302368 128.0
1445.461304 232.0
1445.567261 124.0
1445.922974 96.0
1446.35437 112.0
1446.838867 156.0
1447.633911 168.0
1449.451904 112.0
1449.611084 140.0
1450.444702 156.0
1450.990601 76.0
1451.324219 144.0
1452.621094 252.0
1452.962402 140.0
1453.212769 196.0
1454.252441 52.0
1454.343506 148.0
1454.396729 112.0
1454.457397 204.0
1455.740479 120.0
1456.424072 76.0
1457.069824 44.0
1457.913208 108.0
1458.574463 204.0
1458.734131 152.0
1458.992554 84.0
1459.136963 156.0
1459.228271 120.0
1459.616089 144.0
1460.665649 132.0
1460.810181 124.0
1461.563354 76.0
1461.745972 156.0
1462.082642 148.0
1462.149292 108.0
1462.910522 72.0
1463.18457 104.0
1464.251465 212.0
1464.456299 48.0
1464.707642 192.0
1465.751343 96.0
1465.911377 132.0
1466.460083 92.0
1466.864136 76.0
1466.963257 72.0
1467.237671 208.0
1467.634155 100.0
1467.702759 120.0
1467.901001 128.0
1468.312866 176.0
1468.801025 80.0
1469.098511 140.0
1469.296875 120.0
1470.410889 212.0
1470.952881 156.0
1472.052246 72.0
1472.47998 332.0
1473.618164 124.0
1473.748047 160.0
1473.855103 104.0
1474.634521 132.0
1474.710938 80.0
1475.047241 68.0
1475.207886 112.0
1476.132935 148.0
1476.324097 120.0
1476.630127 48.0
1476.706543 168.0
1476.890137 156.0
1477.234375 148.0
1477.861694 120.0
1478.336182 124.0
1478.389648 180.0
1478.581055 140.0
1479.116821 144.0
1479.491943 184.0
1479.568481 92.0
1480.617554 176.0
1480.678833 252.0
1480.962158 108.0
1481.100098 168.0
1481.268555 76.0
1482.402466 68.0
1482.548096 116.0
1482.701416 148.0
1483.582886 72.0
1484.196289 72.0
1484.249878 108.0
1484.50293 140.0
1485.277588 84.0
1485.714844 112.0
1485.868286 200.0
1485.937378 88.0
1486.428467 72.0
1487.082153 148.0
1487.840698 224.0
1488.071045 184.0
1488.470337 120.0
1488.534302 200.0
1489.507202 108.0
1490.559692 36.0
1490.744141 180.0
1491.120728 160.0
1491.282104 212.0
1491.868774 164.0
1491.973999 108.0
1492.127686 92.0
1494.011963 176.0
1495.535522 56.0
1496.513306 104.0
1497.33728 160.0
1497.46814 156.0
1497.676147 68.0
1497.783936 116.0
1497.984253 116.0
1498.363159 88.0
1498.562012 92.0
1499.432861 56.0
1500.481201 132.0
1500.650757 108.0
1501.198242 168.0
1501.591553 144.0
1503.065063 96.0
1503.574463 76.0
1503.751953 96.0
1504.114746 184.0
1504.284546 88.0
1504.377197 184.0
