>compound Atropine
>formula C17H23NO3
>ionization [M+Na]+
>parentmass 312.1570142960905
#inchi InChI=1S/C17H23NO3/c1-18-13-7-8-14(18)10-15(9-13)21-17(20)16(11-19)12-5-3-2-4-6-12/h2-6,13-16,19H,7-11H2,1H3/t13-,14+,15+,16?
#inchikey RKUNBYITZUJHSG
#origInchi InChI=1S/2C17H23NO3.H2O4S.H2O/c2*1-18-13-7-8-14(18)10-15(9-13)21-17(20)16(11-19)12-5-3-2-4-6-12;1-5(2,3)4;/h2*2-6,13-16,19H,7-11H2,1H3;(H2,1,2,3,4);1H2/t2*13-,14+,15+,16?;;
#Ion_Source LC-ESI
#Instrument qTof
#Compound_Source Commercial
#PI Dorrestein
#Data_Collector Garg_Neha
#Scan -1
#Precursor_MZ 312.157
#ExactMass 289.168
#Charge 1
#CAS_Number 5908-99-6
#Pubmed_ID N/A
#Smiles C(C(C1=CC=CC=C1)CO)(O[C@H]2C[C@]3(CC[C@](N3C)(C2)[H])[H])=O.C(C(C4=CC=CC=C4)CO)(O[C@H]5C[C@]6(CC[C@](N6C)(C5)[H])[H])=O.OS(O)(=O)=O.O
#INCHI_AUX N/A
#Library_Class 1
#SpectrumID CCMSLIB00000078451
#IonMode Positive
#UpdateWorkflowName UPDATE-SINGLE-ANNOTATED-GOLD
#LibraryQualityString Gold
#TaskID 77f51c88eb8b467eb4a01dd2d0cb90d2
##Scan# 986
#SpectrumFile Plate7_1_20_GD2_01_15767.mzXML
#LibraryName FDALibrary_2_04302014.mgf
#MQScore -1
#Organism FDALibrary_2_04302014
#TIC_Query 0
#RT_Query -1
#MZErrorPPM -1
#SharedPeaks 0
#MassDiff 0
#LibMZ -1
#SpecMZ 312.157
#SpecCharge 0
#internalFilename spec-00000.mgf

>collision 10
90.016541 196.0
96.080788 160.0
112.345497 148.0
124.110085 1580.0
125.111572 552.0
311.115509 184.0
312.154053 364.0
313.2117 184.0
