>compound Metylperon
>formula C16H22FNO
>ionization [M+H]+
>parentmass 264.176
#inchi InChI=1S/C16H22FNO/c1-13-8-11-18(12-9-13)10-2-3-16(19)14-4-6-15(17)7-5-14/h4-7,13H,2-3,8-12H2,1H3
#inchikey DKMFBWQBDIGMHM
#Ion_Source LC-ESI
#Instrument qTof
#Compound_Source Commercial
#PI Dorrestein
#Data_Collector Garg_Neha
#Scan -1
#Precursor_MZ 264.176
#ExactMass 263.169
#Charge 1
#CAS_Number N/A
#Pubmed_ID N/A
#Smiles CC1CCN(CCCC(=O)c2ccc(F)cc2)CC1
#INCHI_AUX N/A
#Library_Class 1
#SpectrumID CCMSLIB00000079226
#IonMode Positive
#UpdateWorkflowName UPDATE-SINGLE-ANNOTATED-GOLD
#LibraryQualityString Gold
#TaskID 278b19f5865741e282cec7349aa7e7a1
##Scan# 1077
#SpectrumFile NCP003672_A27B27C27D27_BE4_01_15740.mzXML
#LibraryName NIHcollectionI_05062014.mgf
#MQScore -1
#Organism NIHcollectionI_05062014
#TIC_Query 0
#RT_Query -1
#MZErrorPPM -1
#SharedPeaks 0
#MassDiff 0
#LibMZ -1
#SpecMZ 264.176
#SpecCharge 0
#internalFilename spec-00000.mgf

>collision 10
45.224384 184.0
45.350288 176.0
45.468311 188.0
45.523354 152.0
45.575741 156.0
45.655052 148.0
45.916321 184.0
45.945999 152.0
46.27206 184.0
47.283112 172.0
47.299534 144.0
47.361153 228.0
47.418697 160.0
47.487251 156.0
47.562717 184.0
47.680836 148.0
47.711075 148.0
47.917515 160.0
48.284698 168.0
48.382942 156.0
48.40094 144.0
48.683826 172.0
48.906277 160.0
48.918804 140.0
48.956398 152.0
49.044212 136.0
49.083206 188.0
49.243694 192.0
49.260456 188.0
49.307964 252.0
49.501019 140.0
50.192379 172.0
50.210709 152.0
50.374443 152.0
50.447926 192.0
50.794865 144.0
50.875751 148.0
50.9729 120.0
51.231281 148.0
51.37812 152.0
51.927406 176.0
51.954659 152.0
52.053696 152.0
52.774158 196.0
52.859501 176.0
52.889893 144.0
53.053581 164.0
53.31049 156.0
53.412266 148.0
53.686077 160.0
54.015903 180.0
54.153755 140.0
54.174263 188.0
54.288586 140.0
54.49115 168.0
54.697033 160.0
54.892982 140.0
54.95631 176.0
54.980019 156.0
55.013969 196.0
55.16317 224.0
55.527416 156.0
55.552631 160.0
55.644646 176.0
55.879471 148.0
55.971756 208.0
56.12225 360.0
56.262493 180.0
56.489643 216.0
56.51358 156.0
56.714252 176.0
56.912277 144.0
57.413376 148.0
57.669327 144.0
58.075817 216.0
58.166859 208.0
58.305077 168.0
58.710033 236.0
58.758842 144.0
59.009319 204.0
59.035313 208.0
59.537971 180.0
60.110638 160.0
60.562069 172.0
60.765144 176.0
60.929714 248.0
61.22525 148.0
61.256401 228.0
61.680843 160.0
61.716801 176.0
62.844563 204.0
62.855606 184.0
62.907349 148.0
63.220642 164.0
64.143433 264.0
64.683342 204.0
64.97982 156.0
65.212662 148.0
65.225525 176.0
65.383141 156.0
65.65863 160.0
65.77803 152.0
66.022003 152.0
66.242126 172.0
66.319901 168.0
66.514549 272.0
66.966568 160.0
66.977974 144.0
67.274757 232.0
67.565651 188.0
67.685127 144.0
67.739174 144.0
68.049133 196.0
68.177254 208.0
68.285759 220.0
68.437157 160.0
69.503281 220.0
69.64547 136.0
69.983269 124.0
70.176918 160.0
70.310364 208.0
70.425568 160.0
71.174156 144.0
71.197662 140.0
71.377472 140.0
71.538986 152.0
71.761375 176.0
71.796783 176.0
71.992546 172.0
72.268608 228.0
72.37809 184.0
72.859779 148.0
72.895462 220.0
73.125046 140.0
73.177818 192.0
73.482895 140.0
73.52726 200.0
73.549454 224.0
73.889397 176.0
74.553101 176.0
74.675163 160.0
74.749138 200.0
74.960945 164.0
75.471733 236.0
75.573662 176.0
75.967201 140.0
76.043549 192.0
76.201569 292.0
76.462402 160.0
76.540741 160.0
76.584282 176.0
76.666168 140.0
76.7202 204.0
77.030823 160.0
77.163635 220.0
77.396339 156.0
77.608353 164.0
77.652199 184.0
77.732895 152.0
77.783791 140.0
77.847 196.0
78.064903 180.0
78.216209 156.0
78.332809 128.0
78.358849 152.0
78.399376 252.0
78.649818 184.0
78.731033 176.0
78.797745 272.0
78.94487 180.0
79.020927 192.0
79.039406 136.0
79.281219 180.0
79.36808 188.0
79.788872 152.0
79.867119 152.0
80.000572 188.0
80.114548 236.0
80.175125 140.0
80.868088 184.0
81.057915 160.0
81.083008 156.0
81.364624 168.0
81.747475 196.0
81.763672 140.0
81.873489 164.0
82.0681 228.0
82.336975 156.0
82.850677 156.0
83.037376 184.0
83.429588 216.0
83.493233 140.0
83.839127 140.0
84.218613 176.0
84.244186 160.0
84.266113 156.0
84.507454 144.0
85.410034 172.0
85.502029 228.0
85.638268 232.0
85.80043 180.0
85.966431 156.0
86.167694 164.0
86.267494 140.0
86.557968 160.0
86.620934 148.0
86.937981 144.0
86.984383 172.0
87.378357 168.0
87.942986 232.0
87.965385 144.0
88.084892 144.0
88.137207 196.0
88.292358 168.0
88.384018 264.0
88.471985 172.0
88.485092 160.0
88.518791 176.0
88.584343 168.0
89.222397 236.0
89.297462 100.0
89.429321 140.0
89.514038 148.0
89.677895 192.0
90.221573 232.0
90.65123 168.0
90.81237 160.0
91.047714 204.0
91.119896 180.0
91.801315 164.0
91.995934 152.0
92.030296 148.0
92.171638 176.0
92.703613 164.0
93.037354 172.0
93.235191 200.0
93.31562 152.0
93.410156 172.0
93.512138 208.0
93.634972 160.0
94.374435 156.0
94.38797 176.0
94.455658 140.0
94.496284 148.0
95.003876 168.0
95.028946 2080.0
95.091187 140.0
95.223213 184.0
95.565346 180.0
95.769745 216.0
95.876907 160.0
96.033195 204.0
96.085541 180.0
96.103104 164.0
96.144081 144.0
96.339333 152.0
96.859528 156.0
96.963516 144.0
97.157639 184.0
97.295013 176.0
97.546471 152.0
97.609383 152.0
97.713623 164.0
97.727402 180.0
98.021523 300.0
98.09568 168.0
98.496254 172.0
98.533783 148.0
98.780899 184.0
98.867569 184.0
98.951088 172.0
99.002846 144.0
99.022972 440.0
99.080765 168.0
99.14917 248.0
99.216568 140.0
99.379196 176.0
99.97731 156.0
100.072861 344.0
100.112045 1516.0
100.140831 180.0
100.369743 168.0
100.856857 156.0
101.143974 136.0
101.214966 204.0
101.305092 164.0
102.649689 144.0
102.796951 176.0
102.909988 208.0
102.936234 160.0
103.083694 196.0
104.499008 160.0
104.515282 160.0
105.091911 180.0
105.173538 172.0
105.612839 220.0
105.661934 192.0
106.605133 152.0
107.610321 156.0
107.738365 156.0
107.980209 148.0
108.232674 144.0
109.044037 304.0
109.443199 160.0
109.706459 144.0
109.724472 208.0
110.183617 188.0
110.204506 140.0
110.300949 136.0
110.344536 184.0
110.712814 152.0
111.026291 236.0
111.048134 172.0
111.246704 164.0
111.268471 196.0
111.850777 208.0
111.865509 180.0
111.899765 176.0
111.943039 208.0
112.105614 156.0
112.398727 252.0
112.523254 176.0
112.639404 192.0
113.01783 188.0
113.04097 320.0
113.475319 160.0
113.562263 180.0
113.68531 208.0
114.037857 216.0
114.235611 232.0
114.327095 168.0
114.399467 168.0
114.482506 168.0
114.614571 144.0
115.141479 164.0
115.226921 172.0
115.688858 140.0
116.068077 140.0
116.943657 196.0
117.127602 192.0
117.239632 180.0
117.399162 168.0
117.508812 144.0
117.543694 212.0
117.66024 168.0
117.703423 168.0
118.088097 164.0
119.306732 180.0
119.940186 312.0
120.728355 168.0
120.750229 156.0
120.986542 180.0
121.008438 160.0
121.075661 384.0
121.777504 180.0
121.800102 220.0
121.98407 196.0
122.101219 152.0
122.142212 188.0
122.444542 156.0
122.502197 160.0
122.583328 152.0
122.644295 296.0
122.674713 200.0
122.765106 148.0
122.865555 176.0
122.883202 148.0
122.956718 196.0
122.973343 316.0
123.025612 102092.0
123.071518 244.0
123.123093 124.0
123.165512 132.0
123.224205 192.0
123.252205 160.0
123.269791 192.0
123.345261 192.0
123.367477 124.0
123.38797 1428.0
123.487343 116.0
123.762703 204.0
123.886772 204.0
123.965675 152.0
124.027802 8232.0
124.100861 156.0
124.237961 136.0
124.358139 124.0
124.59903 164.0
124.666199 280.0
124.739037 152.0
124.788765 136.0
124.839928 232.0
124.857956 120.0
124.899139 296.0
124.956573 156.0
125.031044 848.0
125.06105 160.0
125.102791 104.0
126.037735 188.0
126.264633 232.0
126.505783 164.0
126.752144 152.0
127.270287 160.0
127.47245 156.0
127.528633 160.0
127.870499 200.0
127.971794 160.0
128.226349 188.0
128.846878 148.0
129.043686 188.0
129.405502 148.0
129.509674 164.0
129.534592 176.0
129.768005 180.0
130.056107 168.0
130.956497 156.0
131.070404 144.0
131.143326 260.0
131.343979 140.0
131.674927 156.0
131.720612 180.0
131.869125 184.0
132.200745 180.0
132.425095 184.0
133.04657 176.0
133.290802 132.0
133.529053 144.0
134.785431 156.0
134.827026 168.0
135.002716 160.0
135.054733 136.0
135.546707 144.0
135.641739 160.0
135.766937 168.0
135.975739 280.0
136.109619 384.0
136.37056 200.0
136.554245 176.0
136.938263 180.0
137.07106 144.0
137.124893 152.0
137.691589 152.0
137.724274 220.0
138.510208 140.0
138.824265 168.0
138.986969 176.0
139.079987 208.0
139.399399 192.0
139.992188 312.0
140.020447 184.0
141.131912 168.0
141.200485 156.0
141.676254 152.0
141.782883 244.0
141.926025 104.0
142.005737 140.0
143.993057 152.0
144.129227 208.0
144.63623 152.0
145.432007 176.0
145.448807 188.0
145.823502 212.0
145.871582 208.0
146.051422 332.0
146.166153 132.0
146.473145 192.0
147.063766 560.0
147.165283 144.0
147.2957 168.0
147.511627 156.0
147.970398 152.0
148.006714 160.0
148.07695 176.0
148.198059 156.0
148.362869 156.0
148.996277 156.0
149.077469 396.0
149.448502 188.0
149.745483 236.0
149.855103 188.0
150.154938 164.0
150.232986 164.0
152.502899 180.0
152.608612 164.0
153.477768 156.0
154.140015 176.0
155.059875 280.0
155.893723 144.0
156.214462 184.0
156.348816 160.0
156.51062 220.0
156.981567 140.0
158.436249 152.0
158.589111 176.0
158.9496 156.0
159.097763 144.0
159.960571 204.0
160.61319 152.0
161.004395 144.0
161.471939 156.0
161.948547 132.0
162.023758 216.0
162.120041 160.0
162.180862 164.0
162.36087 144.0
162.530838 176.0
162.709641 144.0
162.95993 176.0
163.450668 156.0
163.577911 172.0
163.608459 144.0
164.597717 172.0
164.743301 148.0
164.761185 156.0
164.803711 148.0
164.863388 288.0
164.882431 136.0
164.933762 364.0
164.96817 332.0
164.998672 172.0
165.024429 352.0
165.071945 205336.0
165.133713 160.0
165.203995 148.0
165.225433 124.0
165.247543 244.0
165.309372 212.0
165.368866 320.0
165.415924 228.0
165.492874 284.0
165.533432 112.0
165.56282 108.0
165.604706 176.0
165.681747 116.0
165.743362 108.0
165.955521 196.0
166.04039 212.0
166.075073 20420.0
166.211807 212.0
166.43605 116.0
166.549194 200.0
166.600571 160.0
166.659698 296.0
166.753601 108.0
167.013916 160.0
167.077438 1240.0
167.125793 252.0
167.169037 128.0
167.254074 100.0
167.323929 204.0
167.402847 192.0
167.470016 216.0
167.970062 192.0
168.207458 160.0
168.525101 144.0
168.853409 220.0
170.479797 148.0
170.564651 140.0
170.913132 148.0
172.684448 156.0
172.762924 160.0
173.682373 156.0
175.009491 172.0
175.318649 144.0
176.270325 188.0
176.54483 128.0
178.103638 212.0
178.430496 176.0
180.480804 152.0
180.700134 140.0
183.040649 148.0
184.089615 156.0
184.313812 208.0
184.551682 152.0
185.090118 176.0
185.491089 164.0
187.240875 160.0
187.379791 152.0
187.769592 172.0
188.151611 316.0
189.617767 168.0
191.808121 140.0
192.257935 196.0
194.08345 120.0
194.266678 216.0
195.092987 588.0
195.247147 144.0
195.464142 164.0
195.700729 216.0
196.086594 100.0
196.779724 184.0
196.866287 152.0
197.489609 252.0
197.784378 176.0
198.946625 176.0
200.166855 192.0
200.304855 160.0
200.451355 208.0
200.860153 248.0
201.235489 164.0
201.515106 148.0
201.688431 132.0
201.828827 172.0
202.091873 152.0
202.272995 232.0
202.879211 156.0
203.083374 144.0
203.489166 148.0
203.534607 156.0
204.11087 124.0
204.134171 348.0
205.067947 160.0
205.564163 144.0
205.712585 208.0
206.546982 156.0
207.22258 216.0
208.332504 100.0
208.60585 148.0
208.925049 208.0
209.103561 104.0
209.1754 224.0
209.420151 160.0
210.926331 208.0
211.846527 184.0
212.449509 208.0
212.542343 160.0
213.7715 188.0
214.592896 144.0
216.917038 192.0
217.268951 180.0
217.817886 180.0
219.029785 184.0
220.106232 216.0
220.48436 140.0
220.516861 180.0
220.753372 184.0
221.013672 164.0
221.401459 160.0
222.326401 200.0
222.982727 152.0
225.357727 148.0
226.030487 156.0
226.687927 164.0
226.878082 216.0
227.162979 208.0
227.424026 160.0
227.592148 148.0
228.184036 160.0
228.379501 180.0
228.75563 224.0
230.323639 176.0
230.374985 164.0
230.532104 156.0
230.671127 196.0
233.223373 168.0
234.69986 152.0
234.898087 204.0
235.285645 156.0
235.438324 148.0
236.376801 144.0
238.056641 236.0
238.400711 168.0
239.151123 148.0
239.499054 188.0
239.659241 160.0
240.945801 160.0
241.511505 176.0
241.653793 148.0
243.476471 232.0
244.605103 184.0
244.63623 140.0
244.692261 140.0
244.88533 188.0
246.16571 800.0
246.735748 152.0
246.792038 196.0
247.032837 184.0
247.141296 168.0
247.16626 152.0
247.78418 156.0
248.951004 176.0
249.104904 188.0
249.846802 148.0
250.000977 160.0
250.999557 204.0
251.258179 216.0
251.431732 188.0
253.801071 248.0
254.023071 176.0
254.124588 176.0
256.165588 168.0
256.433258 148.0
256.567139 168.0
256.742493 164.0
256.921112 188.0
257.087036 148.0
257.109375 156.0
257.664978 156.0
258.653107 144.0
258.781158 140.0
259.591827 140.0
260.342743 172.0
261.123688 140.0
261.390686 144.0
261.687622 124.0
261.838165 160.0
262.123688 152.0
262.353699 168.0
262.620728 124.0
262.760529 112.0
262.795563 144.0
262.837494 152.0
262.968933 164.0
263.069794 160.0
263.123474 244.0
263.18811 148.0
263.240997 140.0
263.320648 152.0
263.342865 232.0
263.380005 192.0
263.414917 120.0
263.479523 160.0
263.507935 152.0
263.558197 216.0
263.605042 160.0
263.706482 400.0
263.732758 296.0
263.775757 164.0
263.839355 132.0
263.876099 176.0
263.898254 360.0
263.922791 164.0
263.954559 124.0
263.996918 276.0
264.029327 348.0
264.076111 448.0
264.139252 580.0
264.178711 222884.0
264.258057 140.0
264.289246 244.0
264.351196 108.0
264.390839 136.0
264.441376 260.0
264.473114 428.0
264.496704 204.0
264.541016 184.0
264.586609 156.0
264.623291 264.0
264.66452 120.0
264.709198 6704.0
264.75174 328.0
264.786621 420.0
264.921692 180.0
264.94342 168.0
265.063293 148.0
265.17981 54104.0
265.300751 156.0
265.340363 116.0
265.404694 124.0
265.537933 156.0
265.598633 116.0
265.683014 164.0
265.716248 132.0
265.967865 176.0
266.044891 148.0
266.181976 4484.0
266.26712 108.0
266.389374 104.0
266.489929 132.0
266.614136 148.0
266.709961 260.0
266.823822 120.0
266.874329 112.0
266.995758 144.0
267.058441 212.0
267.118134 312.0
267.180969 472.0
267.261322 112.0
267.365723 200.0
267.458435 116.0
267.677521 100.0
267.872345 112.0
268.16217 176.0
274.227356 100.0
275.94577 148.0
276.416718 96.0
277.102814 108.0
285.240417 140.0
291.051331 172.0
333.253174 152.0
356.103088 172.0
455.482513 180.0
784.543823 96.0
887.261536 148.0
917.464905 144.0
937.802063 140.0
956.81012 164.0
959.169495 168.0
972.101746 180.0
1019.663513 160.0
1058.249756 228.0
1061.042114 188.0
1065.175903 156.0
1075.339844 172.0
1091.567017 156.0
1095.608276 248.0
1100.079346 204.0
1118.454224 228.0
1121.924805 148.0
1161.079712 172.0
1205.911865 172.0
1241.789917 164.0
1244.786499 236.0
1271.279785 200.0
1285.647827 148.0
1300.685059 148.0
1301.474731 152.0
1302.767456 212.0
1312.087036 180.0
1319.306274 164.0
1327.538696 188.0
1329.395752 180.0
1345.014404 152.0
1348.125732 184.0
1349.28064 164.0
1352.945801 168.0
1363.883179 192.0
1367.840454 200.0
1382.653809 144.0
1384.371338 180.0
1422.763794 156.0
1424.701294 288.0
1429.844482 196.0
1435.652832 140.0
1446.237549 160.0
1452.205933 160.0
1463.302612 276.0
1466.967041 144.0
1468.278442 148.0
1490.155762 144.0
1492.084717 144.0
1502.628174 184.0
1513.332642 144.0
1522.490479 264.0
1525.473999 160.0
1527.417969 168.0
1535.338989 164.0
1538.475708 184.0
1541.974976 192.0
1555.085815 160.0
1555.172241 168.0
1560.175903 172.0
1560.559692 128.0
1572.456055 184.0
1576.15979 168.0
1592.582397 172.0
1605.826416 152.0
1615.547485 164.0
1617.339966 172.0
1626.525757 220.0
1632.109253 156.0
1633.854492 180.0
1636.905029 156.0
1637.39624 140.0
1640.788574 156.0
1643.530884 140.0
1645.621338 192.0
1649.725342 188.0
1651.852173 152.0
1652.491211 192.0
1653.000977 160.0
1654.741211 188.0
1659.043091 188.0
1663.391113 144.0
1664.146118 228.0
1664.665894 168.0
1665.624146 152.0
1668.761108 204.0
1680.864746 192.0
1689.378174 184.0
1701.104736 164.0
1707.447876 148.0
1719.509277 160.0
1721.201538 212.0
1721.423706 168.0
1722.316406 144.0
1726.498535 180.0
1727.797119 184.0
1732.18457 212.0
1733.14563 152.0
1740.286987 188.0
1752.263672 156.0
1754.147095 164.0
1760.254272 160.0
1762.835449 144.0
1762.902344 156.0
1769.016235 204.0
1769.141846 152.0
1769.811646 180.0
1776.15564 152.0
1780.133789 180.0
1782.28418 148.0
1797.803467 164.0
1799.930786 148.0
1810.535034 184.0
1812.890137 160.0
1813.322388 144.0
1814.432739 204.0
1819.090088 152.0
1823.957397 200.0
1825.887451 188.0
1827.23999 276.0
1829.929443 148.0
1830.32959 200.0
1830.499878 176.0
1835.203369 148.0
1836.380127 144.0
1838.700806 212.0
1840.723999 172.0
1844.064331 192.0
1847.116821 192.0
1851.053711 160.0
1852.141357 140.0
1853.152222 208.0
1859.612183 128.0
1860.819824 232.0
1870.861328 176.0
1871.110962 216.0
1873.513672 192.0
1879.229736 176.0
1879.343994 156.0
1883.286987 160.0
1883.727539 196.0
1889.554199 148.0
1892.912476 208.0
1894.263672 292.0
1895.233887 196.0
1897.036621 200.0
1900.929199 164.0
1903.10083 148.0
1905.333008 224.0
1908.114014 152.0
1909.009644 144.0
1912.916138 184.0
1916.478149 200.0
1926.174438 168.0
1926.415039 176.0
1928.660767 160.0
1928.975464 220.0
1935.808594 404.0
1945.769165 144.0
1949.071533 156.0
1950.082153 144.0
1953.078003 180.0
1957.383911 144.0
1958.343872 204.0
1960.0 144.0
1962.22998 204.0
1964.72583 172.0
1965.396362 240.0
1967.05249 160.0
1968.556396 144.0
1975.229248 152.0
1977.538574 260.0
1977.93689 144.0
1981.053833 148.0
1982.453735 140.0
1984.049194 160.0
1986.922607 164.0
1991.831665 152.0
1992.311401 200.0
1997.662964 156.0
1999.362427 192.0
2000.314819 156.0
2001.39209 140.0
2002.843628 172.0
2003.146484 168.0
