>compound Bortezomib (Velcade)
>formula C19H25BN4O4
>ionization [M+Na]+
>parentmass 406.188782
#inchi InChI=1S/C19H25BN4O4/c1-13(2)10-17(20(27)28)24-18(25)15(11-14-6-4-3-5-7-14)23-19(26)16-12-21-8-9-22-16/h3-9,12-13,15,17,27-28H,10-11H2,1-2H3,(H,23,26)(H,24,25)/t15-,17-/m0/s1
#inchikey GXJABQQUPOEUTA
#Ion_Source LC-ESI
#Instrument qTof
#Compound_Source Commercial
#PI Dorrestein
#Data_Collector Garg_Neha
#Scan -1
#Precursor_MZ 407.186
#ExactMass 384.197
#Charge 1
#CAS_Number 179324-69-7
#Pubmed_ID N/A
#Smiles C1=CN=CC(=N1)C(N[C@H](C(N[C@H](B(O)O)CC(C)C)=O)CC2=CC=CC=C2)=O
#INCHI_AUX N/A
#Library_Class 1
#SpectrumID CCMSLIB00000077995
#IonMode Positive
#UpdateWorkflowName UPDATE-SINGLE-ANNOTATED-GOLD
#LibraryQualityString Gold
#TaskID 77f51c88eb8b467eb4a01dd2d0cb90d2
##Scan# 1211
#SpectrumFile Plate1_1_20_GG1_01_16488.mzXML
#LibraryName FDALibrary_2_04302014.mgf
#MQScore -1
#Organism FDALibrary_2_04302014
#TIC_Query 0
#RT_Query -1
#MZErrorPPM -1
#SharedPeaks 0
#MassDiff 0
#LibMZ -1
#SpecMZ 407.186
#SpecCharge 0
#internalFilename spec-00000.mgf

>collision 10
95.886879 236.0
131.058121 188.0
144.823196 204.0
148.278381 192.0
175.978806 172.0
181.814117 216.0
183.004974 172.0
186.03038 148.0
188.050171 172.0
192.042465 168.0
198.057724 204.0
199.137619 160.0
208.08345 180.0
211.054138 148.0
212.984314 180.0
223.745422 144.0
226.096741 304.0
227.089355 184.0
227.929962 168.0
237.107498 172.0
239.103836 180.0
240.392059 148.0
248.07663 424.0
250.617554 224.0
252.097534 232.0
254.101929 208.0
255.051483 176.0
258.713684 208.0
260.114624 216.0
262.224701 140.0
264.896973 188.0
265.598755 796.0
266.095764 308.0
266.597198 168.0
268.146362 152.0
274.068237 148.0
274.631989 172.0
275.093262 448.0
276.081573 316.0
277.048462 168.0
277.081573 240.0
278.106934 160.0
290.852325 172.0
293.09906 304.0
294.087646 180.0
298.106873 184.0
301.383972 224.0
305.165588 164.0
305.409027 180.0
309.04776 152.0
315.221039 192.0
319.118256 172.0
319.594879 160.0
329.184082 168.0
331.470337 144.0
333.462769 180.0
348.304596 196.0
350.153595 160.0
354.516907 152.0
356.911926 216.0
361.544464 172.0
363.143311 188.0
364.149139 160.0
364.377045 164.0
364.430267 176.0
368.365875 144.0
369.359772 152.0
387.212524 160.0
388.174316 1108.0
389.173737 5696.0
390.179474 1112.0
390.261719 168.0
390.792725 144.0
391.180298 392.0
394.737305 184.0
405.335449 144.0
405.372314 136.0
405.983765 160.0
406.188782 1956.0
406.681885 160.0
407.095428 212.0
407.184631 12956.0
407.300751 336.0
407.737061 164.0
408.116119 172.0
408.187286 3008.0
408.235748 324.0
409.193756 636.0
409.232056 512.0
409.347443 156.0
409.595337 176.0
410.05249 156.0
410.196716 144.0
410.239258 232.0
410.95401 136.0
411.052307 96.0
411.276581 116.0
448.215485 152.0
567.454041 152.0
1402.281494 144.0
