>compound C18_Sphingosine
>formula C18H37NO2
>ionization [M+H]+
>parentmass 300.29
#inchi InChI=1S/C18H37NO2/c1-2-3-4-5-6-7-8-9-10-11-12-13-14-15-18(21)17(19)16-20/h14-15,17-18,20-21H,2-13,16,19H2,1H3
#inchikey WWUZIQQURGPMPG
#Ion_Source ESI
#Instrument Q-TOF
#Compound_Source Commercial standard
#PI Dorrestein
#Data_Collector Amina
#Scan -1
#Precursor_MZ 300.29
#ExactMass 299.282
#Charge 1
#CAS_Number 123-78-4
#Pubmed_ID N/A
#Smiles CCCCCCCCCCCCCC=CC(C(CO)N)O
#INCHI_AUX N/A
#Library_Class 2
#SpectrumID CCMSLIB00000077202
#IonMode Positive
#UpdateWorkflowName UPDATE-SINGLE-ANNOTATED-SILVER
#LibraryQualityString Silver
#TaskID 9bb88c04c6204bd4ae13def29ea30c87
##Scan# 2145
#SpectrumFile Sphingosine_C18.mzXML
#LibraryName gnps_library.mgf
#MQScore -1
#Organism Standards_Silver
#TIC_Query 0
#RT_Query -1
#MZErrorPPM -1
#SharedPeaks 0
#MassDiff 0
#LibMZ -1
#SpecMZ 300.29
#SpecCharge 0
#internalFilename spec-00000.mgf

>collision 10
93.065331 224.0
95.081093 372.0
96.080612 160.0
97.081322 160.0
97.098198 232.0
105.067657 136.0
107.084091 480.0
109.098366 396.0
111.081558 228.0
121.100601 344.0
125.745438 164.0
128.10701 172.0
135.11441 900.0
138.130371 172.0
149.130096 228.0
150.140091 184.0
166.164215 160.0
168.025467 164.0
169.827087 180.0
177.145554 144.0
184.208694 352.0
192.182175 228.0
192.43866 96.0
193.17598 188.0
193.297623 120.0
193.416534 80.0
193.482925 104.0
193.532715 100.0
196.20343 124.0
198.21936 224.0
205.204712 152.0
206.197327 168.0
210.174423 128.0
210.220566 104.0
211.20491 168.0
212.22937 188.0
213.235901 168.0
215.743668 140.0
218.845306 244.0
222.230209 180.0
223.203369 152.0
225.753967 84.0
234.450928 104.0
236.238785 172.0
237.233261 160.0
238.244308 84.0
240.232315 164.0
247.177261 192.0
247.24292 112.0
248.247742 152.0
251.3564 84.0
251.958984 116.0
252.227386 164.0
252.268143 6144.0
252.323441 148.0
252.356903 352.0
252.74881 116.0
253.042938 84.0
253.27153 1188.0
253.685547 156.0
253.888321 112.0
254.250046 72.0
254.27655 312.0
255.014496 116.0
255.165909 96.0
255.246399 144.0
256.378784 100.0
256.624023 216.0
258.155518 80.0
262.252197 356.0
263.249908 136.0
263.286987 192.0
263.558105 92.0
263.829407 88.0
264.2677 5920.0
264.320618 80.0
265.268738 1116.0
265.738708 104.0
266.03009 56.0
266.280396 180.0
266.949341 80.0
266.972076 128.0
274.323578 204.0
275.728577 76.0
277.067657 180.0
280.271332 188.0
281.441193 120.0
281.618042 140.0
282.145599 76.0
282.179016 172.0
282.279297 24508.0
282.378265 108.0
282.412292 64.0
282.467163 120.0
282.495636 80.0
282.614746 156.0
282.727142 116.0
282.753906 92.0
282.842651 92.0
282.977997 104.0
283.138611 92.0
283.182129 180.0
283.282257 4988.0
283.416809 72.0
283.52359 92.0
283.694397 84.0
283.764862 100.0
284.281647 428.0
284.767303 188.0
284.884796 92.0
284.998932 100.0
285.086212 88.0
285.200409 88.0
285.282593 188.0
286.044037 160.0
286.575714 112.0
288.035339 100.0
288.285156 96.0
288.619537 76.0
299.277802 88.0
300.272949 136.0
303.112366 96.0
499.934265 88.0
613.009155 136.0
660.106384 84.0
661.425293 88.0
821.203735 84.0
1282.559692 144.0
1285.260498 104.0
