>compound MLS002207125-01!Sarafloxacin hydrochloride trihydrate91296-87-6
>formula C20H17F2N3O3
>ionization [M+H]+
>parentmass 386.131195
#inchi InChI=1S/C20H17F2N3O3/c21-12-1-3-13(4-2-12)25-11-15(20(27)28)19(26)14-9-16(22)18(10-17(14)25)24-7-5-23-6-8-24/h1-4,9-11,23H,5-8H2,(H,27,28)
#inchikey XBHBWNFJWIASRO
#origInchi InChI=1S/C20H17F2N3O3.ClH.H2O/c21-12-1-3-13(4-2-12)25-11-15(20(27)28)19(26)14-9-16(22)18(10-17(14)25)24-7-5-23-6-8-24;;/h1-4,9-11,23H,5-8H2,(H,27,28);1H;1H2
#Ion_Source LC-ESI
#Instrument qTof
#Compound_Source NIH Pharmacologically Active Library
#PI Dorrestein
#Data_Collector VP/LMS
#Scan -1
#Precursor_MZ 386.138
#ExactMass 385.124
#Charge 1
#CAS_Number N/A
#Pubmed_ID N/A
#Smiles OC(=O)c1cn(c2ccc(F)cc2)c3cc(N4CCNCC4)c(F)cc3c1=O.O.Cl
#INCHI_AUX N/A
#Library_Class 1
#SpectrumID CCMSLIB00000085632
#IonMode Positive
#UpdateWorkflowName UPDATE-SINGLE-ANNOTATED-GOLD
#LibraryQualityString Gold
#TaskID d252d724072548979f1f6f1ced849daf
##Scan# 1386
#SpectrumFile p4-D07_GD7_01_18367.mzXML
#LibraryName Pharm_Active_Library.mgf
#MQScore -1
#Organism Pharm_Active_Library
#TIC_Query 0
#RT_Query -1
#MZErrorPPM -1
#SharedPeaks 0
#MassDiff 0
#LibMZ -1
#SpecMZ 386.138
#SpecCharge 0
#internalFilename spec-00000.mgf

>collision 10
44.986919 104.0
45.056366 152.0
45.067055 140.0
45.084423 204.0
45.207855 148.0
45.227531 192.0
45.240341 176.0
45.314579 148.0
45.387531 196.0
45.447315 248.0
45.458603 156.0
45.474155 120.0
45.507717 128.0
45.527859 184.0
45.55069 136.0
45.585625 172.0
45.612503 112.0
45.647461 212.0
45.664944 148.0
45.681084 180.0
45.710865 148.0
45.726833 152.0
45.744331 204.0
45.814358 124.0
45.827831 108.0
45.883091 188.0
45.898567 200.0
45.934334 80.0
45.997757 152.0
46.012608 148.0
46.107162 116.0
46.128788 176.0
46.181522 72.0
46.212635 160.0
46.231583 128.0
46.254589 176.0
46.285728 52.0
46.306042 96.0
46.327713 212.0
46.365654 120.0
46.411743 176.0
46.570522 204.0
46.607204 116.0
46.620792 200.0
46.725971 216.0
46.741043 176.0
46.754066 160.0
46.793545 104.0
46.810101 176.0
46.869617 136.0
46.924339 84.0
46.999355 144.0
47.069542 188.0
47.160503 128.0
47.252125 132.0
47.338356 128.0
47.358898 148.0
47.390766 168.0
47.416443 124.0
47.452084 116.0
47.621109 140.0
47.66346 144.0
47.708817 192.0
47.74044 144.0
47.847767 144.0
47.867043 152.0
47.887699 44.0
47.959347 72.0
48.002087 80.0
48.022774 116.0
48.056915 112.0
48.072441 56.0
48.100044 140.0
48.195335 164.0
48.216064 104.0
48.280384 168.0
48.292107 196.0
48.31839 256.0
48.351601 160.0
48.420822 240.0
48.44714 248.0
48.459232 192.0
48.505341 116.0
48.589935 64.0
48.623718 104.0
48.649612 224.0
48.666271 136.0
48.770462 120.0
48.833031 132.0
48.845551 152.0
48.867092 132.0
48.883114 112.0
48.895641 160.0
48.968037 132.0
49.04472 108.0
49.15345 184.0
49.198112 144.0
49.326168 216.0
49.34201 136.0
49.439926 80.0
49.462318 120.0
49.501522 172.0
49.591183 152.0
49.601124 216.0
49.617817 200.0
49.671104 112.0
49.766537 148.0
49.935169 128.0
49.977371 88.0
50.036488 176.0
50.047749 160.0
50.074505 116.0
50.097042 112.0
50.129452 144.0
50.153408 64.0
50.223911 84.0
50.236607 128.0
50.250713 104.0
50.271381 260.0
50.315636 136.0
50.372124 180.0
50.422989 132.0
50.438538 200.0
50.454086 172.0
50.523384 116.0
50.615383 176.0
50.738651 128.0
50.805305 188.0
50.906082 60.0
50.970005 120.0
51.012325 144.0
51.078053 172.0
51.109352 124.0
51.195309 192.0
51.204731 216.0
51.307327 136.0
51.321583 172.0
51.348679 188.0
51.427151 200.0
51.452991 116.0
51.537113 80.0
51.64476 200.0
51.664356 72.0
51.692974 96.0
51.741638 140.0
51.797489 196.0
51.891174 128.0
51.960575 152.0
51.998226 184.0
52.012577 320.0
52.11034 108.0
52.130348 96.0
52.207977 160.0
52.269836 76.0
52.315891 132.0
52.334682 152.0
52.370918 168.0
52.383308 196.0
52.508976 104.0
52.526283 168.0
52.545036 168.0
52.609982 148.0
52.626545 152.0
52.699524 196.0
52.72987 132.0
52.754444 160.0
52.815178 184.0
52.854237 136.0
52.86871 148.0
52.886078 128.0
52.900551 164.0
52.9175 204.0
52.975853 240.0
53.039612 412.0
53.094711 60.0
53.195374 152.0
53.20789 160.0
53.226765 132.0
53.245644 140.0
53.312473 132.0
53.373528 104.0
53.478271 84.0
53.56266 184.0
53.637039 136.0
53.698277 128.0
53.889507 172.0
53.909966 148.0
53.944557 144.0
53.993298 96.0
54.066444 196.0
54.105965 136.0
54.163078 88.0
54.227547 140.0
54.330193 76.0
54.371277 140.0
54.38155 84.0
54.405037 84.0
54.428528 204.0
54.512257 232.0
54.532833 140.0
54.609287 140.0
54.660778 112.0
54.680477 208.0
54.752048 180.0
54.765305 176.0
54.821289 144.0
54.884674 136.0
54.921543 160.0
54.937771 160.0
54.982037 188.0
55.058807 104.0
55.104599 152.0
55.134083 176.0
55.138973 168.0
55.149788 124.0
55.216942 152.0
55.233212 176.0
55.319038 148.0
55.335323 88.0
55.43248 204.0
55.477547 192.0
55.576916 160.0
55.608082 152.0
55.661526 124.0
55.713509 76.0
55.741737 180.0
55.795246 116.0
55.847294 180.0
55.885971 228.0
55.915733 172.0
56.027779 196.0
56.076584 176.0
56.164555 148.0
56.210804 224.0
56.245132 180.0
56.349667 192.0
56.460281 96.0
56.478569 124.0
56.523113 148.0
56.639889 160.0
56.666855 148.0
56.782276 104.0
56.828781 132.0
56.929352 192.0
57.045044 120.0
57.079624 200.0
57.10519 184.0
57.165367 164.0
57.221058 92.0
57.257198 176.0
57.311428 164.0
57.353626 36.0
57.412426 184.0
57.466732 140.0
57.493504 140.0
57.513309 148.0
57.534645 184.0
57.549744 144.0
57.560314 180.0
57.578434 124.0
57.625263 92.0
57.666065 224.0
57.698521 184.0
57.806713 136.0
57.849091 192.0
57.886707 180.0
57.938438 128.0
58.064251 140.0
58.123104 296.0
58.228161 144.0
58.307163 128.0
58.422726 132.0
58.496254 164.0
58.521652 120.0
58.55283 164.0
58.657238 168.0
58.680107 172.0
58.707554 132.0
58.743931 160.0
58.765709 160.0
58.794411 180.0
58.843357 144.0
58.86834 332.0
58.909027 128.0
58.951164 76.0
58.986553 180.0
59.025181 96.0
59.147575 196.0
59.218006 168.0
59.29768 196.0
59.346733 128.0
59.446438 108.0
59.512444 84.0
59.636875 76.0
59.650711 124.0
59.672234 196.0
59.690685 92.0
59.710678 196.0
59.801453 184.0
59.827621 100.0
59.867653 152.0
59.91386 72.0
59.926186 216.0
59.984749 144.0
60.014042 176.0
60.044884 176.0
60.132824 232.0
60.18531 92.0
60.207962 156.0
60.268719 140.0
60.335178 192.0
60.350639 108.0
60.386208 44.0
60.406315 120.0
60.429523 48.0
60.471706 148.0
60.492973 84.0
60.516197 120.0
60.627728 136.0
60.667583 196.0
60.685081 180.0
60.74091 184.0
60.787453 124.0
60.871281 204.0
60.888363 140.0
60.898445 116.0
60.911659 128.0
60.931854 148.0
60.9505 140.0
60.988789 176.0
61.033932 172.0
61.085762 208.0
61.136715 160.0
61.142448 120.0
61.166679 124.0
61.211826 92.0
61.224285 104.0
61.236744 92.0
61.264782 224.0
61.299061 224.0
61.313969 172.0
61.437828 80.0
61.645493 132.0
61.656429 148.0
61.71735 136.0
61.729904 164.0
61.776825 136.0
61.803425 132.0
61.840981 188.0
62.032078 104.0
62.044621 152.0
62.08382 76.0
62.144997 88.0
62.159119 140.0
62.280006 80.0
62.331848 108.0
62.379623 188.0
62.401009 172.0
62.424595 172.0
62.445038 200.0
62.545738 188.0
62.566204 136.0
62.611866 140.0
62.624466 176.0
62.638641 164.0
62.704819 180.0
62.79311 124.0
62.862526 164.0
62.889355 216.0
63.052032 144.0
63.094711 196.0
63.140568 144.0
63.1548 192.0
63.270317 132.0
63.313072 176.0
63.354252 204.0
63.387524 100.0
63.411297 56.0
63.508015 124.0
63.615917 80.0
63.676254 88.0
63.731853 176.0
63.776352 100.0
63.804966 176.0
63.852669 128.0
63.903572 240.0
63.989128 180.0
64.094643 56.0
64.12014 152.0
64.156059 152.0
64.218987 72.0
64.238129 212.0
64.289185 196.0
64.325897 156.0
64.35144 184.0
64.395279 124.0
64.515396 308.0
64.547974 196.0
64.613556 180.0
64.77684 44.0
64.788055 140.0
64.815292 216.0
64.906662 212.0
64.929108 220.0
64.953171 208.0
64.999695 132.0
65.085403 132.0
65.107254 192.0
65.14901 364.0
65.173111 120.0
65.19561 104.0
65.341125 128.0
65.380554 116.0
65.487877 188.0
65.502922 244.0
65.568977 108.0
65.583488 108.0
65.622177 200.0
65.638298 148.0
65.652809 56.0
65.764137 104.0
65.841629 100.0
65.90786 128.0
65.977509 216.0
66.016167 124.0
66.030724 136.0
66.079254 36.0
66.097046 176.0
66.349716 88.0
66.437294 152.0
66.586624 124.0
66.677605 192.0
66.690613 148.0
66.727997 80.0
66.754013 148.0
66.819077 80.0
66.867897 44.0
66.937897 76.0
66.98024 176.0
67.009567 68.0
67.025856 132.0
67.094315 156.0
67.107353 40.0
67.167694 216.0
67.203896 148.0
67.231331 108.0
67.254181 152.0
67.298256 84.0
67.339081 144.0
67.395485 164.0
67.415863 140.0
67.435478 96.0
67.466537 128.0
67.507408 144.0
67.571205 180.0
67.602516 144.0
67.646484 100.0
67.69796 200.0
67.76931 116.0
67.802086 164.0
67.835159 148.0
67.961151 164.0
68.012024 144.0
68.051422 48.0
68.072769 204.0
68.08403 140.0
68.128616 140.0
68.153259 188.0
68.187767 184.0
68.273254 144.0
68.320961 44.0
68.363739 192.0
68.391716 148.0
68.416405 120.0
68.427933 76.0
68.492157 180.0
68.528397 108.0
68.621941 180.0
68.69326 144.0
68.724609 64.0
68.792274 204.0
68.813736 132.0
68.85006 176.0
68.975525 172.0
68.995468 188.0
69.048386 112.0
69.071541 52.0
69.111412 160.0
69.271835 116.0
69.283432 244.0
69.377892 140.0
69.489014 180.0
69.512238 148.0
69.545433 88.0
69.56369 84.0
69.585274 144.0
69.613197 176.0
69.64386 172.0
69.71151 136.0
69.743088 92.0
69.761375 104.0
69.811256 88.0
69.835373 176.0
69.901085 100.0
69.994301 192.0
70.017616 116.0
70.09758 192.0
70.122574 116.0
70.19426 92.0
70.270988 184.0
70.289345 156.0
70.344078 172.0
70.376137 88.0
70.402855 120.0
70.417892 156.0
70.476692 180.0
70.568672 192.0
70.631836 152.0
70.72554 144.0
70.736076 136.0
70.755669 108.0
70.802551 148.0
70.820976 44.0
70.852806 268.0
70.876259 156.0
70.904747 144.0
71.022118 184.0
71.048958 144.0
71.119431 76.0
71.189949 120.0
71.203384 184.0
71.21682 148.0
71.236977 112.0
71.255455 156.0
71.297462 104.0
71.3647 224.0
71.47908 132.0
71.56395 152.0
71.620499 140.0
71.660934 164.0
71.706429 216.0
71.762054 116.0
71.778923 128.0
71.836266 244.0
71.897003 344.0
71.908821 96.0
71.972969 196.0
71.991249 116.0
72.066605 156.0
72.087662 120.0
72.157135 60.0
72.233238 108.0
72.432976 124.0
72.583817 148.0
72.629608 168.0
72.694077 128.0
72.7416 64.0
72.861519 156.0
72.892754 116.0
72.936241 192.0
73.061081 120.0
73.115891 152.0
73.151276 160.0
73.195541 92.0
73.226196 140.0
73.238113 120.0
73.280075 140.0
73.304558 128.0
73.331825 200.0
73.51297 132.0
73.551857 224.0
73.57576 176.0
73.619675 128.0
73.649185 164.0
73.726067 64.0
73.769997 204.0
73.809479 156.0
73.828217 144.0
73.864563 76.0
74.030579 120.0
74.069969 156.0
74.160782 124.0
74.215645 108.0
74.24308 156.0
74.282532 32.0
74.303841 180.0
74.334457 136.0
74.372787 160.0
74.387207 160.0
74.40094 136.0
74.461555 160.0
74.512573 160.0
74.548653 144.0
74.596779 56.0
74.613968 52.0
74.632881 172.0
74.663834 156.0
74.685081 216.0
74.767059 212.0
74.812424 192.0
74.835915 96.0
74.899635 224.0
74.946831 132.0
74.951752 176.0
75.004745 96.0
75.066811 176.0
75.17894 128.0
75.241081 204.0
75.315048 144.0
75.341248 92.0
75.374069 168.0
75.394806 132.0
75.458763 40.0
75.477028 100.0
75.541779 164.0
75.586761 224.0
75.633049 156.0
75.687157 180.0
75.702744 220.0
75.791084 108.0
75.825745 124.0
75.862144 128.0
75.936707 168.0
76.072044 172.0
76.091141 132.0
76.118927 136.0
76.150185 88.0
76.214462 176.0
76.27272 140.0
76.303101 148.0
76.330925 144.0
76.477058 168.0
76.494469 184.0
76.508392 120.0
76.544952 152.0
76.586754 76.0
76.611137 160.0
76.682579 136.0
76.752312 176.0
76.774986 108.0
76.801147 240.0
76.819748 156.0
76.927238 184.0
76.9617 184.0
77.090958 208.0
77.182053 144.0
77.199348 64.0
77.215088 204.0
77.253563 84.0
77.285057 188.0
77.328804 188.0
77.400581 144.0
77.428604 140.0
77.54599 148.0
77.584549 132.0
77.607346 144.0
77.626083 204.0
77.723106 216.0
77.779266 72.0
77.795067 112.0
77.808388 156.0
77.865303 108.0
77.921516 164.0
78.016418 196.0
78.046303 112.0
78.132484 144.0
78.172951 176.0
78.194069 132.0
78.215195 144.0
78.269768 192.0
78.297943 168.0
78.424797 112.0
78.488266 92.0
78.595863 124.0
78.613747 120.0
78.638214 152.0
78.653961 152.0
78.68058 52.0
78.756172 184.0
78.809517 152.0
78.827187 172.0
78.930984 216.0
78.986305 120.0
79.060616 140.0
79.156204 152.0
79.237267 156.0
79.276665 96.0
79.301476 40.0
79.374161 184.0
79.444542 164.0
79.546257 124.0
79.564011 80.0
79.579987 80.0
79.592415 136.0
79.622604 116.0
79.63681 248.0
79.675896 188.0
79.69516 232.0
79.732758 136.0
79.805756 176.0
79.839424 120.0
79.908798 184.0
79.921249 224.0
80.061882 176.0
80.086311 128.0
80.125999 216.0
80.313179 180.0
80.418449 128.0
80.613113 196.0
80.67746 100.0
80.794533 172.0
80.906448 68.0
80.932625 168.0
80.991142 176.0
81.028618 204.0
81.058693 184.0
81.151901 152.0
81.164452 140.0
81.194939 132.0
81.272072 196.0
81.324112 272.0
81.363037 164.0
81.496513 120.0
81.527275 168.0
81.554024 152.0
81.582779 180.0
81.596062 144.0
81.651108 276.0
81.748253 96.0
81.76445 160.0
81.784248 120.0
81.840057 116.0
81.858063 224.0
81.912094 152.0
81.948128 156.0
82.00219 156.0
82.036438 84.0
82.091949 152.0
82.171692 140.0
82.231239 180.0
82.24929 28.0
82.284859 108.0
82.334152 128.0
82.447968 132.0
82.500381 188.0
82.520271 308.0
82.541969 56.0
82.582672 136.0
82.596222 116.0
82.612503 180.0
82.670403 140.0
82.795319 124.0
82.815239 136.0
82.85746 352.0
82.880455 112.0
82.943886 148.0
82.991005 172.0
83.049057 168.0
83.063568 132.0
83.241432 92.0
83.305 148.0
83.326797 152.0
83.594086 128.0
83.66507 124.0
83.677818 240.0
83.694199 108.0
83.781624 112.0
83.801666 148.0
83.929253 156.0
84.038696 156.0
84.056938 184.0
84.074951 152.0
84.097092 160.0
84.135262 184.0
84.195679 272.0
84.224663 184.0
84.374748 156.0
84.411758 188.0
84.425209 224.0
84.455208 132.0
84.484482 156.0
84.616249 184.0
84.693161 132.0
84.73896 116.0
84.753616 140.0
84.774879 132.0
84.821426 196.0
84.83609 136.0
84.858269 164.0
84.920441 176.0
85.037865 116.0
85.065392 100.0
85.118637 104.0
85.223335 160.0
85.280304 112.0
85.325508 180.0
85.357521 152.0
85.405334 200.0
85.438278 172.0
85.508369 176.0
85.600418 116.0
85.696198 128.0
85.747795 164.0
85.764381 160.0
85.819687 104.0
85.843658 176.0
85.915596 192.0
85.948807 252.0
86.022652 152.0
86.074326 172.0
86.18515 132.0
86.218742 180.0
86.268318 176.0
86.289795 232.0
86.39962 128.0
86.444031 180.0
86.460686 44.0
86.501404 108.0
86.532875 120.0
86.564354 220.0
86.599541 148.0
86.618065 168.0
86.827507 236.0
86.877586 196.0
86.896141 108.0
86.994499 180.0
87.148651 160.0
87.172241 172.0
87.191391 120.0
87.247833 132.0
87.419273 104.0
87.505753 36.0
87.629982 252.0
87.662216 108.0
87.760818 188.0
87.802032 208.0
87.90464 80.0
87.960632 160.0
87.982216 184.0
88.005432 148.0
88.088783 248.0
88.147018 200.0
88.192245 132.0
88.261459 176.0
88.285728 132.0
88.29882 168.0
88.321266 172.0
88.34697 156.0
88.352745 116.0
88.377388 92.0
88.442886 152.0
88.48407 164.0
88.551483 180.0
88.581451 152.0
88.613304 248.0
88.658272 120.0
88.692009 124.0
88.7145 124.0
88.782005 136.0
88.879547 92.0
88.935852 136.0
88.979027 116.0
88.995926 40.0
89.014702 120.0
89.037231 120.0
89.102051 144.0
89.308144 172.0
89.362434 152.0
89.394424 156.0
89.420769 212.0
89.43959 172.0
89.563866 172.0
89.658073 152.0
89.754211 112.0
89.769295 96.0
89.808899 92.0
89.839081 136.0
89.861717 88.0
89.910782 224.0
89.939743 220.0
89.999046 180.0
90.03965 180.0
90.058044 224.0
90.166946 144.0
90.194092 184.0
90.207321 108.0
90.237915 132.0
90.250809 188.0
90.277283 112.0
90.311028 180.0
90.341591 128.0
90.466484 136.0
90.530861 168.0
90.599052 156.0
90.708961 108.0
90.727921 164.0
90.76963 148.0
90.786697 116.0
90.828423 228.0
91.039093 124.0
91.052391 120.0
91.130096 172.0
91.172081 132.0
91.238602 176.0
91.3451 124.0
91.367928 64.0
91.417648 152.0
91.433075 388.0
91.444534 124.0
91.463074 84.0
91.495438 120.0
91.609703 176.0
91.680977 168.0
91.731659 116.0
91.756447 180.0
91.771698 56.0
91.792671 164.0
91.806023 164.0
91.909027 160.0
91.987274 232.0
92.010185 88.0
92.046333 160.0
92.10376 212.0
92.117126 64.0
92.206932 164.0
92.234795 236.0
92.270012 128.0
92.294868 172.0
92.324051 112.0
92.357979 164.0
92.413452 216.0
92.447899 160.0
92.486176 140.0
92.566582 168.0
92.587654 204.0
92.679596 108.0
92.700676 196.0
92.756256 140.0
92.802269 140.0
92.875145 176.0
92.892403 96.0
92.940979 188.0
92.996025 272.0
93.07473 112.0
93.103539 236.0
93.122742 184.0
93.138107 132.0
93.156883 212.0
93.247169 152.0
93.318748 280.0
93.391769 124.0
93.451462 116.0
93.519783 184.0
93.751137 168.0
93.861465 172.0
93.965889 216.0
93.994827 196.0
94.070099 176.0
94.083618 120.0
94.15699 124.0
94.177742 236.0
94.226532 152.0
94.307693 136.0
94.359886 184.0
94.524666 196.0
94.55719 188.0
94.613327 44.0
94.710152 192.0
94.772141 180.0
94.851601 124.0
94.902 88.0
94.940788 112.0
94.965996 248.0
94.997032 80.0
95.021286 216.0
95.035835 212.0
95.055237 124.0
95.082413 116.0
95.223549 132.0
95.245506 136.0
95.259102 248.0
95.272697 184.0
95.307671 216.0
95.323212 160.0
95.364029 216.0
95.424049 160.0
95.447624 168.0
95.496239 152.0
95.527359 124.0
95.558792 152.0
95.595459 96.0
95.657738 144.0
95.694733 152.0
95.729546 164.0
95.753151 108.0
95.776772 156.0
95.799896 156.0
95.819382 52.0
95.850555 148.0
95.910973 160.0
95.937073 184.0
95.998703 188.0
96.020882 204.0
96.089729 200.0
96.117699 172.0
96.156868 224.0
96.217239 96.0
96.271912 128.0
96.31488 216.0
96.408661 196.0
96.449699 156.0
96.467293 180.0
96.522041 52.0
96.578751 216.0
96.784241 128.0
96.874329 244.0
96.919388 176.0
96.97818 64.0
97.038956 280.0
97.056602 136.0
97.074249 104.0
97.089935 60.0
97.105621 148.0
97.129166 200.0
97.149918 156.0
97.182129 148.0
97.211563 160.0
97.307747 128.0
97.382362 160.0
97.433441 124.0
97.47863 148.0
97.506912 112.0
97.6241 208.0
97.669334 68.0
97.690971 168.0
97.807068 132.0
97.824783 108.0
97.840538 72.0
97.925209 116.0
97.943764 132.0
97.984306 152.0
98.040916 164.0
98.110435 164.0
98.136063 72.0
98.153809 104.0
98.183388 40.0
98.252426 116.0
98.296661 172.0
98.325439 140.0
98.347145 32.0
98.379601 172.0
98.471535 136.0
98.513466 176.0
98.548576 128.0
98.605881 36.0
98.627625 140.0
98.716591 76.0
98.764061 216.0
98.811539 84.0
98.831322 204.0
98.862373 172.0
98.924339 116.0
98.963936 128.0
98.979774 232.0
99.154106 88.0
99.177887 124.0
99.348427 132.0
99.36628 120.0
99.407944 140.0
99.429115 156.0
99.51712 184.0
99.548889 132.0
99.564774 192.0
99.713783 168.0
99.743591 52.0
99.771423 176.0
99.79435 36.0
99.811188 180.0
99.866875 168.0
99.964355 136.0
100.01358 164.0
100.049942 44.0
100.087646 128.0
100.133575 100.0
100.279022 172.0
100.334831 88.0
100.348785 172.0
100.376701 104.0
100.45163 136.0
100.490395 136.0
100.553474 144.0
100.606148 188.0
100.656067 112.0
100.713982 120.0
100.735954 192.0
100.773911 184.0
100.829865 108.0
100.920532 180.0
100.999817 256.0
101.040421 160.0
101.12999 136.0
101.186752 164.0
101.274033 168.0
101.290054 116.0
101.314095 208.0
101.374207 168.0
101.444351 48.0
101.470413 188.0
101.490417 164.0
101.514526 232.0
101.610809 40.0
101.679031 172.0
101.747284 180.0
101.792267 164.0
101.807518 96.0
101.829613 228.0
101.895897 172.0
101.955688 212.0
102.050659 100.0
102.11702 180.0
102.137131 172.0
102.150337 124.0
102.183403 132.0
102.305641 216.0
102.354485 188.0
102.399734 128.0
102.435043 116.0
102.455193 96.0
102.477356 92.0
102.507576 196.0
102.553932 136.0
102.606339 100.0
102.639336 220.0
102.705154 132.0
102.737427 120.0
102.775764 180.0
102.900902 172.0
102.951431 232.0
102.999855 64.0
103.056458 212.0
103.092964 204.0
103.252502 128.0
103.28891 92.0
103.390274 120.0
103.422455 100.0
103.448769 156.0
103.546211 164.0
103.692421 152.0
103.716156 80.0
103.752647 320.0
103.783058 56.0
103.888115 168.0
103.925041 204.0
103.957504 232.0
104.042755 108.0
104.058052 320.0
104.091484 124.0
104.115852 188.0
104.221176 184.0
104.24659 192.0
104.329201 100.0
104.491898 132.0
104.532806 116.0
104.609932 152.0
104.656761 88.0
104.677124 136.0
104.693413 88.0
104.723961 216.0
104.75248 96.0
104.819633 100.0
104.842133 64.0
104.882729 148.0
104.901237 136.0
104.927742 104.0
104.970299 344.0
104.99707 208.0
105.050102 200.0
105.186821 212.0
105.201111 104.0
105.215401 212.0
105.237862 152.0
105.26236 144.0
105.280739 144.0
105.31955 92.0
105.401268 128.0
105.43396 136.0
105.483017 76.0
105.54026 196.0
105.568886 168.0
105.612694 152.0
105.652748 92.0
105.69162 96.0
105.714134 44.0
105.830215 152.0
105.870766 132.0
105.884048 176.0
105.902481 180.0
105.965988 64.0
106.004921 172.0
106.026253 156.0
106.043854 156.0
106.062302 128.0
106.124985 180.0
106.330994 144.0
106.361778 148.0
106.429527 100.0
106.456223 112.0
106.480339 156.0
106.517838 108.0
106.565086 180.0
106.591797 68.0
106.65345 152.0
106.717178 84.0
106.867325 160.0
106.900253 152.0
106.992874 116.0
107.028351 628.0
107.083473 180.0
107.110252 228.0
107.192078 168.0
107.227699 160.0
107.248306 164.0
107.262733 84.0
107.300507 212.0
107.360275 244.0
107.427704 128.0
107.526749 148.0
107.568031 76.0
107.598991 156.0
107.632027 196.0
107.6754 76.0
107.714638 48.0
107.737366 136.0
107.791084 124.0
107.862465 116.0
107.912117 208.0
108.016327 156.0
108.031723 412.0
108.053673 144.0
108.11161 148.0
108.198547 128.0
108.221321 180.0
108.266876 212.0
108.302086 128.0
108.333511 188.0
108.463707 168.0
108.496872 124.0
108.579819 148.0
108.606781 156.0
108.689766 128.0
108.70636 200.0
108.797691 264.0
108.851669 128.0
108.874512 96.0
108.897942 196.0
109.018341 156.0
109.044342 1660.0
109.076897 168.0
109.123871 156.0
109.230873 184.0
109.284019 60.0
109.39016 136.0
109.413055 56.0
109.435959 180.0
109.457581 156.0
109.579674 172.0
109.594254 132.0
109.658478 220.0
109.765175 124.0
109.861122 108.0
109.886154 156.0
109.913277 48.0
109.956245 244.0
109.984238 152.0
110.003731 116.0
110.04377 564.0
110.117867 128.0
110.161209 208.0
110.178444 40.0
110.247391 152.0
110.475822 144.0
110.496223 256.0
110.538071 176.0
110.699257 152.0
110.884346 216.0
110.921341 160.0
110.963264 88.0
111.068741 176.0
111.097488 132.0
111.122665 152.0
111.154137 192.0
111.175117 176.0
111.217094 172.0
111.244385 180.0
111.333664 92.0
111.39978 124.0
111.449234 320.0
111.490128 140.0
111.620461 176.0
111.651024 188.0
111.696175 156.0
111.748222 168.0
111.803772 144.0
111.901726 244.0
111.918884 112.0
111.959267 256.0
111.984543 200.0
112.001389 164.0
112.072563 148.0
112.254501 164.0
112.302803 128.0
112.319679 108.0
112.353432 200.0
112.391403 132.0
112.431503 176.0
112.482155 124.0
112.514702 220.0
112.579277 124.0
112.602509 144.0
112.629562 188.0
112.691231 264.0
112.704926 116.0
112.756737 144.0
112.796898 52.0
112.822266 196.0
112.849747 88.0
112.911072 84.0
112.93222 152.0
112.963951 208.0
113.109962 152.0
113.158653 116.0
113.175591 120.0
113.200996 128.0
113.261559 188.0
113.333862 260.0
113.349281 196.0
113.423454 112.0
113.442535 184.0
113.470093 156.0
113.495537 176.0
113.539093 148.0
113.605827 112.0
113.670776 216.0
113.79895 168.0
113.980629 192.0
114.002869 96.0
114.034752 332.0
114.070885 180.0
114.134666 160.0
114.215477 60.0
114.277176 192.0
114.30909 240.0
114.407928 128.0
114.434677 116.0
114.645554 112.0
114.730812 136.0
114.790512 140.0
114.880089 200.0
114.906006 108.0
114.941963 176.0
114.995316 60.0
115.03801 116.0
115.052948 48.0
115.07003 60.0
115.099365 184.0
115.150375 160.0
115.187485 112.0
115.297188 116.0
115.313553 100.0
115.332787 188.0
115.352028 148.0
115.377678 168.0
115.411888 228.0
115.448242 68.0
115.518822 208.0
115.660049 180.0
115.741402 196.0
115.792801 64.0
115.83564 148.0
115.850632 124.0
115.869911 140.0
115.933907 148.0
115.961266 216.0
116.048721 1088.0
116.102516 136.0
116.176483 152.0
116.212959 152.0
116.265182 188.0
116.292358 156.0
116.409622 200.0
116.453697 140.0
116.485603 92.0
116.524277 124.0
116.580139 120.0
116.648483 172.0
116.672569 152.0
116.737068 96.0
116.795143 140.0
116.831711 132.0
116.889801 148.0
116.952209 76.0
117.057526 1300.0
117.113701 100.0
117.214958 148.0
117.344276 184.0
117.374466 136.0
117.400215 132.0
117.508194 136.0
117.547035 152.0
117.581558 140.0
117.600983 176.0
117.63768 136.0
117.660484 164.0
117.768074 160.0
117.81044 48.0
117.847168 60.0
117.943886 244.0
117.963875 104.0
117.981163 140.0
118.002785 208.0
118.048195 104.0
118.065491 296.0
118.08712 236.0
118.104424 96.0
118.19529 200.0
118.277527 88.0
118.294846 156.0
118.33165 112.0
118.39444 124.0
118.411766 64.0
118.431259 52.0
118.483299 168.0
118.523125 208.0
118.617607 236.0
118.723846 196.0
118.759285 212.0
118.807495 184.0
118.87294 180.0
118.958176 192.0
119.027214 356.0
119.055885 180.0
119.081093 152.0
119.136253 196.0
119.225334 156.0
119.241882 164.0
119.288368 104.0
119.351418 120.0
119.488441 112.0
119.555893 132.0
119.708282 224.0
119.747482 192.0
119.785484 116.0
119.878197 200.0
119.961296 156.0
119.992943 160.0
120.048676 296.0
120.076973 180.0
120.150749 68.0
120.176926 60.0
120.264221 152.0
120.331894 160.0
120.360275 136.0
120.419243 132.0
120.452003 144.0
120.559059 100.0
120.671837 176.0
120.717552 144.0
120.773323 228.0
120.793007 132.0
120.858643 180.0
120.946175 180.0
120.981201 184.0
121.043556 664.0
121.088493 200.0
121.116966 176.0
121.135391 88.0
121.158592 184.0
121.190506 184.0
121.264366 160.0
121.296646 48.0
121.379959 172.0
121.404083 132.0
121.42382 144.0
121.445755 132.0
121.48085 156.0
121.500595 192.0
121.537888 76.0
121.582909 124.0
121.612503 168.0
121.630066 108.0
121.65947 132.0
121.733253 36.0
121.816711 168.0
121.83429 168.0
121.895813 144.0
121.926575 72.0
121.957344 124.0
122.039749 460.0
122.098061 156.0
122.166245 140.0
122.248634 152.0
122.31192 140.0
122.331291 148.0
122.3489 96.0
122.381927 128.0
122.39856 224.0
122.478821 184.0
122.569267 160.0
122.624245 52.0
122.749901 44.0
122.789597 180.0
122.842239 148.0
122.880043 52.0
122.924171 52.0
122.944031 64.0
122.977135 132.0
123.023186 1220.0
123.058434 276.0
123.127678 300.0
123.144005 208.0
123.306221 204.0
123.352638 84.0
123.379166 124.0
123.410118 32.0
123.484337 164.0
123.529419 144.0
123.606789 208.0
123.671158 152.0
123.708786 140.0
123.753067 112.0
123.76857 120.0
123.819504 152.0
123.843864 88.0
123.868225 96.0
123.883736 128.0
123.936905 40.0
124.021118 132.0
124.056282 144.0
124.072105 104.0
124.2229 196.0
124.2584 136.0
124.288094 368.0
124.305908 136.0
124.369354 116.0
124.443947 160.0
124.463295 140.0
124.487022 204.0
124.535881 148.0
124.580307 224.0
124.598083 80.0
124.613632 168.0
124.631409 48.0
124.724747 44.0
124.786995 196.0
124.827019 140.0
124.847031 172.0
124.864822 120.0
124.889069 164.0
124.918205 32.0
124.940453 384.0
124.983681 196.0
125.008682 120.0
125.098717 204.0
125.129623 204.0
125.197357 152.0
125.223145 128.0
125.245758 160.0
125.297768 208.0
125.345345 136.0
125.439285 180.0
125.528465 104.0
125.557457 160.0
125.573067 128.0
125.666016 192.0
125.796196 124.0
125.81852 164.0
125.852013 224.0
125.89444 236.0
125.950272 124.0
125.973495 184.0
125.988251 160.0
126.008354 188.0
126.198189 120.0
126.231873 180.0
126.29673 96.0
126.395172 112.0
126.484688 40.0
126.514877 272.0
126.592155 176.0
126.612312 148.0
126.719833 112.0
126.735512 176.0
126.755684 204.0
126.77137 116.0
126.816193 72.0
126.843086 228.0
126.903618 140.0
126.926041 200.0
126.961922 148.0
127.125687 132.0
127.286812 180.0
127.329979 136.0
127.422203 140.0
127.43943 188.0
127.506477 164.0
127.561409 44.0
127.59063 128.0
127.705315 100.0
127.766052 212.0
127.790802 188.0
127.831299 160.0
127.887566 176.0
127.950592 200.0
127.986618 204.0
128.00238 124.0
128.048798 2848.0
128.074265 196.0
128.232162 268.0
128.24794 136.0
128.320084 144.0
128.33812 212.0
128.412537 196.0
128.447693 120.0
128.493744 120.0
128.518555 112.0
128.541122 128.0
128.56601 180.0
128.586258 172.0
128.626892 180.0
128.643494 168.0
128.687836 184.0
128.739777 140.0
128.755585 160.0
128.778168 132.0
128.803024 216.0
129.048737 300.0
129.175934 164.0
129.246124 168.0
129.299805 156.0
129.336655 88.0
129.420151 240.0
129.44986 204.0
129.513275 48.0
129.560837 68.0
129.633347 136.0
129.653015 200.0
129.730804 316.0
129.860046 140.0
129.97348 120.0
129.99617 136.0
130.020752 240.0
130.06572 1196.0
130.134628 248.0
130.150528 224.0
130.243637 172.0
130.26181 136.0
130.421844 212.0
130.472168 224.0
130.52565 224.0
130.643723 40.0
130.724625 272.0
130.740616 200.0
130.7939 136.0
130.846268 140.0
130.884964 180.0
130.900909 168.0
130.916855 100.0
130.966949 92.0
131.010361 152.0
131.039856 176.0
131.064438 428.0
131.108215 112.0
131.16748 76.0
131.190262 148.0
131.208511 108.0
131.226746 188.0
131.267792 96.0
131.312164 140.0
131.387619 144.0
131.42746 240.0
131.473099 120.0
131.511902 140.0
131.56897 180.0
131.61235 84.0
131.700806 136.0
131.718399 156.0
131.753952 132.0
131.810837 160.0
131.885468 160.0
131.996231 332.0
132.026382 172.0
132.064835 176.0
132.10144 176.0
132.151764 128.0
132.181503 160.0
132.208405 144.0
132.233414 224.0
132.298233 136.0
132.328003 148.0
132.458542 96.0
132.513519 152.0
132.534134 172.0
132.591431 148.0
132.641846 148.0
132.699158 128.0
132.716339 156.0
132.770248 104.0
132.901001 256.0
133.045776 800.0
133.093811 124.0
133.115555 144.0
133.152023 160.0
133.236206 148.0
133.252289 40.0
133.353394 44.0
133.37178 160.0
133.424652 172.0
133.466049 92.0
133.500534 136.0
133.546295 156.0
133.627045 136.0
133.666168 180.0
133.72139 164.0
133.779892 232.0
133.844482 300.0
133.868729 104.0
133.926315 164.0
133.953949 80.0
134.009247 80.0
134.038544 2260.0
134.119858 76.0
134.165283 68.0
134.227203 264.0
134.27742 56.0
134.327393 168.0
134.346313 156.0
134.502899 200.0
134.657455 132.0
134.747543 84.0
134.819183 148.0
134.868774 132.0
134.888519 124.0
134.91626 132.0
134.965866 108.0
135.007233 288.0
135.045502 1236.0
135.101273 124.0
135.161423 228.0
135.228531 108.0
135.375977 168.0
135.399857 348.0
135.471664 88.0
135.506409 256.0
135.536652 80.0
135.564346 124.0
135.591461 104.0
135.691833 188.0
135.708054 172.0
135.728821 168.0
135.736465 160.0
135.80545 88.0
135.84346 52.0
135.888962 72.0
135.930725 192.0
135.986435 180.0
136.014786 224.0
136.024994 144.0
136.05484 2652.0
136.097855 40.0
136.13269 56.0
136.153595 80.0
136.209335 120.0
136.23024 356.0
136.28421 156.0
136.323044 132.0
136.358032 168.0
136.378586 128.0
136.437073 132.0
136.489136 192.0
136.53241 112.0
136.593399 168.0
136.618469 236.0
136.660339 292.0
136.702744 72.0
136.749771 112.0
136.769714 84.0
136.837234 92.0
136.893112 120.0
136.920181 364.0
136.986282 108.0
137.059311 1024.0
137.172699 116.0
137.19368 104.0
137.380234 108.0
137.45723 168.0
137.51091 112.0
137.539841 232.0
137.580933 104.0
137.599609 196.0
137.686005 272.0
137.704697 160.0
137.721039 168.0
137.753372 124.0
137.80748 132.0
137.858887 116.0
137.879913 160.0
137.94162 200.0
137.975754 100.0
138.034454 632.0
138.073639 336.0
138.202621 140.0
138.282196 32.0
138.312622 244.0
138.4086 172.0
138.455444 356.0
138.509308 96.0
138.537964 188.0
138.675674 124.0
138.696762 152.0
138.715515 160.0
138.784027 200.0
138.821014 72.0
138.846817 184.0
139.0392 68.0
139.062668 200.0
139.128723 240.0
139.208221 184.0
139.288071 156.0
139.316269 136.0
139.335052 132.0
139.360901 156.0
139.406143 204.0
139.450195 136.0
139.553635 132.0
139.584198 52.0
139.633591 200.0
139.661819 128.0
139.727676 220.0
139.786072 132.0
139.801544 260.0
139.871231 108.0
139.901825 144.0
139.932434 196.0
140.044205 192.0
140.064316 124.0
140.113785 188.0
140.146774 132.0
140.165619 196.0
140.189178 208.0
140.311752 156.0
140.426361 176.0
140.460312 192.0
140.507507 220.0
140.620773 132.0
140.658524 208.0
140.681137 140.0
140.75296 148.0
140.790756 176.0
140.86293 172.0
141.005737 204.0
141.022278 152.0
141.052109 156.0
141.090836 76.0
141.126297 168.0
141.154678 144.0
141.171219 40.0
141.218521 196.0
141.30368 184.0
141.327347 104.0
141.530899 144.0
141.661163 136.0
141.713287 128.0
141.793854 152.0
141.824661 108.0
141.855576 212.0
141.874451 100.0
141.919495 176.0
142.018158 236.0
142.042496 148.0
142.065353 768.0
142.118057 140.0
142.142456 140.0
142.173309 136.0
142.2836 120.0
142.299408 192.0
142.32048 160.0
142.36322 180.0
142.403595 120.0
142.479614 144.0
142.500992 180.0
142.556763 212.0
142.574661 60.0
142.679245 132.0
142.726791 116.0
142.773026 164.0
142.857605 216.0
142.874252 56.0
143.017029 160.0
143.058731 376.0
143.08844 112.0
143.114639 196.0
143.140823 116.0
143.190842 152.0
143.298035 108.0
143.33139 208.0
143.368179 128.0
143.402893 120.0
143.476776 168.0
143.493469 112.0
143.529526 64.0
143.586472 304.0
143.65802 128.0
143.674728 168.0
143.69516 232.0
143.736755 192.0
143.846542 160.0
143.899261 148.0
144.04454 168.0
144.080582 324.0
144.119263 168.0
144.157028 228.0
144.188095 88.0
144.321976 168.0
144.343491 124.0
144.368362 208.0
144.412842 216.0
144.439148 168.0
144.465469 184.0
144.526871 192.0
144.563568 232.0
144.585098 88.0
144.65451 112.0
144.692825 200.0
144.722275 144.0
144.824066 192.0
144.853271 156.0
144.971573 220.0
145.035385 160.0
145.051834 148.0
145.071335 200.0
145.103638 280.0
145.148056 120.0
145.31781 204.0
145.387939 352.0
145.419144 152.0
145.474564 132.0
145.588852 116.0
145.598846 80.0
145.610748 104.0
145.616898 164.0
145.702499 148.0
145.748138 60.0
145.795502 176.0
145.979919 124.0
145.986557 152.0
146.041489 444.0
146.099167 112.0
146.256134 176.0
146.28688 204.0
146.445801 108.0
146.494827 176.0
146.525284 140.0
146.640961 100.0
146.681931 140.0
146.775955 164.0
146.811295 104.0
146.911026 152.0
146.93898 196.0
147.024643 356.0
147.045563 320.0
147.073135 152.0
147.10498 192.0
147.152359 108.0
147.178909 104.0
147.224792 180.0
147.247055 168.0
147.340744 172.0
147.422897 108.0
147.456467 152.0
147.485046 144.0
147.584442 168.0
147.613861 152.0
147.69368 64.0
147.765381 224.0
147.872726 64.0
147.913864 172.0
147.959869 188.0
147.994659 128.0
148.031067 148.0
148.055984 5956.0
148.122116 44.0
148.146866 148.0
148.200317 140.0
148.226288 76.0
148.328156 180.0
148.393539 68.0
148.417175 64.0
148.50943 132.0
148.527939 180.0
148.670059 40.0
148.708893 188.0
148.7453 136.0
148.764725 128.0
148.798706 176.0
148.988144 220.0
149.056824 996.0
149.124222 168.0
149.147964 104.0
149.194717 176.0
149.216599 76.0
149.249603 208.0
149.270081 40.0
149.330887 40.0
149.347916 148.0
149.369797 112.0
149.406418 236.0
149.509094 208.0
149.562027 148.0
149.68132 160.0
149.709488 304.0
149.803101 104.0
149.837204 168.0
149.861572 128.0
149.892883 484.0
149.931076 120.0
149.973663 96.0
150.034409 408.0
150.068039 480.0
150.105316 56.0
150.1297 176.0
150.149216 36.0
150.181854 220.0
150.227264 152.0
150.393188 72.0
150.417603 172.0
150.437134 364.0
150.456665 156.0
150.481079 180.0
150.593414 120.0
150.637375 108.0
150.664246 188.0
150.690216 152.0
150.761978 220.0
150.791306 124.0
150.82309 68.0
150.986893 192.0
151.016251 120.0
151.038025 168.0
151.064651 580.0
151.10675 188.0
151.244141 116.0
151.277954 176.0
151.419159 180.0
151.447021 104.0
151.46907 56.0
151.498474 196.0
151.54747 112.0
151.584229 132.0
151.733078 172.0
151.848984 120.0
151.952637 188.0
152.053345 216.0
152.118896 116.0
152.24411 228.0
152.26622 144.0
152.293228 48.0
152.317795 204.0
152.477509 44.0
152.503922 208.0
152.536484 168.0
152.5746 320.0
152.623093 156.0
152.671722 120.0
152.701416 160.0
152.84433 224.0
152.888214 188.0
152.984207 104.0
153.019547 196.0
153.038361 136.0
153.069794 168.0
153.1147 164.0
153.15657 176.0
153.255157 140.0
153.319183 436.0
153.336441 216.0
153.370941 116.0
153.393127 60.0
153.541702 92.0
153.568192 168.0
153.654526 96.0
153.701416 160.0
153.757843 152.0
153.832214 128.0
153.926041 184.0
153.945786 172.0
154.005066 124.0
154.034698 208.0
154.072144 384.0
154.140884 188.0
154.234848 160.0
154.296661 40.0
154.31546 168.0
154.336212 124.0
154.356003 140.0
154.392105 232.0
154.488998 160.0
154.580582 152.0
154.722183 100.0
154.756668 224.0
154.813797 192.0
154.831131 132.0
154.87323 172.0
154.940125 88.0
155.011978 64.0
155.059998 3440.0
155.095505 188.0
155.161438 224.0
155.180527 72.0
155.207794 116.0
155.319397 128.0
155.40947 196.0
155.438492 120.0
155.473221 36.0
155.502472 260.0
155.547684 148.0
155.651657 132.0
155.674316 44.0
155.723053 128.0
155.788559 44.0
155.84819 212.0
155.926514 116.0
155.979904 148.0
156.043396 1052.0
156.066864 784.0
156.141373 140.0
156.26239 128.0
156.281204 276.0
156.30571 128.0
156.357254 112.0
156.601959 120.0
156.639313 144.0
156.753922 124.0
156.818497 136.0
156.918442 80.0
156.948349 40.0
157.022354 244.0
157.032608 224.0
157.058884 200.0
157.115463 168.0
157.140411 100.0
157.19902 132.0
157.287643 52.0
157.317078 116.0
157.424957 48.0
157.462418 136.0
157.484909 220.0
157.593201 148.0
157.631027 116.0
157.869781 180.0
157.90979 120.0
157.974106 164.0
158.039871 548.0
158.08519 160.0
158.187531 148.0
158.247162 140.0
158.375336 116.0
158.407974 132.0
158.490585 204.0
158.535385 132.0
158.544067 116.0
158.554047 172.0
158.583298 224.0
158.600845 116.0
158.643463 60.0
158.701126 100.0
158.808746 192.0
158.884216 176.0
158.91832 208.0
159.052338 376.0
159.090881 600.0
159.167831 56.0
159.213593 196.0
159.230606 156.0
159.278336 196.0
159.3069 192.0
159.396729 156.0
159.454208 164.0
159.547211 208.0
159.564819 188.0
159.600571 72.0
159.66539 100.0
159.693069 108.0
159.726212 200.0
159.871689 156.0
159.902649 120.0
159.964813 96.0
159.987473 56.0
160.001968 116.0
160.016098 228.0
160.0504 644.0
160.081696 208.0
160.112961 196.0
160.141068 52.0
160.16658 128.0
160.214127 168.0
160.345154 156.0
160.453537 104.0
160.47876 184.0
160.539276 72.0
160.625031 104.0
160.657822 92.0
160.70575 204.0
160.763794 72.0
160.895096 196.0
160.925339 140.0
161.023148 336.0
161.054123 492.0
161.21936 120.0
161.352325 208.0
161.380127 128.0
161.412994 124.0
161.46611 140.0
161.51416 156.0
161.552109 148.0
161.633072 180.0
161.668503 136.0
161.744431 192.0
161.815125 224.0
161.845688 140.0
161.914062 64.0
162.034973 3828.0
162.069153 896.0
162.11673 220.0
162.159821 128.0
162.195145 156.0
162.296707 80.0
162.363266 208.0
162.420975 160.0
162.453949 112.0
162.564713 128.0
162.60112 156.0
162.667114 168.0
162.706314 36.0
162.743271 48.0
162.768661 192.0
162.824539 128.0
162.890579 164.0
162.955307 332.0
163.039124 272.0
163.064911 208.0
163.134521 56.0
163.265945 128.0
163.411728 60.0
163.443161 192.0
163.481339 136.0
163.503845 160.0
163.587326 112.0
163.642532 176.0
163.676437 164.0
163.696808 120.0
163.716919 156.0
163.798691 60.0
163.816513 152.0
163.908234 168.0
163.956665 64.0
164.049652 1580.0
164.091751 124.0
164.145294 324.0
164.168259 164.0
164.196304 36.0
164.237106 100.0
164.260071 72.0
164.375488 216.0
164.409256 136.0
164.511719 136.0
164.535675 292.0
164.579086 116.0
164.597473 140.0
164.622498 164.0
164.760422 144.0
164.831955 36.0
164.921402 136.0
164.944412 80.0
164.97641 100.0
165.051239 180.0
165.078903 148.0
165.195007 132.0
165.215469 96.0
165.248734 40.0
165.328064 120.0
165.349991 140.0
165.399719 148.0
165.42276 136.0
165.535416 116.0
165.632736 156.0
165.699341 140.0
165.778778 216.0
165.804398 172.0
165.830032 100.0
165.943329 160.0
165.978714 40.0
165.999237 80.0
166.034546 104.0
166.076172 196.0
166.096695 176.0
166.114655 128.0
166.171082 80.0
166.19162 72.0
166.296829 152.0
166.337021 188.0
166.425186 128.0
166.450867 144.0
166.468842 164.0
166.507355 192.0
166.530685 144.0
166.574142 112.0
166.606705 136.0
166.664062 164.0
166.766861 124.0
166.805405 144.0
166.833694 168.0
166.908249 64.0
166.936798 144.0
167.02655 128.0
167.044556 224.0
167.090866 264.0
167.191208 128.0
167.209229 140.0
167.242691 156.0
167.279953 260.0
167.335358 172.0
167.355957 52.0
167.394577 160.0
167.492447 180.0
167.556854 108.0
167.610962 132.0
167.757874 124.0
167.789871 240.0
167.814026 148.0
167.879044 128.0
167.925476 92.0
167.953842 156.0
168.017792 132.0
168.050018 644.0
168.111221 264.0
168.191238 36.0
168.227753 164.0
168.263519 212.0
168.285324 172.0
168.317734 128.0
168.342987 220.0
168.369385 152.0
168.413284 200.0
168.439117 136.0
168.552795 160.0
168.570877 152.0
168.596725 44.0
168.625153 148.0
168.65036 96.0
168.694275 216.0
168.718216 120.0
168.795776 152.0
168.816467 124.0
168.906982 164.0
168.938019 148.0
169.039154 144.0
169.080795 340.0
169.116577 144.0
169.239273 212.0
169.302979 72.0
169.328873 208.0
169.489487 100.0
169.530945 60.0
169.621658 132.0
169.650177 180.0
169.709808 116.0
169.83429 124.0
169.875793 468.0
169.912109 100.0
169.948441 128.0
170.010712 88.0
170.068466 692.0
170.130264 140.0
170.210602 48.0
170.254745 196.0
170.451645 196.0
170.519562 120.0
170.545731 140.0
170.579514 56.0
170.605515 176.0
170.652313 140.0
170.725128 104.0
170.753723 140.0
170.829163 152.0
170.875916 136.0
170.907211 184.0
171.006104 148.0
171.024323 128.0
171.05603 304.0
171.091782 3820.0
171.174683 148.0
171.200287 184.0
171.258652 168.0
171.276886 164.0
171.315811 200.0
171.325714 188.0
171.355042 104.0
171.392151 228.0
171.482727 196.0
171.508789 160.0
171.628571 144.0
171.735641 80.0
171.761719 88.0
171.821716 140.0
171.91304 48.0
171.968353 204.0
171.987991 112.0
172.039444 184.0
172.094452 376.0
172.129715 200.0
172.184555 72.0
172.239395 188.0
172.286423 60.0
172.31398 124.0
172.417068 104.0
172.437973 156.0
172.500031 188.0
172.605606 96.0
172.634247 160.0
172.668045 244.0
172.737244 176.0
172.872101 152.0
172.906128 140.0
172.940155 188.0
172.982025 160.0
173.050171 568.0
173.110321 124.0
173.13913 52.0
173.170547 120.0
173.195847 104.0
173.229416 148.0
173.251755 76.0
173.27272 152.0
173.351318 196.0
173.394699 108.0
173.445679 216.0
173.532181 148.0
173.58725 140.0
173.694778 44.0
173.773483 224.0
173.812836 196.0
173.936188 128.0
174.058258 2376.0
174.122787 120.0
174.198776 72.0
174.225052 144.0
174.26445 64.0
174.356644 172.0
174.457458 164.0
174.483429 96.0
174.554794 192.0
174.574631 128.0
174.651382 128.0
174.682465 88.0
174.71666 76.0
174.740341 48.0
174.769287 156.0
174.81665 108.0
174.845596 104.0
174.871918 72.0
174.895599 104.0
174.973511 256.0
175.035583 188.0
175.064423 3612.0
175.182617 160.0
175.287399 224.0
175.314362 52.0
175.389114 252.0
175.404968 148.0
175.443512 132.0
175.588547 68.0
175.606995 100.0
175.672943 172.0
175.831253 160.0
175.849731 100.0
175.960602 208.0
176.050522 1700.0
176.071625 724.0
176.118851 208.0
176.142822 40.0
176.169235 88.0
176.208862 44.0
176.333069 136.0
176.397293 132.0
176.414444 188.0
176.438797 56.0
176.459946 156.0
176.480713 192.0
176.527283 188.0
176.571533 180.0
176.621262 116.0
176.653 64.0
176.730698 152.0
176.77121 364.0
176.828674 184.0
176.917633 144.0
176.940887 164.0
176.99971 200.0
177.049927 784.0
177.07695 240.0
177.124191 52.0
177.145386 188.0
177.190674 120.0
177.41568 132.0
177.497879 164.0
177.527039 144.0
177.577438 144.0
177.635788 336.0
177.724152 168.0
177.860504 152.0
177.996735 176.0
178.03006 212.0
178.057755 164.0
178.145462 164.0
178.177353 124.0
178.230484 36.0
178.250076 216.0
178.299835 164.0
178.403244 148.0
178.44046 120.0
178.509598 188.0
178.546097 132.0
178.639923 196.0
178.661194 148.0
178.722397 212.0
178.756989 48.0
178.820862 128.0
178.880875 196.0
178.972595 48.0
179.007202 44.0
179.029633 148.0
179.059311 272.0
179.100418 152.0
179.161697 76.0
179.244415 164.0
179.297577 124.0
179.449524 176.0
179.554382 136.0
179.66748 144.0
179.716248 60.0
179.755432 152.0
179.788284 160.0
179.846481 144.0
179.921753 320.0
180.009293 204.0
180.042908 1480.0
180.122726 108.0
180.190689 188.0
180.236908 132.0
180.253632 124.0
180.279663 172.0
180.299286 164.0
180.3358 164.0
180.365189 112.0
180.498871 180.0
180.552353 180.0
180.619217 108.0
180.6754 148.0
180.740723 184.0
180.777069 164.0
180.795807 140.0
180.842834 160.0
180.893463 156.0
180.916245 120.0
180.953995 124.0
181.026917 112.0
181.046951 460.0
181.073029 160.0
181.234955 96.0
181.293915 120.0
181.312668 128.0
181.336761 252.0
181.41185 92.0
181.435974 148.0
181.513733 68.0
181.621002 116.0
181.66124 120.0
181.739044 156.0
181.787338 176.0
181.924225 56.0
182.020676 156.0
182.053009 316.0
182.084641 456.0
182.110519 144.0
182.160538 68.0
182.21965 216.0
182.276581 148.0
182.372818 152.0
182.469589 244.0
182.49379 176.0
182.528748 84.0
182.550262 232.0
182.569077 220.0
182.606735 164.0
182.684738 168.0
182.786972 80.0
182.819275 128.0
182.846176 68.0
182.926926 144.0
183.014175 104.0
183.057709 3028.0
183.12619 212.0
183.155807 68.0
183.19603 224.0
183.219833 136.0
183.263168 108.0
183.306686 112.0
183.347107 188.0
183.377243 236.0
183.425797 164.0
183.530411 148.0
183.58165 140.0
183.697632 156.0
183.746185 156.0
183.819031 164.0
183.867615 124.0
183.921585 52.0
184.023315 144.0
184.060486 1048.0
184.113281 204.0
184.132187 76.0
184.202423 188.0
184.248337 136.0
184.318588 96.0
184.359116 92.0
184.388855 92.0
184.426483 156.0
184.637573 160.0
184.67131 160.0
184.789062 156.0
184.810699 128.0
184.837692 160.0
184.870239 152.0
184.940598 160.0
184.997452 104.0
185.019104 80.0
185.052887 1084.0
185.090515 192.0
185.102295 160.0
185.164413 168.0
185.226273 244.0
185.261169 188.0
185.287216 156.0
185.484924 92.0
185.549347 156.0
185.602417 144.0
185.636871 116.0
185.680267 168.0
185.723663 128.0
185.767059 200.0
185.840317 156.0
185.941101 168.0
186.005859 176.0
186.05571 832.0
186.096924 44.0
186.138885 92.0
186.166092 132.0
186.212219 108.0
186.269257 140.0
186.37854 196.0
186.540543 120.0
186.587204 212.0
186.672119 140.0
186.695969 104.0
186.716919 144.0
186.788361 132.0
186.815643 148.0
186.834686 148.0
187.010162 124.0
187.059891 512.0
187.086395 140.0
187.188522 172.0
187.22937 132.0
187.277328 204.0
187.330978 92.0
187.357391 128.0
187.38736 120.0
187.496353 52.0
187.537231 164.0
187.591751 128.0
187.684448 104.0
187.784775 96.0
187.822861 112.0
187.883011 160.0
187.904434 104.0
188.001785 120.0
188.054886 424.0
188.115509 204.0
188.140076 120.0
188.191956 128.0
188.271149 76.0
188.292999 116.0
188.345184 144.0
188.374939 96.0
188.406006 172.0
188.434143 172.0
188.464157 152.0
188.514282 124.0
188.565598 252.0
188.607193 132.0
188.631805 104.0
188.672501 140.0
188.740112 52.0
188.773972 56.0
188.812256 132.0
188.861496 148.0
188.910721 140.0
188.990463 140.0
189.045776 808.0
189.082382 3808.0
189.121429 208.0
189.188995 152.0
189.208542 184.0
189.252823 244.0
189.310333 96.0
189.334976 180.0
189.365112 172.0
189.444534 72.0
189.538788 120.0
189.567841 128.0
189.644577 192.0
189.68396 152.0
189.713379 196.0
189.754227 156.0
189.804092 256.0
189.888596 180.0
189.916016 52.0
189.957169 92.0
190.019257 176.0
190.023605 152.0
190.0811 440.0
190.124527 152.0
190.182449 248.0
190.213806 220.0
190.270004 204.0
190.302963 136.0
190.322662 200.0
190.368851 180.0
190.538559 168.0
190.620773 148.0
190.723267 152.0
190.808487 140.0
190.951477 76.0
190.995483 156.0
191.028488 252.0
191.061768 892.0
191.094528 344.0
191.146805 96.0
191.190826 76.0
191.254135 148.0
191.309189 152.0
191.344971 88.0
191.40004 168.0
191.43309 204.0
191.474396 156.0
191.507446 40.0
191.540329 128.0
191.598221 164.0
191.683609 208.0
191.71283 176.0
191.733368 204.0
191.752655 108.0
191.771957 164.0
191.796753 96.0
191.90152 76.0
191.920822 304.0
192.039398 292.0
192.070023 196.0
192.098679 156.0
192.177322 204.0
192.259338 172.0
192.358536 252.0
192.437149 148.0
192.511322 160.0
192.582397 104.0
192.602463 168.0
192.624573 100.0
192.645355 132.0
192.671524 212.0
192.72403 100.0
192.743362 340.0
192.795868 132.0
192.82074 112.0
192.840088 176.0
192.926483 268.0
193.022552 64.0
193.048721 576.0
193.073654 148.0
193.151321 168.0
193.201843 116.0
193.299164 196.0
193.332367 160.0
193.382187 136.0
193.418167 160.0
193.437546 200.0
193.484604 236.0
193.534912 188.0
193.653534 100.0
193.672913 168.0
193.735107 124.0
193.768265 124.0
193.797577 136.0
193.897339 52.0
193.944458 112.0
194.048889 160.0
194.072098 180.0
194.148727 200.0
194.266113 68.0
194.321594 152.0
194.342621 216.0
194.388199 164.0
194.416138 168.0
194.493652 52.0
194.518631 220.0
194.571381 172.0
194.638016 156.0
194.655975 136.0
194.77626 232.0
194.807434 84.0
194.847351 196.0
194.912216 180.0
194.946365 152.0
194.968597 196.0
195.005371 120.0
195.056351 444.0
195.171524 96.0
195.221573 136.0
195.256241 156.0
195.396805 100.0
195.477493 164.0
195.564468 208.0
195.591599 232.0
195.613876 100.0
195.686249 196.0
195.70575 104.0
195.769791 108.0
195.792587 236.0
195.844986 124.0
195.92691 244.0
196.060547 284.0
196.091599 168.0
196.141022 164.0
196.218399 180.0
196.237915 184.0
196.265793 104.0
196.295044 188.0
196.355042 204.0
196.402451 68.0
196.511246 48.0
196.606125 188.0
196.826004 224.0
196.969086 148.0
197.022156 180.0
197.076065 736.0
197.114365 140.0
197.142303 148.0
197.161865 104.0
197.203796 120.0
197.237335 276.0
197.28038 232.0
197.312805 156.0
197.410675 92.0
197.438644 164.0
197.614868 192.0
197.640045 80.0
197.726807 100.0
197.847168 148.0
197.95636 176.0
198.067841 404.0
198.104797 124.0
198.144028 192.0
198.2117 124.0
198.335114 168.0
198.410263 104.0
198.452316 172.0
198.585266 116.0
198.606567 176.0
198.649506 144.0
198.758545 92.0
198.828217 236.0
198.923645 180.0
198.945282 192.0
199.016281 200.0
199.055267 172.0
199.085052 192.0
199.119034 68.0
199.201645 196.0
199.333694 100.0
199.353363 136.0
199.384277 104.0
199.462982 104.0
199.530441 44.0
199.558563 104.0
199.589493 180.0
199.665421 116.0
199.702621 192.0
199.839828 208.0
199.906525 164.0
199.935501 100.0
199.972076 152.0
200.028214 140.0
200.070419 232.0
200.098755 256.0
200.126907 180.0
200.321243 148.0
200.357864 188.0
200.391663 144.0
200.557938 144.0
200.586121 96.0
200.617126 164.0
200.642502 132.0
200.6707 140.0
200.722382 144.0
200.78067 140.0
200.879379 128.0
200.910416 124.0
200.932983 160.0
200.96402 112.0
200.98378 168.0
201.051254 1768.0
201.110764 316.0
201.216827 128.0
201.350754 132.0
201.483521 132.0
201.51741 220.0
201.590195 116.0
201.6474 140.0
201.760223 184.0
201.785919 220.0
201.975388 164.0
201.996948 172.0
202.052399 1072.0
202.095978 168.0
202.164948 92.0
202.213058 48.0
202.264008 52.0
202.295898 96.0
202.340439 128.0
202.377243 116.0
202.408401 116.0
202.467865 152.0
202.496185 192.0
202.521667 296.0
202.558502 252.0
202.634995 76.0
202.699417 92.0
202.740753 136.0
202.762497 228.0
202.818893 124.0
202.884384 152.0
202.918411 184.0
202.955261 112.0
202.989288 132.0
203.060074 6668.0
203.107544 92.0
203.117569 164.0
203.145523 284.0
203.179504 128.0
203.20224 152.0
203.259094 208.0
203.287155 180.0
203.368622 136.0
203.446091 196.0
203.548309 212.0
203.590897 92.0
203.650543 176.0
203.670425 76.0
203.727234 148.0
203.791458 132.0
203.798874 168.0
203.91478 324.0
203.934875 112.0
203.983887 216.0
204.067429 1456.0
204.187714 188.0
204.210464 164.0
204.238907 32.0
204.307846 68.0
204.331482 152.0
204.475067 192.0
204.583221 132.0
204.606003 160.0
204.648666 160.0
204.656067 96.0
204.717041 140.0
204.759766 56.0
204.782547 128.0
204.816727 44.0
204.873703 200.0
204.924988 120.0
204.967728 36.0
205.076645 696.0
205.115631 196.0
205.16153 160.0
205.272736 196.0
205.318359 100.0
205.338318 144.0
205.375397 108.0
205.40239 200.0
205.45813 144.0
205.526596 96.0
205.6008 180.0
205.666443 68.0
205.687576 176.0
205.717819 140.0
205.743515 144.0
205.857727 88.0
205.917694 144.0
206.063919 368.0
206.086227 144.0
206.266281 200.0
206.366333 168.0
206.389206 220.0
206.469284 180.0
206.499207 208.0
206.532211 140.0
206.589417 56.0
206.62854 160.0
206.680969 204.0
206.74678 292.0
206.772537 144.0
206.798294 192.0
206.927109 124.0
206.947159 132.0
206.971619 176.0
207.056152 436.0
207.133301 148.0
207.156219 180.0
207.262222 184.0
207.288025 184.0
207.34967 180.0
207.448517 104.0
207.502991 156.0
207.536865 192.0
207.580414 192.0
207.634888 152.0
207.657837 96.0
207.683655 200.0
207.743896 224.0
207.836411 220.0
207.964844 60.0
208.019379 40.0
208.055664 1080.0
208.095825 212.0
208.122726 64.0
208.168671 144.0
208.29863 128.0
208.307114 160.0
208.369736 120.0
208.41571 120.0
208.476242 188.0
208.501923 36.0
208.551727 132.0
208.586868 180.0
208.694519 152.0
208.763519 116.0
208.814224 204.0
208.852676 156.0
208.918839 188.0
208.967239 244.0
209.028183 128.0
209.062897 4216.0
209.1091 132.0
209.147537 132.0
209.169205 164.0
209.197983 164.0
209.278915 144.0
209.313156 196.0
209.333313 148.0
209.359222 144.0
209.422592 108.0
209.471558 132.0
209.606964 104.0
209.629715 152.0
209.66748 32.0
209.71936 144.0
209.797592 232.0
209.909637 168.0
210.012512 208.0
210.037399 200.0
210.071213 4336.0
210.160583 128.0
210.311417 120.0
210.336624 56.0
210.363419 156.0
210.400131 48.0
210.426117 164.0
210.452103 208.0
210.540833 160.0
210.611069 96.0
210.694717 104.0
210.810287 132.0
210.879654 204.0
210.911438 140.0
211.006836 188.0
211.076706 748.0
211.148529 184.0
211.223358 244.0
211.261337 184.0
211.340881 148.0
211.417572 124.0
211.465332 144.0
211.510193 280.0
211.530457 160.0
211.61441 100.0
211.657852 196.0
211.721558 56.0
211.793961 52.0
211.851898 164.0
211.872177 76.0
211.918533 152.0
211.96489 192.0
211.98819 188.0
212.030594 160.0
212.075012 288.0
212.124298 184.0
212.22287 344.0
212.260559 104.0
212.351883 228.0
212.399765 64.0
212.45488 116.0
212.481491 92.0
212.539017 208.0
212.559326 116.0
212.762497 156.0
212.801743 280.0
212.903183 200.0
212.948349 88.0
212.971588 112.0
213.056473 144.0
213.087433 164.0
213.189484 176.0
213.303604 136.0
213.39296 104.0
213.416214 196.0
213.445282 48.0
213.51799 100.0
213.549988 48.0
213.677979 60.0
213.720718 116.0
213.741989 144.0
213.771088 136.0
213.797272 160.0
213.817642 192.0
213.872955 124.0
213.946655 112.0
213.974838 208.0
214.03714 160.0
214.064041 404.0
214.158295 36.0
214.308762 148.0
214.388458 168.0
214.447189 216.0
214.513779 132.0
214.55751 108.0
214.577927 160.0
214.601242 156.0
214.627487 156.0
214.71788 136.0
214.763229 228.0
214.804245 112.0
214.859558 120.0
214.870605 68.0
214.876938 144.0
214.930847 136.0
214.960022 104.0
215.030212 200.0
215.058853 424.0
215.08844 160.0
215.11763 108.0
215.209396 148.0
215.29866 204.0
215.369995 196.0
215.503128 100.0
215.546951 116.0
215.580429 200.0
215.617096 172.0
215.710632 152.0
215.851288 108.0
215.877274 76.0
215.919174 172.0
215.952118 148.0
215.991974 176.0
216.03508 172.0
216.061218 1172.0
216.187363 108.0
216.249512 172.0
216.272247 184.0
216.331329 160.0
216.365921 120.0
216.424545 160.0
216.444366 156.0
216.535751 136.0
216.606049 168.0
216.660263 220.0
216.723236 260.0
216.76416 132.0
216.805283 40.0
216.859833 108.0
216.93718 100.0
216.960632 108.0
216.998749 144.0
217.049088 316.0
217.074982 256.0
217.099457 224.0
217.196716 236.0
217.332245 148.0
217.409409 148.0
217.509201 384.0
217.538544 132.0
217.59726 144.0
217.74408 88.0
217.82045 172.0
217.899765 124.0
217.929153 152.0
217.955597 104.0
217.979111 144.0
218.062042 216.0
218.083954 148.0
218.163681 200.0
218.196609 132.0
218.249527 188.0
218.28775 164.0
218.396576 128.0
218.426666 132.0
218.549545 32.0
218.593689 132.0
218.631943 172.0
218.694885 156.0
218.738953 200.0
218.808548 144.0
218.840942 84.0
219.002899 68.0
219.057465 660.0
219.090118 152.0
219.25618 120.0
219.282806 180.0
219.356491 112.0
219.462631 192.0
219.503906 152.0
219.624832 48.0
219.666122 48.0
219.688126 172.0
219.716278 64.0
219.766434 72.0
219.788177 204.0
219.860855 152.0
219.943909 196.0
220.053436 240.0
220.153122 96.0
220.212189 152.0
220.232864 152.0
220.261475 216.0
220.40126 156.0
220.492859 168.0
220.540146 124.0
220.563797 128.0
220.611786 204.0
220.667267 120.0
220.718567 164.0
220.770752 112.0
220.82991 176.0
220.892029 168.0
220.945267 180.0
220.973602 188.0
221.00148 128.0
221.069534 848.0
221.116898 52.0
221.15242 104.0
221.200562 120.0
221.288589 128.0
221.318192 92.0
221.377411 176.0
221.433685 160.0
221.466263 108.0
221.507736 144.0
221.529953 176.0
221.572906 104.0
221.596603 468.0
221.620316 72.0
221.750702 128.0
221.798126 116.0
221.848526 136.0
221.922638 64.0
222.017532 96.0
222.072845 968.0
222.216263 112.0
222.240005 48.0
222.302322 188.0
222.329025 160.0
222.376511 136.0
222.45665 128.0
222.480408 40.0
222.59314 136.0
222.679352 132.0
222.760849 168.0
222.792892 144.0
222.908096 132.0
222.93782 76.0
222.961594 192.0
222.991318 128.0
223.06871 484.0
223.187637 96.0
223.278046 180.0
223.443451 168.0
223.562317 320.0
223.699234 132.0
223.793625 164.0
223.970215 168.0
223.994034 120.0
224.083878 1376.0
224.128098 156.0
224.292007 64.0
224.312881 180.0
224.336731 152.0
224.38179 176.0
224.414246 56.0
224.485809 76.0
224.506683 144.0
224.64389 128.0
224.721451 88.0
224.748306 212.0
224.769196 168.0
224.810974 120.0
224.942291 244.0
225.016922 164.0
225.058563 148.0
225.083694 392.0
225.182892 312.0
225.322876 156.0
225.342468 192.0
225.476944 212.0
225.731049 152.0
225.75032 148.0
225.904343 136.0
226.00325 168.0
226.043121 404.0
226.062256 284.0
226.093536 512.0
226.132217 200.0
226.191788 92.0
226.269623 168.0
226.3246 176.0
226.416412 164.0
226.438538 92.0
226.458267 148.0
226.557129 160.0
226.581268 140.0
226.632019 104.0
226.727921 100.0
226.76088 192.0
226.839722 232.0
226.898773 56.0
226.979721 200.0
227.003708 144.0
227.052658 2172.0
227.129684 144.0
227.153671 40.0
227.204666 64.0
227.246674 200.0
227.320328 100.0
227.387711 144.0
227.412689 136.0
227.465759 36.0
227.522797 168.0
227.693939 264.0
227.739517 92.0
227.772034 128.0
227.934265 140.0
228.012405 116.0
228.060425 1816.0
228.150681 112.0
228.174728 76.0
228.30101 180.0
228.376205 164.0
228.439362 204.0
228.571747 48.0
228.642975 60.0
228.743301 96.0
228.797485 132.0
228.865997 148.0
228.893829 176.0
228.932983 136.0
228.969116 100.0
229.06955 6928.0
229.161911 192.0
229.20108 124.0
229.237244 56.0
229.28244 48.0
229.346512 92.0
229.387939 84.0
229.412048 132.0
229.447113 152.0
229.50853 200.0
229.565826 56.0
229.611053 188.0
229.6884 124.0
229.706696 96.0
229.714661 148.0
229.764893 72.0
229.807343 116.0
229.854874 160.0
229.887955 132.0
229.957321 176.0
230.000275 124.0
230.071915 1140.0
230.136124 112.0
230.1633 52.0
230.199677 80.0
230.268082 120.0
230.323364 108.0
230.39888 140.0
230.474411 48.0
230.601334 148.0
230.659805 220.0
230.719223 292.0
230.812958 156.0
230.867386 136.0
230.940643 144.0
230.972687 196.0
230.984741 160.0
231.067627 1100.0
231.160812 160.0
231.225525 84.0
231.266739 116.0
231.368027 156.0
231.433243 68.0
231.528702 48.0
231.710281 232.0
231.836121 108.0
231.902802 116.0
232.063553 152.0
232.178696 68.0
232.248444 148.0
232.333939 176.0
232.372162 184.0
232.405121 168.0
232.469925 44.0
232.509384 256.0
232.572266 128.0
232.728333 124.0
232.829391 212.0
232.91272 204.0
232.957642 152.0
233.04158 292.0
233.083328 116.0
233.198807 188.0
233.235275 212.0
233.372726 132.0
233.399445 104.0
233.432892 172.0
233.475464 120.0
233.539337 52.0
233.600174 132.0
233.657974 156.0
233.688034 68.0
233.85881 52.0
233.880127 196.0
233.910553 104.0
233.960983 240.0
234.017105 52.0
234.067245 612.0
234.120636 128.0
234.187653 68.0
234.254654 144.0
234.397858 172.0
234.461853 184.0
234.5289 164.0
234.564407 220.0
234.611206 116.0
234.724014 204.0
234.763657 140.0
234.833801 84.0
234.867355 108.0
235.00769 156.0
235.032089 160.0
235.071335 644.0
235.184677 40.0
235.334274 176.0
235.691635 240.0
235.758865 136.0
235.780258 44.0
235.96315 168.0
236.052994 1256.0
236.075272 500.0
236.17601 200.0
236.202194 76.0
236.28479 132.0
236.315384 96.0
236.38916 184.0
236.434723 148.0
236.480637 144.0
236.50325 328.0
236.590836 128.0
236.612259 76.0
236.697998 144.0
236.7379 132.0
236.765366 132.0
236.807037 112.0
236.915451 152.0
237.001236 144.0
237.080276 2204.0
237.212708 76.0
237.251373 104.0
237.310806 68.0
237.375198 196.0
237.408936 48.0
237.46553 268.0
237.608307 56.0
237.731033 84.0
237.798553 132.0
237.823105 108.0
237.884506 76.0
237.972366 248.0
238.065277 5732.0
238.170074 100.0
238.194656 164.0
238.259155 164.0
238.291763 164.0
238.35675 148.0
238.388214 256.0
238.491623 160.0
238.54245 112.0
238.591782 120.0
238.615662 216.0
238.637192 152.0
238.691895 172.0
238.809402 120.0
238.840149 124.0
238.887299 160.0
238.917053 216.0
238.978592 88.0
239.000122 64.0
239.072525 2248.0
239.107941 120.0
239.188705 132.0
239.298691 96.0
239.402176 336.0
239.50502 48.0
239.555588 172.0
239.659042 96.0
239.694199 128.0
239.763824 140.0
239.791565 188.0
239.828537 188.0
239.874786 128.0
239.913513 184.0
239.93129 156.0
239.951843 220.0
240.064148 1616.0
240.136871 132.0
240.186218 172.0
240.226929 180.0
240.278763 124.0
240.356232 148.0
240.440292 184.0
240.612076 92.0
240.661484 92.0
240.687958 172.0
240.720795 212.0
240.74176 240.0
240.797348 268.0
240.81897 212.0
240.846771 200.0
240.917816 52.0
240.957977 132.0
241.070129 756.0
241.189407 180.0
241.312317 136.0
241.336136 136.0
241.369064 64.0
241.505142 104.0
241.529877 216.0
241.579376 156.0
241.792877 52.0
241.846146 208.0
241.888824 192.0
241.910492 216.0
241.969315 144.0
242.073853 1704.0
242.122284 60.0
242.179886 112.0
242.263519 76.0
242.288315 116.0
242.328583 44.0
242.371674 132.0
242.391968 220.0
242.445755 212.0
242.533112 148.0
242.55481 60.0
242.632309 136.0
242.694321 252.0
242.728424 64.0
242.859955 68.0
242.888092 216.0
242.936234 164.0
243.001373 232.0
243.072922 3212.0
243.147217 180.0
243.168289 112.0
243.25061 108.0
243.27449 60.0
243.31485 132.0
243.35463 108.0
243.430817 136.0
243.460785 132.0
243.482513 40.0
243.585022 108.0
243.649948 124.0
243.718613 164.0
243.799408 156.0
243.883316 172.0
243.954803 64.0
243.990524 148.0
244.079346 4300.0
244.17247 136.0
244.205734 156.0
244.237778 116.0
244.259552 132.0
244.347 188.0
244.380646 156.0
244.431107 56.0
244.466827 196.0
244.508469 252.0
244.532333 168.0
244.569443 88.0
244.648544 76.0
244.693588 196.0
244.724655 116.0
244.766846 196.0
244.809402 192.0
244.860275 132.0
244.899063 132.0
244.944366 140.0
244.976013 128.0
245.006668 88.0
245.062729 2340.0
245.140656 216.0
245.168701 160.0
245.264542 48.0
245.343246 116.0
245.365067 136.0
245.43367 136.0
245.45549 180.0
245.520981 224.0
245.558411 64.0
245.592712 160.0
245.667572 184.0
245.714371 120.0
245.850433 68.0
245.875473 108.0
245.919022 240.0
245.970276 148.0
246.00148 268.0
246.076141 520.0
246.089661 1036.0
246.16127 336.0
246.291885 76.0
246.348114 88.0
246.535583 140.0
246.69812 180.0
246.727539 136.0
246.774902 228.0
246.835678 88.0
246.930283 160.0
246.984024 92.0
247.068924 280.0
247.0979 332.0
247.208588 208.0
247.245483 116.0
247.283035 108.0
247.320602 136.0
247.375427 140.0
247.422882 148.0
247.427643 184.0
247.473999 160.0
247.57695 164.0
247.692413 92.0
247.762131 104.0
247.79921 224.0
247.837326 436.0
247.919937 132.0
247.950134 48.0
248.074997 524.0
248.114609 184.0
248.182114 124.0
248.263641 196.0
248.348953 116.0
248.382828 72.0
248.480072 84.0
248.516861 116.0
248.637543 172.0
248.684052 168.0
248.881821 60.0
249.083969 860.0
249.192764 176.0
249.247101 192.0
249.353027 104.0
249.375595 268.0
249.41275 220.0
249.472473 144.0
249.516479 112.0
249.598236 68.0
249.698059 204.0
249.903336 196.0
250.027466 152.0
250.087494 2100.0
250.164551 56.0
250.189728 120.0
250.282303 180.0
250.374817 160.0
250.438507 156.0
250.573959 140.0
250.721664 96.0
250.791397 80.0
250.813461 88.0
250.870193 76.0
250.914337 160.0
250.967926 112.0
251.015854 176.0
251.096085 2400.0
251.21077 140.0
251.264404 116.0
251.365372 76.0
251.486191 92.0
251.526337 144.0
251.65892 144.0
251.709442 140.0
251.746521 184.0
251.79155 100.0
251.829453 52.0
251.873672 228.0
251.933548 172.0
251.992142 68.0
252.08136 1584.0
252.173843 220.0
252.230728 112.0
252.256027 56.0
252.306519 152.0
252.393326 112.0
252.426758 180.0
252.477356 80.0
252.512695 180.0
252.559586 120.0
252.613358 140.0
252.695602 148.0
252.794434 104.0
252.83699 124.0
252.863327 148.0
252.888641 84.0
252.939285 164.0
252.999435 44.0
253.02356 148.0
253.074081 1568.0
253.164078 188.0
253.186249 184.0
253.230591 136.0
253.316116 116.0
253.34462 60.0
253.442841 148.0
253.480865 132.0
253.539825 152.0
253.617142 224.0
253.661514 56.0
253.715408 92.0
253.794037 160.0
253.89209 144.0
253.940536 96.0
253.981781 52.0
254.01033 84.0
254.072006 1012.0
254.127701 120.0
254.162613 44.0
254.207031 180.0
254.228317 288.0
254.257812 136.0
254.306122 144.0
254.364044 172.0
254.476837 152.0
254.52446 144.0
254.572098 116.0
254.725922 128.0
254.769012 160.0
254.826202 228.0
254.857986 44.0
254.889755 96.0
254.943268 152.0
254.962936 224.0
254.997803 96.0
255.070984 3608.0
255.144592 168.0
255.183395 104.0
255.231003 180.0
255.29982 48.0
255.436584 128.0
255.505295 476.0
255.535217 48.0
255.586121 180.0
255.612381 136.0
255.659302 52.0
255.693024 168.0
255.729324 124.0
255.780258 48.0
255.819321 396.0
255.841263 164.0
255.877289 116.0
255.97023 348.0
256.011261 352.0
256.056763 13844.0
256.17511 52.0
256.197418 116.0
256.219727 36.0
256.334076 116.0
256.397766 136.0
256.435303 148.0
256.497742 64.0
256.532013 68.0
256.595795 356.0
256.746307 196.0
256.787109 60.0
256.919861 200.0
256.961823 228.0
256.99765 72.0
257.064697 10100.0
257.154022 232.0
257.176361 68.0
257.270264 164.0
257.304047 36.0
257.332794 120.0
257.359802 56.0
257.385895 132.0
257.39801 84.0
257.404999 168.0
257.450928 116.0
257.494537 92.0
257.553131 164.0
257.597839 212.0
257.620209 136.0
257.661987 164.0
257.693695 132.0
257.722443 128.0
257.77359 116.0
257.83429 96.0
257.883911 100.0
257.920135 224.0
257.949371 48.0
257.974945 140.0
257.997314 44.0
258.071045 6392.0
258.185974 164.0
258.262726 36.0
258.374695 72.0
258.400269 132.0
258.477081 36.0
258.505859 48.0
258.646698 128.0
258.675507 108.0
258.727539 200.0
258.763794 164.0
258.829163 132.0
258.854797 132.0
258.936798 164.0
259.017548 132.0
259.07547 1736.0
259.130249 204.0
259.228882 164.0
259.331085 252.0
259.354584 148.0
259.396942 236.0
259.434723 96.0
259.471252 120.0
259.542419 248.0
259.614258 68.0
259.655945 72.0
259.692139 92.0
259.774628 52.0
259.835602 48.0
259.909393 108.0
259.960724 192.0
259.986389 268.0
260.072815 1016.0
260.13324 108.0
260.163177 236.0
260.223938 128.0
260.294586 156.0
260.387695 164.0
260.445526 200.0
260.532043 116.0
260.596497 132.0
260.663971 108.0
260.712189 172.0
260.800415 140.0
260.83432 184.0
260.905029 92.0
260.940948 192.0
261.019562 136.0
261.082336 1308.0
261.233063 84.0
261.294189 120.0
261.349365 212.0
261.422882 88.0
261.517181 84.0
261.577393 148.0
261.719513 160.0
261.731598 204.0
261.740173 204.0
261.773773 96.0
262.084198 384.0
262.294006 248.0
262.38501 160.0
262.572998 168.0
262.624115 252.0
262.724609 184.0
262.816071 120.0
262.843964 52.0
262.960144 168.0
262.984589 152.0
263.040405 176.0
263.091644 1608.0
263.169983 52.0
263.205505 144.0
263.28299 184.0
263.305603 188.0
263.363739 124.0
263.457428 112.0
263.515564 148.0
263.5802 76.0
263.621246 188.0
263.631104 132.0
263.686829 172.0
263.719147 32.0
263.809662 52.0
263.832306 156.0
263.913116 108.0
263.94223 144.0
263.974548 212.0
264.093567 2996.0
264.158905 132.0
264.188019 200.0
264.565765 144.0
264.637878 168.0
264.666046 156.0
264.807587 108.0
264.845154 168.0
264.871063 128.0
264.896973 180.0
265.079742 1496.0
265.086151 1076.0
265.201569 176.0
265.240448 36.0
265.291351 108.0
265.366882 52.0
265.392822 52.0
265.487213 180.0
265.551727 252.0
265.574432 40.0
265.600372 104.0
265.739868 56.0
265.778656 160.0
265.795776 196.0
265.954071 88.0
265.989777 92.0
266.012482 100.0
266.098663 428.0
266.145599 196.0
266.272247 64.0
266.366425 56.0
266.463898 132.0
266.500977 96.0
266.546112 172.0
266.597107 128.0
266.769379 116.0
266.824646 136.0
266.90918 128.0
266.979919 144.0
267.018951 112.0
267.033905 192.0
267.089752 2656.0
267.151367 204.0
267.175873 36.0
267.237701 96.0
267.266998 112.0
267.30603 52.0
267.360077 164.0
267.419922 160.0
267.452484 100.0
267.507812 124.0
267.573944 116.0
267.644562 120.0
267.704346 248.0
267.843231 72.0
267.916687 232.0
267.968628 120.0
268.078644 1440.0
268.234253 96.0
268.26358 164.0
268.29364 108.0
268.359589 116.0
268.386444 164.0
268.416809 156.0
268.439636 208.0
268.501617 124.0
268.540741 128.0
268.759521 132.0
268.805145 144.0
268.890961 164.0
268.938812 60.0
269.004089 148.0
269.086182 2496.0
269.17334 128.0
269.270538 92.0
269.304474 200.0
269.516846 164.0
269.555939 128.0
269.560486 124.0
269.573303 172.0
269.611603 60.0
269.690765 176.0
269.71463 168.0
269.739075 160.0
269.788116 104.0
269.860016 132.0
269.920044 124.0
269.962128 108.0
270.022919 196.0
270.029114 216.0
270.094055 8388.0
270.193634 112.0
270.303192 112.0
270.324493 184.0
270.36377 92.0
270.409607 72.0
270.462158 68.0
270.491425 60.0
270.539948 116.0
270.544495 148.0
270.578461 192.0
270.69754 192.0
270.720673 224.0
270.760986 132.0
270.786591 80.0
270.89093 128.0
270.913849 52.0
270.959717 52.0
271.074554 7160.0
271.162872 48.0
271.195648 76.0
271.254669 40.0
271.34433 240.0
271.382507 176.0
271.40509 144.0
271.431702 128.0
271.495453 108.0
271.546478 228.0
271.640259 108.0
271.655823 48.0
271.6633 124.0
271.740021 40.0
271.798431 132.0
271.858856 272.0
271.927063 120.0
271.989441 80.0
272.078491 11624.0
272.171875 140.0
272.185028 208.0
272.235657 76.0
272.258423 56.0
272.312561 144.0
272.400543 180.0
272.445648 176.0
272.530548 180.0
272.694214 160.0
272.733093 120.0
272.756409 96.0
272.83844 188.0
272.896149 96.0
272.9245 192.0
272.966675 292.0
272.997253 196.0
273.082275 11772.0
273.17514 100.0
273.241058 160.0
273.3078 56.0
273.351471 84.0
273.467804 108.0
273.499908 144.0
273.554108 68.0
273.590332 268.0
273.651611 136.0
273.686951 92.0
273.718048 136.0
273.787872 112.0
273.870209 100.0
273.89328 44.0
273.9328 92.0
273.962463 64.0
273.991455 124.0
274.084808 1528.0
274.143677 44.0
274.183228 40.0
274.226227 128.0
274.259033 200.0
274.299591 116.0
274.382324 192.0
274.46936 132.0
274.499695 64.0
274.533936 168.0
274.576385 140.0
274.606567 224.0
274.664612 216.0
274.727264 188.0
274.770172 56.0
274.793243 96.0
274.829559 56.0
274.879059 48.0
274.989197 116.0
275.03717 212.0
275.093689 464.0
275.176117 228.0
275.215729 128.0
275.294983 48.0
275.347809 80.0
275.433685 156.0
275.51297 132.0
275.546021 96.0
275.58374 144.0
275.691406 112.0
275.787476 184.0
275.866577 140.0
275.939301 64.0
276.033661 112.0
276.092743 792.0
276.154266 60.0
276.291107 108.0
276.319641 104.0
276.365967 148.0
276.38913 120.0
276.422211 60.0
276.479706 108.0
276.51889 132.0
276.554596 32.0
276.604248 52.0
276.643982 64.0
276.73999 144.0
276.811401 208.0
276.882385 184.0
276.955231 188.0
277.097931 1044.0
277.215607 164.0
277.253418 144.0
277.399261 52.0
277.562561 188.0
277.661194 120.0
277.737488 32.0
277.78772 144.0
277.82373 92.0
277.891937 168.0
277.967926 196.0
277.991302 168.0
278.083649 1696.0
278.162231 272.0
278.241882 116.0
278.340607 220.0
278.374695 236.0
278.49231 108.0
278.562622 164.0
278.613861 208.0
278.643738 172.0
278.735931 184.0
278.747803 100.0
278.813232 116.0
278.839813 76.0
278.873016 252.0
278.959473 124.0
278.986053 160.0
279.009338 164.0
279.09198 18924.0
279.175568 108.0
279.202179 172.0
279.282562 48.0
279.313843 184.0
279.374329 128.0
279.431702 160.0
279.461639 232.0
279.494354 92.0
279.521545 128.0
279.552704 144.0
279.62262 128.0
279.671295 192.0
279.701263 56.0
279.821106 124.0
279.869537 400.0
280.007812 56.0
280.035004 128.0
280.093781 4376.0
280.195496 156.0
280.230774 36.0
280.263428 164.0
280.386414 140.0
280.398956 68.0
280.447144 56.0
280.507385 124.0
280.570709 68.0
280.619293 192.0
280.667389 196.0
280.751801 144.0
280.777435 132.0
280.831909 72.0
280.910858 64.0
280.964233 228.0
280.987579 204.0
281.024689 304.0
281.087494 8112.0
281.174469 92.0
281.26123 32.0
281.312317 132.0
281.45462 56.0
281.465271 36.0
281.562622 120.0
281.661926 48.0
281.702026 68.0
281.752136 100.0
281.786774 100.0
281.874298 204.0
281.914581 160.0
281.967529 272.0
281.999542 100.0
282.014252 188.0
282.083496 1616.0
282.200928 212.0
282.246796 136.0
282.293762 236.0
282.325562 108.0
282.363831 60.0
282.432739 160.0
282.484253 68.0
282.524384 120.0
282.594635 92.0
282.644836 72.0
282.684998 148.0
282.715118 160.0
282.74585 84.0
282.81955 236.0
282.862366 52.0
282.959442 52.0
282.998108 168.0
283.067719 3736.0
283.148865 256.0
283.24411 176.0
283.286987 180.0
283.364105 176.0
283.423553 92.0
283.481995 44.0
283.523834 236.0
283.565765 52.0
283.639496 76.0
283.707611 156.0
283.768219 140.0
283.8172 96.0
283.901031 104.0
283.937897 120.0
283.972565 144.0
284.017456 160.0
284.075439 4116.0
284.179443 180.0
284.286804 44.0
284.328827 84.0
284.380768 132.0
284.421051 220.0
284.44455 88.0
284.499817 244.0
284.538544 204.0
284.647552 60.0
284.689209 276.0
284.736664 184.0
284.803833 220.0
284.931335 288.0
284.961304 308.0
285.010834 196.0
285.083344 34944.0
285.187317 160.0
285.22049 236.0
285.281006 48.0
285.308594 76.0
285.340515 80.0
285.403625 212.0
285.449097 32.0
285.485168 112.0
285.517883 76.0
285.564423 80.0
285.593719 92.0
285.6297 52.0
285.667297 32.0
285.708099 28.0
285.750702 88.0
285.788849 80.0
285.854828 144.0
285.909821 44.0
285.947235 60.0
285.977295 52.0
286.004211 48.0
286.043365 356.0
286.086273 8524.0
286.165466 160.0
286.200287 200.0
286.252594 144.0
286.355499 48.0
286.388458 68.0
286.468903 32.0
286.517181 60.0
286.613525 52.0
286.650848 88.0
286.674438 40.0
286.738129 120.0
286.758575 120.0
286.861938 140.0
287.043335 428.0
287.092743 1436.0
287.237488 64.0
287.291443 44.0
287.366516 140.0
287.412903 88.0
287.507385 136.0
287.577332 188.0
287.635651 176.0
287.663849 160.0
287.726807 64.0
287.80191 48.0
287.844971 144.0
287.892242 48.0
287.919281 260.0
287.998047 196.0
288.040466 468.0
288.068848 140.0
288.101654 364.0
288.15332 140.0
288.197968 104.0
288.302917 196.0
288.328064 84.0
288.402405 56.0
288.473389 40.0
288.51059 188.0
288.616882 164.0
288.671478 116.0
288.774323 172.0
288.798004 36.0
289.007751 180.0
289.05307 6488.0
289.109772 132.0
289.156647 68.0
289.214844 144.0
289.251434 64.0
289.275116 48.0
289.305573 56.0
289.339447 68.0
289.386841 96.0
289.408844 88.0
289.433136 136.0
289.468109 152.0
289.500519 120.0
289.54599 140.0
289.57309 148.0
289.730225 72.0
289.773651 148.0
289.886505 124.0
289.972321 72.0
290.056641 1256.0
290.109955 200.0
290.179657 152.0
290.216949 196.0
290.291534 176.0
290.380249 152.0
290.481476 88.0
290.542542 112.0
290.660339 144.0
290.858124 220.0
290.895477 60.0
290.970154 96.0
290.993927 68.0
291.026459 240.0
291.081726 712.0
291.114746 1372.0
291.188324 80.0
291.292786 136.0
291.340057 140.0
291.48642 108.0
291.576477 96.0
291.605377 132.0
291.715393 196.0
291.778748 44.0
291.851624 120.0
291.873932 132.0
291.931763 140.0
291.957397 176.0
292.02356 124.0
292.087708 6284.0
292.124634 3628.0
292.188873 88.0
292.220886 124.0
292.309113 168.0
292.397064 88.0
292.530762 68.0
292.670166 180.0
292.728271 228.0
292.833618 180.0
292.888123 128.0
292.939209 76.0
292.991028 212.0
293.020966 288.0
293.097015 5584.0
293.334503 56.0
293.412903 76.0
293.487915 56.0
293.51178 56.0
293.556122 260.0
293.583405 72.0
293.821198 196.0
293.858246 180.0
293.900635 124.0
294.03363 156.0
294.103119 6736.0
294.210022 244.0
294.317047 296.0
294.409241 120.0
294.474152 28.0
294.521973 44.0
294.563934 164.0
294.648346 136.0
294.672272 144.0
294.706451 64.0
294.772369 164.0
294.926544 128.0
294.975159 172.0
295.069855 416.0
295.108307 1860.0
295.174194 132.0
295.253387 156.0
295.304688 160.0
295.364258 152.0
295.419281 116.0
295.468872 188.0
295.533875 172.0
295.568085 132.0
295.612579 60.0
295.645782 188.0
295.71524 252.0
295.796265 184.0
295.824768 256.0
295.857635 160.0
295.913788 96.0
295.944611 64.0
295.981354 208.0
296.080902 672.0
296.120117 532.0
296.166046 96.0
296.21756 136.0
296.300812 48.0
296.331635 172.0
296.362457 124.0
296.435669 208.0
296.516663 136.0
296.578369 128.0
296.640076 152.0
296.664307 60.0
296.694916 224.0
296.811798 136.0
296.838928 116.0
296.886932 88.0
296.917786 172.0
296.989838 92.0
297.082367 10548.0
297.175079 40.0
297.219177 160.0
297.274597 48.0
297.383148 152.0
297.444427 84.0
297.471313 88.0
297.517822 148.0
297.544128 128.0
297.628143 64.0
297.683075 44.0
297.722168 188.0
297.862274 176.0
297.919434 328.0
297.967102 204.0
298.009186 180.0
298.085815 2532.0
298.165649 164.0
298.194336 372.0
298.233307 256.0
298.278107 152.0
298.318726 36.0
298.386688 84.0
298.398071 172.0
298.409027 236.0
298.470642 252.0
298.532257 108.0
298.603271 132.0
298.630524 136.0
298.663391 164.0
298.710358 232.0
298.749664 212.0
298.808807 284.0
298.848358 52.0
298.910675 304.0
298.937775 292.0
298.983002 576.0
299.006714 584.0
299.099701 210204.0
299.231934 260.0
299.263184 108.0
299.292145 188.0
299.331268 256.0
299.373627 40.0
299.418732 152.0
299.442017 264.0
299.489044 188.0
299.54892 200.0
299.602234 196.0
299.666534 1232.0
299.748138 228.0
299.777283 96.0
299.786255 180.0
299.86203 292.0
299.928131 224.0
299.986542 212.0
300.021667 372.0
300.102325 43708.0
300.200134 176.0
300.229858 528.0
300.321899 160.0
300.361786 208.0
300.386322 124.0
300.418152 160.0
300.451874 84.0
300.476288 56.0
300.500244 80.0
300.543274 52.0
300.573639 232.0
300.626373 84.0
300.661011 172.0
300.704437 168.0
300.752655 60.0
300.763458 144.0
300.77652 84.0
300.792908 124.0
300.802307 140.0
300.844879 52.0
300.870758 76.0
300.89093 56.0
300.898499 48.0
300.938202 112.0
300.964905 220.0
301.013 124.0
301.047302 152.0
301.103821 4712.0
301.158661 208.0
301.188721 32.0
301.213013 44.0
301.243774 112.0
301.270935 88.0
301.29422 76.0
301.330414 124.0
301.391937 200.0
301.437469 96.0
301.52774 140.0
301.603241 76.0
301.634888 56.0
301.672913 60.0
301.716248 112.0
301.788025 144.0
301.827057 152.0
301.861237 176.0
301.889832 144.0
301.918762 200.0
301.984985 88.0
302.030701 240.0
302.072815 320.0
302.106049 408.0
302.154938 252.0
302.187073 132.0
302.235779 280.0
302.265015 312.0
302.301514 196.0
302.338287 76.0
302.369965 208.0
302.39566 116.0
302.425629 112.0
302.458801 64.0
302.498566 148.0
302.534302 36.0
302.563599 156.0
302.613312 68.0
302.649567 148.0
302.72818 28.0
302.786469 92.0
302.825165 76.0
302.877106 100.0
302.910278 84.0
302.959442 136.0
303.00119 64.0
303.040771 104.0
303.08847 328.0
303.129333 272.0
303.154297 52.0
303.194153 176.0
303.303314 176.0
303.336487 48.0
303.379578 64.0
303.434875 80.0
303.54599 92.0
303.572174 44.0
303.674042 52.0
303.718781 60.0
303.830414 44.0
303.87326 68.0
303.917145 180.0
304.010834 68.0
304.089569 232.0
304.123962 560.0
304.156616 84.0
304.208679 80.0
304.23645 52.0
304.2677 208.0
304.314209 180.0
304.344086 76.0
304.3927 112.0
304.42395 184.0
304.479523 36.0
304.526031 68.0
304.580231 96.0
304.604553 56.0
304.653198 168.0
304.903351 52.0
304.97287 60.0
305.09729 748.0
305.181458 96.0
305.219513 76.0
305.27533 64.0
305.331726 92.0
305.372711 140.0
305.421417 128.0
305.580475 172.0
305.696259 40.0
305.825043 112.0
305.922485 92.0
305.983307 180.0
306.057587 256.0
306.072052 172.0
306.103699 1196.0
306.155792 180.0
306.23587 148.0
306.573822 48.0
306.669495 124.0
306.700928 156.0
306.748077 108.0
306.807343 68.0
306.842224 152.0
306.870117 140.0
306.936371 140.0
307.036011 104.0
307.066772 180.0
307.108063 944.0
307.201416 116.0
307.368896 60.0
307.48056 92.0
307.630646 144.0
307.843628 68.0
308.049713 96.0
308.114594 240.0
308.350189 188.0
308.570404 116.0
308.594879 44.0
308.622864 104.0
308.757355 80.0
308.836182 164.0
308.943237 152.0
308.98761 168.0
309.052216 160.0
309.080383 304.0
309.186066 80.0
309.242065 88.0
309.707733 172.0
309.787628 104.0
309.973999 44.0
310.016052 32.0
310.08551 672.0
310.121185 324.0
310.222839 40.0
310.317505 88.0
310.566467 184.0
310.706787 120.0
310.815552 96.0
310.889252 152.0
310.947144 224.0
310.987518 200.0
311.062958 1952.0
311.093109 1632.0
311.173584 116.0
311.307007 72.0
311.358917 148.0
311.41214 64.0
311.528259 68.0
311.625366 120.0
311.735565 44.0
311.791809 72.0
311.816406 152.0
311.870422 140.0
312.099731 500.0
312.130005 1220.0
312.273468 108.0
312.312164 60.0
312.496399 104.0
312.713257 44.0
312.741425 124.0
312.836456 72.0
312.885742 44.0
312.927979 196.0
313.008972 176.0
313.110474 824.0
313.191071 176.0
313.238495 140.0
313.281525 136.0
313.392914 64.0
313.421082 40.0
313.488037 48.0
313.537384 180.0
313.569092 192.0
313.806915 172.0
313.885254 188.0
313.94632 44.0
313.986267 68.0
314.085266 216.0
314.120392 228.0
314.189697 80.0
314.397888 68.0
314.429657 68.0
314.595551 88.0
314.647644 132.0
314.81427 76.0
314.827606 72.0
314.837067 128.0
314.90274 56.0
314.92746 52.0
314.994598 36.0
315.081421 296.0
315.107483 96.0
315.119019 124.0
315.150024 112.0
315.205109 184.0
315.283295 156.0
315.337311 112.0
315.563568 36.0
315.620148 100.0
315.680237 84.0
315.753265 68.0
315.850006 216.0
315.927826 88.0
316.024841 364.0
316.061462 188.0
316.110626 168.0
316.164886 88.0
316.196747 84.0
316.239227 136.0
316.366669 56.0
316.44101 144.0
316.50119 56.0
316.582825 120.0
316.773895 140.0
316.827026 92.0
316.912079 96.0
316.95105 116.0
317.079681 160.0
317.106964 100.0
317.245209 116.0
317.631744 64.0
317.67926 160.0
317.773651 112.0
317.901367 48.0
318.076172 1308.0
318.100677 156.0
318.252808 132.0
318.327362 32.0
318.380615 168.0
318.476532 152.0
318.59729 104.0
318.639923 44.0
318.746521 64.0
318.803375 196.0
318.913544 44.0
318.98819 68.0
319.108887 452.0
319.183746 60.0
319.367065 68.0
319.776917 92.0
319.870392 136.0
320.017303 180.0
320.081543 6248.0
320.118713 3088.0
320.194397 64.0
320.305969 124.0
320.375854 72.0
320.511444 68.0
320.549133 124.0
320.700317 192.0
320.730621 68.0
320.761017 96.0
320.79657 48.0
320.857178 28.0
320.989105 28.0
321.035461 56.0
321.08728 1912.0
321.125397 1276.0
321.213776 176.0
321.324371 64.0
321.467102 36.0
321.666962 56.0
321.777649 232.0
321.910736 116.0
321.995453 112.0
322.031158 148.0
322.134186 12304.0
322.207092 112.0
322.28125 124.0
322.339905 96.0
322.417023 48.0
322.532288 48.0
322.57428 76.0
322.625244 208.0
322.72934 124.0
322.828156 64.0
322.885376 28.0
322.917542 172.0
322.953308 72.0
323.089111 244.0
323.135406 4204.0
323.218048 72.0
323.253845 124.0
323.311096 152.0
323.377594 76.0
323.43277 112.0
323.463104 68.0
323.525848 64.0
323.568817 60.0
323.758606 88.0
323.815887 40.0
323.840973 52.0
324.0867 220.0
324.096863 248.0
324.132355 1056.0
324.51825 180.0
324.56488 88.0
324.65094 92.0
324.747772 84.0
324.78363 76.0
324.86615 60.0
324.92215 160.0
324.973755 40.0
325.013245 128.0
325.075775 3292.0
325.112274 1344.0
325.228546 52.0
325.253693 36.0
325.278809 36.0
325.329071 80.0
325.433197 68.0
325.522949 32.0
325.621979 104.0
325.68457 68.0
325.732666 144.0
325.986359 112.0
326.081299 704.0
326.173248 104.0
326.295471 124.0
326.473785 188.0
326.604736 68.0
326.820587 100.0
326.845764 104.0
326.881744 108.0
326.928528 32.0
327.092316 204.0
327.127838 108.0
327.211304 40.0
327.2453 188.0
327.335327 84.0
327.407349 56.0
327.627045 92.0
327.780212 148.0
327.890106 56.0
327.96579 56.0
327.996613 80.0
328.052917 116.0
328.102753 128.0
328.127991 96.0
328.21814 68.0
328.263641 136.0
328.434509 116.0
328.483215 36.0
328.575226 112.0
328.856689 164.0
328.972198 100.0
329.079102 1108.0
329.177979 128.0
329.506683 132.0
329.61145 108.0
329.759613 44.0
330.066254 136.0
330.309235 64.0
330.352631 172.0
330.964264 96.0
331.170685 188.0
331.290222 176.0
331.337311 168.0
331.53299 80.0
331.775848 116.0
332.08139 320.0
332.113068 112.0
332.279938 152.0
332.737244 100.0
333.035004 92.0
333.070038 124.0
333.100403 220.0
333.136719 148.0
333.510986 116.0
333.543701 156.0
334.094299 176.0
334.485809 88.0
334.576813 160.0
335.214233 60.0
335.425629 120.0
335.852234 144.0
336.06662 172.0
336.13681 52.0
336.428802 36.0
336.821167 116.0
336.976593 140.0
337.085175 112.0
337.177582 100.0
337.209076 176.0
337.287231 36.0
337.462433 120.0
337.483154 68.0
337.550476 76.0
337.627258 60.0
337.671143 136.0
337.744293 156.0
337.945496 160.0
338.036987 108.0
338.09079 2032.0
338.20166 160.0
338.260223 76.0
338.392029 116.0
338.714294 72.0
338.794891 68.0
338.86084 120.0
339.044037 108.0
339.092041 468.0
339.190643 116.0
339.230988 184.0
339.421631 100.0
339.509644 92.0
339.564636 116.0
339.60498 84.0
339.689362 116.0
339.72522 176.0
339.891144 120.0
339.938843 124.0
339.986542 96.0
340.0159 44.0
340.041595 148.0
340.124634 4464.0
340.203125 204.0
340.232483 96.0
340.287537 68.0
340.379333 48.0
340.640106 156.0
340.720917 72.0
340.85321 120.0
340.882599 52.0
340.926697 152.0
341.126038 564.0
341.195007 140.0
341.224426 148.0
341.253845 100.0
341.316345 128.0
341.400909 180.0
341.584534 148.0
341.596405 96.0
341.63266 148.0
341.691498 136.0
341.772003 236.0
341.785828 252.0
341.82074 260.0
341.89032 148.0
341.941742 88.0
341.974243 168.0
342.07962 116.0
342.141541 47396.0
342.208069 120.0
342.273041 68.0
342.335663 68.0
342.385406 132.0
342.478851 112.0
342.519196 96.0
342.593719 116.0
342.672668 104.0
342.702148 72.0
342.740845 88.0
342.766632 48.0
342.825592 64.0
342.876129 192.0
342.934692 108.0
342.96167 152.0
342.99704 124.0
343.087952 1240.0
343.142609 8572.0
343.230255 216.0
343.267975 40.0
343.330658 140.0
343.36908 96.0
343.403046 64.0
343.441315 60.0
343.533508 52.0
343.578217 208.0
343.625946 156.0
343.709564 200.0
343.75119 40.0
343.813934 88.0
343.85083 52.0
344.092957 528.0
344.147919 760.0
344.184845 212.0
344.253235 76.0
344.334503 28.0
344.39151 52.0
344.430511 68.0
344.509369 76.0
344.58197 64.0
344.626312 48.0
344.659576 84.0
344.759338 140.0
344.80368 112.0
344.840668 100.0
344.923462 80.0
344.992218 124.0
345.034302 104.0
345.10083 116.0
345.108459 188.0
345.124939 156.0
345.149048 188.0
345.225159 108.0
345.255981 152.0
345.316254 140.0
345.41864 140.0
345.47522 216.0
345.509949 88.0
345.542419 124.0
345.587646 132.0
345.63205 80.0
345.757874 100.0
345.805969 40.0
345.983673 48.0
346.093933 272.0
346.220642 120.0
346.268768 80.0
346.339142 132.0
346.383606 112.0
346.439178 132.0
346.479919 156.0
346.817139 44.0
347.097992 144.0
347.26947 56.0
347.410431 60.0
347.569977 84.0
347.674652 132.0
347.722137 40.0
347.841034 112.0
348.113678 9704.0
348.164612 172.0
348.219055 160.0
348.390503 108.0
348.446594 224.0
348.494507 60.0
348.524231 32.0
348.565125 92.0
348.639435 36.0
348.750946 48.0
348.884766 172.0
348.925659 156.0
348.960693 132.0
349.115662 2916.0
349.160278 168.0
349.23645 124.0
349.264069 64.0
349.319855 128.0
349.368225 48.0
349.394257 60.0
349.520752 40.0
349.870605 60.0
349.91156 136.0
350.067963 48.0
350.122681 416.0
350.272186 100.0
350.410645 100.0
350.537323 136.0
350.574585 136.0
350.727386 144.0
350.895142 48.0
350.958527 160.0
351.048035 80.0
351.096497 48.0
351.342682 100.0
351.475983 104.0
351.540436 76.0
351.648651 172.0
351.842773 152.0
351.95285 116.0
352.078613 268.0
352.526306 84.0
352.683258 92.0
352.776733 76.0
352.855225 76.0
352.907562 52.0
353.036591 136.0
353.296539 116.0
353.555969 168.0
353.69693 176.0
353.880371 168.0
353.947754 84.0
353.977722 168.0
354.075989 84.0
354.100586 104.0
355.192017 80.0
355.357086 48.0
355.417114 184.0
355.489655 124.0
355.811218 48.0
355.86377 96.0
356.47229 120.0
356.566223 120.0
357.0625 96.0
357.258087 120.0
357.56665 156.0
357.600525 140.0
358.331055 60.0
358.407898 224.0
358.459167 140.0
358.564667 104.0
358.613678 52.0
358.809692 72.0
359.243378 100.0
360.32309 168.0
360.969421 176.0
361.230408 56.0
361.321198 208.0
361.567139 124.0
361.82074 200.0
361.900269 140.0
362.176727 120.0
362.271423 80.0
362.828491 84.0
363.253235 180.0
363.359467 80.0
363.408783 136.0
363.892426 84.0
364.243988 48.0
364.369354 132.0
364.39975 136.0
364.456726 148.0
364.56311 28.0
364.74176 64.0
364.77597 88.0
364.813995 176.0
364.859589 168.0
364.897614 72.0
365.10675 156.0
365.160004 88.0
365.201843 80.0
365.256012 88.0
365.281708 144.0
365.380615 80.0
365.414856 128.0
365.80304 92.0
365.879181 92.0
366.02005 76.0
366.125122 2344.0
366.219696 160.0
366.248566 108.0
366.339966 176.0
366.454285 172.0
366.500977 124.0
366.579742 56.0
366.656219 124.0
366.701965 200.0
366.920624 212.0
367.052704 76.0
367.129059 1144.0
367.258636 96.0
367.365448 84.0
367.403595 88.0
367.510406 172.0
367.621063 96.0
367.659241 220.0
367.724121 104.0
367.798676 128.0
367.834656 96.0
367.865356 152.0
367.9198 256.0
367.949341 144.0
367.997223 132.0
368.013184 72.0
368.049316 168.0
368.120636 58324.0
368.209961 96.0
368.258331 132.0
368.281738 236.0
368.31546 64.0
368.329102 116.0
368.354126 264.0
368.399872 132.0
368.448975 204.0
368.502716 224.0
368.58316 76.0
368.619659 56.0
368.65271 152.0
368.701843 92.0
368.739502 112.0
368.785492 200.0
368.815369 140.0
368.846375 176.0
368.971039 84.0
369.015289 148.0
369.122101 10164.0
369.225586 80.0
369.305908 56.0
369.357086 116.0
369.40918 108.0
369.435974 80.0
369.466553 60.0
369.502289 72.0
369.562805 184.0
369.638733 44.0
369.688477 168.0
369.801453 108.0
369.918121 48.0
369.944946 72.0
370.013458 144.0
370.122894 1432.0
370.193817 68.0
370.281891 220.0
370.379059 152.0
370.409332 72.0
370.450409 96.0
370.477234 128.0
370.557678 56.0
370.613129 120.0
370.666779 68.0
370.733734 72.0
370.887268 108.0
370.983093 52.0
371.055939 60.0
371.124634 104.0
371.192902 136.0
371.25824 68.0
371.306824 160.0
371.402527 52.0
371.430786 48.0
371.437775 112.0
371.466278 136.0
371.527649 148.0
371.554626 136.0
371.615173 128.0
371.729736 72.0
371.742828 48.0
371.759796 48.0
371.808167 44.0
371.853821 36.0
371.999847 60.0
372.080292 60.0
372.272278 164.0
372.306824 72.0
372.364441 92.0
372.511261 144.0
372.867737 32.0
372.940765 120.0
373.544464 76.0
373.571381 52.0
374.175568 104.0
374.892029 96.0
374.945984 108.0
375.204224 48.0
375.238922 56.0
375.285187 88.0
375.327606 104.0
375.470306 40.0
375.5513 80.0
375.632294 52.0
375.902374 80.0
375.979553 76.0
376.361694 76.0
376.438934 88.0
376.67453 80.0
376.825195 60.0
377.053192 80.0
377.118896 84.0
377.296692 48.0
377.571228 80.0
377.799438 88.0
378.124481 172.0
379.061646 36.0
379.135284 48.0
379.177917 44.0
379.701294 116.0
379.813782 112.0
379.922394 52.0
380.112518 64.0
380.896759 132.0
380.978333 144.0
381.41745 36.0
381.825714 72.0
382.230286 76.0
382.347015 72.0
382.57666 104.0
382.876495 148.0
383.538849 76.0
383.573914 104.0
383.651886 88.0
383.73764 108.0
383.932617 88.0
384.102234 124.0
384.412445 84.0
384.545135 136.0
384.605316 124.0
384.759827 48.0
384.857452 128.0
384.943359 80.0
385.11908 104.0
385.314423 140.0
385.349579 40.0
385.56839 36.0
385.724731 68.0
385.819489 68.0
385.861572 156.0
385.977631 148.0
386.016113 196.0
386.06488 88.0
386.131195 24624.0
386.240906 68.0
386.37146 92.0
386.409119 88.0
386.455078 48.0
386.522583 44.0
386.60083 40.0
386.65564 56.0
387.024658 120.0
387.072327 184.0
387.133942 5280.0
387.251678 84.0
387.280029 84.0
387.434845 100.0
387.490448 136.0
387.57196 60.0
387.643646 148.0
387.677765 44.0
387.716949 68.0
387.816162 64.0
387.91687 36.0
387.98349 84.0
388.061127 60.0
388.134277 408.0
388.359955 52.0
388.400146 64.0
388.618866 116.0
388.673798 48.0
388.805359 88.0
388.928894 68.0
388.975983 36.0
389.054504 100.0
389.101624 84.0
389.138702 152.0
389.259979 140.0
389.267731 104.0
389.372559 76.0
389.495667 92.0
389.520874 116.0
389.59848 116.0
389.62149 96.0
389.667175 116.0
389.733948 92.0
389.777191 44.0
389.87149 100.0
389.938293 56.0
390.068024 84.0
390.288177 56.0
390.342926 104.0
390.433655 112.0
390.512329 88.0
390.634277 56.0
390.685394 60.0
390.956909 112.0
391.2836 72.0
391.362335 84.0
391.559235 44.0
391.946198 52.0
392.055634 64.0
392.453766 36.0
393.1875 120.0
393.507233 88.0
394.135223 104.0
394.360504 68.0
394.680695 96.0
396.160919 52.0
396.426392 72.0
397.084473 88.0
398.660583 28.0
399.149506 68.0
400.618164 68.0
401.124237 128.0
401.766266 72.0
401.893951 44.0
402.233185 104.0
402.340942 60.0
405.04425 68.0
405.593201 84.0
406.122467 44.0
407.029449 32.0
407.218201 32.0
407.668182 112.0
408.177765 88.0
408.847961 116.0
408.995392 116.0
409.361755 56.0
409.627563 92.0
409.7323 116.0
410.356995 104.0
411.034637 128.0
411.296967 100.0
412.056152 48.0
412.165253 48.0
412.440063 96.0
412.945465 96.0
413.455231 72.0
416.07782 48.0
416.14682 92.0
416.207733 80.0
417.113708 52.0
417.544708 60.0
419.76416 56.0
420.294434 76.0
422.860779 68.0
423.151428 72.0
423.347961 76.0
424.764313 92.0
427.52298 104.0
427.938721 96.0
428.313477 128.0
428.626587 104.0
430.478729 72.0
430.656311 132.0
430.747192 48.0
431.759827 112.0
431.954224 92.0
432.74881 124.0
433.805237 120.0
433.971069 68.0
434.705261 56.0
435.132812 40.0
437.231964 48.0
437.773163 112.0
438.185516 48.0
439.377899 76.0
441.788422 104.0
442.46637 88.0
444.881134 100.0
445.490051 72.0
447.315094 60.0
448.01416 84.0
448.2164 40.0
449.599548 56.0
450.338379 60.0
451.826355 88.0
452.973572 48.0
453.08374 32.0
453.426941 56.0
455.472015 44.0
455.841644 160.0
456.279449 104.0
457.117371 92.0
457.960327 56.0
458.544006 92.0
459.000153 48.0
459.584534 72.0
459.917389 36.0
460.335785 124.0
460.750122 40.0
460.797089 136.0
461.468109 104.0
461.900055 76.0
462.006989 44.0
462.841583 120.0
463.466949 76.0
464.924927 64.0
468.898773 88.0
469.045319 72.0
470.649414 44.0
471.194397 68.0
472.841888 84.0
474.03717 112.0
474.214844 120.0
475.355438 92.0
476.592957 96.0
476.914551 88.0
478.463165 68.0
478.968292 96.0
482.105286 80.0
482.23642 116.0
483.644806 56.0
484.555664 88.0
485.866516 96.0
486.327271 68.0
488.198883 76.0
488.427582 36.0
492.367889 68.0
492.703613 88.0
497.406555 36.0
497.664062 96.0
499.254852 76.0
503.756592 100.0
504.194458 52.0
504.891876 52.0
505.012634 56.0
505.281036 40.0
505.661407 72.0
505.804626 72.0
507.753662 76.0
510.821442 40.0
511.802551 112.0
513.65033 88.0
517.201904 108.0
517.40564 136.0
518.248047 56.0
522.279358 108.0
522.434021 76.0
522.520447 92.0
524.296326 80.0
524.966431 36.0
526.22583 88.0
526.540894 96.0
527.057129 100.0
527.345032 60.0
530.466736 100.0
531.870361 92.0
532.779602 96.0
536.221497 76.0
537.125183 96.0
537.595825 92.0
539.022705 36.0
539.549622 96.0
541.7005 92.0
543.24054 92.0
543.569946 76.0
543.843811 52.0
544.93042 84.0
545.153442 48.0
547.181458 52.0
552.342834 60.0
552.698364 92.0
553.250671 56.0
553.564331 96.0
553.606506 40.0
554.098328 108.0
555.364014 40.0
556.601379 48.0
557.730469 100.0
558.89209 76.0
559.301514 44.0
561.233032 100.0
562.624878 72.0
563.692322 96.0
567.758789 40.0
568.69342 48.0
568.902283 64.0
570.902649 56.0
572.45874 32.0
572.868347 56.0
573.149475 52.0
574.532104 68.0
574.66571 44.0
575.586914 68.0
575.644226 40.0
575.882996 64.0
575.988098 88.0
577.053772 52.0
578.173096 56.0
579.370178 72.0
579.566589 116.0
579.90686 96.0
582.094482 76.0
584.113037 128.0
584.637451 76.0
586.424255 44.0
587.055786 52.0
587.364502 52.0
589.570984 56.0
592.081787 92.0
592.774536 112.0
598.944702 68.0
603.028625 80.0
606.596924 116.0
613.700928 76.0
615.946411 52.0
619.582397 56.0
620.067993 68.0
621.615234 64.0
622.672668 84.0
622.75708 84.0
624.098877 92.0
624.287842 80.0
627.08075 112.0
627.384827 80.0
627.664001 136.0
627.833557 96.0
629.894897 40.0
630.244629 112.0
631.074341 92.0
633.857361 64.0
636.842346 44.0
639.904846 104.0
640.428589 76.0
641.219604 40.0
641.401062 68.0
642.596252 152.0
642.752625 132.0
643.46936 32.0
643.646118 64.0
644.216797 68.0
644.878723 88.0
647.099487 80.0
647.717346 60.0
656.076721 72.0
657.49469 108.0
660.110291 36.0
661.031067 120.0
661.102722 68.0
663.904907 44.0
666.106812 104.0
671.722839 68.0
674.371704 64.0
675.861084 48.0
677.683655 52.0
678.061951 80.0
682.152039 104.0
683.483459 88.0
684.623474 32.0
689.287109 72.0
689.856812 56.0
690.526062 112.0
692.253113 68.0
695.739868 80.0
697.336731 88.0
698.209473 88.0
703.193481 60.0
703.910278 92.0
705.496521 40.0
707.517395 108.0
707.93042 52.0
710.957397 84.0
713.352844 48.0
713.517639 104.0
719.473877 136.0
722.348877 108.0
727.310852 92.0
731.186035 128.0
732.548279 48.0
738.128906 84.0
738.621094 48.0
743.795898 44.0
744.789551 52.0
744.957947 72.0
750.360352 80.0
751.834778 44.0
752.255066 112.0
753.134216 44.0
755.211243 44.0
755.249512 68.0
756.108521 52.0
759.543884 100.0
764.532654 68.0
765.876038 56.0
766.234131 44.0
771.56543 68.0
779.608154 76.0
779.949036 132.0
781.042542 188.0
781.170532 48.0
781.571106 88.0
781.854858 128.0
784.260925 60.0
786.391541 80.0
786.972107 160.0
788.748657 48.0
791.221252 100.0
802.796143 96.0
805.273743 60.0
805.561768 80.0
806.607178 112.0
806.895508 60.0
811.861389 52.0
813.938293 92.0
814.693726 84.0
815.807556 48.0
823.722839 32.0
823.894226 44.0
830.689392 72.0
830.88446 96.0
832.267639 44.0
833.76123 88.0
834.129089 108.0
840.187195 100.0
840.348755 156.0
846.313599 72.0
847.112854 40.0
854.772949 152.0
855.411072 80.0
861.697754 76.0
862.533447 52.0
863.498169 48.0
864.141663 88.0
867.180847 88.0
891.110352 60.0
892.631958 76.0
895.006165 44.0
899.059753 52.0
899.668579 80.0
905.354858 76.0
908.44165 80.0
912.266907 112.0
913.854675 136.0
921.246033 52.0
922.04364 88.0
923.143921 80.0
936.434814 96.0
940.288086 76.0
942.902039 176.0
947.307495 64.0
954.346863 160.0
957.380554 72.0
958.526367 44.0
961.47406 104.0
963.301697 52.0
963.561157 76.0
964.253235 84.0
967.513062 112.0
970.096375 48.0
970.381531 52.0
978.140808 56.0
980.302002 156.0
981.810669 192.0
983.052063 48.0
985.193726 152.0
990.385681 44.0
991.388123 196.0
991.538513 140.0
992.786072 152.0
997.645935 68.0
998.796692 240.0
1001.087585 80.0
1001.301697 52.0
1003.608093 84.0
1004.087402 80.0
1004.629822 48.0
1005.058838 132.0
1006.352783 156.0
1006.611694 104.0
1010.790039 100.0
1012.543579 60.0
1017.451477 104.0
1019.617493 80.0
1026.76709 76.0
1027.455933 168.0
1029.275024 100.0
1038.54187 48.0
1040.74939 56.0
1046.143555 72.0
1046.800293 224.0
1047.057861 164.0
1049.899902 40.0
1054.658325 100.0
1056.695312 276.0
1057.28418 216.0
1060.60022 60.0
1066.85144 108.0
1069.642212 136.0
1077.68335 104.0
1077.977417 116.0
1078.3302 144.0
1080.2854 168.0
1080.658203 148.0
1081.75769 128.0
1081.888672 232.0
1082.098145 68.0
1100.52771 64.0
1100.686279 40.0
1102.205444 80.0
1103.983643 92.0
1110.102661 120.0
1111.55542 48.0
1112.371704 196.0
1117.94812 48.0
1122.411255 32.0
1126.90332 80.0
1129.229614 140.0
1130.313354 112.0
1134.86145 80.0
1139.458984 144.0
1142.006714 80.0
1145.109497 64.0
1155.146484 124.0
1159.439209 132.0
1164.914795 56.0
1166.994507 184.0
1170.927734 52.0
1172.685547 160.0
1173.189941 104.0
1177.734619 152.0
1178.445068 48.0
1179.605469 140.0
1180.769165 136.0
1182.438599 48.0
1185.445068 164.0
1188.400391 48.0
1191.112061 48.0
1191.21521 108.0
1191.48999 116.0
1203.177124 136.0
1207.129395 144.0
1207.855591 132.0
1208.325928 140.0
1208.741089 84.0
1208.810303 184.0
1209.038696 40.0
1210.0354 60.0
1216.78125 132.0
1218.7052 88.0
1218.990112 96.0
1221.896484 144.0
1223.747803 176.0
1224.764526 80.0
1229.380005 212.0
1230.147827 96.0
1231.544312 84.0
1233.710571 160.0
1237.775635 168.0
1238.321777 88.0
1239.064331 152.0
1239.561768 128.0
1239.624878 72.0
1240.858521 168.0
1245.462036 108.0
1247.682617 156.0
1249.082031 128.0
1250.221802 128.0
1250.47522 160.0
1250.862305 112.0
1253.714844 96.0
1259.32373 148.0
1261.436401 88.0
1264.470825 196.0
1269.827026 180.0
1271.806641 84.0
1275.542847 176.0
1276.644897 172.0
1277.149902 204.0
1277.960938 104.0
1278.565674 124.0
1282.775269 208.0
1283.530884 72.0
1285.678101 36.0
1289.463257 36.0
1289.77063 156.0
1290.74292 76.0
1290.807983 212.0
1292.753052 128.0
1293.604736 168.0
1297.021606 192.0
1298.98645 188.0
1299.373779 156.0
1299.639282 156.0
1301.33313 136.0
1301.562866 164.0
1305.543945 168.0
1306.917847 88.0
1309.884033 180.0
1310.885498 196.0
1312.464111 156.0
1312.529053 196.0
1313.05542 220.0
1314.570435 120.0
1316.28125 116.0
1318.679688 100.0
1320.675293 116.0
1321.717041 132.0
1324.265259 176.0
1324.583984 120.0
1327.642578 176.0
1328.817749 88.0
1342.726074 208.0
1343.076172 164.0
1347.134766 144.0
1349.87561 152.0
1351.960449 56.0
1352.377563 184.0
1353.68811 60.0
1354.076172 128.0
1354.669556 120.0
1355.094482 164.0
1355.358276 48.0
1360.639038 124.0
1361.65979 104.0
1365.805176 196.0
1365.886108 64.0
1369.536987 176.0
1372.462646 176.0
1373.94519 148.0
1375.494873 100.0
1376.218384 116.0
1376.299561 168.0
1377.252197 52.0
1377.525513 104.0
1378.035278 132.0
1381.510132 164.0
1382.538574 52.0
1385.189209 76.0
1385.78186 28.0
1389.437012 204.0
1390.757935 52.0
1391.641357 156.0
1392.532471 148.0
1394.211426 64.0
1395.519775 80.0
1396.880737 72.0
1399.120728 136.0
1399.880127 52.0
1400.327026 96.0
1400.595093 140.0
1400.759033 152.0
1400.915405 216.0
1401.839355 116.0
1402.219482 52.0
1403.002075 48.0
1403.255615 148.0
1405.605103 48.0
1406.567871 180.0
1407.762451 184.0
1408.233032 128.0
1408.300171 60.0
1408.808105 140.0
1408.890259 152.0
1410.825928 120.0
1411.334351 152.0
1412.613159 208.0
1416.161133 136.0
1416.857788 144.0
1419.751099 168.0
1421.078857 180.0
1421.431519 144.0
1421.521606 100.0
1422.932739 60.0
1427.478516 132.0
1428.200562 76.0
1428.712036 92.0
1430.360107 132.0
1432.739746 60.0
1434.766968 196.0
1436.599609 128.0
1439.324219 160.0
1441.711304 148.0
1442.633423 116.0
1443.465088 124.0
1444.221313 156.0
1447.127319 136.0
1447.823975 108.0
1449.126831 120.0
1452.879761 120.0
1453.027832 116.0
1453.380493 124.0
1458.255859 136.0
1458.734741 224.0
1459.304932 220.0
1459.4646 180.0
1460.795532 168.0
1464.060791 136.0
1464.822388 76.0
1465.218628 180.0
1466.239624 124.0
1466.948486 52.0
1468.656616 152.0
1469.572021 88.0
1470.396118 144.0
1473.511719 152.0
1475.269409 156.0
1475.529419 164.0
1479.691406 172.0
1481.751587 232.0
1481.981445 84.0
1482.464111 96.0
1484.196533 172.0
1484.510986 124.0
1485.339233 96.0
1485.531006 260.0
1486.482422 116.0
1486.589844 120.0
1486.689697 44.0
1486.996582 92.0
1487.134766 192.0
1489.376831 156.0
1489.637939 156.0
1489.745483 100.0
1490.521484 232.0
1490.759766 48.0
1493.304443 160.0
1493.558228 172.0
1493.696777 152.0
1496.759888 192.0
1499.972534 140.0
1504.006714 168.0
1504.15332 172.0
