>compound Thioguanine
>formula C5H5N5S 
>ionization [M+H]+
>parentmass 168.034
#inchi InChI=1S/C5H5N5S/c6-5-9-3-2(4(11)10-5)7-1-8-3/h1H,(H4,6,7,8,9,10,11)
#inchikey WYWHKKSPHMUBEB
#Ion_Source LC-ESI
#Instrument qTof
#Compound_Source Isolated
#PI Sirenas
#Data_Collector Ed Esquenazi 
#Scan -1
#Precursor_MZ 168.034
#ExactMass 0.0
#Charge 1
#CAS_Number N/A
#Pubmed_ID N/A
#Smiles N/A
#INCHI_AUX N/A
#Library_Class 3
#SpectrumID CCMSLIB00000005165
#IonMode Positive
#UpdateWorkflowName UPDATE-SINGLE-ANNOTATED-BRONZE
#LibraryQualityString Bronze
#TaskID d19310cd93df49b68e9fcbec27720eb5
##Scan# 3
#SpectrumFile Thioguanine.mgf
#LibraryName fda_library.mgf
#MQScore -1
#Organism fda_library
#TIC_Query 0
#RT_Query -1
#MZErrorPPM -1
#SharedPeaks 0
#MassDiff 0
#LibMZ -1
#SpecMZ 168.034
#SpecCharge 0
#internalFilename spec-00000.mgf

>collision 10
102.929573 91.481483
102.968422 186.800903
107.034706 3981.293945
107.063599 41.339291
107.08046 71.027023
107.145195 16.13587
107.17762 12.04167
107.239143 12.40833
107.249741 23.2663
107.266083 28.16346
107.480278 25.025
108.420181 64.347221
108.985405 2345.86499
109.063278 53.686409
109.109474 19.013889
109.17395 7.225
109.240341 9.075
123.995552 179.200699
126.012329 857.030579
126.192513 15.78125
126.250504 6.125
126.555588 40.612289
134.046753 225.137405
134.277557 17.10227
151.004456 481.314514
151.066818 14.04891
151.195114 40.247952
168.026749 161.349792
