>compound Pentamidine HCl
>formula C19H24N4O2
>ionization [M+H]+
>parentmass 341.197418
#inchi InChI=1S/C19H24N4O2/c20-18(21)14-4-8-16(9-5-14)24-12-2-1-3-13-25-17-10-6-15(7-11-17)19(22)23/h4-11H,1-3,12-13H2,(H3,20,21)(H3,22,23)
#inchikey XDRYMKDFEDOLFX
#origInchi InChI=1S/C19H24N4O2.2ClH/c20-18(21)14-4-8-16(9-5-14)24-12-2-1-3-13-25-17-10-6-15(7-11-17)19(22)23;;/h4-11H,1-3,12-13H2,(H3,20,21)(H3,22,23);2*1H
#Ion_Source LC-ESI
#Instrument qTof
#Compound_Source Commercial
#PI Dorrestein
#Data_Collector Garg_Neha
#Scan -1
#Precursor_MZ 341.197
#ExactMass 340.19
#Charge 1
#CAS_Number 50357-45-4, 100-33-4 (free base)
#Pubmed_ID N/A
#Smiles C1(C=CC(=CC=1)OCCCCCOC2C=CC(=CC=2)C(N)=N)C(N)=N.Cl.Cl
#INCHI_AUX N/A
#Library_Class 1
#SpectrumID CCMSLIB00000078617
#IonMode Positive
#UpdateWorkflowName UPDATE-SINGLE-ANNOTATED-GOLD
#LibraryQualityString Gold
#TaskID 77f51c88eb8b467eb4a01dd2d0cb90d2
##Scan# 1025
#SpectrumFile Plate9_81_88_Plate8_81_88_GC8_01_15759.mzXML
#LibraryName FDALibrary_2_04302014.mgf
#MQScore -1
#Organism FDALibrary_2_04302014
#TIC_Query 0
#RT_Query -1
#MZErrorPPM -1
#SharedPeaks 0
#MassDiff 0
#LibMZ -1
#SpecMZ 341.197
#SpecCharge 0
#internalFilename spec-00000.mgf

>collision 10
47.958492 212.0
52.924309 140.0
53.94273 176.0
64.232491 148.0
65.929634 152.0
68.718803 152.0
78.330559 156.0
85.711929 156.0
87.644592 144.0
92.584885 212.0
95.046623 212.0
104.0467 164.0
105.692818 228.0
105.817665 200.0
105.93235 140.0
106.784187 164.0
111.823669 176.0
112.781242 148.0
119.287514 156.0
120.04425 3444.0
120.510132 152.0
121.04287 160.0
121.653358 184.0
122.764481 180.0
132.04837 312.0
135.051834 200.0
136.06218 288.0
137.036667 240.0
137.069916 3516.0
138.072556 236.0
139.074646 168.0
143.073303 140.0
145.048904 148.0
146.059814 192.0
147.0896 100.0
149.071732 948.0
149.104614 208.0
150.067886 208.0
150.773346 160.0
152.056671 164.0
163.089432 200.0
167.659058 156.0
171.097565 180.0
180.086441 164.0
188.108032 296.0
189.106857 148.0
194.112686 144.0
201.064728 140.0
205.131378 644.0
206.133926 148.0
212.085724 180.0
212.683243 140.0
220.320587 168.0
221.643127 168.0
224.965286 148.0
226.876892 188.0
231.066116 164.0
232.620789 148.0
240.324142 148.0
250.900818 236.0
256.072266 164.0
257.95163 204.0
260.981293 164.0
270.899811 160.0
273.043182 144.0
280.053284 152.0
280.106567 192.0
280.736481 144.0
287.300629 164.0
302.471039 148.0
306.544983 216.0
307.141205 416.0
307.71698 200.0
308.136078 152.0
308.167542 212.0
314.079407 144.0
322.265961 188.0
323.732544 164.0
324.044189 196.0
324.170593 6392.0
325.173096 1324.0
326.164978 144.0
327.107513 140.0
327.258728 148.0
332.638245 164.0
340.119263 140.0
340.183777 144.0
340.773865 176.0
341.039642 172.0
341.10318 112.0
341.149414 148.0
341.197418 21420.0
341.259857 212.0
341.544342 108.0
341.759216 124.0
342.020721 180.0
342.199493 4476.0
342.561523 108.0
343.199585 892.0
344.211639 140.0
344.279022 96.0
345.139099 172.0
356.007843 120.0
1555.165894 148.0
1906.989502 152.0
1913.618164 288.0
