>compound MLS000756410-01!
>formula C35H34N2O5
>ionization [M+H]+
>parentmass 563.252869
#inchi InChI=1S/C35H34N2O5/c1-37-13-11-23-18-32(39-3)34-35-33(23)27(37)15-20-4-7-24(8-5-20)40-29-16-21(6-9-28(29)38-2)14-26-25-19-31(42-35)30(41-34)17-22(25)10-12-36-26/h4-9,16-19,26-27,36H,10-15H2,1-3H3
#inchikey DJAWTLHBPPQMPV
#Ion_Source LC-ESI
#Instrument qTof
#Compound_Source NIH Natural Product Library
#PI Dorrestein
#Data_Collector VVP/LMS
#Scan -1
#Precursor_MZ 563.255
#ExactMass 562.247
#Charge 1
#CAS_Number N/A
#Pubmed_ID N/A
#Smiles COc1cc2CCN(C)C3Cc4ccc(Oc5cc(CC6NCCc7cc8Oc1c(Oc8cc67)c32)ccc5OC)cc4
#INCHI_AUX N/A
#Library_Class 1
#SpectrumID CCMSLIB00000079796
#IonMode Positive
#UpdateWorkflowName UPDATE-SINGLE-ANNOTATED-GOLD
#LibraryQualityString Gold
#TaskID b1d8e8f6646f4e71acdff9ca3d919d08
##Scan# 1524
#SpectrumFile p1-B11_GB11_01_17895.mzXML
#LibraryName NIH_Natural_Products_Library.mgf
#MQScore -1
#Organism NIH_Natural_Products_Library
#TIC_Query 0
#RT_Query -1
#MZErrorPPM -1
#SharedPeaks 0
#MassDiff 0
#LibMZ -1
#SpecMZ 563.255
#SpecCharge 0
#internalFilename spec-00000.mgf

>collision 10
96.170052 104.0
97.248482 168.0
98.763649 100.0
99.108109 140.0
99.582222 156.0
102.91452 132.0
104.424217 144.0
104.870094 136.0
105.235237 168.0
106.463821 164.0
109.218842 152.0
109.343681 104.0
111.132416 208.0
111.396935 168.0
112.091217 148.0
112.215576 92.0
114.608498 132.0
115.054245 136.0
116.57711 64.0
117.033119 152.0
117.397278 148.0
118.631844 152.0
118.792313 188.0
119.243935 216.0
119.652878 132.0
120.868576 60.0
121.587341 120.0
122.678299 52.0
124.914864 128.0
125.924561 140.0
126.44548 56.0
127.088608 44.0
129.025513 160.0
129.100128 176.0
129.136307 60.0
129.319565 196.0
129.543732 112.0
130.063004 160.0
130.829041 200.0
131.045395 136.0
131.065903 140.0
131.926331 144.0
132.71846 104.0
133.621094 56.0
136.008209 184.0
136.207901 144.0
137.404434 156.0
137.74527 52.0
140.708908 180.0
141.049072 168.0
142.017487 132.0
142.069672 128.0
143.584824 180.0
144.01442 156.0
144.055023 156.0
144.073456 84.0
145.227905 192.0
145.427048 116.0
145.60231 196.0
145.955551 260.0
146.051743 160.0
146.097443 60.0
146.234604 164.0
146.935822 104.0
147.070953 128.0
147.624191 180.0
148.076157 132.0
148.085907 92.0
148.539688 196.0
148.743515 108.0
149.158875 88.0
150.830765 184.0
152.350281 108.0
152.399414 124.0
152.554245 28.0
152.718994 148.0
154.153809 92.0
154.245255 84.0
154.314484 68.0
154.452957 88.0
155.181015 152.0
156.298721 108.0
157.490341 192.0
157.757706 148.0
157.842712 108.0
157.905228 148.0
158.040314 68.0
159.078766 264.0
160.078995 324.0
160.131393 172.0
160.345535 168.0
160.385864 196.0
160.416107 48.0
161.057022 172.0
161.084015 264.0
162.056259 112.0
162.096802 160.0
163.066223 136.0
163.094177 144.0
165.91745 72.0
166.412598 176.0
166.754242 136.0
166.908493 132.0
168.134659 152.0
168.352798 20.0
169.474121 172.0
170.629074 132.0
171.688828 164.0
171.881851 292.0
172.0746 156.0
173.083817 124.0
173.30687 48.0
174.091171 184.0
174.343353 144.0
174.579956 80.0
174.780624 152.0
175.058884 144.0
175.101028 176.0
176.063843 188.0
176.129654 44.0
176.338379 80.0
177.076523 152.0
177.540298 60.0
178.086273 272.0
178.148117 188.0
179.033813 152.0
179.076416 88.0
179.905685 76.0
180.063217 156.0
181.071472 144.0
182.079865 140.0
182.437225 184.0
182.848755 144.0
183.654327 64.0
184.078537 168.0
185.094742 156.0
185.216614 144.0
187.033127 184.0
187.101166 168.0
187.261826 112.0
187.670578 72.0
187.894226 148.0
188.066132 440.0
188.279083 164.0
188.563217 124.0
189.348404 40.0
190.069061 184.0
190.088608 308.0
190.555344 140.0
191.085785 224.0
191.162994 244.0
192.01976 180.0
192.102722 436.0
192.143875 52.0
192.287369 120.0
192.618698 92.0
192.911606 168.0
193.099625 40.0
193.35968 52.0
193.691925 136.0
194.848709 260.0
194.893158 28.0
195.082825 364.0
195.688614 132.0
196.081375 148.0
196.388062 72.0
196.52475 116.0
197.832687 212.0
198.244415 92.0
199.080322 544.0
199.355667 52.0
199.529938 64.0
199.625534 116.0
199.754898 196.0
200.771667 228.0
201.38974 148.0
201.460358 128.0
201.56488 88.0
202.079483 140.0
202.33136 168.0
202.821426 72.0
203.496582 52.0
204.095535 280.0
204.525665 148.0
204.554123 148.0
204.97847 140.0
205.098175 476.0
205.120972 140.0
205.212204 96.0
205.377594 48.0
206.08548 152.0
206.10585 180.0
207.084274 192.0
207.109695 152.0
208.082672 104.0
208.245483 80.0
208.492569 192.0
208.96701 144.0
210.085571 180.0
210.332962 160.0
210.965576 140.0
211.011826 104.0
211.076874 288.0
212.071304 176.0
212.094482 172.0
212.181442 92.0
212.38443 76.0
212.604935 108.0
213.090378 720.0
213.450256 80.0
213.595383 124.0
213.73822 108.0
213.947769 72.0
214.086044 548.0
214.390488 152.0
214.574127 92.0
215.072952 44.0
215.560654 124.0
216.092819 232.0
217.895874 224.0
218.098633 132.0
218.954788 256.0
219.090286 144.0
220.045807 204.0
220.078278 344.0
220.107803 156.0
220.196396 168.0
220.432724 80.0
220.610062 128.0
220.716492 172.0
220.778595 188.0
220.87323 104.0
221.058792 156.0
221.093765 164.0
221.595551 92.0
221.776321 144.0
222.114929 220.0
222.138062 144.0
222.755493 128.0
222.948608 112.0
223.079391 156.0
223.121002 180.0
223.482193 180.0
224.085266 168.0
224.938171 212.0
225.092194 176.0
225.532562 148.0
225.661118 172.0
225.822586 128.0
226.097824 128.0
226.175644 204.0
226.552948 168.0
226.912567 44.0
226.933548 32.0
227.053497 176.0
227.293488 56.0
228.227615 48.0
228.317825 36.0
228.486267 180.0
229.356537 72.0
229.67012 208.0
229.805862 68.0
230.485214 188.0
231.083878 136.0
231.111099 136.0
231.250305 88.0
231.335052 84.0
231.813599 64.0
232.156143 168.0
233.094131 88.0
233.121796 152.0
234.067505 168.0
234.102936 192.0
234.557999 148.0
235.099014 312.0
235.108368 168.0
236.084549 184.0
236.108261 132.0
236.139587 192.0
236.708801 120.0
236.770035 192.0
237.033493 180.0
237.104843 184.0
237.616043 84.0
237.751053 136.0
238.061096 144.0
238.110245 148.0
239.094025 132.0
239.392624 96.0
240.737122 172.0
242.032745 148.0
242.165909 76.0
243.061829 108.0
243.454025 184.0
245.036163 116.0
245.086014 128.0
245.1203 92.0
245.360291 156.0
245.928009 136.0
246.095413 220.0
246.424515 168.0
247.091125 184.0
247.113846 144.0
247.559952 204.0
248.083176 132.0
248.11441 412.0
248.252487 140.0
249.112061 532.0
250.11554 216.0
250.361115 64.0
251.112717 344.0
251.294128 188.0
252.146713 156.0
252.171997 212.0
252.608337 144.0
253.091019 108.0
253.111542 192.0
253.159042 104.0
253.393433 208.0
254.062347 100.0
254.090912 64.0
256.007172 172.0
256.644836 136.0
257.072266 152.0
257.832306 56.0
258.057495 168.0
258.110413 148.0
259.381378 108.0
259.926575 160.0
260.087036 164.0
260.112732 184.0
260.331055 176.0
260.437012 168.0
260.462708 148.0
260.890106 188.0
261.089447 208.0
262.064789 156.0
262.093781 140.0
262.303253 176.0
262.735382 120.0
263.091614 216.0
263.127869 692.0
263.309906 84.0
263.752563 68.0
264.097107 376.0
264.141266 172.0
264.269989 44.0
264.574188 48.0
264.684265 88.0
265.081909 180.0
265.108673 140.0
265.138489 112.0
265.277161 136.0
266.088165 364.0
266.118439 424.0
266.546143 124.0
267.098602 188.0
267.137848 168.0
267.368866 116.0
268.130402 312.0
268.258026 184.0
268.603699 124.0
269.635437 144.0
269.707336 124.0
271.101532 108.0
272.080383 120.0
272.113068 228.0
273.104187 140.0
274.134644 108.0
275.067993 136.0
275.437836 168.0
275.523712 136.0
276.100555 156.0
277.107727 248.0
277.134918 92.0
278.077911 228.0
278.116547 180.0
279.096283 160.0
279.123291 120.0
279.154205 160.0
279.978333 156.0
280.097321 436.0
280.132538 652.0
280.155609 144.0
280.318115 152.0
281.117279 216.0
281.138062 440.0
281.306152 176.0
281.689331 124.0
282.111755 208.0
282.60202 156.0
282.873077 92.0
283.094147 148.0
283.124176 136.0
284.119446 172.0
286.008179 40.0
286.089142 148.0
287.066376 124.0
287.119995 152.0
288.095459 148.0
289.108154 152.0
289.136871 260.0
289.397522 52.0
289.766693 76.0
290.093475 144.0
290.119781 232.0
290.258148 88.0
290.746613 108.0
290.895966 148.0
291.10907 272.0
291.137848 312.0
291.435944 136.0
291.609253 96.0
292.096161 304.0
292.128693 152.0
292.946472 124.0
292.983948 164.0
293.062286 92.0
293.099976 308.0
293.321289 176.0
293.624756 96.0
293.675903 36.0
293.730469 100.0
293.774811 144.0
293.798065 108.0
293.884003 156.0
293.972717 100.0
294.030731 184.0
294.111359 2448.0
294.182709 76.0
294.286743 96.0
294.351624 96.0
294.50528 52.0
294.700165 88.0
294.857208 192.0
294.946045 64.0
295.014435 32.0
295.116272 1284.0
295.161987 352.0
295.612976 96.0
295.671143 172.0
296.122742 464.0
296.918152 128.0
297.079376 124.0
297.136414 188.0
297.372955 120.0
297.551483 84.0
298.48407 52.0
298.886505 108.0
298.945007 184.0
299.099884 132.0
299.166473 160.0
300.103149 188.0
300.133392 148.0
301.075439 32.0
301.863312 108.0
302.111145 168.0
303.128265 212.0
303.338196 80.0
304.107452 264.0
304.112305 368.0
305.102966 364.0
306.111694 300.0
306.201202 124.0
306.835388 80.0
307.119293 480.0
307.382965 40.0
307.550476 96.0
307.599365 156.0
307.662201 52.0
307.903107 124.0
308.124298 888.0
308.690063 188.0
308.948212 96.0
308.983185 204.0
309.035431 120.0
309.063568 140.0
309.088165 164.0
309.134705 2036.0
309.179138 92.0
309.312134 132.0
309.455658 60.0
309.840912 44.0
309.97406 136.0
310.047638 140.0
310.140045 456.0
310.187836 112.0
310.784027 52.0
311.111694 196.0
311.166595 192.0
311.44635 120.0
312.083588 152.0
312.343811 44.0
313.089752 176.0
313.244934 128.0
313.325958 40.0
313.533844 64.0
313.822876 60.0
314.020355 80.0
314.12265 132.0
314.408447 84.0
314.8815 128.0
315.128784 188.0
316.098358 128.0
316.132965 204.0
316.872986 136.0
316.915497 188.0
317.100616 168.0
317.13974 144.0
317.181305 80.0
317.234467 80.0
317.294739 56.0
318.060974 136.0
318.115234 524.0
318.586517 56.0
318.803253 64.0
318.867218 140.0
318.90274 64.0
318.948944 132.0
319.118622 2580.0
319.47522 80.0
319.617554 96.0
319.678864 104.0
320.127747 1748.0
320.646667 52.0
320.728638 120.0
320.874817 40.0
321.126465 924.0
321.523987 64.0
321.659607 28.0
321.763153 80.0
321.859528 124.0
322.009521 56.0
322.095245 108.0
322.139252 624.0
322.298889 88.0
323.14093 304.0
323.337463 100.0
323.711792 124.0
323.765503 32.0
324.062805 156.0
324.123718 120.0
324.600433 64.0
325.122894 112.0
325.170837 124.0
325.404175 52.0
325.677063 136.0
326.11261 108.0
326.931793 164.0
327.105621 96.0
327.334961 152.0
327.972626 128.0
328.679474 68.0
329.098175 96.0
329.137878 184.0
329.705017 84.0
330.0448 156.0
330.111115 296.0
330.229248 44.0
330.471588 52.0
331.10144 128.0
331.134033 128.0
331.735504 172.0
331.793518 56.0
332.126953 912.0
332.500824 88.0
332.555267 216.0
333.005463 124.0
333.131104 536.0
333.510498 180.0
333.695892 128.0
333.943176 160.0
334.012268 172.0
334.136627 740.0
334.488953 76.0
335.088318 108.0
335.137695 6788.0
335.288879 108.0
335.374054 80.0
335.429749 72.0
335.694885 96.0
335.804291 116.0
335.964783 32.0
335.993958 68.0
336.045044 296.0
336.142792 1560.0
336.24939 52.0
336.340637 168.0
336.530457 56.0
336.566956 64.0
336.89566 48.0
337.153259 704.0
337.60907 128.0
337.696167 96.0
338.087616 56.0
338.148895 172.0
338.526917 68.0
338.556183 72.0
339.058075 120.0
339.087402 208.0
339.113068 132.0
339.173553 136.0
339.355011 200.0
340.018951 132.0
340.098816 136.0
340.1474 88.0
340.202454 52.0
340.723938 132.0
340.879669 196.0
341.122131 176.0
342.102997 156.0
342.131348 148.0
343.141235 160.0
343.175049 156.0
343.875946 156.0
344.108093 76.0
344.121185 136.0
345.557281 136.0
346.14209 80.0
346.468018 120.0
346.805206 104.0
346.905273 60.0
347.127747 160.0
347.940308 52.0
348.159363 144.0
349.154907 1076.0
349.215515 140.0
349.322693 64.0
349.505005 48.0
349.728271 68.0
350.160492 1492.0
350.268188 40.0
350.29425 36.0
350.502899 116.0
350.909149 92.0
351.017273 68.0
351.163361 756.0
351.233582 64.0
351.472351 32.0
351.51712 64.0
351.744781 100.0
352.03598 96.0
352.073334 68.0
352.110107 152.0
352.170227 324.0
353.003815 100.0
353.101074 140.0
353.130981 152.0
353.448944 20.0
353.478882 76.0
354.160248 148.0
354.370026 48.0
355.048492 68.0
355.089752 172.0
355.148651 152.0
355.251038 156.0
355.930328 52.0
356.135925 160.0
356.8396 112.0
357.103394 128.0
357.132904 172.0
357.166748 112.0
358.103943 160.0
358.559814 136.0
359.127014 108.0
360.000916 144.0
360.11969 120.0
360.359741 116.0
361.146027 228.0
361.520569 68.0
362.171753 164.0
362.48996 128.0
362.550598 184.0
362.91449 36.0
363.009277 144.0
363.165222 168.0
364.174957 176.0
364.960999 36.0
365.12915 144.0
365.596252 64.0
365.65332 76.0
365.794159 132.0
366.087311 108.0
367.136627 208.0
368.100739 164.0
368.13028 188.0
368.570557 84.0
368.80368 76.0
368.956573 172.0
369.13913 172.0
370.039246 164.0
370.150543 148.0
370.855194 140.0
371.151001 516.0
371.311432 56.0
372.032776 116.0
372.162476 276.0
372.205536 176.0
372.286194 176.0
372.7164 112.0
373.135345 160.0
373.169952 156.0
374.148071 168.0
376.302246 76.0
376.68457 116.0
376.835236 104.0
377.059357 152.0
377.109589 164.0
377.384064 208.0
378.564209 128.0
378.641663 156.0
380.135834 116.0
380.32431 80.0
381.093231 156.0
381.135956 152.0
381.489624 104.0
381.730682 228.0
382.139099 168.0
382.481537 160.0
383.12915 144.0
383.194183 144.0
384.023438 148.0
384.13092 120.0
384.163422 116.0
384.37558 80.0
385.165955 112.0
385.343903 76.0
385.871521 72.0
386.121948 184.0
386.152405 144.0
386.165588 136.0
387.167328 128.0
387.209747 156.0
388.152252 272.0
388.189453 144.0
388.27182 40.0
389.127228 172.0
389.154694 64.0
390.691376 124.0
390.75824 56.0
391.151764 136.0
391.293488 176.0
391.384033 108.0
391.482483 80.0
392.300171 156.0
394.142853 344.0
395.112518 128.0
395.177063 144.0
395.355103 216.0
395.501556 140.0
395.774689 120.0
396.114319 164.0
396.144714 428.0
396.173157 256.0
396.261871 80.0
396.964203 104.0
397.118103 156.0
397.171204 316.0
397.205353 100.0
398.123413 184.0
398.135132 120.0
398.164551 184.0
398.21225 192.0
399.151367 116.0
399.190704 148.0
400.154419 496.0
400.18985 164.0
400.384979 172.0
401.169891 132.0
401.736145 68.0
402.167084 132.0
402.730072 168.0
403.049652 96.0
403.156677 164.0
403.833191 104.0
404.177216 228.0
406.140228 108.0
407.131531 176.0
408.153534 200.0
408.3573 188.0
408.510132 104.0
408.799805 136.0
409.121216 188.0
409.136292 160.0
409.153625 124.0
409.230499 148.0
409.963593 88.0
410.11676 136.0
410.16864 416.0
411.124237 192.0
411.141296 300.0
411.158691 136.0
411.1716 204.0
412.11026 40.0
412.16037 460.0
413.115417 160.0
413.145233 144.0
413.250427 164.0
414.130554 172.0
414.167786 260.0
414.176239 160.0
414.190613 212.0
414.254425 84.0
414.687958 116.0
414.756866 156.0
415.157623 128.0
415.198792 68.0
416.022461 136.0
416.111786 44.0
416.148315 148.0
416.875397 84.0
417.172089 144.0
417.818665 196.0
418.159363 188.0
418.229675 124.0
419.03595 84.0
419.1745 80.0
420.173431 52.0
421.500366 216.0
422.129852 96.0
422.171539 184.0
422.277069 92.0
423.45578 40.0
424.12204 156.0
424.15036 336.0
424.837097 192.0
425.166382 420.0
426.172424 536.0
427.129242 144.0
427.171143 136.0
427.734131 144.0
428.022308 104.0
428.169281 176.0
429.019348 88.0
429.188385 108.0
429.959747 92.0
430.158173 236.0
430.199158 212.0
431.144989 156.0
432.14151 132.0
433.139191 144.0
433.193054 108.0
434.631653 36.0
434.785187 108.0
435.362244 128.0
435.898102 160.0
436.213959 84.0
436.866821 144.0
436.904266 120.0
437.170563 108.0
437.90744 56.0
439.170288 140.0
439.554108 120.0
439.604156 124.0
440.149628 172.0
441.155548 136.0
441.202026 92.0
442.220306 136.0
442.442169 100.0
443.145752 128.0
443.175079 96.0
443.229553 128.0
444.076355 124.0
444.194244 164.0
444.399353 160.0
444.772858 124.0
445.168427 108.0
446.154633 224.0
447.154907 308.0
447.880127 160.0
448.120239 220.0
448.183441 200.0
450.12796 100.0
451.201141 192.0
451.512451 128.0
451.645142 132.0
451.801666 92.0
451.898956 20.0
452.042816 40.0
452.085144 100.0
452.554993 136.0
452.847168 132.0
453.17334 40.0
454.158997 140.0
454.5625 96.0
455.132874 196.0
455.18808 108.0
455.592224 128.0
455.68927 128.0
456.131866 160.0
456.169495 152.0
456.440063 56.0
457.144379 128.0
458.154938 312.0
458.216431 136.0
459.15213 280.0
459.794128 76.0
460.127075 132.0
460.18512 320.0
460.68222 156.0
460.7164 164.0
460.870209 120.0
461.09668 160.0
461.174683 288.0
461.840607 64.0
462.156525 172.0
462.201752 164.0
462.431061 104.0
462.72641 76.0
463.203247 184.0
464.097443 184.0
464.161499 132.0
464.899567 32.0
465.05835 152.0
465.298737 60.0
466.165344 116.0
466.690765 100.0
467.856689 68.0
468.136536 132.0
469.528473 160.0
471.043427 144.0
471.148041 132.0
471.203278 120.0
471.570587 144.0
472.080719 96.0
472.147247 144.0
472.196136 172.0
473.140747 144.0
473.197052 108.0
473.39621 88.0
473.599762 100.0
473.664734 84.0
474.106659 124.0
474.148926 344.0
474.201996 100.0
474.804626 136.0
474.956421 136.0
475.130951 156.0
475.164642 132.0
475.76355 208.0
476.126251 164.0
476.180603 228.0
476.219421 416.0
477.170898 312.0
477.253723 124.0
477.332001 188.0
477.536377 164.0
477.779968 148.0
478.17337 116.0
478.537231 40.0
478.611237 152.0
479.238464 100.0
479.761444 76.0
480.179901 128.0
480.485352 184.0
481.581024 108.0
482.223267 120.0
482.830963 100.0
483.425903 152.0
485.169128 188.0
486.156006 84.0
486.186707 160.0
486.493958 108.0
487.135071 124.0
487.200958 120.0
488.189728 360.0
488.260254 124.0
489.168915 1440.0
489.231323 132.0
489.492432 40.0
490.012177 128.0
490.047424 52.0
490.173096 672.0
490.391113 152.0
490.78537 212.0
490.999542 80.0
491.185822 252.0
491.295074 52.0
491.762787 36.0
492.194427 200.0
492.38089 56.0
492.734253 96.0
492.94632 144.0
492.987671 212.0
493.087738 44.0
493.184967 264.0
494.281738 96.0
495.074097 32.0
495.37085 160.0
495.658813 56.0
495.83606 68.0
496.004486 192.0
498.27655 144.0
498.378723 96.0
499.170105 96.0
499.814911 92.0
499.908356 164.0
500.185211 296.0
500.26886 40.0
501.188629 420.0
501.235321 188.0
502.135803 72.0
502.197998 384.0
502.555115 148.0
503.032623 56.0
503.194122 360.0
503.416595 168.0
503.925812 248.0
504.178345 756.0
504.21402 400.0
505.141785 140.0
505.184265 224.0
506.195526 732.0
506.390564 64.0
506.489105 44.0
506.73996 68.0
507.206512 688.0
507.243774 60.0
507.27774 100.0
507.519836 56.0
507.820282 56.0
508.228119 144.0
508.600983 124.0
508.756897 200.0
508.817413 56.0
509.135956 124.0
509.216095 184.0
510.582336 176.0
510.861176 136.0
511.810791 100.0
511.941376 128.0
512.180054 100.0
512.243164 68.0
512.531494 128.0
512.765808 96.0
514.194092 148.0
515.030701 104.0
515.20343 136.0
515.374023 76.0
516.015869 124.0
516.177734 1288.0
516.323303 36.0
516.409241 40.0
516.540405 92.0
516.685181 120.0
516.766602 108.0
516.970215 128.0
517.106018 96.0
517.184631 848.0
517.268921 100.0
517.427368 48.0
517.504333 60.0
517.585876 80.0
517.617554 104.0
517.785095 100.0
517.875671 92.0
518.056885 80.0
518.190735 1856.0
518.400696 68.0
518.750183 92.0
518.886169 44.0
518.981384 136.0
519.191711 420.0
519.316956 56.0
519.366882 64.0
519.505371 128.0
519.806946 84.0
519.920349 172.0
520.042908 108.0
520.097351 120.0
520.126282 88.0
520.21106 8000.0
520.369751 248.0
520.574097 116.0
520.691406 48.0
520.746643 52.0
520.819336 40.0
520.941956 68.0
520.973755 88.0
521.209534 2580.0
521.419067 92.0
521.509949 108.0
521.541748 52.0
521.589478 56.0
521.607971 28.0
521.617249 72.0
522.154419 212.0
522.214661 180.0
522.427246 92.0
522.587708 72.0
522.696899 84.0
522.738525 76.0
522.874329 88.0
523.111023 124.0
523.194885 188.0
523.230713 124.0
523.598206 72.0
523.989929 60.0
524.035522 92.0
524.150574 172.0
524.600586 192.0
525.184265 100.0
525.245239 84.0
525.594849 72.0
525.699768 84.0
525.905151 92.0
526.447144 284.0
526.539795 56.0
526.603699 100.0
526.822937 124.0
528.029663 76.0
528.162292 192.0
528.445923 60.0
528.610657 160.0
529.068359 72.0
529.732361 68.0
530.189941 340.0
530.295898 52.0
530.447937 100.0
530.570923 164.0
530.992432 108.0
531.034058 68.0
531.107483 132.0
531.215576 800.0
531.266663 180.0
531.693298 140.0
531.758972 112.0
531.809448 52.0
531.905823 144.0
531.95636 164.0
532.015991 100.0
532.057983 216.0
532.097656 180.0
532.209656 9984.0
532.308716 112.0
532.481323 108.0
532.511902 148.0
532.65271 136.0
532.773743 216.0
532.805908 124.0
532.896545 44.0
532.907898 204.0
532.945435 164.0
532.96521 112.0
533.052246 84.0
533.107239 68.0
533.211304 4064.0
533.394104 156.0
533.431824 76.0
533.643188 140.0
533.853882 148.0
533.966614 136.0
534.044739 96.0
534.078064 196.0
534.222351 3184.0
534.32489 128.0
534.405823 32.0
534.520874 56.0
534.589905 136.0
534.62207 68.0
534.750977 88.0
534.833801 148.0
534.884399 64.0
534.962708 44.0
535.105408 76.0
535.137634 156.0
535.229797 1324.0
535.377075 32.0
535.492188 32.0
535.611938 64.0
535.708679 28.0
535.771973 160.0
535.895691 88.0
536.231934 208.0
536.326111 40.0
536.418335 56.0
536.50592 84.0
536.911682 80.0
536.999268 44.0
537.234558 184.0
537.288147 64.0
537.547302 76.0
537.785645 120.0
538.231934 192.0
538.360718 64.0
539.13678 44.0
539.183044 96.0
539.344788 76.0
540.066101 144.0
540.468567 60.0
540.57959 32.0
541.158203 56.0
542.06604 36.0
542.316284 108.0
542.928284 132.0
543.081299 52.0
543.670532 80.0
544.195984 136.0
544.993896 80.0
545.198975 124.0
546.224609 744.0
546.290955 92.0
546.323547 60.0
546.500305 148.0
547.161194 160.0
547.226807 888.0
547.319519 56.0
547.44989 64.0
547.598938 144.0
547.785217 52.0
548.088074 96.0
548.221313 168.0
548.949646 124.0
549.178894 104.0
549.216248 144.0
549.250427 180.0
549.370178 156.0
550.149475 76.0
550.317566 88.0
551.064819 68.0
551.180542 156.0
551.62561 120.0
552.196045 100.0
554.115234 124.0
554.9776 68.0
555.17926 148.0
555.258972 172.0
555.455994 52.0
555.493469 76.0
556.050964 152.0
556.413269 164.0
556.64801 188.0
556.812378 48.0
557.019043 56.0
557.474792 152.0
557.67688 36.0
557.860168 68.0
558.537292 104.0
559.186584 88.0
559.836304 92.0
560.114136 136.0
560.189514 152.0
560.22937 136.0
560.797363 52.0
560.929321 104.0
560.981201 48.0
561.22821 228.0
561.485657 76.0
561.577393 76.0
561.658264 136.0
561.711426 112.0
562.249939 128.0
562.28772 88.0
562.427856 172.0
562.617859 176.0
562.875427 40.0
563.02887 228.0
563.076721 72.0
563.121399 96.0
563.252869 21500.0
563.452271 124.0
563.483398 196.0
563.589355 56.0
563.638245 192.0
563.85553 120.0
563.885437 92.0
563.925598 124.0
563.992737 124.0
564.044678 48.0
564.110901 32.0
564.169189 144.0
564.253296 8928.0
564.380371 48.0
564.491943 192.0
564.583679 80.0
564.61676 72.0
564.706665 64.0
564.770081 64.0
564.834351 40.0
564.894714 68.0
564.94165 96.0
564.981018 76.0
565.098206 296.0
565.160767 112.0
565.257996 1880.0
565.3974 128.0
565.454163 72.0
565.545898 108.0
565.700317 48.0
565.765076 76.0
565.889648 72.0
565.979614 60.0
566.107483 68.0
566.202209 44.0
566.257751 376.0
566.358459 64.0
566.417664 72.0
566.486389 36.0
566.585876 124.0
566.765869 52.0
566.889099 72.0
566.938232 88.0
566.974365 68.0
567.064453 80.0
567.126038 52.0
567.23645 152.0
567.325134 104.0
567.481567 36.0
567.549133 128.0
567.594482 128.0
567.680725 104.0
567.729248 168.0
567.95105 48.0
568.098083 84.0
568.16449 72.0
568.55835 60.0
568.624756 92.0
568.738708 60.0
568.866821 36.0
568.961792 88.0
569.023926 92.0
569.251404 56.0
569.289429 88.0
569.621887 84.0
569.802368 72.0
569.935425 84.0
570.206299 60.0
570.348877 64.0
571.142944 76.0
571.904175 100.0
572.5755 104.0
573.995605 52.0
574.296021 92.0
574.491577 72.0
575.312378 76.0
575.823303 44.0
576.611572 76.0
577.362183 128.0
579.487427 84.0
580.613892 40.0
581.275879 136.0
581.655029 64.0
582.019897 104.0
582.639465 144.0
585.501404 64.0
587.332825 80.0
592.97522 80.0
597.505676 104.0
597.894897 44.0
599.165771 76.0
599.794373 104.0
610.595276 76.0
631.895691 48.0
631.950745 72.0
633.292297 72.0
633.888428 68.0
639.568481 48.0
640.142395 28.0
649.329773 52.0
653.196777 124.0
669.511902 120.0
682.183105 132.0
685.619202 120.0
698.151062 136.0
703.256104 96.0
711.9599 76.0
716.997864 108.0
720.647705 32.0
725.517883 88.0
739.025208 92.0
741.586609 88.0
743.810425 108.0
744.83667 68.0
759.059143 76.0
788.885437 84.0
789.036377 48.0
789.858459 64.0
790.341003 76.0
805.722229 48.0
811.064087 36.0
811.506226 76.0
816.634033 84.0
818.705566 80.0
819.104248 36.0
828.105957 116.0
850.343689 96.0
859.806702 132.0
864.142456 76.0
888.177856 88.0
891.431274 96.0
915.641968 120.0
919.983276 88.0
922.030823 68.0
924.976318 36.0
939.097168 48.0
961.11438 128.0
990.740112 40.0
993.492188 116.0
1003.258423 84.0
1004.538513 60.0
1009.407898 56.0
1020.682068 64.0
1032.159424 112.0
1041.406006 144.0
1049.502319 48.0
1075.386108 92.0
1110.885864 148.0
1124.479492 56.0
1140.802856 40.0
1157.69751 76.0
1171.11731 84.0
1186.766479 124.0
1254.529053 92.0
1284.589233 40.0
1291.517944 176.0
1312.63916 88.0
1316.117065 48.0
1323.521118 76.0
1349.613281 108.0
1355.710815 96.0
1364.415894 20.0
1371.681641 32.0
1394.196411 20.0
1430.584595 76.0
1431.134277 92.0
1439.420776 172.0
1441.717163 116.0
1470.718018 20.0
