>compound Curcumin
>formula C21H20O6
>ionization [M+H]+
>parentmass 369.133362
#inchi InChI=1S/C21H20O6/c1-26-20-11-14(5-9-18(20)24)3-7-16(22)13-17(23)8-4-15-6-10-19(25)21(12-15)27-2/h3-13,22,24-25H,1-2H3/b7-3+,8-4+,16-13-
#inchikey ZIUSSTSXXLLKKK
#Ion_Source LC-ESI
#Instrument qTof
#Compound_Source Commercial
#PI Dorrestein
#Data_Collector Garg_Neha
#Scan -1
#Precursor_MZ 369.133
#ExactMass 368.126
#Charge 1
#CAS_Number 458-37-7, 15845-47-3, 33171-04-9
#Pubmed_ID N/A
#Smiles C1(=C(C=CC(=C1)/C=C/C(/C=C(/C=C/C2=CC=C(C(=C2)OC)O)O)=O)O)OC
#INCHI_AUX N/A
#Library_Class 1
#SpectrumID CCMSLIB00000078313
#IonMode Positive
#UpdateWorkflowName UPDATE-SINGLE-ANNOTATED-GOLD
#LibraryQualityString Gold
#TaskID 77f51c88eb8b467eb4a01dd2d0cb90d2
##Scan# 1637
#SpectrumFile Plate5_21_40_GH7_01_16509.mzXML
#LibraryName FDALibrary_2_04302014.mgf
#MQScore -1
#Organism FDALibrary_2_04302014
#TIC_Query 0
#RT_Query -1
#MZErrorPPM -1
#SharedPeaks 0
#MassDiff 0
#LibMZ -1
#SpecMZ 369.133
#SpecCharge 0
#internalFilename spec-00000.mgf

>collision 10
45.77166 160.0
46.361984 224.0
46.566841 220.0
47.044781 160.0
47.780712 216.0
47.791718 148.0
48.691639 180.0
48.709698 176.0
49.086861 248.0
49.875072 196.0
50.455856 160.0
50.543549 152.0
50.997356 168.0
51.323357 196.0
51.504601 188.0
52.288879 160.0
52.314789 152.0
52.388233 164.0
53.653397 144.0
53.773006 156.0
53.911747 200.0
54.402416 188.0
55.17289 164.0
55.875858 168.0
56.441139 144.0
57.040825 152.0
57.846344 144.0
58.090317 180.0
58.179848 180.0
60.490135 168.0
60.894825 192.0
61.522346 184.0
61.641048 184.0
61.831833 216.0
62.016644 224.0
62.360374 144.0
64.047066 140.0
66.78511 180.0
67.520683 220.0
67.833412 188.0
68.461044 144.0
68.903091 180.0
69.560539 208.0
69.846344 152.0
71.159874 144.0
71.853279 164.0
73.54686 152.0
74.186615 160.0
74.310097 156.0
74.510971 176.0
75.628403 180.0
77.309647 160.0
77.43219 192.0
78.130806 140.0
78.901489 164.0
79.583603 164.0
81.778893 152.0
82.123024 176.0
82.652344 160.0
82.815269 220.0
83.092621 180.0
83.530434 196.0
83.876404 160.0
84.513763 168.0
86.560638 160.0
89.035568 152.0
89.899414 216.0
90.146797 160.0
90.616051 176.0
91.054237 172.0
92.132347 196.0
93.042015 168.0
93.894432 216.0
94.114418 160.0
95.222099 224.0
95.523369 160.0
96.958466 212.0
100.55809 180.0
100.605995 148.0
101.057671 176.0
101.225807 160.0
102.713043 164.0
103.276161 188.0
105.072342 180.0
107.311989 160.0
108.055511 180.0
109.702377 188.0
109.802467 164.0
109.86087 224.0
110.036171 164.0
110.347374 180.0
110.458305 144.0
111.2966 180.0
111.759018 164.0
112.758568 168.0
114.274742 220.0
115.125237 160.0
115.441513 208.0
115.610512 236.0
116.212631 184.0
116.706642 172.0
116.876564 184.0
117.032715 2324.0
117.085373 176.0
117.143524 224.0
118.040108 124.0
118.920929 168.0
119.047829 156.0
120.052231 232.0
121.719696 156.0
121.860268 156.0
122.0383 480.0
122.822289 224.0
124.162605 196.0
125.164825 164.0
128.366974 176.0
128.642227 152.0
129.044357 152.0
129.256973 140.0
131.049408 200.0
131.927139 184.0
133.064484 168.0
134.035172 336.0
134.167755 248.0
134.36377 172.0
134.814026 160.0
134.978149 236.0
135.042908 164.0
135.39238 200.0
135.728394 188.0
135.87915 184.0
136.050385 388.0
136.869278 208.0
137.058777 956.0
138.057022 176.0
138.651657 148.0
139.273407 140.0
142.326996 156.0
142.357864 148.0
142.443359 208.0
143.04776 188.0
144.972412 176.0
145.027939 7848.0
145.066101 180.0
145.921371 164.0
146.031677 808.0
147.03801 164.0
149.057388 1188.0
149.500488 192.0
150.619568 236.0
151.000854 228.0
151.038025 1096.0
151.07486 2032.0
151.860519 188.0
152.019989 148.0
152.075409 160.0
152.833328 144.0
153.866028 164.0
154.080887 168.0
154.248932 160.0
154.682556 104.0
156.073608 208.0
156.215363 148.0
157.062286 148.0
157.921509 188.0
158.424637 188.0
159.07663 180.0
159.636917 168.0
159.662064 168.0
160.374573 228.0
160.440109 140.0
161.059662 2340.0
162.066833 476.0
163.039627 148.0
163.065033 196.0
163.818207 180.0
165.069916 120.0
165.42337 164.0
165.508926 164.0
167.079666 148.0
169.087173 176.0
169.594803 164.0
170.799591 200.0
171.588638 172.0
172.175751 192.0
172.690613 148.0
173.43158 208.0
174.132111 200.0
175.074539 2416.0
175.214249 104.0
176.040268 180.0
176.078369 340.0
176.599075 228.0
176.834549 216.0
176.933517 216.0
176.972198 140.0
177.054138 10676.0
177.239731 160.0
177.425247 148.0
177.61618 144.0
178.057007 1728.0
178.088547 108.0
179.067398 356.0
179.335434 100.0
181.065125 156.0
181.239243 224.0
181.609192 176.0
182.06813 172.0
182.465805 192.0
183.0793 192.0
184.058167 152.0
184.990906 184.0
185.09108 176.0
185.554398 172.0
187.746002 192.0
190.068283 184.0
190.189209 200.0
191.06163 156.0
192.060242 184.0
193.06427 788.0
193.292404 152.0
194.678421 200.0
195.512405 164.0
199.070801 172.0
201.049316 280.0
203.016296 160.0
203.070023 572.0
204.068054 296.0
207.36972 140.0
209.061279 148.0
210.063614 596.0
210.306305 248.0
211.028503 196.0
211.071304 176.0
211.685333 160.0
212.230087 148.0
212.462097 140.0
213.053055 500.0
213.525223 144.0
214.066513 160.0
216.074646 148.0
217.0793 168.0
217.619202 188.0
218.087646 212.0
218.165649 148.0
219.06514 2400.0
219.21051 144.0
220.065659 528.0
220.222412 180.0
220.263763 212.0
221.058807 512.0
222.060669 136.0
223.783936 176.0
225.090775 1548.0
226.019531 168.0
226.093918 112.0
226.211075 148.0
227.070129 412.0
227.386032 164.0
229.772232 148.0
233.076477 256.0
234.088425 148.0
234.569794 192.0
237.050705 152.0
238.063385 524.0
239.060043 180.0
239.503174 156.0
242.092941 112.0
243.881409 160.0
244.018188 148.0
244.932098 160.0
245.079819 3788.0
245.148071 160.0
246.083115 512.0
247.076447 216.0
247.99205 148.0
248.202087 164.0
253.086594 1440.0
253.149384 180.0
253.678482 188.0
253.909958 160.0
254.085754 304.0
255.086472 168.0
255.126068 180.0
259.09613 1880.0
260.043091 96.0
260.09967 332.0
261.102264 140.0
263.187164 160.0
268.101624 148.0
268.259735 140.0
268.66571 204.0
270.088043 528.0
270.806732 184.0
273.571533 176.0
278.877289 180.0
283.10965 204.0
283.763428 164.0
284.099945 176.0
284.855103 172.0
284.952515 244.0
285.021606 240.0
285.112091 11472.0
285.29361 104.0
286.11438 2464.0
287.064178 252.0
287.115845 556.0
287.656738 172.0
291.101868 160.0
292.099213 140.0
292.916168 188.0
299.12674 1820.0
300.132782 120.0
304.063599 188.0
304.455872 156.0
308.340363 208.0
311.082916 148.0
314.93512 152.0
318.086487 168.0
319.100037 428.0
320.098785 188.0
323.125519 244.0
324.128052 216.0
325.08548 140.0
325.138794 140.0
327.0672 140.0
331.124023 168.0
333.202515 176.0
335.090729 236.0
341.08136 140.0
341.136505 132.0
341.39389 192.0
342.162903 176.0
342.269653 148.0
349.130402 156.0
350.101685 212.0
351.106537 164.0
354.146423 152.0
364.536591 164.0
366.271454 164.0
366.949768 164.0
368.287659 128.0
368.972473 100.0
369.068817 180.0
369.133362 13364.0
369.415436 96.0
370.136047 2852.0
370.257446 148.0
370.30011 220.0
370.347168 100.0
370.622803 168.0
371.085297 120.0
371.145203 448.0
640.056946 160.0
1147.15625 212.0
1342.457764 164.0
1481.82666 208.0
1534.538452 236.0
1582.853882 140.0
1585.507568 204.0
1585.626465 140.0
1637.865112 160.0
1641.298218 148.0
1659.052734 144.0
1670.185669 156.0
1674.100342 192.0
1704.974365 144.0
1715.130615 160.0
1742.796143 184.0
1759.436523 160.0
1769.225952 180.0
1785.781494 188.0
1797.018921 188.0
1798.419678 228.0
1801.535522 148.0
1805.643433 180.0
1820.210693 148.0
1841.44104 212.0
1863.12085 180.0
1877.960815 168.0
1910.721924 156.0
1923.488525 184.0
1948.147461 192.0
1952.946777 152.0
1954.028809 172.0
1961.038208 140.0
1967.980713 156.0
