>compound MLS001140689-01!(2R)-1-[(2S)-2-[[(2S)-2-(2,4-dioxo-1H-quinazolin-3-yl)-3-phenylpropanoyl]amino]-3-methylbutanoyl]pyrrolidine-2-carboxylic acid
>formula C27H30N4O6
>ionization [M+H]+
>parentmass 507.224
#inchi InChI=1S/C27H30N4O6/c1-16(2)22(25(34)30-14-8-13-20(30)26(35)36)29-23(32)21(15-17-9-4-3-5-10-17)31-24(33)18-11-6-7-12-19(18)28-27(31)37/h3-7,9-12,16,20-22H,8,13-15H2,1-2H3,(H,28,37)(H,29,32)(H,35,36)/t20-,21+,22+/m1/s1
#inchikey SYRLGRSPYCBUON
#Ion_Source LC-ESI
#Instrument qTof
#Compound_Source NIH Natural Product Library
#PI Dorrestein
#Data_Collector VVP/LMS
#Scan -1
#Precursor_MZ 507.224
#ExactMass 506.217
#Charge 1
#CAS_Number N/A
#Pubmed_ID N/A
#Smiles CC(C)[C@H](NC(=O)[C@H](Cc1ccccc1)n2c(=O)[nH]c3ccccc3c2=O)C(=O)N4CCC[C@@H]4C(=O)O
#INCHI_AUX N/A
#Library_Class 1
#SpectrumID CCMSLIB00000079738
#IonMode Positive
#UpdateWorkflowName UPDATE-SINGLE-ANNOTATED-GOLD
#LibraryQualityString Gold
#TaskID b1d8e8f6646f4e71acdff9ca3d919d08
##Scan# 1964
#SpectrumFile p1-D10_GD10_01_17918.mzXML
#LibraryName NIH_Natural_Products_Library.mgf
#MQScore -1
#Organism NIH_Natural_Products_Library
#TIC_Query 0
#RT_Query -1
#MZErrorPPM -1
#SharedPeaks 0
#MassDiff 0
#LibMZ -1
#SpecMZ 507.224
#SpecCharge 0
#internalFilename spec-00000.mgf

>collision 10
94.988495 196.0
95.900414 156.0
96.515343 120.0
97.12635 280.0
97.741257 204.0
97.938126 112.0
98.107582 124.0
98.62278 156.0
98.828445 160.0
98.846252 168.0
99.131393 56.0
99.174995 184.0
99.212654 92.0
99.673111 152.0
99.802307 200.0
99.933578 204.0
100.148567 168.0
101.078865 132.0
101.160927 124.0
101.36721 164.0
101.708145 132.0
101.832634 160.0
102.321259 188.0
103.031143 140.0
103.054352 1668.0
103.300003 128.0
103.316185 280.0
104.055946 372.0
104.35659 104.0
104.775841 232.0
104.879761 84.0
105.240845 176.0
105.463509 216.0
105.516655 164.0
105.59845 204.0
105.825592 204.0
106.779778 192.0
107.412094 160.0
108.474937 272.0
108.740433 184.0
108.798553 192.0
109.062355 136.0
109.43264 136.0
109.997597 132.0
110.348557 240.0
110.453117 164.0
110.643539 220.0
110.792229 56.0
110.873947 124.0
111.772713 172.0
112.643417 144.0
113.062042 128.0
113.112839 116.0
113.157295 188.0
114.078003 120.0
114.365158 164.0
114.780579 108.0
115.695007 132.0
115.892036 68.0
116.071182 2536.0
116.126442 104.0
116.645302 68.0
116.903389 188.0
117.074768 164.0
117.166069 144.0
117.672882 104.0
118.022896 176.0
118.072632 164.0
118.826431 140.0
118.947952 136.0
119.262909 180.0
119.573921 180.0
120.04451 336.0
121.159164 144.0
121.362991 108.0
121.92054 140.0
122.644623 60.0
123.39959 144.0
123.877602 240.0
124.003899 192.0
124.6008 188.0
124.69603 28.0
124.88533 124.0
124.998787 104.0
125.462051 148.0
125.890434 160.0
126.10714 60.0
126.346397 180.0
126.601562 108.0
126.675629 168.0
126.805428 108.0
126.917511 108.0
127.388802 188.0
127.710236 44.0
127.865471 216.0
129.124359 252.0
129.432114 184.0
129.774246 180.0
130.496246 172.0
131.047119 204.0
131.443771 104.0
131.548752 132.0
131.71315 172.0
131.87767 124.0
132.621521 164.0
133.349091 236.0
134.840225 256.0
134.948868 160.0
135.258865 220.0
135.45105 188.0
135.475815 208.0
135.968079 164.0
136.060928 204.0
136.397751 100.0
136.530289 192.0
136.56517 180.0
136.816467 204.0
137.007431 68.0
137.056366 124.0
137.287125 124.0
138.640671 112.0
138.835236 100.0
139.546707 212.0
140.083267 100.0
140.351944 148.0
141.216248 92.0
142.280182 52.0
142.341904 204.0
142.432159 212.0
142.629364 180.0
142.940918 164.0
142.967087 44.0
143.017075 188.0
143.500656 36.0
143.677139 112.0
143.989822 272.0
144.042374 124.0
144.080582 132.0
144.164215 148.0
144.479828 48.0
144.542023 124.0
144.635361 196.0
144.901169 156.0
145.038879 212.0
145.186417 284.0
145.315933 176.0
145.587173 88.0
145.909149 148.0
146.022903 6776.0
146.188156 52.0
146.667419 84.0
146.976105 72.0
147.025223 916.0
147.604111 160.0
147.962204 76.0
148.025146 124.0
148.141403 120.0
148.725784 144.0
149.566772 100.0
149.895538 204.0
150.480927 152.0
150.991623 64.0
151.902756 220.0
152.295486 208.0
152.528915 172.0
152.580536 208.0
153.45137 156.0
153.955429 128.0
154.167877 184.0
154.420044 108.0
155.366257 184.0
156.059158 160.0
156.47963 152.0
156.888199 172.0
158.425079 96.0
158.485199 52.0
158.653122 88.0
158.911438 228.0
159.667511 156.0
160.158295 144.0
160.786072 116.0
160.83403 48.0
160.912292 192.0
160.977936 232.0
161.622498 204.0
161.945938 120.0
162.313995 108.0
162.417969 128.0
162.532135 104.0
162.626022 136.0
162.726425 204.0
162.745331 188.0
163.04985 2132.0
163.426498 160.0
163.467209 104.0
163.515564 76.0
163.734512 220.0
163.833847 180.0
163.958694 160.0
164.051666 816.0
164.359055 100.0
164.419647 160.0
164.562363 164.0
164.629623 68.0
164.959213 160.0
165.053802 172.0
165.642426 44.0
165.932007 172.0
167.780457 156.0
167.973862 220.0
168.61676 164.0
169.32045 152.0
169.820648 168.0
170.113861 148.0
170.84668 188.0
171.750565 104.0
172.045425 144.0
172.181198 108.0
172.374512 164.0
172.413712 172.0
173.093857 72.0
173.638916 288.0
174.190109 184.0
174.468658 216.0
174.994827 80.0
176.281998 72.0
177.065048 212.0
177.343231 64.0
177.579208 184.0
177.932114 124.0
178.787994 40.0
179.126129 204.0
180.447098 232.0
180.674423 136.0
180.960785 136.0
181.05719 120.0
181.491287 244.0
181.531509 148.0
181.636108 140.0
182.121933 132.0
182.146103 44.0
182.689087 160.0
183.645325 164.0
183.677689 148.0
184.012314 188.0
184.904327 56.0
185.310501 56.0
185.527313 36.0
186.694824 148.0
187.045792 152.0
187.631485 120.0
188.076126 168.0
189.136642 204.0
190.293472 232.0
191.889206 156.0
192.079483 216.0
192.140167 160.0
192.545929 164.0
192.66745 108.0
192.769684 140.0
193.001877 124.0
194.092148 252.0
194.85051 204.0
195.108978 72.0
195.626404 128.0
196.364777 184.0
196.766586 284.0
197.384064 176.0
197.406433 196.0
197.465164 180.0
198.018921 124.0
198.251831 168.0
198.529358 100.0
199.290039 48.0
199.481155 180.0
199.666718 116.0
200.598679 60.0
201.962494 116.0
202.174683 188.0
202.843094 196.0
203.654602 112.0
203.788116 52.0
204.089386 168.0
204.279938 196.0
204.439255 168.0
204.852097 96.0
205.008804 164.0
206.296021 116.0
206.356049 176.0
206.762238 188.0
207.163086 184.0
207.74501 124.0
207.802383 180.0
207.856903 208.0
208.301895 120.0
208.793381 168.0
209.014877 184.0
209.169373 188.0
209.657028 188.0
210.135681 44.0
210.707321 144.0
210.805557 180.0
210.970306 100.0
211.181381 68.0
212.162994 144.0
212.235474 136.0
212.400787 152.0
212.598068 192.0
213.559692 84.0
213.786621 168.0
214.109756 160.0
214.456451 164.0
215.133957 884.0
215.311279 144.0
215.732025 132.0
216.150253 164.0
216.305359 216.0
216.803268 160.0
217.219589 76.0
217.974106 120.0
218.07991 116.0
218.71228 84.0
218.847687 116.0
220.067505 216.0
220.12738 228.0
220.227783 164.0
221.104019 196.0
221.51619 212.0
222.088394 552.0
222.76329 156.0
222.956421 168.0
223.152603 136.0
223.452988 148.0
224.274872 184.0
224.355347 56.0
224.653564 92.0
226.189484 96.0
226.309235 96.0
226.719604 136.0
227.046371 164.0
227.091354 212.0
227.397385 136.0
227.763687 172.0
228.181381 160.0
229.093231 176.0
229.880157 176.0
230.142761 132.0
230.260529 156.0
230.77121 88.0
231.140213 44.0
231.25824 164.0
232.07341 124.0
232.655609 128.0
232.871201 88.0
232.9198 132.0
233.132477 140.0
233.178055 172.0
233.290512 180.0
234.06633 128.0
234.867844 92.0
235.078339 176.0
235.27063 200.0
236.129242 92.0
237.096603 124.0
237.397079 164.0
237.55658 152.0
237.617935 92.0
238.105988 132.0
238.35173 104.0
238.426346 228.0
239.259033 204.0
239.499222 132.0
239.526947 64.0
239.650177 124.0
239.98909 196.0
239.997864 188.0
240.356247 100.0
240.414886 120.0
240.905807 192.0
241.125183 140.0
241.895325 172.0
241.985107 192.0
243.433105 152.0
243.715775 148.0
243.955078 176.0
244.950836 136.0
245.184509 104.0
245.527435 144.0
245.883087 72.0
246.107849 132.0
246.176544 72.0
246.620163 204.0
246.907791 124.0
246.954712 120.0
247.042297 192.0
247.084961 644.0
247.246796 132.0
247.649536 204.0
247.95343 152.0
248.073257 156.0
248.106003 220.0
248.213623 36.0
248.947906 116.0
249.183472 108.0
249.208603 160.0
249.827942 172.0
250.561447 144.0
251.210861 116.0
251.677933 176.0
251.98114 132.0
252.610245 164.0
252.676666 104.0
252.80957 248.0
253.537918 152.0
254.089645 144.0
255.23938 76.0
255.990341 164.0
256.178253 192.0
256.477783 120.0
257.099701 196.0
258.873901 112.0
258.912323 104.0
259.037231 168.0
259.146149 120.0
259.934906 176.0
260.166016 180.0
260.448578 132.0
260.548157 148.0
260.77951 212.0
261.017395 96.0
261.378876 84.0
261.41626 88.0
261.619049 124.0
261.966827 180.0
262.289062 128.0
262.311615 60.0
262.527649 152.0
263.247253 244.0
263.318298 128.0
263.557343 124.0
263.705994 112.0
263.806183 244.0
263.854675 96.0
264.006653 84.0
264.06488 136.0
264.113678 224.0
264.181305 112.0
264.203949 132.0
264.226593 140.0
264.288086 52.0
264.320435 40.0
264.362488 116.0
264.385162 136.0
264.446625 60.0
264.472534 164.0
264.528412 168.0
264.633453 196.0
264.760681 72.0
264.785522 140.0
264.806 192.0
264.844879 136.0
264.886993 148.0
264.919373 120.0
264.957031 136.0
265.032013 104.0
265.096619 52676.0
265.189362 152.0
265.241272 132.0
265.273163 68.0
265.310516 100.0
265.379364 64.0
265.434906 120.0
265.475403 88.0
265.536835 128.0
265.544708 52.0
265.578461 144.0
265.612 108.0
265.648743 36.0
265.706055 168.0
265.729004 212.0
265.763977 68.0
265.786713 92.0
265.820709 76.0
265.998962 156.0
266.020599 108.0
266.099274 8656.0
266.169525 60.0
266.208282 220.0
266.249786 44.0
266.271942 116.0
266.335358 144.0
266.408203 80.0
266.43808 64.0
266.537109 76.0
266.567566 48.0
266.635803 44.0
266.668304 40.0
266.720306 96.0
266.785309 60.0
266.866608 76.0
266.930817 64.0
266.983643 60.0
267.10144 1344.0
267.240631 56.0
267.276428 108.0
267.317078 56.0
267.383789 60.0
267.408905 56.0
267.47168 88.0
267.562836 84.0
267.605164 104.0
267.671906 132.0
267.751678 140.0
267.793488 124.0
267.855896 128.0
267.888489 56.0
267.937347 104.0
267.982941 72.0
268.022064 32.0
268.083954 156.0
268.108856 252.0
268.158051 120.0
268.184357 144.0
268.250183 60.0
268.286499 56.0
268.38208 84.0
268.43927 148.0
268.599091 188.0
268.74588 208.0
268.971069 40.0
269.035217 104.0
269.101654 144.0
269.438019 40.0
269.473969 100.0
269.585052 80.0
269.678925 152.0
269.885773 100.0
270.042755 60.0
271.021545 220.0
272.162964 248.0
272.192505 176.0
272.33374 112.0
272.442139 52.0
273.04364 148.0
273.181763 184.0
273.833496 88.0
273.978424 104.0
275.077393 736.0
276.086761 288.0
276.123932 112.0
276.994415 108.0
277.080536 76.0
277.590973 112.0
277.713654 128.0
277.763428 248.0
278.008942 60.0
278.344208 68.0
278.812592 76.0
278.882385 168.0
279.121735 100.0
280.183441 124.0
280.313385 32.0
280.7612 40.0
280.950195 52.0
280.973572 140.0
281.036957 100.0
281.063629 92.0
283.494629 192.0
284.067963 168.0
284.739227 204.0
287.088226 120.0
287.263611 132.0
287.692169 100.0
288.506317 80.0
290.080414 192.0
290.721436 92.0
290.751953 72.0
290.870758 128.0
291.798157 140.0
292.199463 180.0
292.420654 64.0
292.70462 152.0
292.941589 120.0
293.010803 128.0
293.091248 10740.0
293.180603 120.0
293.207794 64.0
293.24826 84.0
293.287231 92.0
293.350525 44.0
293.391418 92.0
293.449371 136.0
293.48349 96.0
293.575531 72.0
293.681274 60.0
293.715363 40.0
293.793823 52.0
293.855225 92.0
293.960999 40.0
294.093231 2172.0
294.141907 140.0
294.285278 60.0
294.356964 28.0
294.421875 80.0
294.585815 52.0
294.958252 68.0
295.098785 368.0
295.154572 104.0
295.252289 76.0
295.375427 80.0
295.594391 36.0
295.762085 56.0
296.092529 92.0
296.166321 164.0
296.238037 112.0
296.423035 80.0
296.693817 120.0
297.38327 56.0
297.421021 44.0
297.678497 96.0
297.736877 84.0
297.877716 112.0
299.170685 64.0
299.515015 28.0
300.859863 132.0
303.052521 80.0
305.044525 172.0
305.670532 92.0
307.015167 152.0
307.957458 76.0
308.048279 104.0
309.163605 76.0
313.137695 44.0
313.891846 60.0
317.059204 188.0
317.534271 100.0
319.381165 176.0
320.075104 144.0
321.037231 124.0
323.319977 248.0
323.570526 96.0
325.96286 112.0
337.745697 32.0
346.029266 120.0
348.447357 116.0
349.045746 120.0
357.067169 148.0
363.641022 20.0
365.156921 88.0
368.022522 124.0
371.229034 148.0
379.709412 156.0
381.285614 116.0
385.107605 156.0
385.443573 124.0
400.590088 92.0
409.193878 128.0
412.164764 120.0
415.687592 48.0
416.958649 144.0
418.056671 120.0
419.971436 132.0
426.708344 124.0
427.390411 116.0
429.276947 192.0
429.314056 120.0
435.422363 128.0
437.846954 184.0
441.895905 76.0
446.930695 56.0
447.111633 140.0
448.050598 108.0
454.014618 136.0
457.264587 52.0
459.168976 108.0
460.846558 104.0
464.009369 52.0
472.895996 144.0
473.796661 152.0
479.301422 180.0
483.051605 140.0
483.738617 92.0
483.817413 20.0
484.382324 112.0
487.5896 112.0
490.260895 152.0
490.957397 144.0
493.23999 80.0
494.442993 96.0
501.348694 64.0
502.677551 84.0
504.875366 128.0
505.331696 4488.0
505.438995 40.0
505.595612 44.0
505.67511 84.0
505.805969 48.0
505.908936 44.0
506.335846 1852.0
506.504486 80.0
506.728485 52.0
506.791199 88.0
507.095917 80.0
507.127289 40.0
507.288666 100.0
507.340271 352.0
507.463501 48.0
507.710114 76.0
507.995667 60.0
508.302246 164.0
508.338135 84.0
509.195587 152.0
509.375244 96.0
509.73465 76.0
510.530304 144.0
511.73172 60.0
511.844269 44.0
513.683044 56.0
526.528015 40.0
530.426208 80.0
533.2995 64.0
547.409912 100.0
552.576904 112.0
558.336975 88.0
594.703735 84.0
595.543701 76.0
621.330688 80.0
632.447998 76.0
663.563538 60.0
672.34906 140.0
676.302795 116.0
676.380432 36.0
723.457214 104.0
723.751648 68.0
766.503479 84.0
780.891357 52.0
799.797241 148.0
820.19989 52.0
825.052002 56.0
871.355225 72.0
917.487183 68.0
978.121277 156.0
989.651733 96.0
1015.514038 220.0
1039.880005 172.0
1044.666992 48.0
1050.819336 144.0
1065.580566 160.0
1069.781738 176.0
1092.778809 72.0
1119.600464 84.0
1124.233643 148.0
1141.254272 136.0
1168.327515 64.0
1184.355225 204.0
1196.137817 44.0
1226.860229 160.0
1236.975342 176.0
1257.337036 232.0
1289.252319 56.0
1330.881226 132.0
1346.968384 192.0
1348.817017 256.0
1351.63269 192.0
1353.184326 160.0
1382.886963 44.0
1383.723511 204.0
1386.708618 224.0
1389.570923 136.0
1401.973511 160.0
1414.266479 88.0
1422.091309 136.0
1438.786987 212.0
1439.458984 176.0
1446.709595 156.0
1453.174072 180.0
1457.015503 96.0
1466.725464 88.0
1475.450562 172.0
1475.519409 220.0
1481.457886 112.0
1498.890503 140.0
