>compound MLS001140358-01!dimethyl 5-[[2-(2,3,4,7,9,10-hexahydro-[1,4]dioxepino[2,3-g]isoquinolin-8-yl)acetyl]amino]benzene-1,3-dicarboxylate
>formula C24H26N2O7
>ionization [M+H]+
>parentmass 455.179962
#inchi InChI=1S/C24H26N2O7/c1-30-23(28)16-8-17(24(29)31-2)10-19(9-16)25-22(27)14-26-5-4-15-11-20-21(12-18(15)13-26)33-7-3-6-32-20/h8-12H,3-7,13-14H2,1-2H3,(H,25,27)
#inchikey LWRMZXDWYOOEPB
#Ion_Source LC-ESI
#Instrument qTof
#Compound_Source NIH Natural Product Library
#PI Dorrestein
#Data_Collector VVP/LMS
#Scan -1
#Precursor_MZ 455.182
#ExactMass 454.174
#Charge 1
#CAS_Number N/A
#Pubmed_ID N/A
#Smiles COC(=O)c1cc(NC(=O)CN2CCc3cc4OCCCOc4cc3C2)cc(c1)C(=O)OC
#INCHI_AUX N/A
#Library_Class 1
#SpectrumID CCMSLIB00000080617
#IonMode Positive
#UpdateWorkflowName UPDATE-SINGLE-ANNOTATED-GOLD
#LibraryQualityString Gold
#TaskID b1d8e8f6646f4e71acdff9ca3d919d08
##Scan# 1734
#SpectrumFile p2-H11_GH11_01_18071.mzXML
#LibraryName NIH_Natural_Products_Library.mgf
#MQScore -1
#Organism NIH_Natural_Products_Library
#TIC_Query 0
#RT_Query -1
#MZErrorPPM -1
#SharedPeaks 0
#MassDiff 0
#LibMZ -1
#SpecMZ 455.182
#SpecCharge 0
#internalFilename spec-00000.mgf

>collision 10
94.96376 184.0
94.981178 276.0
94.997299 196.0
95.001236 152.0
95.049843 128.0
95.079224 172.0
95.125534 80.0
95.162292 180.0
95.175461 252.0
95.203934 264.0
95.240593 204.0
95.267296 64.0
95.295296 152.0
95.319756 160.0
95.335304 128.0
95.399445 176.0
95.446663 196.0
95.48111 164.0
95.518066 160.0
95.555031 40.0
95.57872 208.0
95.597839 88.0
95.6465 156.0
95.690399 160.0
95.712692 92.0
95.730217 148.0
95.79644 120.0
95.860733 100.0
95.874374 264.0
95.910652 124.0
95.947685 164.0
96.008896 104.0
96.028397 148.0
96.084969 88.0
96.120216 128.0
96.139603 68.0
96.23864 116.0
96.27626 428.0
96.289932 140.0
96.303604 164.0
96.322243 180.0
96.35244 64.0
96.408493 172.0
96.426697 68.0
96.440384 140.0
96.46579 132.0
96.485344 108.0
96.520157 104.0
96.568817 136.0
96.635941 248.0
96.677032 108.0
96.702477 108.0
96.733643 156.0
96.753372 120.0
96.812111 128.0
96.843452 168.0
96.866959 116.0
96.902222 136.0
96.945328 152.0
96.971504 204.0
97.05722 320.0
97.091667 124.0
97.12571 244.0
97.166901 72.0
97.182602 208.0
97.224098 136.0
97.243431 108.0
97.257172 64.0
97.276802 188.0
97.296432 40.0
97.33374 132.0
97.353378 140.0
97.424088 120.0
97.444611 108.0
97.475174 136.0
97.498756 164.0
97.523682 176.0
97.597046 304.0
97.612778 52.0
97.636375 160.0
97.67424 192.0
97.696228 144.0
97.796188 176.0
97.817398 40.0
97.831177 164.0
97.848892 168.0
97.874489 124.0
97.89418 84.0
97.917366 196.0
97.939484 116.0
97.955963 204.0
98.010239 144.0
98.029938 136.0
98.06134 156.0
98.116837 168.0
98.14444 216.0
98.16684 212.0
98.187828 140.0
98.20755 48.0
98.221359 164.0
98.266731 136.0
98.296982 156.0
98.315147 216.0
98.329163 176.0
98.385094 156.0
98.41674 144.0
98.434509 168.0
98.462212 148.0
98.497711 196.0
98.553482 248.0
98.571381 152.0
98.604256 104.0
98.643936 184.0
98.667465 276.0
98.692406 288.0
98.717094 152.0
98.740829 160.0
98.82193 224.0
98.839737 96.0
98.859528 48.0
98.879318 160.0
98.930923 168.0
98.948601 68.0
98.991951 152.0
99.085258 120.0
99.120926 164.0
99.141014 116.0
99.162544 148.0
99.184349 156.0
99.206154 40.0
99.247787 136.0
99.293968 156.0
99.321167 152.0
99.344086 164.0
99.369003 212.0
99.392586 188.0
99.410446 184.0
99.424339 112.0
99.459175 232.0
99.48587 164.0
99.503479 132.0
99.519623 124.0
99.557915 156.0
99.588745 144.0
99.59687 116.0
99.618042 144.0
99.647369 152.0
99.680519 152.0
99.710327 160.0
99.726227 152.0
99.762009 76.0
99.775925 136.0
99.789841 104.0
99.821655 104.0
99.850388 144.0
99.875275 224.0
99.911163 160.0
99.937027 144.0
99.956032 196.0
99.980804 188.0
99.999435 192.0
100.04052 148.0
100.076355 176.0
100.128693 128.0
100.198082 176.0
100.221344 76.0
100.269051 208.0
100.291512 96.0
100.307457 108.0
100.342697 160.0
100.351028 108.0
100.357803 144.0
100.389206 156.0
100.419121 60.0
100.459282 208.0
100.486946 156.0
100.514885 164.0
100.542824 220.0
100.576752 116.0
100.615486 148.0
100.681969 132.0
100.700546 112.0
100.735168 156.0
100.769844 160.0
100.832413 104.0
100.847588 152.0
100.894638 184.0
100.918373 136.0
100.93837 172.0
100.956657 164.0
100.98082 176.0
101.021156 204.0
101.04438 152.0
101.069862 184.0
101.130424 156.0
101.192932 144.0
101.23082 236.0
101.251717 124.0
101.2826 168.0
101.32058 96.0
101.364746 72.0
101.392456 128.0
101.461891 68.0
101.478996 88.0
101.505066 132.0
101.521111 196.0
101.562515 132.0
101.635452 84.0
101.685623 160.0
101.699669 344.0
101.755737 112.0
101.797363 156.0
101.810097 196.0
101.849922 164.0
101.863754 112.0
101.893906 144.0
101.926613 60.0
101.948357 112.0
102.019753 328.0
102.043686 376.0
102.113571 376.0
102.156532 188.0
102.167397 132.0
102.188004 64.0
102.248375 112.0
102.268364 120.0
102.275322 112.0
102.281403 156.0
102.310432 140.0
102.347015 136.0
102.367416 120.0
102.39032 176.0
102.47995 136.0
102.500099 156.0
102.546593 332.0
102.579826 252.0
102.62323 176.0
102.651779 132.0
102.727936 72.0
102.753319 180.0
102.784386 200.0
102.802589 200.0
102.841576 176.0
102.863136 180.0
102.880424 276.0
102.93911 108.0
102.974854 180.0
102.993149 176.0
103.024017 136.0
103.053802 3336.0
103.082985 108.0
103.12146 108.0
103.157265 132.0
103.192436 160.0
103.223549 156.0
103.273331 88.0
103.306122 264.0
103.334023 128.0
103.370438 124.0
103.392761 128.0
103.452576 200.0
103.483795 124.0
103.499992 100.0
103.520241 212.0
103.542519 144.0
103.594376 240.0
103.62355 264.0
103.641785 76.0
103.661293 128.0
103.684341 32.0
103.698524 68.0
103.728928 108.0
103.75843 188.0
103.772644 184.0
103.805977 60.0
103.824226 124.0
103.846535 156.0
103.902611 156.0
103.908485 184.0
103.919441 132.0
103.926208 176.0
103.965637 268.0
104.018631 128.0
104.054672 372.0
104.106171 112.0
104.14357 188.0
104.167252 180.0
104.224136 68.0
104.28714 52.0
104.335922 84.0
104.364388 88.0
104.3806 148.0
104.38755 144.0
104.395493 204.0
104.4254 244.0
104.486427 188.0
104.508163 172.0
104.529297 168.0
104.551857 152.0
104.584106 116.0
104.600388 128.0
104.636215 80.0
104.666191 144.0
104.701141 364.0
104.745941 176.0
104.773483 184.0
104.819351 172.0
104.861107 160.0
104.896225 264.0
104.926338 48.0
104.944687 136.0
104.972084 212.0
105.026192 208.0
105.069534 5656.0
105.105827 76.0
105.125198 492.0
105.185425 104.0
105.226257 96.0
105.254555 172.0
105.286613 132.0
105.312027 144.0
105.410622 184.0
105.436653 176.0
105.458382 76.0
105.48571 188.0
105.558617 268.0
105.606956 164.0
105.641716 276.0
105.671638 228.0
105.681221 148.0
105.686317 176.0
105.708649 108.0
105.722977 100.0
105.763245 136.0
105.778465 164.0
105.818863 204.0
105.867004 264.0
105.9132 176.0
105.933868 128.0
105.948997 188.0
105.975235 184.0
106.003021 208.0
106.033081 248.0
106.068558 1120.0
106.115723 224.0
106.154205 240.0
106.169136 164.0
106.172592 128.0
106.180717 224.0
106.222916 132.0
106.242317 128.0
106.263947 96.0
106.278305 252.0
106.320091 176.0
106.350296 152.0
106.374763 216.0
106.405998 168.0
106.432495 164.0
106.485649 160.0
106.502075 52.0
106.522621 176.0
106.543159 152.0
106.594528 48.0
106.620445 164.0
106.647964 100.0
106.678185 268.0
106.732254 72.0
106.754875 148.0
106.781609 100.0
106.80629 192.0
106.821404 136.0
106.845375 156.0
106.863831 184.0
106.885643 184.0
106.925507 132.0
106.931679 64.0
106.959045 136.0
106.98378 192.0
107.022789 328.0
107.048836 1492.0
107.084808 556.0
107.15551 164.0
107.183052 352.0
107.228905 96.0
107.25412 132.0
107.277855 228.0
107.29229 168.0
107.310844 448.0
107.33596 132.0
107.389999 188.0
107.411102 108.0
107.42981 276.0
107.46347 128.0
107.47998 172.0
107.533638 64.0
107.550148 116.0
107.564598 136.0
107.596085 144.0
107.626534 32.0
107.653381 96.0
107.693527 144.0
107.73114 164.0
107.747337 140.0
107.753151 200.0
107.781456 196.0
107.814522 44.0
107.847588 172.0
107.861679 132.0
107.877586 156.0
107.909607 128.0
107.944756 140.0
107.972794 180.0
107.979172 100.0
107.986633 144.0
108.015076 104.0
108.029556 96.0
108.051285 376.0
108.078049 156.0
108.136642 192.0
108.16407 152.0
108.186836 84.0
108.247917 160.0
108.292336 240.0
108.348747 200.0
108.369301 120.0
108.398102 156.0
108.413742 132.0
108.428047 356.0
108.445488 188.0
108.489304 112.0
108.555313 308.0
108.569641 300.0
108.597488 96.0
108.731995 88.0
108.791069 208.0
108.83268 204.0
108.848244 152.0
108.900169 120.0
108.935104 132.0
108.957779 196.0
109.000183 168.0
109.041016 152.0
109.064339 744.0
109.098572 200.0
109.118362 228.0
109.141235 100.0
109.15995 104.0
109.176796 200.0
109.214996 120.0
109.232742 104.0
109.255836 240.0
109.274353 164.0
109.297791 152.0
109.326767 128.0
109.343536 212.0
109.350555 84.0
109.358849 212.0
109.383522 140.0
109.42421 124.0
109.455437 128.0
109.490349 268.0
109.495743 204.0
109.534142 244.0
109.587708 136.0
109.628342 184.0
109.649666 160.0
109.684998 176.0
109.701294 116.0
109.720245 172.0
109.769081 148.0
109.784782 92.0
109.820152 160.0
109.855614 136.0
109.876472 144.0
109.932335 176.0
109.973427 208.0
110.01004 112.0
110.035095 160.0
110.05806 156.0
110.089378 228.0
110.116531 120.0
110.153732 212.0
110.175018 152.0
110.191734 140.0
110.223076 132.0
110.256516 36.0
110.277412 144.0
110.316139 288.0
110.348488 104.0
110.413315 108.0
110.430046 196.0
110.444687 136.0
110.468842 124.0
110.490707 52.0
110.523109 148.0
110.543022 168.0
110.56813 168.0
110.593246 128.0
110.648933 120.0
110.672081 220.0
110.688141 172.0
110.754478 176.0
110.78862 148.0
110.886482 236.0
110.905235 152.0
110.911629 144.0
110.939781 196.0
110.946571 84.0
110.957649 168.0
111.034599 204.0
111.064705 88.0
111.154755 128.0
111.202629 276.0
111.241119 312.0
111.255661 152.0
111.301857 176.0
111.33638 136.0
111.385864 140.0
111.401878 160.0
111.416962 164.0
111.442894 192.0
111.472 108.0
111.552963 224.0
111.604759 208.0
111.650696 132.0
111.674706 280.0
111.694862 180.0
111.718758 292.0
111.752289 148.0
111.778229 160.0
111.828651 172.0
111.880051 144.0
111.903809 84.0
111.930969 152.0
111.951309 176.0
112.046562 192.0
112.073822 104.0
112.116043 208.0
112.172874 156.0
112.196365 56.0
112.225395 184.0
112.253044 168.0
112.288528 188.0
112.327133 132.0
112.363777 168.0
112.393349 144.0
112.421761 112.0
112.461792 128.0
112.577881 176.0
112.608643 168.0
112.641449 152.0
112.674866 152.0
112.692772 232.0
112.763893 112.0
112.782913 96.0
112.831535 148.0
112.873825 236.0
112.900284 156.0
112.939384 92.0
112.96788 192.0
112.996506 196.0
113.017662 140.0
113.040802 180.0
113.04892 140.0
113.092384 264.0
113.120872 172.0
113.159477 228.0
113.228653 144.0
113.255196 180.0
113.272507 208.0
113.303497 176.0
113.330582 168.0
113.358589 236.0
113.388252 124.0
113.426353 152.0
113.46315 180.0
113.490013 248.0
113.517578 132.0
113.532417 132.0
113.572716 252.0
113.605911 216.0
113.652298 172.0
113.688362 136.0
113.735748 144.0
113.768234 148.0
113.790588 156.0
113.827393 184.0
113.852943 128.0
113.895119 140.0
113.970589 184.0
114.005844 164.0
114.031342 216.0
114.061569 128.0
114.075867 508.0
114.1185 120.0
114.135727 156.0
114.159416 132.0
114.209946 164.0
114.248795 224.0
114.355225 216.0
114.405724 156.0
114.429138 180.0
114.456818 148.0
114.487213 176.0
114.505798 108.0
114.531364 140.0
114.549416 244.0
114.577324 104.0
114.581367 220.0
114.607147 160.0
114.642151 168.0
114.674118 164.0
114.692459 152.0
114.729912 160.0
114.806305 192.0
114.898026 128.0
114.919891 208.0
114.946709 132.0
114.976814 324.0
115.017418 232.0
115.05323 1056.0
115.082481 264.0
115.102928 144.0
115.13636 116.0
115.14978 448.0
115.188362 40.0
115.223503 168.0
115.261902 180.0
115.303741 144.0
115.325111 220.0
115.366127 268.0
115.409767 160.0
115.432007 164.0
115.499107 204.0
115.521843 240.0
115.551788 144.0
115.592445 160.0
115.63311 148.0
115.665215 52.0
115.699463 172.0
115.720879 128.0
115.763702 84.0
115.778694 100.0
115.812958 132.0
115.864372 152.0
115.893402 124.0
115.977951 180.0
116.020821 124.0
116.059639 1096.0
116.085144 140.0
116.103279 172.0
116.120514 204.0
116.155922 152.0
116.176376 188.0
116.19883 128.0
116.220291 128.0
116.24604 252.0
116.273933 100.0
116.298378 72.0
116.316681 188.0
116.389862 192.0
116.407036 60.0
116.442802 104.0
116.488655 208.0
116.520882 248.0
116.546661 156.0
116.581047 64.0
116.626183 216.0
116.643379 148.0
116.694969 124.0
116.727226 164.0
116.744431 132.0
116.768089 176.0
116.785294 72.0
116.80175 172.0
116.826164 84.0
116.873497 44.0
116.903625 116.0
116.947327 196.0
116.976807 116.0
117.022789 232.0
117.027451 168.0
117.058159 1804.0
117.106003 168.0
117.121254 144.0
117.254539 212.0
117.282684 224.0
117.310707 72.0
117.325798 148.0
117.349907 196.0
117.401268 104.0
117.420555 140.0
117.444405 56.0
117.4897 120.0
117.517754 144.0
117.536713 188.0
117.578171 100.0
117.623497 180.0
117.649406 164.0
117.668831 124.0
117.696907 88.0
117.712021 156.0
117.738304 164.0
117.759529 132.0
117.799438 152.0
117.848099 116.0
117.866341 272.0
117.912933 132.0
117.973457 172.0
118.001846 60.0
118.042778 320.0
118.066055 1112.0
118.126015 168.0
118.154358 148.0
118.182907 128.0
118.207047 60.0
118.24881 124.0
118.275169 132.0
118.291458 204.0
118.30661 152.0
118.325615 144.0
118.343414 156.0
118.362656 240.0
118.430038 228.0
118.471199 148.0
118.4907 132.0
118.512367 152.0
118.586044 308.0
118.616936 144.0
118.644577 196.0
118.680099 228.0
118.74649 144.0
118.780777 188.0
118.808624 160.0
118.850624 148.0
118.873047 84.0
118.902702 148.0
118.925018 128.0
118.948769 144.0
118.971252 184.0
119.006126 180.0
119.048904 3896.0
119.075317 524.0
119.122551 224.0
119.15242 124.0
119.17292 88.0
119.204567 128.0
119.222572 168.0
119.274879 200.0
119.306969 192.0
119.356735 108.0
119.406204 80.0
119.4459 360.0
119.461128 156.0
119.496147 256.0
119.515526 268.0
119.565575 88.0
119.621017 152.0
119.643188 188.0
119.724503 52.0
119.748207 140.0
119.785484 188.0
119.812973 156.0
119.846489 104.0
119.878021 172.0
119.90097 68.0
119.916229 140.0
119.944565 172.0
119.969597 140.0
119.998535 168.0
120.054008 1172.0
120.08046 1600.0
120.124718 180.0
120.147369 124.0
120.164825 164.0
120.180099 232.0
120.229607 192.0
120.276123 164.0
120.306686 176.0
120.352531 340.0
120.374367 140.0
120.391838 228.0
120.420235 192.0
120.465508 244.0
120.487953 188.0
120.507614 204.0
120.527275 164.0
120.565445 224.0
120.58847 200.0
120.603767 172.0
120.652512 380.0
120.678101 160.0
120.704338 316.0
120.765572 164.0
120.810501 208.0
120.84433 176.0
120.866211 172.0
120.909973 108.0
120.967072 272.0
120.995346 196.0
121.064072 5564.0
121.088417 2384.0
121.149117 168.0
121.162941 76.0
121.212189 84.0
121.233551 184.0
121.250244 196.0
121.291084 196.0
121.308327 176.0
121.349945 184.0
121.379807 120.0
121.412117 156.0
121.429222 176.0
121.448845 180.0
121.49942 208.0
121.526993 148.0
121.571976 148.0
121.640999 132.0
121.672661 192.0
121.740868 188.0
121.780396 92.0
121.798828 204.0
121.821342 144.0
121.865807 208.0
121.911537 80.0
121.982552 88.0
122.002083 272.0
122.039627 228.0
122.068398 916.0
122.092201 304.0
122.108284 168.0
122.11808 132.0
122.126671 288.0
122.156281 244.0
122.181114 124.0
122.203201 188.0
122.233284 44.0
122.258293 164.0
122.279495 280.0
122.312515 176.0
122.363152 180.0
122.419083 160.0
122.444717 184.0
122.467064 64.0
122.491013 200.0
122.50679 212.0
122.515594 128.0
122.590744 160.0
122.612061 108.0
122.634102 200.0
122.675659 160.0
122.680969 216.0
122.702438 160.0
122.754562 176.0
122.841148 192.0
122.869385 284.0
122.89212 248.0
122.927429 108.0
123.013504 192.0
123.042587 672.0
123.079903 948.0
123.121094 132.0
123.159248 84.0
123.21122 180.0
123.24099 196.0
123.263718 200.0
123.300652 140.0
123.318336 184.0
123.350441 160.0
123.382919 128.0
123.405937 76.0
123.456589 532.0
123.497429 152.0
123.547615 128.0
123.577576 244.0
123.635384 136.0
123.658836 160.0
123.667221 152.0
123.685509 152.0
123.725166 140.0
123.743065 84.0
123.798424 164.0
123.824638 324.0
123.851578 128.0
123.880379 72.0
123.895882 204.0
123.935829 148.0
123.968773 152.0
123.975784 136.0
123.984573 160.0
124.01873 192.0
124.051102 100.0
124.082123 124.0
124.144287 176.0
124.197678 172.0
124.212891 272.0
124.239517 232.0
124.278572 152.0
124.299423 180.0
124.323044 196.0
124.350464 96.0
124.441483 32.0
124.465904 188.0
124.498657 132.0
124.520599 204.0
124.536972 36.0
124.543007 128.0
124.592506 224.0
124.611435 108.0
124.645828 188.0
124.681389 64.0
124.708061 168.0
124.730286 104.0
124.74585 104.0
124.779198 164.0
124.796265 124.0
124.840309 148.0
124.907089 188.0
124.928062 132.0
124.954895 152.0
125.004417 172.0
125.058128 164.0
125.087105 352.0
125.161896 160.0
125.186554 164.0
125.216454 128.0
125.252495 136.0
125.26503 152.0
125.326988 208.0
125.351242 140.0
125.380211 128.0
125.431816 208.0
125.43985 164.0
125.467613 152.0
125.538498 184.0
125.563026 148.0
125.645561 116.0
125.670792 180.0
125.702522 204.0
125.708534 144.0
125.737053 224.0
125.772446 168.0
125.777596 144.0
125.784477 192.0
125.805153 84.0
125.861107 112.0
125.884392 200.0
125.90226 192.0
125.92054 172.0
125.96209 168.0
125.980492 152.0
126.020653 128.0
126.05864 144.0
126.094398 208.0
126.181572 80.0
126.207047 224.0
126.241951 148.0
126.304573 36.0
126.340775 176.0
126.409729 144.0
126.447769 140.0
126.465675 136.0
126.494774 52.0
126.519981 140.0
126.564178 148.0
126.613525 120.0
126.646942 180.0
126.680641 168.0
126.696327 164.0
126.745621 84.0
126.763359 96.0
126.841141 124.0
126.866646 112.0
126.888702 124.0
126.8964 104.0
126.903229 152.0
126.92585 208.0
127.033691 148.0
127.063164 32.0
127.093414 148.0
127.149277 132.0
127.169403 128.0
127.223351 116.0
127.25927 120.0
127.297447 132.0
127.319954 164.0
127.359451 164.0
127.382042 128.0
127.425148 192.0
127.470978 144.0
127.490265 280.0
127.546829 48.0
127.564819 152.0
127.600555 192.0
127.648003 140.0
127.66375 92.0
127.686234 132.0
127.713715 128.0
127.718132 156.0
127.74247 196.0
127.779083 188.0
127.798714 148.0
127.848221 132.0
127.868477 168.0
127.887207 148.0
127.981033 188.0
128.019318 240.0
128.060547 904.0
128.106094 196.0
128.125183 64.0
128.155853 216.0
128.172501 124.0
128.211792 364.0
128.273865 164.0
128.303223 236.0
128.324829 144.0
128.355087 104.0
128.372177 176.0
128.40921 152.0
128.503952 136.0
128.519745 104.0
128.554535 164.0
128.568497 172.0
128.596466 92.0
128.621307 112.0
128.656113 188.0
128.682953 168.0
128.740967 180.0
128.832275 208.0
128.853912 144.0
128.876495 296.0
128.90361 156.0
128.936646 164.0
128.989502 176.0
129.009842 124.0
129.034714 108.0
129.067734 1100.0
129.093506 204.0
129.12291 136.0
129.154572 172.0
129.206604 64.0
129.240692 196.0
129.294846 76.0
129.350967 136.0
129.366562 164.0
129.374649 220.0
129.400284 320.0
129.416046 152.0
129.446701 164.0
129.485977 96.0
129.583267 164.0
129.610977 168.0
129.634552 168.0
129.667816 188.0
129.702545 144.0
129.753876 224.0
129.770401 172.0
129.778778 160.0
129.849518 208.0
129.886215 136.0
129.95433 156.0
129.98378 188.0
130.001923 196.0
130.037811 116.0
130.066589 1696.0
130.110214 144.0
130.134003 152.0
130.167648 124.0
130.210236 148.0
130.310745 100.0
130.345474 140.0
130.392548 168.0
130.410736 104.0
130.430008 108.0
130.44783 112.0
130.465286 120.0
130.492767 176.0
130.525848 152.0
130.549423 52.0
130.572159 168.0
130.613327 124.0
130.654968 140.0
130.679428 184.0
130.710938 152.0
130.729141 128.0
130.749619 128.0
130.775986 184.0
130.815292 212.0
130.847504 160.0
130.89447 192.0
130.927567 156.0
130.937332 80.0
130.946609 252.0
130.963348 156.0
130.993256 64.0
131.048782 6676.0
131.082962 2832.0
131.143646 44.0
131.173279 124.0
131.204697 184.0
131.221146 48.0
131.250793 40.0
131.292603 84.0
131.339737 148.0
131.362549 192.0
131.385361 240.0
131.457733 200.0
131.476639 112.0
131.492615 196.0
131.549026 184.0
131.583252 164.0
131.620453 44.0
131.645981 396.0
131.709686 164.0
131.780334 176.0
131.803192 164.0
131.822021 100.0
131.858032 40.0
131.877823 104.0
131.909409 144.0
131.99292 140.0
132.010773 208.0
132.054474 2228.0
132.080185 22656.0
132.112534 204.0
132.13443 76.0
132.172241 176.0
132.215576 60.0
132.238754 192.0
132.273514 184.0
132.302063 140.0
132.349808 128.0
132.35817 152.0
132.367126 180.0
132.382828 232.0
132.423035 212.0
132.453613 192.0
132.473816 204.0
132.507919 172.0
132.544586 116.0
132.585297 208.0
132.61058 80.0
132.613983 156.0
132.644409 136.0
132.676895 204.0
132.703018 160.0
132.731903 172.0
132.76236 132.0
132.787033 116.0
132.838348 216.0
132.894043 148.0
132.925232 116.0
132.989258 116.0
133.064392 6872.0
133.144806 136.0
133.16185 248.0
133.169693 92.0
133.176712 200.0
133.207642 100.0
133.238098 184.0
133.292648 132.0
133.314072 184.0
133.334015 44.0
133.373077 112.0
133.407089 96.0
133.413864 140.0
133.458145 144.0
133.48526 272.0
133.576187 136.0
133.619141 80.0
133.67749 128.0
133.704285 112.0
133.720398 40.0
133.833206 180.0
133.876953 172.0
133.903976 316.0
133.935684 176.0
133.961029 192.0
134.001343 44.0
134.017471 108.0
134.066467 1604.0
134.095245 912.0
134.126587 212.0
134.19725 184.0
134.220306 168.0
134.242218 160.0
134.27565 80.0
134.355316 180.0
134.371246 100.0
134.409454 184.0
134.430222 156.0
134.481003 180.0
134.50177 100.0
134.573349 180.0
134.59343 160.0
134.624817 124.0
134.718842 76.0
134.753021 268.0
134.824966 168.0
134.83905 172.0
134.855179 200.0
134.889847 196.0
134.939636 220.0
134.978989 180.0
135.003204 92.0
135.043777 2516.0
135.077606 1904.0
135.103287 364.0
135.112167 268.0
135.143158 260.0
135.161346 124.0
135.215378 168.0
135.245392 132.0
135.263 192.0
135.310898 60.0
135.347946 104.0
135.382675 144.0
135.398895 148.0
135.419739 156.0
135.440643 164.0
135.475327 112.0
135.524292 152.0
135.581223 188.0
135.625717 156.0
135.649338 88.0
135.708298 184.0
135.728928 172.0
135.757919 152.0
135.81926 196.0
135.851196 148.0
135.871765 80.0
135.896317 252.0
135.93306 164.0
135.95343 204.0
135.994751 184.0
136.050827 2192.0
136.075653 540.0
136.116272 292.0
136.171432 204.0
136.220398 92.0
136.240295 244.0
136.257156 180.0
136.279587 208.0
136.298981 176.0
136.354752 60.0
136.375671 100.0
136.424484 148.0
136.452393 156.0
136.48175 300.0
136.526245 168.0
136.554413 192.0
136.568893 208.0
136.613983 140.0
136.618881 68.0
136.627731 112.0
136.654739 208.0
136.689636 104.0
136.697708 192.0
136.762863 172.0
136.789719 132.0
136.817657 300.0
136.87587 148.0
136.906143 220.0
136.941071 128.0
136.964371 188.0
137.010956 124.0
137.057938 3460.0
137.096176 184.0
137.125137 168.0
137.164764 152.0
137.213715 136.0
137.251724 40.0
137.285263 164.0
137.315109 180.0
137.373505 412.0
137.412674 144.0
137.47496 160.0
137.514633 160.0
137.544983 212.0
137.575333 316.0
137.67894 184.0
137.741135 160.0
137.759827 76.0
137.79953 376.0
137.837341 176.0
137.860291 180.0
137.878983 140.0
137.89534 204.0
137.925735 176.0
137.955841 164.0
137.971985 184.0
138.039413 128.0
138.064789 160.0
138.129166 168.0
138.154907 128.0
138.18988 156.0
138.232117 164.0
138.269501 172.0
138.302704 148.0
138.338577 344.0
138.370209 104.0
138.424072 128.0
138.44046 100.0
138.470901 140.0
138.501358 124.0
138.536789 160.0
138.56929 152.0
138.625534 120.0
138.643097 316.0
138.670059 280.0
138.690887 172.0
138.759521 196.0
138.796646 216.0
138.913071 232.0
138.946182 144.0
138.97258 184.0
139.02655 152.0
139.059464 180.0
139.077454 156.0
139.082184 108.0
139.112488 140.0
139.167191 192.0
139.195572 196.0
139.219055 116.0
139.289505 184.0
139.374084 140.0
139.406982 164.0
139.444595 136.0
139.507523 52.0
139.529221 116.0
139.548019 92.0
139.572998 168.0
139.599762 244.0
139.630325 144.0
139.739182 116.0
139.768188 232.0
139.827957 120.0
139.868958 200.0
139.933884 96.0
139.970459 180.0
140.007599 92.0
140.046356 132.0
140.065598 160.0
140.08902 180.0
140.116043 164.0
140.175949 220.0
140.183456 168.0
140.191132 212.0
140.217834 84.0
140.258881 176.0
140.266739 168.0
140.288528 128.0
140.306824 124.0
140.336792 120.0
140.367447 92.0
140.392807 148.0
140.426407 312.0
140.473679 196.0
140.510361 284.0
140.543472 172.0
140.638763 104.0
140.682297 108.0
140.719803 204.0
140.744995 176.0
140.761368 124.0
140.780411 120.0
140.822922 164.0
140.872528 192.0
140.898514 228.0
140.935364 216.0
140.9814 164.0
141.015701 224.0
141.067108 540.0
141.094116 184.0
141.122925 148.0
141.155762 184.0
141.19931 180.0
141.272141 108.0
141.293335 104.0
141.315979 212.0
141.32309 196.0
141.360916 208.0
141.408417 76.0
141.443054 244.0
141.492142 308.0
141.528351 136.0
141.548965 168.0
141.593567 72.0
141.641342 164.0
141.662811 176.0
141.751007 208.0
141.792984 164.0
141.819641 176.0
141.856979 152.0
141.887802 132.0
141.911514 144.0
141.933319 180.0
141.951645 112.0
141.954666 140.0
141.983658 196.0
141.997787 136.0
142.038818 152.0
142.064407 312.0
142.108368 200.0
142.128265 160.0
142.159393 192.0
142.190201 140.0
142.231674 100.0
142.259537 132.0
142.300812 164.0
142.333862 52.0
142.35524 124.0
142.405106 140.0
142.440735 200.0
142.507309 180.0
142.542908 100.0
142.598465 148.0
142.661743 168.0
142.692291 108.0
142.802032 80.0
142.893402 88.0
142.913498 136.0
142.965073 144.0
143.048325 1192.0
143.083817 760.0
143.151886 176.0
143.175705 36.0
143.205933 156.0
143.244766 244.0
143.263229 256.0
143.340073 168.0
143.358917 168.0
143.378204 152.0
143.551529 108.0
143.592773 92.0
143.618683 176.0
143.677002 248.0
143.712051 52.0
143.733383 136.0
143.759781 132.0
143.783646 152.0
143.80249 116.0
143.843323 104.0
143.883896 96.0
143.903 108.0
143.922104 144.0
143.943588 196.0
143.987488 180.0
144.014267 256.0
144.056854 652.0
144.078995 2276.0
144.127518 108.0
144.170532 48.0
144.194443 152.0
144.220428 216.0
144.257996 256.0
144.330063 180.0
144.365433 220.0
144.382355 120.0
144.406876 160.0
144.438324 136.0
144.459244 204.0
144.522049 68.0
144.558167 176.0
144.598007 168.0
144.644485 252.0
144.679382 180.0
144.761536 184.0
144.783951 168.0
144.843796 184.0
144.871048 156.0
144.888382 264.0
144.912338 116.0
144.929581 180.0
144.972244 148.0
145.009857 104.0
145.018845 72.0
145.028488 136.0
145.062347 1996.0
145.095291 704.0
145.146042 192.0
145.194885 124.0
145.204254 108.0
145.209824 128.0
145.2285 172.0
145.292282 232.0
145.343933 140.0
145.398361 172.0
145.435135 112.0
145.454742 248.0
145.487518 116.0
145.505875 212.0
145.549194 148.0
145.567169 184.0
145.61058 224.0
145.636642 160.0
145.689667 104.0
145.747116 44.0
145.795395 64.0
145.825165 116.0
145.848648 100.0
145.953003 128.0
145.970291 164.0
146.017654 276.0
146.059479 1944.0
146.095886 2892.0
146.130493 132.0
146.1651 352.0
146.203827 116.0
146.235519 72.0
146.274612 116.0
146.329407 108.0
146.413681 132.0
146.490768 200.0
146.513763 180.0
146.542587 232.0
146.575089 160.0
146.619995 132.0
146.640152 132.0
146.691818 96.0
146.712479 136.0
146.735214 148.0
146.791 120.0
146.842453 120.0
146.858231 124.0
146.87709 92.0
146.892075 196.0
146.919876 128.0
146.950455 160.0
146.987442 116.0
147.008896 236.0
147.043564 1076.0
147.067886 7788.0
147.102676 1208.0
147.129166 136.0
147.159592 136.0
147.189911 68.0
147.220383 136.0
147.240921 184.0
147.281982 100.0
147.298889 124.0
147.33754 188.0
147.366531 140.0
147.389343 144.0
147.414856 304.0
147.46077 40.0
147.480118 80.0
147.507645 204.0
147.534927 136.0
147.696136 200.0
147.721924 132.0
147.743042 148.0
147.757004 64.0
147.787247 176.0
147.82373 356.0
147.932693 164.0
147.963928 228.0
148.005463 204.0
148.023911 104.0
148.05162 1232.0
148.074448 6592.0
148.110504 264.0
148.155075 196.0
148.194016 184.0
148.217636 156.0
148.262634 180.0
148.283676 192.0
148.310349 120.0
148.355881 56.0
148.414032 120.0
148.482498 56.0
148.513885 68.0
148.578873 160.0
148.61441 168.0
148.664444 100.0
148.682556 176.0
148.722687 124.0
148.738846 116.0
148.789337 372.0
148.815781 128.0
148.846512 112.0
148.86351 200.0
148.897812 308.0
148.931519 252.0
148.967941 188.0
148.984818 136.0
149.002625 176.0
149.027954 132.0
149.059647 28052.0
149.090408 1856.0
149.161469 88.0
149.182007 48.0
149.206161 204.0
149.253799 208.0
149.299606 152.0
149.321152 220.0
149.38765 80.0
149.427429 152.0
149.480957 72.0
149.520172 144.0
149.55397 104.0
149.585617 52.0
149.611282 140.0
149.647202 68.0
149.672211 120.0
149.697311 124.0
149.746323 136.0
149.770996 156.0
149.810104 256.0
149.843765 172.0
149.875443 132.0
149.894943 140.0
149.914429 176.0
149.987198 192.0
150.026291 296.0
150.065002 5040.0
150.104568 204.0
150.110245 224.0
150.130234 188.0
150.163101 48.0
150.185944 44.0
150.276306 128.0
150.294479 280.0
150.354248 140.0
150.418198 184.0
150.464233 80.0
150.502319 240.0
150.60817 104.0
150.664948 68.0
150.690384 68.0
150.719406 164.0
150.73848 188.0
150.761246 180.0
150.812576 172.0
150.837021 248.0
150.862671 160.0
150.903717 92.0
150.923965 128.0
150.947403 136.0
150.966217 148.0
151.009827 184.0
151.072235 1024.0
151.096344 420.0
151.120712 136.0
151.152527 160.0
151.181885 228.0
151.213699 208.0
151.2798 336.0
151.345901 52.0
151.369476 196.0
151.412628 180.0
151.436508 88.0
151.4561 200.0
151.487946 164.0
151.551453 104.0
151.593094 136.0
151.655853 108.0
151.679092 124.0
151.69989 140.0
151.737747 256.0
151.828659 40.0
151.845825 200.0
151.861511 180.0
151.900299 192.0
151.952515 140.0
151.9832 228.0
152.010193 104.0
152.029816 60.0
152.071106 176.0
152.100113 340.0
152.122543 340.0
152.146164 144.0
152.182022 88.0
152.211487 156.0
152.26059 300.0
152.29007 108.0
152.344116 108.0
152.38707 216.0
152.460266 248.0
152.508743 76.0
152.54071 176.0
152.572662 156.0
152.595642 196.0
152.625198 152.0
152.647736 120.0
152.678391 172.0
152.71283 120.0
152.74881 160.0
152.782852 112.0
152.806305 144.0
152.845673 112.0
152.868835 148.0
152.917038 136.0
152.972351 168.0
152.995819 120.0
153.020432 84.0
153.055801 144.0
153.060608 140.0
153.114014 152.0
153.165726 188.0
153.213669 172.0
153.273361 196.0
153.308945 160.0
153.328354 108.0
153.370255 200.0
153.414948 276.0
153.459 180.0
153.481186 216.0
153.530075 208.0
153.601273 204.0
153.655701 208.0
153.688385 192.0
153.725403 208.0
153.836472 152.0
153.879364 260.0
153.94017 128.0
153.996979 116.0
154.085907 68.0
154.146912 180.0
154.17868 176.0
154.231705 224.0
154.288086 204.0
154.323181 112.0
154.340485 204.0
154.391418 184.0
154.417145 92.0
154.44252 156.0
154.478989 324.0
154.505981 92.0
154.538361 112.0
154.561844 204.0
154.577026 280.0
154.665497 152.0
154.680664 112.0
154.710571 152.0
154.750671 160.0
154.853043 184.0
154.90477 216.0
155.025146 124.0
155.061081 224.0
155.084717 612.0
155.147629 168.0
155.204803 204.0
155.288971 216.0
155.35347 84.0
155.373322 152.0
155.435349 132.0
155.467606 140.0
155.503006 184.0
155.586746 168.0
155.62648 188.0
155.658752 172.0
155.690689 340.0
155.730774 132.0
155.765274 180.0
155.850021 228.0
155.919601 180.0
155.935608 144.0
155.954407 212.0
155.984222 68.0
156.014053 80.0
156.053024 172.0
156.078949 456.0
156.140869 132.0
156.170715 144.0
156.190613 64.0
156.227936 128.0
156.287643 184.0
156.359818 72.0
156.384705 224.0
156.404617 124.0
156.459381 140.0
156.479294 140.0
156.504196 140.0
156.524887 180.0
156.554855 152.0
156.569199 228.0
156.598358 188.0
156.650314 204.0
156.703461 136.0
156.755783 128.0
156.788177 180.0
156.808121 168.0
156.854401 184.0
156.890686 192.0
156.898239 212.0
156.947723 136.0
157.002579 124.0
157.035004 148.0
157.065353 960.0
157.088867 1068.0
157.124374 184.0
157.187195 172.0
157.214355 212.0
157.292007 88.0
157.309494 132.0
157.339447 116.0
157.381882 124.0
157.469299 116.0
157.486771 104.0
157.509018 168.0
157.579544 180.0
157.640396 320.0
157.666672 204.0
157.705566 184.0
157.756653 48.0
157.784805 200.0
157.83165 140.0
157.854599 116.0
157.899185 132.0
157.946701 116.0
157.99173 108.0
158.021378 136.0
158.069931 1112.0
158.096191 504.0
158.154388 72.0
158.18692 152.0
158.21521 160.0
158.247009 180.0
158.282074 216.0
158.309616 104.0
158.345993 144.0
158.370773 180.0
158.43512 264.0
158.509613 280.0
158.54567 140.0
158.582458 180.0
158.640701 200.0
158.682663 228.0
158.733124 64.0
158.84613 196.0
158.880264 120.0
158.921249 164.0
158.957428 192.0
159.001541 264.0
159.049149 628.0
159.070816 2192.0
159.103882 664.0
159.132843 184.0
159.185745 184.0
159.207413 36.0
159.229019 152.0
159.27272 80.0
159.305374 124.0
159.333008 228.0
159.397797 188.0
159.4048 148.0
159.415543 104.0
159.474487 80.0
159.53688 264.0
159.576797 112.0
159.604462 128.0
159.642181 56.0
159.677383 196.0
159.699326 160.0
159.770523 376.0
159.854889 160.0
159.899811 268.0
159.931824 160.0
159.957748 160.0
159.974609 152.0
160.01207 300.0
160.075821 44820.0
160.109192 948.0
160.173294 144.0
160.220764 168.0
160.241623 208.0
160.278687 220.0
160.310654 52.0
160.35524 88.0
160.378891 124.0
160.417892 136.0
160.442322 164.0
160.482712 20.0
160.532806 144.0
160.572327 60.0
160.610901 108.0
160.648834 48.0
160.677429 200.0
160.720703 216.0
160.757812 84.0
160.792999 80.0
160.833893 68.0
160.85408 136.0
160.879333 104.0
160.899323 148.0
160.912781 128.0
160.967499 360.0
160.989334 120.0
161.000351 176.0
161.004639 108.0
161.019791 344.0
161.059723 5080.0
161.079971 5596.0
161.15184 120.0
161.219696 340.0
161.272369 168.0
161.301193 68.0
161.338531 188.0
161.391617 204.0
161.438171 208.0
161.454788 296.0
161.473251 88.0
161.513611 128.0
161.568054 116.0
161.602158 104.0
161.642639 264.0
161.65979 144.0
161.684387 188.0
161.743866 148.0
161.792313 116.0
161.820755 88.0
161.867157 200.0
161.924286 220.0
161.94603 200.0
161.999634 160.0
162.061447 1400.0
162.091049 2800.0
162.124985 556.0
162.152573 108.0
162.182175 164.0
162.203598 220.0
162.22583 184.0
162.281921 136.0
162.317719 128.0
162.346161 228.0
162.35257 296.0
162.379456 116.0
162.410568 156.0
162.500275 160.0
162.531937 84.0
162.562515 164.0
162.582809 168.0
162.634018 436.0
162.658524 140.0
162.745285 164.0
162.796356 176.0
162.835678 188.0
162.862091 160.0
162.902924 256.0
163.001495 212.0
163.074539 16372.0
163.169189 76.0
163.183899 244.0
163.196426 72.0
163.200485 212.0
163.234482 376.0
163.301392 96.0
163.345062 128.0
163.424271 144.0
163.434464 56.0
163.443527 188.0
163.469727 52.0
163.515533 200.0
163.579178 228.0
163.609726 120.0
163.649124 372.0
163.681015 208.0
163.703934 68.0
163.721756 152.0
163.747223 64.0
163.801041 156.0
163.823685 160.0
163.859314 36.0
163.923584 184.0
163.947708 116.0
163.997726 172.0
164.019073 184.0
164.036774 44.0
164.073486 1884.0
164.114105 168.0
164.233353 204.0
164.249878 136.0
164.296448 164.0
164.303467 76.0
164.312057 180.0
164.331879 104.0
164.372879 152.0
164.407547 140.0
164.457245 136.0
164.505005 216.0
164.52359 456.0
164.559235 152.0
164.578171 176.0
164.586853 148.0
164.639862 32.0
164.660294 168.0
164.701157 68.0
164.748474 240.0
164.78035 40.0
164.805115 96.0
164.836594 268.0
164.864685 268.0
164.88768 128.0
164.908127 68.0
164.938797 168.0
164.981171 132.0
165.001633 180.0
165.024796 156.0
165.085648 236.0
165.118042 156.0
165.137756 128.0
165.156662 228.0
165.252319 336.0
165.284103 232.0
165.317642 128.0
165.350601 64.0
165.368515 184.0
165.449738 176.0
165.501633 84.0
165.566711 164.0
165.59639 180.0
165.623245 224.0
165.683426 164.0
165.691422 160.0
165.75267 292.0
165.798798 84.0
165.92308 156.0
165.960754 100.0
165.988495 164.0
166.056931 332.0
166.084885 440.0
166.120163 148.0
166.142395 88.0
166.198227 188.0
166.236694 148.0
166.253387 152.0
166.293488 176.0
166.298264 156.0
166.410751 140.0
166.434982 184.0
166.497513 160.0
166.529999 152.0
166.558258 152.0
166.581375 44.0
166.619171 140.0
166.663589 92.0
166.696991 176.0
166.745819 224.0
166.779236 76.0
166.884644 92.0
166.945267 180.0
167.00293 164.0
167.072159 264.0
167.13623 348.0
167.163727 164.0
167.183609 180.0
167.226791 64.0
167.260239 220.0
167.291138 148.0
167.31546 160.0
167.36734 200.0
167.386902 144.0
167.473969 124.0
167.564133 108.0
167.614395 84.0
167.638626 92.0
167.66153 184.0
167.71875 216.0
167.739365 172.0
167.793503 132.0
167.814133 44.0
167.836609 140.0
167.853699 152.0
167.939468 180.0
167.959 152.0
168.010147 116.0
168.05986 612.0
168.144333 212.0
168.177872 148.0
168.233093 256.0
168.322449 140.0
168.348282 148.0
168.368942 80.0
168.404373 208.0
168.464508 132.0
168.48259 40.0
168.598877 96.0
168.629883 184.0
168.68013 228.0
168.702438 176.0
168.747147 200.0
168.787582 164.0
168.819016 180.0
168.85643 200.0
168.945358 116.0
169.033325 152.0
169.068649 692.0
169.152374 180.0
169.175674 152.0
169.193802 84.0
169.214294 192.0
169.242996 64.0
169.263702 136.0
169.306122 228.0
169.408752 104.0
169.48114 68.0
169.626434 156.0
169.673096 168.0
169.693832 192.0
169.809082 180.0
169.843414 88.0
169.890945 152.0
169.911697 152.0
169.960999 92.0
170.020676 104.0
170.050461 212.0
170.070389 180.0
170.095276 320.0
170.138809 164.0
170.197205 176.0
170.225769 172.0
170.254044 144.0
170.270172 196.0
170.314713 144.0
170.334854 180.0
170.423172 248.0
170.469955 72.0
170.523468 196.0
170.569 232.0
170.629166 112.0
170.701309 216.0
170.727325 160.0
170.745529 32.0
170.78714 152.0
170.845459 324.0
170.865173 64.0
170.883392 184.0
170.909302 96.0
170.919586 92.0
170.961456 244.0
170.990082 216.0
171.080902 1660.0
171.151489 140.0
171.169708 64.0
171.277939 88.0
171.299942 184.0
171.391129 136.0
171.467224 180.0
171.512558 188.0
171.537079 252.0
171.561798 332.0
171.648636 172.0
171.709167 176.0
171.816116 176.0
171.850037 132.0
171.923096 176.0
171.94397 196.0
171.975296 188.0
172.011841 156.0
172.074799 2048.0
172.11026 1152.0
172.168503 156.0
172.199844 84.0
172.244247 148.0
172.29126 180.0
172.32785 320.0
172.363602 164.0
172.419296 240.0
172.455566 160.0
172.500336 120.0
172.611664 172.0
172.657211 36.0
172.708221 256.0
172.733063 160.0
172.762115 192.0
172.819397 160.0
172.876968 92.0
172.904297 236.0
172.960724 124.0
172.981659 184.0
173.015045 128.0
173.060913 1628.0
173.085037 3880.0
173.152512 176.0
173.192215 88.0
173.272354 108.0
173.299866 136.0
173.341644 72.0
173.382416 120.0
173.406006 232.0
173.437454 68.0
173.461044 116.0
173.48201 108.0
173.502991 188.0
173.547562 200.0
173.586899 40.0
173.63501 92.0
173.676987 112.0
173.765259 220.0
173.783844 92.0
173.807236 168.0
173.833405 140.0
173.896469 140.0
173.938461 40.0
173.969025 168.0
174.017227 312.0
174.053802 896.0
174.090897 5456.0
174.164276 200.0
174.185486 116.0
174.208939 60.0
174.233414 164.0
174.250381 228.0
174.279877 56.0
174.360214 440.0
174.450714 104.0
174.597961 132.0
174.619675 232.0
174.653625 144.0
174.680832 260.0
174.752213 348.0
174.784912 60.0
174.839996 84.0
174.87439 172.0
174.903488 168.0
174.980331 228.0
175.01004 100.0
175.033417 484.0
175.062439 2768.0
175.097794 3216.0
175.141098 144.0
175.179657 140.0
175.205078 136.0
175.246674 192.0
175.315826 120.0
175.338531 176.0
175.358322 224.0
175.385818 84.0
175.471588 156.0
175.496643 116.0
175.610947 360.0
175.662079 196.0
175.687134 184.0
175.712204 132.0
175.75177 140.0
175.772888 64.0
175.844131 28.0
175.875809 160.0
175.915405 112.0
175.949722 108.0
176.003769 60.0
176.029846 604.0
176.070633 3612.0
176.102203 680.0
176.130615 104.0
176.151672 256.0
176.216476 72.0
176.248184 80.0
176.289612 152.0
176.343323 176.0
176.380325 192.0
176.400894 68.0
176.427917 172.0
176.451706 176.0
176.47374 180.0
176.50264 180.0
176.542023 236.0
176.570694 72.0
176.591858 172.0
176.618317 112.0
176.64476 144.0
176.662598 92.0
176.670898 68.0
176.677963 152.0
176.703033 160.0
176.731384 184.0
176.769119 168.0
176.835938 208.0
176.891785 196.0
176.924896 164.0
176.94693 192.0
177.000854 132.0
177.020752 212.0
177.041351 152.0
177.050629 184.0
177.090729 58852.0
177.138428 164.0
177.170853 180.0
177.219269 104.0
177.247284 92.0
177.280167 172.0
177.310059 108.0
177.320572 148.0
177.353561 152.0
177.380234 152.0
177.40213 36.0
177.433945 128.0
177.462616 136.0
177.50177 180.0
177.523453 132.0
177.543304 116.0
177.551849 52.0
177.560242 140.0
177.585098 112.0
177.668488 184.0
177.691208 176.0
177.708755 132.0
177.736954 116.0
177.763809 64.0
177.784088 136.0
177.808197 48.0
177.838547 108.0
177.849487 56.0
177.860687 88.0
177.879105 140.0
177.916794 180.0
177.971069 136.0
178.049637 1968.0
178.092407 6044.0
178.129242 180.0
178.147995 136.0
178.222229 60.0
178.251846 56.0
178.325455 100.0
178.378922 172.0
178.421066 212.0
178.456131 144.0
178.477417 196.0
178.511047 136.0
178.564041 132.0
178.598526 140.0
178.622635 204.0
178.654953 368.0
178.697449 44.0
178.727448 124.0
178.765884 72.0
178.807281 60.0
178.906494 176.0
178.946609 164.0
178.998962 52.0
179.030853 132.0
179.055542 112.0
179.095337 796.0
179.142776 216.0
179.204056 80.0
179.252014 128.0
179.277222 228.0
179.318207 148.0
179.350632 140.0
179.390381 92.0
179.414612 48.0
179.436935 64.0
179.486603 188.0
179.529266 132.0
179.558136 92.0
179.586426 212.0
179.640747 296.0
179.718948 180.0
179.790985 116.0
179.862534 136.0
179.897476 404.0
179.921341 204.0
179.925781 192.0
179.960236 124.0
179.990921 132.0
180.030899 140.0
180.057678 40.0
180.076385 164.0
180.097748 176.0
180.12088 364.0
180.151794 120.0
180.186493 204.0
180.235779 48.0
180.274078 180.0
180.316849 124.0
180.375641 168.0
180.40773 116.0
180.438019 216.0
180.457016 128.0
180.487015 116.0
180.530716 236.0
180.559036 176.0
180.586884 60.0
180.608276 132.0
180.664795 128.0
180.690872 156.0
180.763214 132.0
180.816895 188.0
180.879639 176.0
180.912308 208.0
180.934937 180.0
180.969559 340.0
181.017761 296.0
181.054459 176.0
181.111496 84.0
181.224014 184.0
181.261536 172.0
181.328293 136.0
181.387497 172.0
181.441116 80.0
181.534424 184.0
181.585922 176.0
181.62883 92.0
181.657761 168.0
181.664673 132.0
181.689911 204.0
181.71199 56.0
181.754929 160.0
181.78981 120.0
181.824692 148.0
181.844574 188.0
181.91864 176.0
181.985764 132.0
182.031418 56.0
182.05368 204.0
182.073288 148.0
182.092712 232.0
182.140213 104.0
182.163025 192.0
182.28392 224.0
182.321548 136.0
182.375305 84.0
182.407425 168.0
182.490891 68.0
182.536606 88.0
182.590393 184.0
182.610657 124.0
182.652252 76.0
182.700302 172.0
182.705627 148.0
182.717407 148.0
182.760895 292.0
182.81369 48.0
182.848679 148.0
182.922852 136.0
183.012878 140.0
183.083374 480.0
183.163696 196.0
183.199738 156.0
183.219238 180.0
183.286026 224.0
183.316925 92.0
183.33194 144.0
183.367432 164.0
183.423828 172.0
183.476303 152.0
183.497864 320.0
183.536072 104.0
183.574051 96.0
183.652954 140.0
183.686951 108.0
183.719025 200.0
183.783768 88.0
183.853928 172.0
183.899811 144.0
183.932816 192.0
183.983505 160.0
184.007797 80.0
184.026703 212.0
184.061478 100.0
184.076248 316.0
184.161728 96.0
184.245468 88.0
184.267075 152.0
184.294098 128.0
184.357086 208.0
184.408493 168.0
184.43985 172.0
184.475174 264.0
184.510315 156.0
184.5522 104.0
184.622467 144.0
184.680679 180.0
184.716873 148.0
184.751022 236.0
184.772659 96.0
184.828125 184.0
184.894424 164.0
184.913376 196.0
184.940186 176.0
185.013519 128.0
185.040833 140.0
185.083328 628.0
185.115189 168.0
185.201477 180.0
185.227463 236.0
185.257263 164.0
185.295197 124.0
185.41713 152.0
185.462524 256.0
185.490311 64.0
185.541824 132.0
185.568924 148.0
185.655853 72.0
185.709946 68.0
185.772339 196.0
185.806076 128.0
185.834732 184.0
185.897949 148.0
185.93576 176.0
185.970428 292.0
186.017059 176.0
186.063263 568.0
186.091125 588.0
186.146896 84.0
186.289932 88.0
186.372345 28.0
186.444519 188.0
186.464752 232.0
186.516388 148.0
186.547897 176.0
186.558319 104.0
186.569473 220.0
186.616974 112.0
186.701279 116.0
186.735504 136.0
186.763824 136.0
186.845444 236.0
186.907303 152.0
186.948837 160.0
186.987793 152.0
187.01416 196.0
187.045471 232.0
187.07666 492.0
187.09877 1060.0
187.139389 192.0
187.171219 144.0
187.180557 100.0
187.189377 156.0
187.218353 72.0
187.24559 120.0
187.289871 184.0
187.346375 112.0
187.378494 260.0
187.467056 164.0
187.516403 60.0
187.575287 52.0
187.599808 132.0
187.637985 88.0
187.672806 140.0
187.69252 172.0
187.714325 452.0
187.770874 164.0
187.815247 160.0
187.881897 276.0
187.917542 268.0
188.040802 144.0
188.071167 2000.0
188.105057 2744.0
188.187469 212.0
188.216415 212.0
188.238998 60.0
188.28743 164.0
188.343307 260.0
188.393951 180.0
188.447906 84.0
188.495041 112.0
188.53331 124.0
188.583145 168.0
188.642639 84.0
188.669968 44.0
188.691849 128.0
188.727386 168.0
188.751709 148.0
188.790283 104.0
188.815918 428.0
188.869843 136.0
188.899689 184.0
188.924316 112.0
189.089996 9572.0
189.181549 116.0
189.206192 64.0
189.233566 44.0
189.297638 220.0
189.33963 208.0
189.360733 64.0
189.380676 112.0
189.427368 204.0
189.449936 44.0
189.469116 148.0
189.63353 168.0
189.653259 300.0
189.678162 88.0
189.756882 76.0
189.790421 228.0
189.818344 96.0
189.879303 100.0
189.908325 160.0
189.951218 172.0
189.962494 148.0
190.020187 204.0
190.049713 2232.0
190.095749 13776.0
190.121368 4984.0
190.18689 48.0
190.211075 72.0
190.263458 160.0
190.297394 60.0
190.324081 132.0
190.367249 156.0
190.412735 32.0
190.442551 196.0
190.4814 156.0
190.507294 188.0
190.530411 76.0
190.606476 88.0
190.665482 216.0
190.700302 156.0
190.725433 128.0
190.764984 40.0
190.808426 188.0
190.856079 256.0
190.873215 136.0
190.904663 80.0
190.9263 148.0
190.977722 212.0
191.056641 576.0
191.105713 21000.0
191.195297 36.0
191.218292 156.0
191.250031 68.0
191.255157 112.0
191.289856 76.0
191.312836 104.0
191.322281 36.0
191.356415 288.0
191.392273 208.0
191.419083 136.0
191.477722 88.0
191.511383 168.0
191.551392 136.0
191.57901 48.0
191.617493 240.0
191.643127 68.0
191.690598 172.0
191.725052 144.0
191.751358 148.0
191.805817 184.0
191.835297 28.0
191.933334 144.0
191.960922 228.0
192.003006 224.0
192.039474 184.0
192.067062 700.0
192.107819 2616.0
192.160736 108.0
192.233139 176.0
192.309433 344.0
192.339096 108.0
192.370483 220.0
192.401703 104.0
192.434448 144.0
192.512497 128.0
192.533386 52.0
192.576477 280.0
192.60965 164.0
192.654922 100.0
192.697754 324.0
192.743851 208.0
192.774307 172.0
192.839172 136.0
192.878754 168.0
192.918106 168.0
192.945099 92.0
192.994873 104.0
193.06012 184.0
193.10556 320.0
193.132385 116.0
193.166336 192.0
193.218903 112.0
193.254807 168.0
193.305206 336.0
193.396011 144.0
193.438843 280.0
193.459671 164.0
193.503983 140.0
193.545502 200.0
193.639664 52.0
193.683334 120.0
193.704544 124.0
193.74118 120.0
193.83847 100.0
193.871384 144.0
193.949249 180.0
194.029648 76.0
194.047989 296.0
194.080292 64.0
194.185669 184.0
194.220444 164.0
194.249817 128.0
194.365997 72.0
194.418716 80.0
194.449249 152.0
194.480148 152.0
194.507538 112.0
194.560287 140.0
194.607483 192.0
194.672668 152.0
194.775406 180.0
194.863144 160.0
194.942139 200.0
194.973816 160.0
195.034378 112.0
195.051987 168.0
195.076996 168.0
195.100632 144.0
195.1483 112.0
195.188217 268.0
195.213242 60.0
195.246613 132.0
195.290833 116.0
195.351959 160.0
195.435776 212.0
195.494217 200.0
195.516388 128.0
195.649521 180.0
195.694626 468.0
195.75032 356.0
195.85051 144.0
195.858459 140.0
195.911865 92.0
196.040039 192.0
196.090286 128.0
196.114624 200.0
196.150879 120.0
196.201126 156.0
196.240738 76.0
196.266464 176.0
196.319351 144.0
196.346695 176.0
196.38443 228.0
196.422012 128.0
196.502914 68.0
196.586624 124.0
196.614532 124.0
196.65918 68.0
196.754105 120.0
196.784805 200.0
196.888123 156.0
196.945206 156.0
197.022202 172.0
197.058533 140.0
197.122787 136.0
197.275223 208.0
197.312866 152.0
197.455475 148.0
197.479706 60.0
197.586945 168.0
197.623322 172.0
197.656891 192.0
197.732452 136.0
197.756744 160.0
197.802429 44.0
197.840591 108.0
197.889145 160.0
197.945221 148.0
197.970413 144.0
198.008652 228.0
198.051636 232.0
198.090027 348.0
198.202927 88.0
198.287003 128.0
198.326691 220.0
198.4048 152.0
198.427155 104.0
198.446777 160.0
198.502869 120.0
198.522491 184.0
198.608154 140.0
198.639191 184.0
198.665543 100.0
198.685181 84.0
198.752518 204.0
198.813339 148.0
198.909683 172.0
198.929337 192.0
198.954208 232.0
198.991821 140.0
199.016922 176.0
199.047623 60.0
199.099411 284.0
199.176239 188.0
199.201019 224.0
199.238251 192.0
199.256226 152.0
199.40123 144.0
199.429337 212.0
199.482742 132.0
199.516479 152.0
199.547852 152.0
199.58223 208.0
199.614883 168.0
199.735825 140.0
199.817795 148.0
199.845459 128.0
199.898453 164.0
199.924332 200.0
199.993011 120.0
200.039734 84.0
200.059433 132.0
200.106552 2192.0
200.153793 140.0
200.208466 56.0
200.268799 68.0
200.312881 152.0
200.394592 92.0
200.419281 152.0
200.434952 172.0
200.487579 100.0
200.518585 164.0
200.552399 140.0
200.596237 196.0
200.625687 136.0
200.651398 276.0
200.694397 152.0
200.730011 128.0
200.842834 188.0
200.948654 256.0
201.088821 2124.0
201.112167 772.0
201.209183 180.0
201.252029 200.0
201.321259 156.0
201.380234 172.0
201.404541 124.0
201.438431 228.0
201.565567 68.0
201.658829 120.0
201.689926 100.0
201.774734 256.0
201.866638 160.0
201.918289 68.0
202.0495 692.0
202.085953 23748.0
202.162247 28.0
202.204803 72.0
202.235062 128.0
202.261307 32.0
202.312271 252.0
202.332748 180.0
202.372803 168.0
202.413864 104.0
202.430939 176.0
202.444946 84.0
202.452393 164.0
202.47493 60.0
202.529541 308.0
202.578552 144.0
202.609467 136.0
202.641342 104.0
202.664169 128.0
202.677628 224.0
202.711639 88.0
202.739975 108.0
202.773178 128.0
202.817917 176.0
202.85051 136.0
202.87886 96.0
202.909927 140.0
202.932724 124.0
202.952576 164.0
202.980865 188.0
203.015137 128.0
203.047119 396.0
203.093903 45372.0
203.158112 136.0
203.176147 116.0
203.211792 196.0
203.235703 108.0
203.292068 184.0
203.331741 164.0
203.365097 312.0
203.406509 252.0
203.433716 144.0
203.483627 244.0
203.515396 68.0
203.532608 48.0
203.562271 212.0
203.624146 148.0
203.640717 140.0
203.648392 172.0
203.70752 140.0
203.746948 136.0
203.77153 120.0
203.807526 196.0
203.838211 44.0
203.877487 68.0
203.925385 116.0
203.948425 132.0
203.983154 88.0
204.028473 3840.0
204.096664 5428.0
204.156601 28.0
204.199265 72.0
204.234161 192.0
204.257263 304.0
204.290283 144.0
204.310196 108.0
204.435394 68.0
204.493942 188.0
204.520782 232.0
204.583405 160.0
204.62326 112.0
204.645218 80.0
204.700134 36.0
204.73439 152.0
204.790253 164.0
204.84108 216.0
204.868179 192.0
204.898544 152.0
204.949463 120.0
204.980301 80.0
205.032974 456.0
205.108475 9364.0
205.158325 136.0
205.193085 92.0
205.215881 128.0
205.251251 60.0
205.27095 168.0
205.335663 60.0
205.361115 192.0
205.394135 96.0
205.427307 212.0
205.462677 136.0
205.4897 180.0
205.515991 132.0
205.545624 140.0
205.603836 172.0
205.651108 92.0
205.678909 80.0
205.689011 76.0
205.699081 120.0
205.748688 176.0
205.781601 132.0
205.826508 160.0
205.87648 100.0
205.90361 48.0
205.927109 176.0
205.967499 152.0
206.044312 344.0
206.072464 212.0
206.115997 2360.0
206.177887 140.0
206.200745 144.0
206.22818 60.0
206.263626 108.0
206.304962 108.0
206.375122 172.0
206.429489 376.0
206.472351 140.0
206.517349 180.0
206.553085 196.0
206.603836 240.0
206.755585 88.0
206.798508 144.0
206.821411 176.0
206.847168 104.0
206.936707 160.0
206.997574 68.0
207.048157 104.0
207.08197 156.0
207.111771 192.0
207.161377 100.0
207.235947 96.0
207.31601 192.0
207.345551 80.0
207.419037 176.0
207.465942 60.0
207.51181 268.0
207.574905 160.0
207.647736 60.0
207.732651 180.0
207.809692 164.0
207.847595 180.0
207.881851 104.0
207.919159 164.0
208.001007 192.0
208.058731 156.0
208.088516 108.0
208.115692 120.0
208.149292 312.0
208.179474 124.0
208.243011 140.0
208.338379 60.0
208.436066 128.0
208.502167 288.0
208.525146 80.0
208.565399 136.0
208.58551 56.0
208.660263 40.0
208.765793 104.0
208.850052 100.0
208.916214 92.0
208.991028 84.0
209.035065 144.0
209.066757 180.0
209.132706 188.0
209.157944 248.0
209.206879 36.0
209.239441 168.0
209.278854 172.0
209.434372 80.0
209.468933 156.0
209.532318 204.0
209.694901 124.0
209.860886 296.0
209.900848 116.0
209.964691 108.0
210.075195 3008.0
210.19548 88.0
210.296494 88.0
210.328247 260.0
210.400406 152.0
210.466202 132.0
210.541901 128.0
210.630768 172.0
210.667648 164.0
210.718109 88.0
210.764328 148.0
210.79744 152.0
210.842361 48.0
210.90358 200.0
210.950729 212.0
210.989777 180.0
211.023361 104.0
211.077637 760.0
211.125687 120.0
211.169067 92.0
211.209564 96.0
211.235596 172.0
211.280731 132.0
211.309753 164.0
211.379837 140.0
211.458237 144.0
211.551025 168.0
211.614716 96.0
211.729141 140.0
211.785568 152.0
211.831924 120.0
211.900848 196.0
211.933319 284.0
211.990036 168.0
212.024704 164.0
212.077286 376.0
212.326813 108.0
212.380478 112.0
212.412155 172.0
212.513214 224.0
212.672348 120.0
212.704758 128.0
212.745407 100.0
212.870255 136.0
212.893494 56.0
212.921967 104.0
212.966095 160.0
212.989334 188.0
213.0271 140.0
213.053452 56.0
213.097214 148.0
213.149124 104.0
213.215958 180.0
213.267273 120.0
213.394577 168.0
213.436569 140.0
213.483429 56.0
213.534103 140.0
213.567764 168.0
213.620132 96.0
213.65213 136.0
213.692719 244.0
213.733597 144.0
213.788879 312.0
213.812164 84.0
213.834625 184.0
213.867462 136.0
213.893661 56.0
213.919861 208.0
213.948975 152.0
214.013031 108.0
214.036316 144.0
214.067932 168.0
214.193588 236.0
214.221832 144.0
214.238892 144.0
214.296844 208.0
214.331879 120.0
214.343628 56.0
214.355637 148.0
214.38588 116.0
214.421753 144.0
214.441254 284.0
214.502472 100.0
214.546204 196.0
214.584106 192.0
214.633667 104.0
214.700745 116.0
214.75708 216.0
214.780823 168.0
214.848709 180.0
214.883224 168.0
214.939957 188.0
214.973999 120.0
215.043777 332.0
215.094635 112.0
215.129669 164.0
215.161774 128.0
215.211411 272.0
215.234772 124.0
215.267944 260.0
215.294159 180.0
215.342819 148.0
215.366196 236.0
215.424606 52.0
215.453827 80.0
215.549683 144.0
215.559723 116.0
215.586288 84.0
215.623978 140.0
215.643768 168.0
215.689285 84.0
215.731461 152.0
215.757767 88.0
215.80748 88.0
215.830872 144.0
215.878967 196.0
215.962921 104.0
216.026352 304.0
216.101746 22460.0
216.176041 76.0
216.245377 124.0
216.273895 128.0
216.283203 52.0
216.334351 136.0
216.375076 60.0
216.40564 200.0
216.415268 88.0
216.423386 176.0
216.458755 104.0
216.480667 136.0
216.504623 328.0
216.538086 120.0
216.584 352.0
216.596039 212.0
216.605026 108.0
216.653305 168.0
216.690887 184.0
216.720062 84.0
216.766464 228.0
216.805664 48.0
216.866653 172.0
216.923782 148.0
216.970169 204.0
216.994507 256.0
217.044952 236.0
217.107269 4492.0
217.149658 208.0
217.189072 268.0
217.218109 36.0
217.227005 120.0
217.261749 96.0
217.28656 172.0
217.299362 100.0
217.327469 144.0
217.333054 288.0
217.346359 160.0
217.402344 112.0
217.458923 256.0
217.506149 88.0
217.538956 76.0
217.548218 180.0
217.558182 188.0
217.58197 288.0
217.61319 160.0
217.629669 192.0
217.654083 140.0
217.685516 384.0
217.712906 160.0
217.764603 140.0
217.799011 328.0
217.806778 152.0
217.818329 112.0
217.845734 404.0
217.880386 108.0
217.908844 440.0
217.954529 296.0
217.973923 416.0
218.011566 360.0
218.045212 844.0
218.118637 364828.0
218.193436 192.0
218.22937 156.0
218.317017 272.0
218.346924 232.0
218.353683 416.0
218.39267 796.0
218.436707 272.0
218.460587 308.0
218.487747 156.0
218.517197 132.0
218.567093 540.0
218.603012 5680.0
218.634689 292.0
218.655823 228.0
218.708069 144.0
218.733902 76.0
218.756516 108.0
218.781372 148.0
218.805573 196.0
218.817322 140.0
218.836777 204.0
218.863922 308.0
218.871628 160.0
218.885391 132.0
218.892593 248.0
218.921494 208.0
218.928894 116.0
218.948547 88.0
218.99437 228.0
219.022186 188.0
219.076752 1280.0
219.121292 86508.0
219.218597 224.0
219.253967 128.0
219.294373 140.0
219.320221 124.0
219.345535 156.0
219.37883 132.0
219.41449 204.0
219.444946 104.0
219.48674 224.0
219.506729 84.0
219.536316 120.0
219.566132 76.0
219.576599 60.0
219.608215 292.0
219.665924 148.0
219.699844 108.0
219.747803 164.0
219.786911 116.0
219.806213 204.0
219.83197 104.0
219.866028 100.0
219.888733 108.0
219.9095 120.0
219.931808 72.0
219.950546 124.0
219.980835 88.0
220.004135 72.0
220.073471 216.0
220.122604 4652.0
220.163467 180.0
220.240311 76.0
220.272491 196.0
220.314407 208.0
220.364624 196.0
220.389786 144.0
220.417435 184.0
220.446579 204.0
220.487015 208.0
220.513718 332.0
220.539154 264.0
220.565338 220.0
220.61702 156.0
220.655838 196.0
220.720947 152.0
220.76503 332.0
220.769577 468.0
220.827515 144.0
220.841949 192.0
220.850754 112.0
220.867096 308.0
220.904312 316.0
220.941513 188.0
220.981232 96.0
221.003586 84.0
221.03154 60.0
221.064087 72.0
221.098007 268.0
221.126633 696.0
221.151398 48.0
221.16069 100.0
221.194672 68.0
221.216873 148.0
221.244644 60.0
221.274246 60.0
221.311371 60.0
221.351227 32.0
221.397568 156.0
221.439896 68.0
221.450577 88.0
221.486771 152.0
221.525192 136.0
221.564331 220.0
221.62439 208.0
221.653488 56.0
221.676285 104.0
221.710876 116.0
221.751083 228.0
221.781586 64.0
221.833832 208.0
221.88092 172.0
221.925003 220.0
221.946152 220.0
221.966858 172.0
221.996826 292.0
222.018997 236.0
222.07666 129448.0
222.145966 252.0
222.173691 128.0
222.260757 156.0
222.286041 80.0
222.306976 212.0
222.350281 108.0
222.398605 72.0
222.425552 216.0
222.46376 52.0
222.488235 76.0
222.518173 88.0
222.538193 124.0
222.564224 708.0
222.609161 60.0
222.648697 180.0
222.658112 140.0
222.695419 156.0
222.741653 160.0
222.798889 156.0
222.861679 96.0
222.896408 76.0
222.948242 152.0
223.000732 144.0
223.078613 16396.0
223.141724 84.0
223.188904 200.0
223.210526 84.0
223.260208 172.0
223.315887 44.0
223.38739 104.0
223.413971 68.0
223.466614 64.0
223.49736 44.0
223.519485 92.0
223.556885 40.0
223.58255 104.0
223.603104 72.0
223.699738 80.0
223.726532 60.0
223.783112 60.0
223.808945 76.0
223.858093 44.0
223.866974 40.0
223.934982 44.0
223.985611 36.0
224.010208 92.0
224.03923 44.0
224.080643 1992.0
224.121338 136.0
224.145737 128.0
224.185883 92.0
224.209076 56.0
224.254227 80.0
224.292542 100.0
224.33725 112.0
224.448837 84.0
224.484909 96.0
224.50563 68.0
224.526093 156.0
224.553436 120.0
224.591064 244.0
224.621216 188.0
224.667358 140.0
224.689468 116.0
224.708832 108.0
224.759766 96.0
224.790329 88.0
224.823181 112.0
224.850983 116.0
224.891434 112.0
224.992584 108.0
225.038361 100.0
225.087097 124.0
225.115997 56.0
225.139511 64.0
225.166763 48.0
225.235458 32.0
225.256378 40.0
225.372894 60.0
225.429657 52.0
225.50322 72.0
225.531189 136.0
225.557449 128.0
225.656265 84.0
225.668442 68.0
225.707672 44.0
225.769287 132.0
225.873032 136.0
226.099548 48.0
226.245163 80.0
226.322266 40.0
226.389954 36.0
226.623596 32.0
226.704498 44.0
226.770432 52.0
226.830383 36.0
226.978668 188.0
227.127243 48.0
227.265244 40.0
227.286255 40.0
227.382126 76.0
227.424301 128.0
227.517365 72.0
227.574402 80.0
227.625458 84.0
227.66449 120.0
227.939438 84.0
227.982941 120.0
228.067093 36.0
228.097153 168.0
228.148254 36.0
228.18132 104.0
228.211395 80.0
228.253494 112.0
228.34671 64.0
228.456268 248.0
228.56633 128.0
228.84024 92.0
228.89444 52.0
228.930573 40.0
228.990799 104.0
229.032974 92.0
229.062637 80.0
229.103317 148.0
229.177582 60.0
229.210724 80.0
229.25592 108.0
229.337296 136.0
229.37648 108.0
229.459305 76.0
229.539291 100.0
229.6931 60.0
229.74585 68.0
229.783615 48.0
229.871109 148.0
230.136749 72.0
230.163925 60.0
230.278336 80.0
230.366272 28.0
230.559662 36.0
230.629166 48.0
230.731949 88.0
230.903427 192.0
231.067657 80.0
231.143311 56.0
231.279495 56.0
231.509598 64.0
231.53685 68.0
231.579254 84.0
231.848892 112.0
231.880463 48.0
231.905945 112.0
232.009552 116.0
232.060074 168.0
232.094818 64.0
232.321381 68.0
232.367416 72.0
232.449341 84.0
232.51915 148.0
232.582886 68.0
232.710388 60.0
232.762009 100.0
232.834885 68.0
232.977661 84.0
233.020187 84.0
233.071228 144.0
233.100494 196.0
233.164581 132.0
233.202515 72.0
233.394043 112.0
233.44574 180.0
233.49823 124.0
233.521774 112.0
233.746902 76.0
233.796875 76.0
234.04216 56.0
234.071655 332.0
234.121338 44.0
234.149826 112.0
234.188339 80.0
234.288864 76.0
234.382874 112.0
234.410736 156.0
234.51741 116.0
234.636292 84.0
234.688126 156.0
234.769196 96.0
234.922974 60.0
234.961136 80.0
235.081635 124.0
235.102997 76.0
235.180878 100.0
235.246445 40.0
235.283081 128.0
235.475464 80.0
235.536545 56.0
235.860443 52.0
235.933807 40.0
236.040833 80.0
236.212097 48.0
236.236572 108.0
236.25798 60.0
236.389557 80.0
236.475906 56.0
236.530334 88.0
236.564011 60.0
236.821228 64.0
237.280899 180.0
237.421951 48.0
237.455688 40.0
237.544632 204.0
237.566116 68.0
237.796249 40.0
238.060272 48.0
238.158554 80.0
239.536606 56.0
239.613617 68.0
239.776947 168.0
239.890991 80.0
240.088715 192.0
240.261063 92.0
240.375214 132.0
240.517181 100.0
240.649933 108.0
240.788895 76.0
241.005142 72.0
241.09166 120.0
241.199844 128.0
241.837036 56.0
241.929901 56.0
242.081619 116.0
242.335617 108.0
242.620758 224.0
242.692062 32.0
242.930878 232.0
243.005325 48.0
243.160492 80.0
243.654221 60.0
243.800262 148.0
244.021698 64.0
244.102127 116.0
244.384872 108.0
244.836243 188.0
244.948364 156.0
245.052994 268.0
245.356613 92.0
245.493805 72.0
245.787033 48.0
245.849442 104.0
245.890015 124.0
245.99614 92.0
246.0336 108.0
246.058578 92.0
246.111633 408.0
246.261566 64.0
246.327148 100.0
246.452118 152.0
246.520874 120.0
246.592743 128.0
246.714661 108.0
246.736542 104.0
246.758423 156.0
246.792816 56.0
246.883499 104.0
246.972824 172.0
247.020035 148.0
247.070618 21592.0
247.129105 132.0
247.168671 152.0
247.219101 44.0
247.258926 92.0
247.335892 80.0
247.387268 48.0
247.434219 48.0
247.556427 136.0
247.598007 144.0
247.686737 100.0
247.738007 40.0
247.774933 56.0
247.919739 96.0
247.985687 88.0
248.073471 3008.0
248.205002 60.0
248.336716 48.0
248.358673 32.0
248.408859 56.0
248.534363 64.0
248.678711 52.0
249.073746 468.0
249.106766 112.0
249.348495 80.0
249.478622 92.0
249.581177 120.0
249.627502 112.0
249.668381 204.0
249.733124 116.0
249.813065 80.0
249.913742 152.0
249.958221 148.0
250.08226 248.0
250.209595 84.0
250.546219 104.0
251.975769 60.0
253.082779 148.0
253.127106 136.0
253.225281 76.0
254.043091 100.0
254.646194 72.0
254.976608 60.0
255.466293 76.0
255.717667 80.0
256.013763 28.0
256.966827 112.0
257.116821 84.0
257.196625 76.0
257.225342 64.0
258.286224 60.0
258.394989 176.0
258.663818 52.0
258.736237 96.0
258.984009 212.0
259.076935 172.0
259.657104 100.0
259.817474 88.0
260.070984 204.0
260.764771 84.0
260.964081 68.0
261.105377 196.0
261.630066 76.0
262.003632 84.0
262.129303 36.0
262.513123 64.0
262.590302 48.0
262.864532 36.0
263.104889 248.0
263.335876 52.0
263.43924 108.0
263.636353 104.0
263.988708 40.0
264.079254 96.0
264.114838 124.0
264.299255 76.0
265.069519 172.0
265.789795 60.0
265.8255 216.0
266.068939 104.0
266.14035 112.0
266.559387 64.0
267.09259 56.0
267.707703 76.0
267.779358 48.0
267.991119 80.0
268.095367 108.0
268.141022 64.0
268.248566 92.0
268.352905 96.0
268.799774 120.0
269.335205 156.0
269.841736 176.0
270.260376 68.0
270.41748 168.0
270.574585 80.0
270.964325 56.0
271.679047 100.0
271.954681 72.0
272.430817 40.0
273.232971 144.0
273.851837 56.0
274.069275 120.0
275.127991 92.0
277.003052 88.0
277.085083 364.0
277.13559 152.0
277.324463 88.0
277.433868 44.0
278.08548 168.0
278.107269 160.0
278.269928 96.0
278.293152 96.0
278.980896 96.0
279.054047 56.0
279.097321 4508.0
279.433197 108.0
279.549652 28.0
279.582947 84.0
279.779327 56.0
279.962463 60.0
279.989105 104.0
280.102997 1008.0
280.548889 60.0
280.889038 104.0
280.912384 76.0
280.942413 44.0
281.095978 156.0
281.175964 44.0
281.372925 52.0
281.529846 80.0
281.573273 32.0
281.660126 68.0
282.104828 144.0
282.141327 72.0
282.954315 36.0
282.984436 84.0
283.148529 116.0
283.443329 60.0
283.567322 60.0
284.144104 48.0
284.231323 84.0
284.439423 76.0
285.158203 120.0
285.494415 60.0
285.770233 104.0
287.171631 100.0
287.266083 52.0
287.887146 100.0
288.349976 52.0
289.134613 60.0
289.293701 68.0
290.072845 32.0
290.20166 88.0
290.276276 44.0
290.316956 220.0
290.367828 40.0
290.662964 108.0
290.873413 84.0
291.32843 136.0
291.780457 136.0
292.108063 120.0
292.276581 92.0
292.406342 100.0
293.898956 72.0
294.025208 140.0
294.107147 144.0
295.145691 100.0
296.477325 96.0
296.878448 60.0
296.977905 36.0
297.286682 64.0
298.045563 88.0
298.327393 76.0
298.68158 56.0
299.793671 124.0
299.852264 68.0
300.762848 88.0
301.128845 96.0
301.678253 80.0
301.868408 88.0
302.082855 52.0
302.228149 48.0
302.289154 76.0
303.482025 76.0
303.960693 68.0
304.089111 168.0
304.703735 160.0
305.148621 52.0
305.367706 148.0
305.826965 108.0
306.082825 140.0
306.117615 336.0
307.3255 116.0
307.946899 68.0
308.097107 36.0
308.876648 52.0
309.090088 100.0
309.114563 108.0
309.153076 88.0
309.188049 48.0
309.471619 92.0
309.825348 80.0
310.105682 244.0
310.733368 56.0
311.017639 104.0
311.646271 80.0
311.881714 112.0
312.208679 76.0
312.289581 120.0
312.666046 136.0
312.972321 104.0
313.352692 140.0
313.493652 76.0
313.666351 120.0
314.026001 76.0
314.668243 72.0
315.342957 132.0
315.661133 60.0
316.121002 68.0
316.531647 72.0
316.857513 116.0
316.924835 80.0
317.555084 128.0
317.626801 88.0
317.850311 112.0
318.098724 148.0
318.436066 76.0
318.759338 80.0
319.37085 36.0
319.542969 84.0
319.747986 156.0
320.100433 100.0
320.168091 140.0
320.388947 56.0
320.656189 68.0
320.795197 96.0
320.884338 52.0
321.037659 88.0
321.098297 132.0
321.130371 104.0
321.769135 76.0
322.036957 88.0
322.969849 176.0
323.302612 60.0
323.460083 176.0
323.581818 52.0
323.810974 116.0
324.040253 96.0
324.117432 96.0
324.943756 108.0
325.072906 52.0
325.108795 164.0
325.173401 80.0
325.212891 60.0
325.970673 80.0
326.09903 92.0
326.26181 104.0
327.067596 168.0
327.100006 68.0
327.139587 232.0
327.831146 128.0
329.01062 72.0
329.436768 64.0
329.501801 60.0
330.015015 92.0
330.069275 200.0
330.094574 144.0
330.344147 72.0
330.398407 108.0
330.423737 84.0
330.843536 88.0
332.061066 28.0
332.739655 76.0
334.101654 308.0
334.273529 56.0
334.932495 80.0
335.089142 72.0
335.121643 152.0
335.231262 36.0
335.479095 160.0
335.767151 172.0
336.15387 136.0
337.1362 68.0
337.187378 112.0
337.304321 96.0
337.816284 96.0
338.101685 160.0
338.149261 148.0
339.111481 112.0
339.163849 112.0
339.842285 72.0
340.102844 192.0
340.146912 68.0
341.116669 68.0
341.469666 64.0
341.694061 108.0
342.710266 76.0
342.872406 60.0
342.901886 32.0
344.156128 56.0
344.329712 52.0
344.688049 128.0
344.750854 108.0
344.991119 100.0
345.135315 76.0
345.479279 136.0
346.027008 92.0
347.131195 108.0
348.133148 184.0
348.166595 84.0
348.304016 92.0
348.649536 56.0
350.018524 56.0
350.223358 88.0
350.435699 84.0
350.540009 80.0
350.879211 36.0
351.046997 188.0
351.140228 148.0
352.084473 124.0
352.110626 140.0
353.071106 144.0
353.108521 168.0
354.681091 88.0
354.898529 100.0
355.667603 172.0
356.106903 148.0
356.185791 84.0
357.106689 64.0
357.269257 72.0
357.370026 76.0
358.386627 100.0
358.710754 80.0
358.914337 92.0
358.99353 48.0
359.272644 204.0
359.400909 112.0
359.642456 160.0
359.827423 40.0
360.416626 96.0
360.934479 48.0
361.002563 84.0
362.327362 104.0
363.127167 76.0
363.163177 148.0
363.275116 140.0
363.984863 160.0
365.132507 196.0
366.034424 116.0
366.087738 120.0
366.133453 216.0
367.133545 152.0
367.168365 204.0
367.490509 64.0
368.410614 68.0
368.697174 96.0
369.037384 72.0
369.645599 80.0
370.181519 152.0
370.403656 84.0
371.377258 92.0
371.595917 40.0
372.002716 112.0
372.148621 144.0
372.236938 64.0
372.313721 184.0
372.763184 116.0
374.760254 104.0
374.910553 112.0
375.589111 80.0
375.670135 96.0
376.214264 100.0
376.287598 60.0
377.295959 64.0
377.384888 108.0
377.576233 108.0
377.968964 152.0
378.689026 64.0
378.847839 120.0
379.138458 140.0
379.169464 108.0
379.921692 80.0
380.138885 136.0
381.129181 112.0
381.179688 96.0
381.280731 52.0
382.576019 44.0
382.735626 72.0
383.012146 80.0
383.121216 204.0
383.655121 48.0
384.140991 108.0
384.380585 40.0
385.247345 116.0
385.669373 52.0
386.072083 76.0
386.248077 68.0
386.576752 100.0
386.776337 100.0
386.842896 72.0
387.316711 72.0
387.688904 172.0
387.935852 44.0
388.120117 172.0
389.011719 188.0
389.108856 136.0
390.397705 152.0
390.735962 72.0
391.117676 132.0
391.172791 104.0
391.550781 116.0
392.027496 80.0
394.300659 48.0
394.466675 128.0
394.577362 40.0
394.976776 160.0
395.095459 48.0
395.123169 136.0
395.166687 40.0
395.206238 60.0
395.507019 36.0
396.124451 104.0
396.168304 96.0
396.921356 56.0
397.138214 160.0
398.103912 76.0
398.158478 1700.0
398.465363 60.0
398.592529 56.0
398.934326 36.0
399.160492 316.0
399.717865 56.0
399.82132 96.0
399.992493 120.0
400.177338 320.0
400.593781 56.0
401.269073 108.0
401.989258 80.0
402.126282 84.0
403.247253 72.0
403.934998 80.0
404.915649 136.0
405.051819 124.0
405.095886 104.0
405.152924 256.0
405.853363 104.0
406.009766 68.0
406.154144 116.0
406.266479 176.0
406.647675 40.0
407.004974 104.0
407.358398 68.0
407.623566 72.0
407.969238 52.0
408.656952 128.0
408.878296 48.0
410.13089 28.0
410.772034 60.0
410.800262 52.0
411.918457 128.0
413.139313 48.0
414.143188 48.0
414.203949 76.0
414.759094 76.0
414.921234 68.0
415.261871 104.0
415.947601 88.0
416.804535 112.0
417.28009 116.0
417.536285 56.0
417.922729 124.0
420.355377 104.0
420.87619 68.0
421.094299 68.0
421.731689 120.0
422.144623 64.0
422.345032 80.0
422.680481 124.0
422.713226 60.0
423.147247 704.0
424.004761 108.0
424.12619 40.0
424.16922 328.0
424.318878 60.0
424.347565 52.0
424.552582 124.0
424.913544 56.0
425.073578 40.0
425.149628 120.0
425.181549 128.0
426.116516 52.0
426.153503 112.0
426.305542 116.0
426.91394 52.0
427.749176 96.0
427.782104 68.0
427.917969 108.0
428.169159 92.0
428.403931 144.0
428.630554 60.0
429.141663 52.0
431.164368 76.0
433.643463 52.0
434.340057 64.0
434.725922 112.0
435.851257 92.0
435.992554 96.0
436.167114 100.0
436.765869 104.0
436.795013 52.0
437.161224 612.0
437.914673 40.0
438.175934 532.0
439.17926 116.0
439.7659 52.0
439.941223 76.0
440.145813 108.0
442.772034 60.0
443.153229 116.0
444.419464 128.0
444.692261 96.0
444.834961 60.0
445.275848 64.0
446.772278 68.0
446.906891 108.0
447.319336 140.0
447.618256 104.0
449.181885 96.0
449.481445 68.0
450.418701 60.0
450.655273 72.0
453.16568 1072.0
453.246307 204.0
453.613525 92.0
454.163208 336.0
454.406586 72.0
454.508423 144.0
454.67392 40.0
454.780029 136.0
454.852173 144.0
455.077179 36.0
455.111145 120.0
455.179962 8292.0
455.344727 184.0
455.389984 176.0
455.455139 92.0
455.484863 52.0
455.523102 68.0
455.601227 108.0
455.735535 48.0
456.028748 104.0
456.105255 144.0
456.185486 2400.0
456.246735 132.0
456.283813 76.0
456.332611 92.0
456.37735 84.0
456.504913 92.0
456.568268 80.0
456.726074 100.0
456.869019 100.0
456.921753 112.0
457.191437 744.0
457.270691 60.0
457.500549 60.0
457.572937 60.0
458.003021 100.0
458.203247 120.0
458.522827 32.0
458.816956 48.0
458.846802 40.0
459.115448 56.0
459.153809 124.0
459.256195 112.0
459.294586 40.0
460.177948 64.0
460.827179 68.0
461.361389 64.0
461.58374 60.0
461.823212 32.0
461.874542 68.0
462.049957 36.0
462.259613 36.0
462.97879 64.0
463.925751 32.0
467.391754 92.0
467.456299 84.0
468.416412 80.0
468.558594 48.0
469.002441 112.0
470.227386 64.0
471.129852 88.0
473.612854 32.0
475.967773 68.0
479.312836 40.0
479.57431 60.0
479.700714 128.0
481.293152 40.0
481.974579 60.0
482.931976 96.0
483.439484 28.0
484.253784 148.0
485.980988 36.0
486.538391 180.0
486.894073 136.0
491.697296 92.0
494.437408 96.0
494.756104 72.0
495.004059 68.0
497.216217 52.0
497.424835 100.0
499.006378 48.0
499.855957 52.0
500.100708 148.0
502.275146 52.0
503.243561 76.0
508.373383 80.0
509.055725 52.0
511.029022 76.0
511.154999 108.0
513.912659 108.0
513.966797 64.0
514.436157 108.0
516.560059 80.0
520.793762 44.0
522.55304 64.0
522.97168 40.0
528.598877 56.0
535.471375 116.0
539.106812 56.0
540.34137 76.0
541.188354 80.0
542.518066 72.0
545.242737 76.0
547.107971 40.0
550.264221 120.0
550.422974 40.0
554.371094 60.0
559.552063 68.0
561.33313 56.0
562.295532 44.0
564.293701 76.0
564.482849 144.0
564.549072 56.0
568.300659 60.0
568.59491 100.0
572.688538 84.0
574.671692 88.0
576.256836 36.0
577.083679 100.0
577.274963 80.0
578.79187 72.0
578.882812 148.0
592.548157 40.0
592.708008 28.0
594.109253 64.0
594.75946 108.0
596.056213 52.0
596.556824 56.0
597.213257 84.0
597.495422 56.0
601.076599 164.0
603.758484 100.0
605.902466 44.0
608.32019 44.0
609.263062 252.0
609.439941 40.0
612.706848 72.0
621.036316 128.0
622.848083 140.0
623.002075 96.0
623.469116 136.0
629.701721 88.0
632.186462 80.0
632.361572 184.0
635.122375 68.0
637.441833 36.0
638.050049 108.0
641.816162 64.0
643.087402 72.0
643.14801 128.0
645.279846 36.0
646.243774 48.0
648.149719 48.0
650.558777 84.0
663.39917 76.0
663.886292 60.0
664.322266 52.0
666.098389 80.0
669.302429 36.0
670.770752 116.0
672.68457 84.0
673.360962 52.0
675.547424 176.0
679.552124 68.0
681.031616 236.0
684.437988 76.0
685.1828 88.0
685.891541 200.0
685.938477 156.0
687.179626 72.0
687.69104 48.0
691.710632 56.0
695.316711 108.0
700.933167 136.0
703.638977 92.0
703.755127 52.0
704.293762 44.0
705.900452 76.0
707.365967 52.0
708.197327 60.0
710.503235 48.0
711.798279 88.0
714.89209 136.0
717.096985 124.0
720.261047 68.0
725.837708 92.0
729.424072 52.0
731.080627 128.0
733.843933 112.0
734.075806 56.0
738.569275 100.0
739.521545 32.0
747.319763 36.0
747.836731 96.0
747.956482 96.0
751.984497 128.0
752.382996 92.0
752.825256 204.0
753.28949 60.0
757.496155 100.0
758.646912 76.0
763.594299 88.0
771.822205 76.0
775.18219 204.0
778.238525 88.0
779.738403 180.0
780.171997 108.0
780.739136 72.0
781.006104 168.0
781.595825 96.0
782.692383 56.0
785.964355 80.0
788.840576 60.0
792.646423 52.0
796.55127 148.0
800.004028 48.0
804.609924 88.0
811.540771 124.0
819.127747 136.0
819.725952 96.0
820.010925 32.0
821.556213 152.0
823.411316 48.0
825.440063 108.0
825.971924 52.0
827.16217 80.0
827.580078 44.0
828.731323 80.0
828.805786 184.0
831.041992 192.0
833.137573 168.0
833.43634 184.0
834.948181 132.0
840.062988 96.0
841.881104 144.0
842.9151 60.0
843.730103 80.0
844.296753 68.0
845.019775 64.0
846.275757 88.0
847.539856 220.0
848.518005 168.0
850.629639 48.0
851.134766 108.0
851.187012 92.0
851.442505 88.0
854.965576 60.0
855.937744 48.0
856.059998 76.0
856.811401 72.0
859.936951 76.0
862.875244 124.0
863.220215 60.0
863.424866 44.0
870.427795 72.0
870.768433 60.0
871.138489 148.0
871.502747 64.0
883.619019 52.0
886.004944 216.0
887.510376 140.0
889.604675 64.0
889.675903 48.0
890.48938 72.0
890.620056 68.0
890.881409 96.0
896.796204 116.0
898.501648 104.0
899.325134 96.0
900.172913 36.0
902.04895 252.0
907.658752 36.0
910.773499 72.0
911.32019 172.0
915.35022 188.0
917.509705 48.0
920.077332 164.0
920.294678 72.0
923.521729 52.0
927.85144 28.0
932.762573 136.0
936.334167 112.0
938.186523 100.0
939.058472 196.0
941.957825 236.0
942.562683 156.0
944.549622 72.0
945.736694 132.0
946.802002 152.0
949.891113 248.0
953.4953 44.0
953.544495 120.0
954.466614 100.0
955.86908 136.0
956.447571 56.0
956.539917 108.0
956.632263 40.0
959.570862 108.0
959.87915 128.0
960.495911 152.0
961.223938 144.0
962.199158 52.0
966.377136 188.0
966.686523 100.0
967.70166 164.0
968.667786 128.0
970.173645 148.0
971.140991 136.0
972.034363 48.0
972.704651 32.0
974.82251 72.0
978.442505 176.0
983.435669 116.0
984.690613 68.0
985.165344 68.0
985.796387 180.0
988.091125 108.0
988.723145 160.0
989.435364 132.0
990.319641 196.0
990.964905 80.0
991.209229 44.0
993.811401 104.0
994.369934 180.0
994.87207 184.0
995.468567 68.0
997.900269 72.0
998.717773 112.0
999.768494 36.0
1001.436829 96.0
1002.123535 112.0
1007.422974 52.0
1008.383423 160.0
1008.889099 252.0
1009.123047 72.0
1013.338257 188.0
1013.585388 60.0
1015.087708 112.0
1015.753601 160.0
1017.187744 136.0
1018.965881 276.0
1026.119507 128.0
1028.064941 164.0
1028.2948 48.0
1029.469482 184.0
1029.890991 164.0
1029.961182 52.0
1030.165649 156.0
1031.852783 220.0
1033.950928 132.0
1034.590942 160.0
1034.853394 92.0
1034.96875 140.0
1036.352173 152.0
1036.678955 140.0
1037.037964 120.0
1037.371216 84.0
1037.877686 136.0
1041.587158 172.0
1041.850586 64.0
1042.752319 152.0
1042.942993 96.0
1043.75293 132.0
1044.31897 84.0
1044.814209 224.0
1045.187378 144.0
1046.15918 68.0
1047.099365 108.0
1047.408447 144.0
1047.498657 224.0
1047.633911 152.0
1048.922729 244.0
1049.283813 168.0
1049.522339 180.0
1050.463989 124.0
1051.644775 100.0
1051.689941 120.0
1052.387085 116.0
1055.262329 188.0
1055.708496 192.0
1055.805542 184.0
1056.833984 132.0
1057.532959 140.0
1059.035034 168.0
1059.747681 152.0
1060.641968 108.0
1061.633911 56.0
1062.399292 164.0
1063.625732 164.0
1064.112671 96.0
1065.151733 112.0
1066.360229 76.0
1066.451294 224.0
1066.496704 76.0
1066.685303 88.0
1068.890015 136.0
1069.052734 48.0
1070.30249 196.0
1071.051514 108.0
1071.917969 172.0
1072.30896 168.0
1075.765991 88.0
1075.903076 176.0
1080.543335 164.0
1080.608765 152.0
1081.31543 128.0
1081.393921 168.0
1081.58374 184.0
1083.050537 100.0
1084.347778 188.0
1085.180298 180.0
1086.341064 144.0
1086.83313 116.0
1086.951294 52.0
1087.660034 192.0
1088.053955 160.0
1088.644897 120.0
1090.024414 152.0
1090.208374 96.0
1091.246948 224.0
1091.720459 84.0
1091.983521 176.0
1092.44397 40.0
1092.621582 208.0
1093.365112 236.0
1094.128662 184.0
1094.932007 92.0
1095.115112 172.0
1095.445679 208.0
1098.629761 140.0
1100.431519 60.0
1100.603149 100.0
1101.309814 88.0
1102.882324 116.0
1103.060791 100.0
1103.331787 132.0
1103.550049 244.0
1105.203613 156.0
1105.514526 180.0
1105.580811 140.0
1106.150024 236.0
1106.924561 172.0
1108.209595 64.0
1109.389282 224.0
1110.05896 68.0
1110.868042 72.0
1112.069092 52.0
1112.780151 180.0
1112.839111 116.0
1112.965332 84.0
1113.908325 108.0
1114.944824 196.0
1115.549683 144.0
1116.480591 96.0
1118.476562 76.0
1118.776123 148.0
1120.028076 104.0
1120.167969 160.0
1120.614258 164.0
1121.167358 152.0
1121.547241 208.0
1122.053833 140.0
1123.1875 96.0
1123.240967 152.0
1123.834717 184.0
1125.15686 156.0
1125.930786 128.0
1125.977539 120.0
1126.845825 160.0
1127.547485 76.0
1128.055542 148.0
1129.058472 128.0
1130.015015 116.0
1133.175171 136.0
1133.550293 76.0
1134.911011 84.0
1135.82312 164.0
1136.453735 100.0
1137.178467 136.0
1137.272461 160.0
1138.789917 116.0
1139.932007 48.0
1140.331665 232.0
1140.523438 112.0
1140.866211 108.0
1141.007446 204.0
1141.834473 140.0
1142.460083 84.0
1143.04541 216.0
1143.455933 92.0
1143.745361 232.0
1143.82605 152.0
1144.256958 80.0
1145.179443 164.0
1146.473022 176.0
1147.74707 156.0
1147.915649 92.0
1148.300049 140.0
1149.065308 236.0
1149.305176 164.0
1149.392944 124.0
1149.473877 80.0
1150.979126 184.0
1152.559692 96.0
1152.924683 176.0
1154.175049 156.0
1154.472778 72.0
1156.400879 92.0
1156.996582 148.0
1158.330688 96.0
1158.493286 104.0
1158.655762 224.0
1158.865845 136.0
1159.069092 160.0
1160.465454 124.0
1160.533203 84.0
1161.163818 252.0
1162.317139 176.0
1162.371338 208.0
1162.683594 88.0
1162.751465 208.0
1163.016113 132.0
1163.179077 40.0
1163.470947 264.0
1163.640625 168.0
1164.890259 96.0
1164.937744 68.0
1165.522095 172.0
1166.011353 208.0
1167.119385 192.0
1167.425415 124.0
1169.098877 52.0
1169.718262 132.0
1169.881592 124.0
1170.05188 48.0
1170.657837 120.0
1171.046021 124.0
1172.797119 120.0
1173.63562 132.0
1175.941406 200.0
1176.166626 104.0
1176.344116 124.0
1176.910767 164.0
1177.02002 124.0
1177.300049 204.0
1178.21521 184.0
1179.055664 124.0
1179.151367 232.0
1179.40918 140.0
1179.486328 96.0
1179.650391 60.0
1179.951172 80.0
1180.272461 180.0
1180.703369 120.0
1181.825195 88.0
1182.208374 108.0
1182.509521 172.0
1183.70752 116.0
1183.9198 180.0
1184.132202 148.0
1184.591064 144.0
1184.666382 100.0
1184.88562 172.0
1185.043213 224.0
1185.248779 168.0
1185.399536 100.0
1185.44751 40.0
1186.036865 56.0
1186.852661 212.0
1187.090698 188.0
1187.291626 192.0
1187.497314 160.0
1188.23999 184.0
1188.457764 228.0
1188.588135 84.0
1189.082153 48.0
1189.473389 228.0
1189.748047 128.0
1189.830444 136.0
1190.372803 224.0
1190.47583 192.0
1190.551392 140.0
1190.736816 112.0
1190.977173 112.0
1191.561157 132.0
1192.653687 228.0
1192.949341 160.0
1193.128052 108.0
1193.334351 144.0
1193.86377 100.0
1193.939453 96.0
1194.317749 184.0
1194.544678 156.0
1194.916138 180.0
1195.150146 176.0
1196.512939 192.0
1199.557861 80.0
1199.854248 56.0
1200.026611 168.0
1200.523071 188.0
1200.93689 180.0
1201.495605 168.0
1202.730835 216.0
1203.231323 180.0
1203.814819 120.0
1204.767944 192.0
1205.099609 216.0
1205.424316 136.0
1206.224976 120.0
1206.329712 52.0
1206.454102 104.0
1206.626953 72.0
1206.744507 68.0
1206.910522 112.0
1207.097168 136.0
1207.330688 176.0
1207.519043 176.0
1208.058594 68.0
1208.279907 156.0
1208.542847 204.0
1209.449463 152.0
1209.539429 128.0
1210.072388 116.0
1210.17627 112.0
1210.661011 176.0
1210.771851 128.0
1211.658447 188.0
1211.748535 132.0
1212.060303 100.0
1212.420654 124.0
1212.760254 164.0
1212.995972 188.0
1213.744629 140.0
1215.122925 112.0
1216.283813 116.0
1217.109009 164.0
1217.241943 100.0
1217.936401 196.0
1217.984985 140.0
1218.075317 100.0
1218.151733 84.0
1218.401855 92.0
1218.99939 84.0
1219.047974 96.0
1219.145264 184.0
1219.763916 244.0
1219.937622 120.0
1220.765015 136.0
1221.891846 144.0
1222.05188 140.0
1222.344116 196.0
1223.067871 260.0
1223.973022 128.0
1225.421753 184.0
1225.609863 200.0
1225.679565 176.0
1225.832886 176.0
1226.104614 172.0
1227.045654 80.0
1227.589478 68.0
1228.049805 148.0
1228.373413 152.0
1228.426514 36.0
1229.207886 76.0
1229.584717 72.0
1230.185059 72.0
1230.338623 196.0
1230.65625 140.0
1231.064697 64.0
1231.427856 88.0
1231.749146 172.0
1232.475708 168.0
1232.797241 108.0
1233.055786 432.0
1233.244507 148.0
1233.307373 164.0
1233.398315 184.0
1233.719849 100.0
1234.789673 116.0
1235.069458 228.0
1235.559082 212.0
1235.734009 128.0
1235.803955 104.0
1236.174805 112.0
1236.223755 128.0
1237.00769 172.0
1237.126709 176.0
1237.245728 160.0
1237.385742 144.0
1237.686768 180.0
1238.092896 136.0
1238.18396 152.0
1238.289062 184.0
1239.36084 176.0
1239.564087 160.0
1239.78833 172.0
1239.837402 204.0
1240.217285 172.0
1240.867798 220.0
1241.421753 140.0
1241.575928 40.0
1241.69519 56.0
1241.814453 128.0
1242.221313 180.0
1242.381104 128.0
1242.692627 172.0
1242.824585 108.0
1242.93689 144.0
1243.049194 192.0
1243.245605 152.0
1244.565308 168.0
1244.62146 200.0
1245.021729 56.0
1245.17627 164.0
1245.288696 208.0
1245.337769 180.0
1245.63147 184.0
1245.998169 76.0
1246.302002 164.0
1246.377563 200.0
1246.644531 100.0
1246.707764 132.0
1247.024048 108.0
1247.769165 76.0
1248.268433 148.0
1248.366821 200.0
1248.845093 152.0
1249.924927 140.0
1250.765991 52.0
1251.378418 164.0
1251.469971 168.0
1252.251587 164.0
1252.920776 56.0
1253.096924 172.0
1253.313965 156.0
1253.449219 180.0
1253.942627 172.0
1254.076538 68.0
1254.181152 152.0
1254.377686 168.0
1254.675659 204.0
1255.098633 76.0
1255.169189 172.0
1255.331421 164.0
1255.712158 96.0
1255.817993 200.0
1256.029663 156.0
1256.156616 116.0
1256.310547 112.0
1256.459961 200.0
1256.622192 212.0
1257.200806 252.0
1257.476074 192.0
1259.018066 172.0
1259.274414 156.0
1259.325806 116.0
1259.905151 124.0
1260.081665 208.0
1260.223022 40.0
1260.406738 200.0
1260.512695 140.0
1261.099243 56.0
1261.636475 156.0
1261.820312 168.0
1261.890991 120.0
1262.336548 196.0
1262.435547 172.0
1262.668823 128.0
1262.824463 136.0
1262.874023 96.0
1263.178101 100.0
1263.453979 200.0
1263.609619 108.0
1263.71582 140.0
1263.807739 260.0
1264.02002 140.0
1264.876465 100.0
1265.081665 204.0
1266.037598 144.0
1266.29248 40.0
1266.349121 132.0
1266.469604 168.0
1267.036255 72.0
1267.921997 140.0
1268.092163 200.0
1269.249023 148.0
1269.595093 128.0
1270.389526 196.0
1270.921631 156.0
1271.020996 168.0
1271.240967 152.0
1271.33313 44.0
1272.070801 152.0
1272.291382 116.0
1272.887817 72.0
1273.25708 116.0
1273.349365 148.0
1273.981567 128.0
1274.109497 72.0
1274.208984 204.0
1274.727661 104.0
1275.39563 216.0
1275.751099 204.0
1276.454956 208.0
1276.838989 64.0
1277.62854 84.0
1277.692505 188.0
1278.162109 124.0
1278.703003 160.0
1279.194092 152.0
1279.685303 68.0
1280.454346 168.0
1280.981445 92.0
1281.19519 104.0
1281.522949 124.0
1281.572754 96.0
1281.70813 140.0
1281.779419 168.0
1282.014648 156.0
1282.271118 104.0
1283.269165 108.0
1283.368896 168.0
1283.475952 76.0
1283.761108 48.0
1284.260376 168.0
1284.538574 120.0
1284.631348 132.0
1284.973755 80.0
1285.087891 216.0
1285.173462 220.0
1285.323364 136.0
1286.500977 204.0
1286.779419 144.0
1287.75061 156.0
1288.107666 176.0
1288.322021 124.0
1288.529175 132.0
1288.750732 160.0
1289.543945 152.0
1289.601074 128.0
1289.829834 52.0
1290.180054 180.0
1290.441162 144.0
1290.501831 248.0
1290.66626 128.0
1290.723511 156.0
1291.4021 192.0
1291.796265 260.0
1292.232666 168.0
1292.497437 148.0
1293.141479 140.0
1294.029053 148.0
1294.229614 148.0
1294.338013 112.0
1295.124756 132.0
1295.855469 180.0
1296.129761 168.0
1297.281616 132.0
1297.346191 140.0
1297.460815 196.0
1298.163452 168.0
1299.045654 104.0
1299.404419 44.0
1299.77832 164.0
1300.409058 108.0
1300.982544 120.0
1301.435547 184.0
1301.694092 160.0
1301.964966 132.0
1302.721191 104.0
1302.817505 136.0
1303.91394 172.0
1304.63269 112.0
1304.81958 184.0
1305.215088 176.0
1305.531494 140.0
1305.890991 140.0
1306.229126 144.0
1306.437744 128.0
1306.631958 112.0
1307.430664 36.0
1307.804932 164.0
1308.064087 132.0
1308.848755 200.0
1308.978394 68.0
1309.028809 188.0
1309.129639 120.0
1309.187256 48.0
1309.360107 192.0
1309.612183 136.0
1309.691406 132.0
1309.828247 280.0
1310.170776 252.0
1310.231689 172.0
1310.289307 96.0
1311.471069 136.0
1312.663696 200.0
1312.797607 224.0
1313.187134 184.0
1313.526123 44.0
1314.738281 176.0
1315.113525 172.0
1315.293945 116.0
1315.431152 236.0
1315.60437 84.0
1315.885986 48.0
1316.160278 104.0
1316.268677 224.0
1316.550293 48.0
1316.723633 156.0
1316.932983 136.0
1317.489258 116.0
1317.612061 172.0
1318.031128 96.0
1318.717651 104.0
1319.52002 128.0
1320.039917 172.0
1320.214233 112.0
1320.37854 180.0
1320.640869 72.0
1321.472778 144.0
1321.55957 144.0
1323.093994 172.0
1323.144653 48.0
1323.361816 60.0
1323.586304 152.0
1324.535034 156.0
1324.643677 68.0
1324.894409 268.0
1325.230469 128.0
1325.476929 144.0
1325.672485 120.0
1325.824707 156.0
1325.947876 120.0
1326.208862 156.0
1326.505981 160.0
1326.701782 316.0
1326.796021 68.0
1327.129517 120.0
1327.383301 144.0
1327.678833 160.0
1327.789429 124.0
1328.115723 128.0
1328.355103 76.0
1328.617554 168.0
1328.921021 148.0
1329.102417 48.0
1329.211304 164.0
1329.735962 256.0
1329.929688 72.0
1330.01123 144.0
1330.188965 224.0
1330.388184 148.0
1330.689331 144.0
1330.938843 184.0
1331.606934 100.0
1331.832031 52.0
1332.391479 44.0
1332.456787 132.0
1332.536743 128.0
1332.725586 236.0
1332.95813 140.0
1333.109253 112.0
1333.157104 140.0
1333.33606 148.0
1333.5177 152.0
1333.822998 112.0
1334.173218 160.0
1334.637207 184.0
1334.90625 180.0
1335.022705 108.0
1335.473511 140.0
1335.697998 144.0
1335.750854 244.0
1336.317383 172.0
1336.506592 160.0
1336.746704 196.0
1337.780273 236.0
1338.253418 140.0
1338.391724 184.0
1338.748535 180.0
1339.032593 144.0
1339.396851 288.0
1339.535156 228.0
1339.986816 172.0
1340.04895 128.0
1340.905029 108.0
1341.488159 116.0
1341.553711 192.0
1341.838013 100.0
1342.089478 176.0
1342.734985 164.0
1342.953735 172.0
1343.106934 108.0
1343.201782 128.0
1343.887573 168.0
1343.975098 160.0
1344.721924 188.0
1344.785156 56.0
1344.923828 112.0
1344.982178 48.0
1345.113525 52.0
1345.653809 188.0
1345.807129 164.0
1345.891113 112.0
1346.040771 200.0
1346.953735 164.0
1347.260498 160.0
1349.094849 96.0
1350.133057 116.0
1350.780151 164.0
1350.901123 164.0
1351.691284 108.0
1351.793701 156.0
1351.932739 188.0
1352.606079 208.0
1353.272217 144.0
1353.609131 140.0
1354.619751 156.0
1355.055054 276.0
1355.176636 156.0
1355.242554 80.0
1355.960693 180.0
1356.629517 148.0
1356.989258 240.0
1357.184814 40.0
1357.265503 112.0
1357.558838 116.0
1357.683472 156.0
1357.932861 132.0
1358.035522 132.0
1358.241943 164.0
1358.292236 240.0
1358.703125 124.0
1358.812256 136.0
1358.94519 176.0
1359.231323 136.0
1359.466187 116.0
1359.884521 204.0
1360.112061 160.0
1360.229492 116.0
1360.963623 112.0
1361.036987 200.0
1361.991821 140.0
1362.34436 92.0
1362.447266 48.0
1363.128418 148.0
1364.556519 160.0
1364.696167 140.0
1364.880005 156.0
1365.063843 116.0
1365.483032 140.0
1365.578613 148.0
1365.637451 64.0
1365.703613 184.0
1366.115601 48.0
1366.365723 160.0
1366.932251 132.0
1367.211914 100.0
1367.535767 164.0
1368.478027 132.0
1368.779907 172.0
1369.317505 80.0
1370.19397 240.0
1370.2677 252.0
1370.44458 76.0
1370.687622 208.0
1370.849854 80.0
1371.018921 152.0
1371.115112 240.0
1371.181396 140.0
1371.483643 172.0
1371.630981 136.0
1371.682617 68.0
1372.080688 216.0
1372.235474 156.0
1372.508301 164.0
1372.611572 92.0
1373.592407 220.0
1373.942017 56.0
1374.10144 192.0
1374.204834 140.0
1374.389282 76.0
1374.920532 160.0
1375.068115 208.0
1375.311768 176.0
1375.400269 164.0
1375.806274 164.0
1376.356201 192.0
1376.662842 124.0
1377.408691 112.0
1377.512207 164.0
1378.472656 160.0
1378.627808 204.0
1378.70166 164.0
1379.041626 52.0
1379.137817 172.0
1379.306519 228.0
1379.536987 188.0
1379.928711 124.0
1380.06189 52.0
1380.328003 164.0
1380.78418 180.0
1381.230347 160.0
1381.442627 224.0
1381.579834 172.0
1381.859131 172.0
1381.947876 212.0
1382.044067 156.0
1382.525024 244.0
1382.791504 108.0
1382.887695 108.0
1382.998779 176.0
1383.250366 176.0
1383.302246 128.0
1383.420654 176.0
1383.568726 180.0
1383.620605 152.0
1383.672363 156.0
1383.790894 48.0
1383.953735 60.0
1384.02771 136.0
1384.442505 220.0
1384.879395 136.0
1384.975708 120.0
1385.168335 148.0
1385.46936 240.0
1386.190674 104.0
1386.242554 128.0
1386.731689 112.0
1386.931885 56.0
1387.102295 188.0
1387.405396 136.0
1387.739868 188.0
1387.96228 216.0
1388.881958 156.0
1389.059937 144.0
1389.519897 44.0
1389.720215 108.0
1390.054077 124.0
1390.135742 80.0
1390.610718 192.0
1390.989258 240.0
1391.247314 156.0
1391.449463 296.0
1392.419067 248.0
1392.541138 184.0
1392.704468 88.0
1392.953247 140.0
1393.12793 96.0
1393.875488 148.0
1394.078979 156.0
1394.212769 68.0
1394.297607 144.0
1394.435669 148.0
1394.866821 92.0
1395.729126 88.0
1395.902954 224.0
1396.056396 124.0
1396.978638 188.0
1397.036255 124.0
1397.71521 136.0
1397.945923 132.0
1398.117065 220.0
1398.209351 160.0
1398.370117 148.0
1398.702515 144.0
1399.114502 48.0
1399.31543 68.0
1399.382446 140.0
1400.25415 188.0
1400.889771 120.0
1401.356201 116.0
1401.415771 180.0
1401.725098 140.0
1402.220581 156.0
1402.436768 176.0
1402.563477 240.0
1402.698486 184.0
1403.025635 116.0
1403.167236 140.0
1403.240112 176.0
1403.473022 152.0
1403.592285 148.0
1403.689209 80.0
1403.756348 144.0
1403.942749 156.0
1404.033081 68.0
1404.226196 156.0
1404.285767 116.0
1404.651367 136.0
1404.740967 184.0
1405.210815 104.0
1405.277954 96.0
1405.612061 184.0
1405.845093 160.0
1406.009277 140.0
1406.345093 148.0
1406.576538 172.0
1407.524658 76.0
1407.669922 148.0
1408.174316 56.0
1408.704712 116.0
1409.167847 148.0
1409.466675 144.0
1410.587769 112.0
1410.946655 112.0
1411.021362 156.0
1411.133545 164.0
1411.327881 160.0
1411.425171 156.0
1411.559692 116.0
1411.68689 144.0
1411.761597 156.0
1411.888794 144.0
1411.993408 172.0
1412.464722 156.0
1412.554443 160.0
1413.250244 120.0
1413.336304 220.0
1413.605469 172.0
1413.669189 32.0
1413.772461 140.0
1414.447632 48.0
1414.969482 172.0
1415.113892 104.0
1415.226196 168.0
1415.480713 68.0
1415.548096 60.0
1415.608032 152.0
1417.18103 120.0
1417.578247 136.0
1418.353271 180.0
1418.702515 148.0
1418.912354 124.0
1419.008789 172.0
1419.1073 164.0
1419.331909 92.0
1419.639648 92.0
1420.239624 120.0
1420.359741 76.0
1421.154907 196.0
1421.387573 144.0
1421.498657 216.0
1421.627686 192.0
1422.092041 160.0
1422.438232 104.0
1422.648438 164.0
1422.715942 144.0
1422.794189 160.0
1423.151489 188.0
1423.466797 140.0
1423.692139 160.0
1423.932373 212.0
1424.0 116.0
1424.225342 200.0
1424.40564 160.0
1424.761475 204.0
1425.044189 216.0
1425.179443 148.0
1425.344727 188.0
1425.720459 132.0
1426.016113 176.0
1426.148804 164.0
1426.261597 132.0
1426.629883 140.0
1426.720093 116.0
1426.862915 164.0
1426.990723 148.0
1427.720215 40.0
1427.900635 132.0
1427.953247 172.0
1428.051025 220.0
1428.118774 148.0
1428.893555 48.0
1429.179443 92.0
1429.724854 136.0
1429.804077 172.0
1430.1427 232.0
1430.502441 92.0
1431.159058 144.0
1431.573242 232.0
1431.640991 232.0
1431.74646 132.0
1431.799072 204.0
1431.8573 204.0
1432.168213 196.0
1432.514648 156.0
1432.687988 144.0
1432.748169 168.0
1433.328369 300.0
1433.569458 188.0
1433.893555 144.0
1434.044312 160.0
1434.210083 208.0
1434.325806 136.0
1434.413574 120.0
1434.564331 108.0
1435.212769 128.0
1435.651489 152.0
1435.833008 192.0
1436.03479 188.0
1436.268555 84.0
1436.374146 108.0
1436.630615 40.0
1436.736206 96.0
1437.37085 148.0
1437.57373 120.0
1437.800171 36.0
1438.253052 112.0
1438.471924 136.0
1438.60022 192.0
1438.660645 92.0
1438.87207 88.0
1439.113647 144.0
1439.25708 52.0
1439.370361 120.0
1439.72522 144.0
1440.84314 192.0
1441.145386 64.0
1441.213379 128.0
1441.387207 168.0
1441.644165 140.0
1441.876343 164.0
1441.984619 124.0
1442.047974 192.0
1442.105103 140.0
1442.671997 128.0
1442.898804 116.0
1443.171021 104.0
1443.435669 152.0
1443.632324 188.0
1443.730591 160.0
1444.328125 136.0
1444.43396 116.0
1444.668091 140.0
1445.092163 132.0
1445.205688 140.0
1445.288818 44.0
1445.349365 160.0
1446.098633 204.0
1446.257568 112.0
1446.363525 236.0
1447.33252 76.0
1447.658203 120.0
1447.817139 84.0
1448.536743 120.0
1448.695801 84.0
1448.832153 60.0
1448.885254 116.0
1449.279175 116.0
1449.415527 132.0
1449.908081 156.0
1450.12793 220.0
1450.294678 180.0
1450.575073 208.0
1450.924072 244.0
1451.474365 144.0
1451.856445 88.0
1452.387329 144.0
1452.470825 152.0
1453.517822 108.0
1454.352539 140.0
1454.572754 140.0
1454.815674 160.0
1455.293945 128.0
1455.460938 132.0
1456.022949 180.0
1456.091309 132.0
1456.243164 164.0
1456.714111 168.0
1457.093994 192.0
1457.327148 156.0
1457.458618 168.0
1457.519409 40.0
1457.701782 188.0
1457.830933 140.0
1458.05896 180.0
1458.712646 100.0
1459.062378 152.0
1459.26001 180.0
1459.389282 168.0
1459.594482 108.0
1460.081177 176.0
1460.583252 180.0
1460.821411 156.0
1460.890381 168.0
1461.001587 156.0
1461.123291 164.0
1461.366821 148.0
1461.53418 92.0
1461.598633 164.0
1461.739624 68.0
1461.815674 172.0
1462.028809 136.0
1462.142944 112.0
1462.211426 316.0
1462.279907 52.0
1462.660522 88.0
1462.713745 152.0
1463.11731 108.0
1463.452271 160.0
1463.825317 120.0
1464.091919 104.0
1464.190918 156.0
1464.564087 120.0
1465.036377 164.0
1465.09729 200.0
1465.356323 60.0
1465.455444 156.0
1465.607788 96.0
1466.324097 108.0
1466.552734 156.0
1467.208374 116.0
1467.543823 176.0
1467.597168 160.0
1467.711304 128.0
1467.963135 112.0
1468.147583 196.0
1468.596191 156.0
1468.662842 184.0
1468.756348 100.0
1468.821533 176.0
1469.069092 148.0
1469.267456 156.0
1469.770996 136.0
1469.870239 196.0
1469.986938 148.0
1470.19751 160.0
1470.335693 52.0
1470.526489 88.0
1470.816528 168.0
1471.259277 136.0
1471.743652 200.0
1472.442871 64.0
1472.670044 132.0
1472.77124 160.0
1472.969849 64.0
1473.206665 96.0
1473.390015 184.0
1473.519897 116.0
1473.608765 184.0
1473.687988 168.0
1473.779663 168.0
1474.131104 184.0
1474.245728 48.0
1474.39856 132.0
1474.73291 136.0
1474.834229 100.0
1475.055908 144.0
1475.224121 140.0
1475.394409 204.0
1475.453491 72.0
1475.965698 172.0
1476.072754 216.0
1476.190796 172.0
1476.363281 176.0
1477.063599 108.0
1477.112915 160.0
1477.235229 140.0
1477.648438 156.0
1477.770752 216.0
1477.824341 228.0
1477.923828 100.0
1478.337036 144.0
1479.074341 200.0
1479.249634 200.0
1479.873535 204.0
1480.074707 192.0
1480.388672 148.0
1480.45752 36.0
1480.694946 144.0
1480.771484 356.0
1480.894043 160.0
1481.077881 96.0
1481.330688 140.0
1481.606445 136.0
1481.686157 160.0
1481.782715 172.0
1481.882324 208.0
1482.311401 148.0
1482.456909 180.0
1483.192749 188.0
1483.437988 68.0
1483.621948 184.0
1484.092529 236.0
1484.265991 212.0
1484.350342 116.0
1484.696899 176.0
1484.979248 132.0
1485.585205 72.0
1485.982422 164.0
1486.076172 172.0
1486.168213 104.0
1486.498169 48.0
1486.636353 156.0
1487.234985 56.0
1487.373169 260.0
1487.4729 164.0
1487.625732 312.0
1488.801147 204.0
1488.916382 40.0
1489.292725 160.0
1489.377197 64.0
1489.634521 296.0
1489.793335 96.0
1489.953369 216.0
1490.276001 140.0
1490.360596 128.0
1490.859985 40.0
1491.082886 92.0
1491.267334 176.0
1491.321167 128.0
1491.451782 132.0
1491.674683 136.0
1491.782349 184.0
1492.043701 176.0
1492.333618 152.0
1492.361206 108.0
1492.377563 184.0
1492.674194 116.0
1492.806152 148.0
1492.866455 140.0
1493.274048 112.0
1493.48938 156.0
1493.858643 144.0
1494.197144 144.0
1494.535645 136.0
1494.974243 168.0
1495.131836 172.0
1495.235962 100.0
1495.360962 156.0
1495.651489 68.0
1495.759277 88.0
1496.121094 172.0
1496.706299 136.0
1496.775513 76.0
1497.098999 208.0
1497.530273 128.0
1497.630371 152.0
1497.86145 136.0
1497.993408 144.0
1498.191772 176.0
1498.801392 248.0
1499.140381 76.0
1499.365112 176.0
1499.795532 172.0
1499.926514 84.0
1500.103882 172.0
1500.404541 136.0
1500.535522 128.0
1500.689819 224.0
1500.91333 140.0
1501.306641 108.0
1501.707642 68.0
1501.946777 152.0
1502.147339 48.0
1502.309326 144.0
1502.386475 252.0
1502.479004 232.0
1502.540771 108.0
1502.702759 136.0
1502.825684 172.0
1503.173462 156.0
1503.42041 88.0
1503.798584 160.0
1503.960693 148.0
1504.122803 100.0
