>compound Caseadine
>formula C20H23NO4
>ionization [M+H]+
>parentmass 342.1699846680906
#inchi InChI=1S/C20H23NO4/c1-23-16-5-4-12-6-7-21-11-14-10-18(25-3)17(24-2)9-13(14)8-15(21)19(12)20(16)22/h4-5,9-10,15,22H,6-8,11H2,1-3H3/t15-/m0/s1
#inchikey HXHKKYNHNQVAAX
#Ion_Source DI-ESI
#Instrument qTof
#Compound_Source Isolated
#PI Norberto Lopes
#Data_Collector Denise Silva
#Scan -1
#Precursor_MZ 342.2
#ExactMass 341.163
#Charge 1
#CAS_Number 34413-12-2
#Pubmed_ID N/A
#Smiles OC1=C([C@@](CC(C=C(OC)C(OC)=C2)=C2C3)([H])N3CC4)C4=CC=C1OC
#INCHI_AUX N/A
#Library_Class 3
#SpectrumID CCMSLIB00000081483
#IonMode Positive
#UpdateWorkflowName UPDATE-SINGLE-ANNOTATED-BRONZE
#LibraryQualityString Bronze
#TaskID 053e8682627d4c9488a292c234ed8aed
##Scan# 1
#SpectrumFile gnps_Caseadine_pos_MplusH.mgf
#LibraryName gnps_library.mgf
#MQScore -1
#Organism blank
#TIC_Query 0
#RT_Query -1
#MZErrorPPM -1
#SharedPeaks 0
#MassDiff 0
#LibMZ -1
#SpecMZ 342.2
#SpecCharge 0
#internalFilename spec-00000.mgf

>collision 10
162.057098 666.0
163.065918 2711.0
176.073471 210.0
178.089417 6682.0
294.116638 120.0
296.132263 120.0
326.145935 264.0
