>compound MLS002153535-01!Chloro-IB-MECA
>formula C18H18ClIN6O4
>ionization [M+H]+
>parentmass 545.0195551880905
#inchi InChI=1S/C18H18ClIN6O4/c1-21-16(29)13-11(27)12(28)17(30-13)26-7-23-10-14(24-18(19)25-15(10)26)22-6-8-3-2-4-9(20)5-8/h2-5,7,11-13,17,27-28H,6H2,1H3,(H,21,29)(H,22,24,25)/t11-,12+,13-,17+/m0/s1
#inchikey IPSYPUKKXMNCNQ
#Ion_Source LC-ESI
#Instrument qTof
#Compound_Source NIH Pharmacologically Active Library
#PI Dorrestein
#Data_Collector VP/LMS
#Scan -1
#Precursor_MZ 545.011
#ExactMass 544.012
#Charge 1
#CAS_Number N/A
#Pubmed_ID N/A
#Smiles CNC(=O)[C@H]1O[C@H]([C@H](O)[C@@H]1O)n2cnc3c(NCc4cccc(I)c4)nc(Cl)nc23
#INCHI_AUX N/A
#Library_Class 1
#SpectrumID CCMSLIB00000085336
#IonMode Positive
#UpdateWorkflowName UPDATE-SINGLE-ANNOTATED-GOLD
#LibraryQualityString Gold
#TaskID d252d724072548979f1f6f1ced849daf
##Scan# 2037
#SpectrumFile p3-H06_GH6_01_18311.mzXML
#LibraryName Pharm_Active_Library.mgf
#MQScore -1
#Organism Pharm_Active_Library
#TIC_Query 0
#RT_Query -1
#MZErrorPPM -1
#SharedPeaks 0
#MassDiff 0
#LibMZ -1
#SpecMZ 545.011
#SpecCharge 0
#internalFilename spec-00000.mgf

>collision 10
44.921978 212.0
45.067513 240.0
45.076866 296.0
45.102261 200.0
45.149059 196.0
45.307014 132.0
45.332474 104.0
45.347218 176.0
45.371346 196.0
45.384842 124.0
45.414261 132.0
45.647957 204.0
45.910572 160.0
46.14204 224.0
46.286266 140.0
46.397377 192.0
46.430161 300.0
46.486904 96.0
46.511333 184.0
46.538486 60.0
46.607765 172.0
46.664856 172.0
46.776417 160.0
46.829525 156.0
47.114635 164.0
47.489731 132.0
47.728699 140.0
47.756207 104.0
47.765835 204.0
47.793354 136.0
47.827759 168.0
48.060677 128.0
48.164227 148.0
48.341202 152.0
48.447823 240.0
48.472763 108.0
48.51712 176.0
48.537918 144.0
48.62532 120.0
48.680855 144.0
48.998009 156.0
49.155575 128.0
49.332966 132.0
49.406597 284.0
49.49107 156.0
49.961273 244.0
49.976749 124.0
50.128834 200.0
50.497326 104.0
51.041927 168.0
51.266857 196.0
51.507996 184.0
51.522282 180.0
51.589451 108.0
51.663334 124.0
51.755424 100.0
51.812717 216.0
51.831345 80.0
51.865742 104.0
51.963264 112.0
51.996986 88.0
52.072369 172.0
52.10828 156.0
52.209057 192.0
52.681702 148.0
52.720718 104.0
52.800236 140.0
52.878365 128.0
52.946415 144.0
53.330917 96.0
53.422531 148.0
53.692009 200.0
53.715347 124.0
53.7635 60.0
53.816051 228.0
53.836498 108.0
53.883244 96.0
54.026524 168.0
54.164135 140.0
54.284321 160.0
54.444286 192.0
54.557434 188.0
54.882832 156.0
54.94183 140.0
55.055489 144.0
55.108669 112.0
55.2733 192.0
55.284409 200.0
55.305367 176.0
55.410515 128.0
55.526142 180.0
55.719124 80.0
55.733982 124.0
55.818714 60.0
56.0569 156.0
56.247814 124.0
56.633614 84.0
56.744514 116.0
56.851017 140.0
56.876534 36.0
56.960629 228.0
57.088387 140.0
57.33831 232.0
57.425758 156.0
57.44537 124.0
57.461964 120.0
57.487617 344.0
57.748997 176.0
58.495583 200.0
59.041843 124.0
59.461647 104.0
59.489277 88.0
59.901421 168.0
60.117287 120.0
60.472767 116.0
60.795143 76.0
60.979965 112.0
61.045265 76.0
61.269413 72.0
61.305252 84.0
61.350452 116.0
61.534557 116.0
61.589218 124.0
61.758034 148.0
61.844097 112.0
61.908291 128.0
61.939613 148.0
62.530018 160.0
62.594566 132.0
62.644966 180.0
62.690662 100.0
63.657272 224.0
63.99757 148.0
64.281319 152.0
64.474556 128.0
64.50972 132.0
64.725723 116.0
64.778061 200.0
64.812225 108.0
64.882744 104.0
65.144341 108.0
65.174873 164.0
65.502281 200.0
65.564316 156.0
65.577209 160.0
65.740105 200.0
65.830513 88.0
65.929062 120.0
66.140945 148.0
66.204536 116.0
66.661583 92.0
66.692467 196.0
66.729858 176.0
66.778641 84.0
66.799789 100.0
67.029366 120.0
67.117393 232.0
67.363846 124.0
67.407959 76.0
67.42907 140.0
67.736832 120.0
67.981133 148.0
68.16671 116.0
68.285492 208.0
68.505653 148.0
68.555084 64.0
68.576515 140.0
68.625969 216.0
68.749695 108.0
68.827278 248.0
68.929703 140.0
69.045425 144.0
69.081818 68.0
69.191048 188.0
69.333336 200.0
69.348419 140.0
69.55909 92.0
69.575684 144.0
69.695274 256.0
69.808319 48.0
70.081314 68.0
70.159653 164.0
70.218018 88.0
70.32814 180.0
70.438347 52.0
70.680779 144.0
70.789589 172.0
70.864975 88.0
70.888435 252.0
71.057793 84.0
71.192085 136.0
71.218956 112.0
71.247513 148.0
71.469452 112.0
71.686684 64.0
71.725449 96.0
71.82663 136.0
71.858681 164.0
71.958267 168.0
72.145248 148.0
72.20668 124.0
72.342049 156.0
72.531784 180.0
72.65049 152.0
72.68103 108.0
72.77269 204.0
72.986794 132.0
73.071838 112.0
73.107574 104.0
73.124596 208.0
73.173958 164.0
73.201202 188.0
73.262146 180.0
73.288086 96.0
73.47052 84.0
73.719818 116.0
73.788193 36.0
73.85318 212.0
74.358643 184.0
74.508041 220.0
74.552719 44.0
74.64727 188.0
74.786629 36.0
74.886497 124.0
75.170967 164.0
75.210663 164.0
75.317726 112.0
75.390289 192.0
75.483643 160.0
75.689568 164.0
76.003326 188.0
76.114418 220.0
76.293381 148.0
76.455154 152.0
76.577026 168.0
76.655426 188.0
76.676346 152.0
76.721664 124.0
76.740845 72.0
76.889122 112.0
77.042786 232.0
77.108536 128.0
77.483673 144.0
77.618645 120.0
77.729362 104.0
77.792343 88.0
78.399185 96.0
78.437958 192.0
78.736153 200.0
78.753815 192.0
78.765976 172.0
79.100403 104.0
79.186554 264.0
79.244118 108.0
79.302338 152.0
79.334244 440.0
79.7603 92.0
79.850983 144.0
80.075249 160.0
80.119781 248.0
80.253456 160.0
80.267723 188.0
80.327232 208.0
80.344421 216.0
80.703423 160.0
80.866219 124.0
80.878754 144.0
81.124168 184.0
81.168991 56.0
81.296364 112.0
81.644897 204.0
81.785233 128.0
81.835648 132.0
81.851852 236.0
81.94912 124.0
82.149246 132.0
82.24308 168.0
82.376709 56.0
82.405617 164.0
82.494179 200.0
82.553841 112.0
82.742027 196.0
82.854324 176.0
82.906868 140.0
82.950371 96.0
82.979378 156.0
83.137192 176.0
83.26973 56.0
83.395103 164.0
83.467827 132.0
83.759026 188.0
83.910294 92.0
83.929085 188.0
84.034317 108.0
84.187653 208.0
84.326508 76.0
84.650337 96.0
84.831726 176.0
84.901405 216.0
85.028549 212.0
85.244705 124.0
85.329262 172.0
85.502182 144.0
85.67527 136.0
85.732391 128.0
85.811661 204.0
85.966606 124.0
86.072701 112.0
86.174629 196.0
86.434143 208.0
86.691551 156.0
86.943771 148.0
87.003174 84.0
87.064453 128.0
87.190788 120.0
87.224976 232.0
87.741783 172.0
87.788399 28.0
88.032875 52.0
88.152435 72.0
88.197296 152.0
88.343155 176.0
88.397415 184.0
88.438591 156.0
88.77021 108.0
88.914665 212.0
88.940948 164.0
89.037766 196.0
89.066757 92.0
89.382614 232.0
89.442841 92.0
89.50309 120.0
89.548286 164.0
89.567123 136.0
89.599152 180.0
89.702805 196.0
90.045372 476.0
90.067001 136.0
90.201164 84.0
90.238976 152.0
90.44519 176.0
90.551224 36.0
90.640266 88.0
90.75779 116.0
90.848831 84.0
90.962692 144.0
90.996872 160.0
91.044342 300.0
91.05764 164.0
91.141228 144.0
91.221054 148.0
91.285698 80.0
91.415062 84.0
91.453125 56.0
91.485481 96.0
91.691208 152.0
91.727425 176.0
91.87236 140.0
91.984955 144.0
92.012619 196.0
92.158752 220.0
92.187416 144.0
92.284904 104.0
92.430283 200.0
92.763542 112.0
93.074364 148.0
93.131973 156.0
93.16684 160.0
93.199219 108.0
93.212669 200.0
93.295319 156.0
93.699486 144.0
93.72068 44.0
93.780418 172.0
93.938545 136.0
94.046608 152.0
94.222336 112.0
94.496887 100.0
94.638184 140.0
94.659317 136.0
94.725342 88.0
95.01226 144.0
95.089882 160.0
95.492073 152.0
95.519302 292.0
95.651634 48.0
95.887321 180.0
96.053062 128.0
96.306824 132.0
96.45533 104.0
96.494431 160.0
96.539406 192.0
96.59417 160.0
96.609818 120.0
96.662651 180.0
96.742897 128.0
96.772263 104.0
96.958366 204.0
96.993645 72.0
97.019135 104.0
97.09726 180.0
97.136795 172.0
97.16819 136.0
97.303612 116.0
97.395912 132.0
97.578682 164.0
97.623909 156.0
97.647507 136.0
97.730133 160.0
98.057037 108.0
98.092522 76.0
98.112236 164.0
98.258179 84.0
98.323296 148.0
98.374619 124.0
98.414108 228.0
98.518784 108.0
98.880653 164.0
99.052917 140.0
99.195595 144.0
99.352264 68.0
99.534874 152.0
99.628227 176.0
99.680199 180.0
99.848045 212.0
99.992119 56.0
100.043877 216.0
100.306839 152.0
100.320793 144.0
100.491951 132.0
100.606079 60.0
100.620056 48.0
100.673965 184.0
100.689941 56.0
100.805817 132.0
100.905762 112.0
100.971756 68.0
101.022057 160.0
101.079781 84.0
101.14183 160.0
101.177864 200.0
101.382179 124.0
101.416252 236.0
101.656921 88.0
101.809502 148.0
102.055168 344.0
102.088844 192.0
102.123039 184.0
102.141144 164.0
102.41893 168.0
102.578125 132.0
102.592232 224.0
102.69104 172.0
102.737442 92.0
102.795563 104.0
102.947365 84.0
103.038811 176.0
103.290962 144.0
103.386063 140.0
103.541954 128.0
103.618927 152.0
103.715172 124.0
103.742561 140.0
103.760803 164.0
103.910889 100.0
104.044846 148.0
104.219521 96.0
104.402473 168.0
104.45536 92.0
104.940071 132.0
105.003288 156.0
105.080803 176.0
105.21347 152.0
105.32579 172.0
105.411598 144.0
105.462692 216.0
105.47905 152.0
105.503578 144.0
105.536293 108.0
105.740868 72.0
105.773613 204.0
106.021454 168.0
106.062447 160.0
106.378357 220.0
106.799614 104.0
106.886024 120.0
106.910713 184.0
106.937469 108.0
106.951881 92.0
106.99511 152.0
107.091896 180.0
107.161942 100.0
107.176369 124.0
107.300034 140.0
107.316528 116.0
107.47123 116.0
107.50592 168.0
107.840897 240.0
107.979424 180.0
108.014587 236.0
108.087006 184.0
108.149094 100.0
108.176003 84.0
108.443214 160.0
108.656815 120.0
108.721138 120.0
108.756424 132.0
108.860229 176.0
108.897614 56.0
109.01812 156.0
109.16156 84.0
109.180275 140.0
109.365456 160.0
109.421661 272.0
109.490379 148.0
109.913574 92.0
110.237251 188.0
110.281143 176.0
110.351692 188.0
110.406593 112.0
110.684349 160.0
110.745659 200.0
110.821075 164.0
111.003296 112.0
111.211143 156.0
111.400139 144.0
111.597694 112.0
111.721786 80.0
111.80806 72.0
111.835419 180.0
111.892258 180.0
111.906998 152.0
112.069183 176.0
112.08815 132.0
112.410789 168.0
112.436119 144.0
112.622711 128.0
112.674736 132.0
112.883995 36.0
112.983406 68.0
113.02784 172.0
113.118851 44.0
113.135788 196.0
113.293869 248.0
113.349716 216.0
113.421776 132.0
113.807899 172.0
113.856926 184.0
113.884354 96.0
113.958702 212.0
114.051041 196.0
114.198929 140.0
114.26062 184.0
114.326584 68.0
114.488205 144.0
114.688667 160.0
115.05986 108.0
115.091881 124.0
115.113235 192.0
115.318336 68.0
115.763344 144.0
116.047157 144.0
116.290764 136.0
116.320374 196.0
116.374489 148.0
116.397377 200.0
116.445351 92.0
116.492607 148.0
116.705383 148.0
116.838737 136.0
116.97216 144.0
117.127205 240.0
117.193993 184.0
117.267265 132.0
117.288818 68.0
117.383682 212.0
117.585403 120.0
117.61454 108.0
117.966743 96.0
118.05098 200.0
118.193748 108.0
118.479553 180.0
118.594406 116.0
118.678955 56.0
118.767876 180.0
118.835129 112.0
118.872017 128.0
118.961006 108.0
119.036819 192.0
119.19558 116.0
119.278168 184.0
119.464005 140.0
119.508705 188.0
119.56221 172.0
119.780846 188.0
119.800453 148.0
119.850563 220.0
119.909401 168.0
119.970436 116.0
120.022766 164.0
120.079468 120.0
120.247467 112.0
120.269295 108.0
120.492043 148.0
120.765305 140.0
120.907516 120.0
120.953484 196.0
121.043953 112.0
121.176865 200.0
121.388557 180.0
121.53479 100.0
121.609428 224.0
121.85923 104.0
121.894386 140.0
122.020287 72.0
122.046059 96.0
122.125237 176.0
122.193428 168.0
122.274849 208.0
122.401573 184.0
122.488434 92.0
122.512665 136.0
122.655907 160.0
122.813515 152.0
122.834526 168.0
122.869827 132.0
122.896301 116.0
122.962502 180.0
123.121468 188.0
123.185524 116.0
123.262856 120.0
123.543655 44.0
123.585693 188.0
123.71508 184.0
124.035179 172.0
124.190498 52.0
124.248177 188.0
124.265038 160.0
124.321404 144.0
124.35247 120.0
124.536766 128.0
124.687851 148.0
124.961372 132.0
125.086357 176.0
125.215691 148.0
125.259697 72.0
125.422363 228.0
125.458031 124.0
125.623062 88.0
125.707848 204.0
125.821686 60.0
125.841782 128.0
125.875275 108.0
125.911011 164.0
125.938713 200.0
125.991425 172.0
126.031639 112.0
126.049515 116.0
126.201523 52.0
126.65583 124.0
126.702881 148.0
126.796989 80.0
126.940475 140.0
127.263603 168.0
127.315254 228.0
127.37365 220.0
127.407349 136.0
127.526497 184.0
127.706322 140.0
127.758064 180.0
127.97863 168.0
128.088989 132.0
128.173691 304.0
128.212921 120.0
128.244461 120.0
128.278275 140.0
128.339157 152.0
128.472229 112.0
128.62793 128.0
128.747604 28.0
128.815369 160.0
128.898972 112.0
129.103241 100.0
129.244934 100.0
129.392059 128.0
129.407913 136.0
129.505295 104.0
129.733276 204.0
129.879288 160.0
130.396988 100.0
130.44017 184.0
130.68808 136.0
130.815521 152.0
130.865616 120.0
130.911163 144.0
130.963547 120.0
131.004547 216.0
131.225616 52.0
131.670609 48.0
131.720856 196.0
132.132355 176.0
132.164398 120.0
132.219315 132.0
132.317749 180.0
132.659103 164.0
132.798981 136.0
132.858627 180.0
133.198395 112.0
133.294891 52.0
133.389114 124.0
133.736465 152.0
133.764084 168.0
133.782501 176.0
133.985168 184.0
134.048111 712.0
134.164932 128.0
134.206436 128.0
134.381729 188.0
134.411728 192.0
134.550217 136.0
134.594086 124.0
134.795059 208.0
134.915253 232.0
135.007736 144.0
135.111832 124.0
135.144226 64.0
135.197449 120.0
135.389603 160.0
135.435928 312.0
135.572617 88.0
135.623611 156.0
135.676926 40.0
135.802155 72.0
135.869431 136.0
135.94368 100.0
136.050446 252.0
136.122437 140.0
136.217651 144.0
136.273422 116.0
136.459351 48.0
136.708252 144.0
136.768768 144.0
136.871201 220.0
136.934082 116.0
136.980667 152.0
137.133438 172.0
137.619705 68.0
137.794876 252.0
138.126846 96.0
138.439346 228.0
138.597443 56.0
138.766205 228.0
138.916306 168.0
139.148651 140.0
139.30835 188.0
139.449966 196.0
139.522202 204.0
139.595108 128.0
139.618622 208.0
139.755051 40.0
139.799774 128.0
139.877441 92.0
139.933945 56.0
139.990463 216.0
140.270844 124.0
140.400528 136.0
140.445328 204.0
140.541092 132.0
140.752151 160.0
140.88678 140.0
141.130219 156.0
141.231903 36.0
141.333633 164.0
141.404282 132.0
141.532471 152.0
141.636688 112.0
141.801453 156.0
141.840469 188.0
141.90448 224.0
141.966125 112.0
141.994598 136.0
142.04866 344.0
142.174896 180.0
142.248489 128.0
142.702255 160.0
142.797379 144.0
142.990097 108.0
143.055496 136.0
143.166275 236.0
143.31636 148.0
143.440292 148.0
143.464127 140.0
143.549957 128.0
143.571426 136.0
143.640594 128.0
143.781372 188.0
143.986694 220.0
144.048798 124.0
144.309311 88.0
144.538589 164.0
144.560471 184.0
144.646637 156.0
145.080246 108.0
145.164169 116.0
145.356079 132.0
145.41127 44.0
145.531296 148.0
145.552917 220.0
145.627365 220.0
145.718643 48.0
145.86525 116.0
145.906403 172.0
145.971039 144.0
145.997498 168.0
146.046204 300.0
146.187546 120.0
146.336792 116.0
146.413849 100.0
146.45961 68.0
146.54393 124.0
146.582489 112.0
146.608994 196.0
146.657196 144.0
147.021393 232.0
147.39328 132.0
147.41745 128.0
147.555237 200.0
147.576996 184.0
147.632614 216.0
147.72937 80.0
147.879395 220.0
148.293564 160.0
148.36145 124.0
148.42691 248.0
148.528778 132.0
148.812714 148.0
148.897705 176.0
149.092072 144.0
149.284134 120.0
149.340073 148.0
149.434952 140.0
149.588272 144.0
149.624786 144.0
149.644272 216.0
149.702713 60.0
149.768463 156.0
150.280426 88.0
150.400009 120.0
150.458603 148.0
150.517197 204.0
150.578247 148.0
150.693069 40.0
150.881256 136.0
150.988861 104.0
151.020645 248.0
151.546997 128.0
151.736862 164.0
151.865692 132.0
152.344376 112.0
152.391571 164.0
152.494263 128.0
152.801651 48.0
152.863174 96.0
152.895172 48.0
152.996094 168.0
153.030563 160.0
153.129059 104.0
153.43956 200.0
153.604172 256.0
153.6492 144.0
153.760239 176.0
153.858978 152.0
153.992325 176.0
154.051605 112.0
154.340775 136.0
154.380341 128.0
154.652496 144.0
154.845627 108.0
154.965714 192.0
155.018188 392.0
155.048798 132.0
155.078537 116.0
155.105804 180.0
155.239685 112.0
155.286804 156.0
155.430695 148.0
155.450546 136.0
155.601959 260.0
155.621826 136.0
155.962173 72.0
155.999466 208.0
156.21431 92.0
156.230209 168.0
156.551849 148.0
156.788513 164.0
156.848343 144.0
156.919296 104.0
157.022873 188.0
157.177551 128.0
157.22995 144.0
157.282379 112.0
157.302338 120.0
157.344788 120.0
157.7845 64.0
157.979584 200.0
158.04213 192.0
158.094681 204.0
158.182281 180.0
158.202301 92.0
158.26741 120.0
158.367584 180.0
158.575546 160.0
158.603119 136.0
158.756058 132.0
158.950302 148.0
159.287537 80.0
159.298599 184.0
159.320831 172.0
159.348465 32.0
159.373581 156.0
159.622437 104.0
159.647598 52.0
159.733109 136.0
159.850296 208.0
159.916794 132.0
159.944489 184.0
160.017487 184.0
160.059952 3932.0
160.088989 112.0
160.118225 116.0
160.153488 216.0
160.206375 52.0
160.236618 132.0
160.26181 144.0
160.307175 64.0
160.334885 52.0
160.370178 104.0
160.428162 104.0
160.478577 92.0
160.556641 184.0
160.809052 120.0
160.996948 132.0
161.003906 160.0
161.062775 372.0
161.12471 56.0
161.203033 156.0
161.294022 232.0
161.395157 168.0
161.541855 136.0
161.564621 116.0
161.584854 124.0
161.716446 124.0
161.805054 152.0
161.98233 72.0
162.13942 140.0
162.522339 64.0
162.552795 188.0
162.578171 116.0
162.634018 132.0
162.674622 120.0
162.74826 136.0
162.880325 172.0
163.115341 140.0
163.215805 84.0
163.271744 200.0
163.348053 220.0
163.370941 152.0
163.421829 176.0
163.872513 52.0
164.19371 156.0
165.192444 108.0
165.389481 40.0
165.696777 124.0
165.730087 68.0
165.860794 176.0
165.90181 104.0
166.009506 120.0
166.027451 140.0
166.07106 80.0
166.291718 184.0
166.408585 152.0
166.594727 160.0
166.614288 188.0
166.676941 140.0
166.694931 144.0
166.736053 52.0
166.923721 192.0
167.006012 144.0
167.060043 168.0
167.276199 160.0
167.629059 112.0
167.729584 164.0
167.763092 176.0
167.830704 144.0
167.876541 80.0
167.938446 140.0
167.956497 80.0
168.152603 128.0
168.181854 88.0
168.465042 80.0
168.506378 108.0
168.596817 28.0
168.651093 144.0
168.868668 140.0
168.896744 132.0
168.951065 84.0
169.028687 124.0
169.240952 124.0
169.284973 120.0
169.334183 168.0
169.771439 224.0
170.023636 216.0
170.06601 144.0
170.109497 164.0
170.212158 228.0
170.26268 48.0
170.306839 144.0
170.473114 176.0
170.597885 88.0
170.808517 56.0
170.83194 100.0
170.878769 128.0
171.022232 132.0
171.073959 152.0
171.141647 216.0
171.269257 208.0
171.485535 164.0
171.840195 132.0
171.871506 144.0
172.028091 132.0
172.077698 180.0
172.302322 120.0
172.487869 148.0
172.697052 100.0
172.728439 112.0
172.80603 232.0
173.052963 140.0
173.210098 184.0
173.231049 160.0
173.427582 140.0
173.535065 48.0
174.105103 176.0
174.438202 64.0
174.467117 88.0
174.498672 68.0
174.669617 188.0
174.78537 148.0
174.806427 152.0
174.853806 132.0
175.283066 184.0
175.520309 120.0
175.55722 136.0
175.675919 152.0
175.818405 136.0
175.87912 136.0
175.913437 120.0
176.008484 172.0
176.029602 124.0
176.061295 160.0
176.103119 168.0
176.575104 108.0
176.597824 108.0
176.703644 204.0
176.761856 208.0
176.923309 148.0
176.978912 136.0
177.214645 184.0
177.339203 180.0
177.651794 68.0
177.689255 120.0
177.72905 116.0
177.78743 148.0
177.813965 152.0
177.933426 152.0
178.252167 148.0
178.287003 148.0
178.318604 144.0
178.694977 188.0
178.99968 208.0
179.119522 152.0
179.199448 128.0
179.380936 164.0
179.425995 112.0
179.466461 136.0
179.606079 144.0
179.778091 76.0
179.986313 56.0
180.058426 168.0
180.125198 128.0
180.258789 176.0
180.387085 64.0
180.453918 192.0
180.822006 168.0
180.975662 132.0
181.064819 208.0
181.105927 156.0
181.160477 164.0
181.21138 152.0
181.267639 100.0
181.484772 60.0
181.533035 148.0
181.575943 168.0
181.731537 76.0
181.903152 144.0
182.02298 1892.0
182.056351 104.0
182.107376 164.0
182.153046 76.0
182.172943 168.0
182.241699 72.0
182.327698 132.0
182.408325 60.0
182.518555 92.0
182.54007 76.0
182.599243 236.0
182.752579 100.0
183.020248 144.0
183.030365 180.0
183.199509 184.0
183.256088 112.0
183.336929 220.0
183.447433 124.0
183.471817 184.0
183.665787 124.0
183.935715 152.0
184.020996 480.0
184.11615 368.0
184.181442 144.0
184.235458 128.0
184.332733 196.0
184.524643 68.0
184.684204 96.0
184.74913 156.0
184.906067 164.0
184.960205 148.0
185.000809 192.0
185.028564 164.0
185.052246 80.0
185.287888 52.0
185.347488 140.0
185.594162 116.0
185.621277 160.0
185.678238 108.0
185.721634 48.0
186.229202 180.0
186.313416 252.0
186.359604 92.0
186.407639 136.0
186.740204 116.0
186.792221 164.0
186.908875 116.0
186.974182 144.0
187.0504 188.0
187.314545 148.0
187.507996 176.0
187.581604 40.0
187.63884 144.0
187.829742 140.0
188.080795 104.0
188.411224 100.0
188.465866 112.0
188.509583 52.0
188.728271 116.0
188.845871 192.0
188.97171 128.0
189.149597 148.0
189.371399 216.0
189.596054 92.0
189.700211 180.0
189.774246 120.0
189.818115 48.0
189.878448 120.0
190.386185 160.0
190.430115 284.0
190.828598 224.0
190.949585 152.0
191.007355 100.0
191.186203 172.0
191.235733 108.0
191.280121 132.0
191.332092 64.0
191.406433 188.0
191.51384 132.0
191.662613 176.0
191.789383 140.0
191.874832 124.0
192.175476 176.0
192.266541 368.0
192.365906 68.0
192.520523 88.0
192.780212 124.0
192.832733 136.0
192.954361 60.0
192.990295 108.0
193.203262 172.0
193.236465 108.0
193.272446 80.0
193.391449 168.0
193.452347 144.0
193.588013 124.0
193.776367 104.0
193.909393 112.0
194.006409 112.0
194.036911 116.0
194.106232 84.0
194.231033 188.0
194.36142 132.0
194.605698 136.0
194.811218 80.0
194.85289 52.0
194.977936 156.0
195.016846 116.0
195.063309 156.0
195.328278 144.0
195.392258 164.0
195.470169 112.0
195.670578 128.0
195.72905 92.0
195.890594 120.0
195.96582 152.0
195.993683 140.0
196.086945 172.0
196.146957 132.0
196.383972 140.0
196.438553 156.0
196.623932 52.0
196.769394 144.0
196.861237 112.0
196.978531 76.0
197.154572 44.0
197.347443 60.0
197.487274 180.0
197.546021 224.0
197.624359 44.0
197.719498 212.0
197.772675 176.0
198.080704 264.0
198.43663 164.0
198.776031 204.0
198.969696 188.0
199.028671 152.0
199.121338 208.0
199.275848 128.0
199.329224 52.0
199.374191 200.0
199.444458 100.0
199.585037 148.0
199.624405 92.0
199.984512 108.0
200.029556 332.0
200.173141 92.0
200.204132 108.0
200.347778 192.0
200.40976 104.0
200.559128 344.0
200.951126 36.0
200.984985 180.0
201.106339 164.0
201.162796 44.0
201.227722 276.0
201.481918 88.0
201.546906 196.0
202.109604 352.0
202.160538 372.0
202.282257 104.0
202.432312 148.0
202.467514 148.0
202.982071 236.0
203.055801 132.0
203.180618 148.0
203.68309 140.0
203.98999 200.0
204.200409 136.0
204.248764 156.0
204.27153 144.0
204.504868 112.0
204.655746 84.0
204.872208 132.0
204.897842 136.0
204.917786 120.0
204.940582 152.0
205.023224 120.0
205.108734 124.0
205.165741 212.0
205.2798 92.0
205.430969 188.0
205.599319 160.0
205.710632 144.0
205.881958 152.0
206.005127 160.0
206.130493 156.0
206.565079 144.0
206.668076 196.0
206.699554 152.0
206.753922 152.0
206.856964 168.0
207.209229 96.0
207.237869 32.0
207.283722 204.0
207.556046 92.0
207.650681 232.0
207.891678 164.0
208.173019 124.0
208.779388 228.0
208.859924 140.0
208.983627 56.0
209.126465 172.0
209.35498 92.0
209.496109 168.0
209.550858 104.0
209.617126 176.0
209.637299 124.0
209.844849 156.0
209.989029 188.0
210.396286 152.0
210.447876 64.0
211.005508 140.0
211.103821 180.0
211.181915 144.0
211.228195 112.0
211.288956 188.0
211.505997 120.0
211.601532 112.0
211.67392 120.0
212.291168 148.0
212.415894 60.0
212.508728 120.0
212.552246 108.0
212.578369 280.0
212.702026 92.0
212.924683 148.0
213.092331 204.0
213.365524 40.0
213.452759 156.0
213.470978 152.0
213.871704 124.0
213.924103 208.0
213.985245 124.0
214.127365 124.0
214.138763 100.0
214.241074 200.0
214.34024 228.0
214.410233 164.0
214.585236 164.0
214.868073 84.0
215.002579 96.0
215.227371 60.0
215.250732 96.0
215.285767 100.0
215.428894 156.0
215.48732 152.0
215.513626 180.0
215.636368 104.0
215.683502 220.0
215.811768 108.0
215.873169 120.0
215.89949 88.0
215.919968 112.0
216.012054 124.0
216.0867 132.0
216.158859 152.0
216.186188 164.0
216.237656 112.0
216.265213 92.0
216.297409 212.0
216.357559 124.0
216.427322 108.0
216.446732 116.0
216.478943 232.0
216.523911 124.0
216.559113 160.0
216.587311 236.0
216.616882 164.0
216.655441 124.0
216.696274 284.0
216.732849 160.0
216.756348 184.0
216.767853 128.0
216.777969 108.0
216.809982 128.0
216.856171 116.0
216.865082 120.0
216.876022 360.0
216.881866 312.0
216.951965 152524.0
217.027618 208.0
217.061707 128.0
217.067673 40.0
217.135239 64.0
217.145004 60.0
217.1819 80.0
217.207275 232.0
217.218567 64.0
217.265732 176.0
217.293579 176.0
217.337128 220.0
217.389557 264.0
217.40741 92.0
217.43483 1280.0
217.47438 228.0
217.496323 144.0
217.558136 136.0
217.610809 64.0
217.660477 96.0
217.73941 232.0
217.777084 72.0
217.806244 128.0
217.846741 72.0
217.888763 68.0
217.954102 12700.0
218.009735 104.0
218.076248 92.0
218.110245 180.0
218.135223 88.0
218.157135 84.0
218.198425 56.0
218.236404 112.0
218.280762 112.0
218.339584 64.0
218.366043 76.0
218.409088 76.0
218.460983 44.0
218.492004 44.0
218.521957 120.0
218.559525 68.0
218.592575 80.0
218.645981 100.0
218.696793 52.0
218.803162 96.0
218.830795 56.0
218.860458 84.0
218.907227 68.0
218.961121 536.0
218.991791 76.0
219.011734 76.0
219.037155 144.0
219.0784 56.0
219.104919 28.0
219.138641 100.0
219.220016 124.0
219.239059 76.0
219.299408 60.0
219.328674 112.0
219.370529 64.0
219.402588 124.0
219.444687 116.0
219.485489 168.0
219.525757 88.0
219.554123 132.0
219.575974 120.0
219.620285 276.0
219.637161 88.0
219.64418 188.0
219.711838 148.0
219.722458 156.0
219.780121 128.0
219.847992 52.0
219.889297 128.0
219.918823 72.0
219.98671 44.0
220.069382 64.0
220.143204 56.0
220.19046 120.0
220.211136 180.0
220.261337 72.0
220.438614 84.0
220.488861 104.0
220.521469 112.0
220.56102 116.0
220.607086 76.0
220.672134 132.0
220.846619 84.0
220.900482 152.0
221.11142 40.0
221.133621 68.0
221.435623 100.0
221.853439 76.0
221.912735 180.0
222.077209 360.0
222.553635 244.0
222.624908 48.0
222.773422 60.0
222.910095 44.0
223.082092 1140.0
223.257919 64.0
223.338211 208.0
223.662552 104.0
223.927551 104.0
224.019897 52.0
224.085724 172.0
224.174835 160.0
224.780197 104.0
224.929428 100.0
224.965256 72.0
225.100983 160.0
225.41925 52.0
225.550751 212.0
225.589615 176.0
225.661377 68.0
225.748093 192.0
225.927551 96.0
226.033524 144.0
226.151993 112.0
226.265747 56.0
226.403488 108.0
226.513153 124.0
226.556244 92.0
226.70607 68.0
226.758636 104.0
226.771576 56.0
226.779892 152.0
227.143814 60.0
227.401871 160.0
227.996552 156.0
228.086716 56.0
228.137817 120.0
228.673264 140.0
228.802704 44.0
228.893951 144.0
229.353989 76.0
229.456482 72.0
229.500443 152.0
229.604233 152.0
229.676636 92.0
229.83049 36.0
229.939133 124.0
230.322601 84.0
230.452499 80.0
230.597565 208.0
231.350769 124.0
231.396179 132.0
231.52034 128.0
231.644516 80.0
231.811157 140.0
231.964737 152.0
232.03244 120.0
232.072647 212.0
232.250778 92.0
232.284149 128.0
232.499573 140.0
232.964142 116.0
233.064407 140.0
233.134308 88.0
233.222443 164.0
233.727295 140.0
234.07431 148.0
234.500824 160.0
234.994858 180.0
235.431366 152.0
235.486343 128.0
236.330093 144.0
236.513718 100.0
236.795425 120.0
236.933258 156.0
237.359314 100.0
237.834854 160.0
238.006775 144.0
238.089691 144.0
238.114258 140.0
238.768906 28.0
239.059845 112.0
239.535324 116.0
239.757172 120.0
239.935959 144.0
240.225861 104.0
240.682632 144.0
241.121307 76.0
241.643921 60.0
241.857452 48.0
241.931747 104.0
242.03392 164.0
242.399445 144.0
242.796265 180.0
242.917236 112.0
242.96376 132.0
243.177887 152.0
243.534958 144.0
243.61882 160.0
244.05394 112.0
244.573486 172.0
244.769638 160.0
244.863068 132.0
245.299286 144.0
245.386581 128.0
245.670395 88.0
246.572815 88.0
246.66658 64.0
246.769745 104.0
247.607361 144.0
248.1129 180.0
248.156799 104.0
248.482986 80.0
248.586548 148.0
251.021393 188.0
251.43782 112.0
251.800903 128.0
252.170578 216.0
252.749313 152.0
252.82843 228.0
252.885391 148.0
253.240021 108.0
254.394257 112.0
254.587036 144.0
254.689575 176.0
255.016861 100.0
255.074066 136.0
255.102676 96.0
255.29982 92.0
255.414322 156.0
256.038177 144.0
256.079559 212.0
256.375854 76.0
256.614929 124.0
257.623108 140.0
257.977051 56.0
258.051483 152.0
258.425964 220.0
258.806854 84.0
258.870911 60.0
258.976593 120.0
259.062073 1004.0
259.928772 140.0
260.043274 188.0
260.198395 196.0
260.677002 112.0
260.760559 108.0
260.975952 80.0
261.054565 156.0
261.184967 176.0
261.725647 84.0
261.963989 128.0
261.99942 52.0
262.055145 124.0
262.173431 156.0
262.347504 252.0
263.583679 164.0
264.443939 112.0
264.722351 140.0
264.845428 160.0
265.08194 168.0
265.341248 64.0
265.367188 92.0
265.681793 156.0
265.863495 220.0
266.15567 68.0
267.036377 188.0
267.153473 140.0
267.622131 128.0
268.485687 112.0
269.288574 32.0
269.425781 144.0
269.585876 180.0
269.79834 160.0
270.027252 132.0
270.054413 156.0
270.223511 100.0
270.675232 52.0
270.734161 72.0
270.809509 92.0
271.209259 84.0
271.396118 128.0
271.872223 128.0
271.983368 196.0
272.049011 176.0
272.180359 124.0
272.239471 160.0
272.308441 80.0
273.074249 212.0
273.107147 124.0
273.1828 140.0
273.498291 156.0
273.946564 48.0
274.044373 228.0
274.836731 168.0
275.054993 176.0
275.417786 148.0
276.039154 144.0
276.088745 128.0
276.164825 112.0
276.806885 200.0
277.042023 120.0
277.565704 116.0
278.747467 132.0
279.099823 168.0
279.58551 72.0
279.685364 144.0
279.981689 148.0
280.117126 164.0
280.946503 188.0
280.995056 92.0
281.258698 132.0
281.649384 68.0
282.091919 120.0
282.164032 48.0
282.823059 176.0
282.96701 220.0
283.084198 152.0
283.110992 140.0
284.314545 60.0
284.707336 156.0
284.841705 108.0
285.026489 188.0
285.328979 188.0
285.423126 200.0
285.574463 88.0
286.018646 112.0
286.267792 132.0
286.854034 204.0
286.884369 184.0
287.194611 116.0
287.758209 184.0
288.247986 80.0
288.339233 92.0
288.619812 152.0
288.684052 172.0
288.858948 240.0
289.079865 156.0
289.577545 164.0
289.984131 136.0
290.072266 172.0
290.431702 92.0
290.519897 108.0
291.050049 644.0
291.24295 152.0
291.343414 104.0
291.460388 64.0
291.752686 96.0
291.786682 60.0
291.810486 116.0
291.929504 112.0
291.993195 132.0
292.046509 364.0
292.106354 76.0
292.330902 160.0
292.460236 152.0
293.052246 296.0
293.304993 60.0
294.060944 208.0
294.123657 168.0
294.242126 148.0
295.162292 148.0
295.733612 88.0
296.829926 120.0
297.080322 84.0
297.207275 196.0
297.265594 120.0
297.79776 192.0
297.835541 164.0
298.323486 148.0
299.720856 152.0
300.065033 132.0
300.073242 172.0
300.372467 112.0
300.472534 108.0
300.676117 160.0
300.793488 152.0
301.194031 128.0
301.473602 144.0
301.570679 128.0
301.916412 152.0
302.525391 56.0
302.646576 160.0
302.795502 108.0
303.245911 164.0
303.509369 160.0
303.575256 184.0
303.842346 116.0
304.055695 140.0
304.564423 124.0
305.0961 212.0
305.78833 92.0
306.383789 52.0
306.564972 28.0
307.039124 116.0
307.325165 112.0
307.805634 56.0
307.890686 108.0
307.969025 440.0
308.965424 260.0
308.985596 156.0
309.05304 160.0
309.15976 168.0
309.275269 172.0
309.303253 152.0
309.397797 112.0
309.84256 96.0
310.252625 116.0
310.494568 88.0
310.644836 172.0
310.961212 136.0
311.143738 60.0
311.417633 80.0
311.477356 140.0
311.61438 84.0
311.88147 132.0
312.69397 136.0
312.739716 192.0
313.021362 64.0
313.05307 240.0
313.604156 148.0
314.184509 156.0
314.293884 172.0
314.788086 184.0
315.409485 140.0
316.053589 136.0
316.559784 72.0
316.648346 160.0
316.814819 152.0
317.513123 172.0
319.196442 184.0
319.303131 140.0
319.477417 132.0
319.932953 120.0
320.887787 156.0
320.948395 72.0
321.119568 164.0
321.155243 160.0
321.230164 140.0
321.265808 144.0
321.433533 116.0
321.462067 144.0
321.561981 156.0
322.183319 136.0
322.805267 148.0
322.898254 68.0
322.923279 96.0
322.980774 224.0
323.803741 180.0
323.965851 80.0
323.989563 152.0
324.205017 76.0
324.688995 124.0
324.875519 116.0
324.96521 128.0
325.176941 60.0
325.230774 168.0
325.29541 96.0
326.283356 100.0
326.355255 144.0
326.44516 76.0
326.527863 176.0
326.639374 96.0
326.884033 96.0
327.2836 124.0
328.452423 132.0
328.678589 252.0
328.898743 156.0
330.478027 200.0
330.821869 180.0
330.926849 60.0
331.187622 160.0
331.781921 160.0
332.003662 132.0
332.06839 124.0
332.914001 188.0
332.964844 128.0
333.054718 172.0
333.251831 72.0
333.84436 148.0
334.000763 84.0
335.089264 164.0
335.905884 160.0
336.900116 152.0
337.052307 252.0
337.607971 152.0
337.673798 112.0
338.515533 148.0
338.563141 172.0
338.654724 128.0
339.710419 128.0
339.776459 144.0
340.360046 144.0
341.223511 224.0
341.263947 32.0
341.363251 172.0
341.403687 184.0
341.697968 108.0
342.220612 56.0
342.272156 108.0
342.452637 100.0
342.599976 72.0
342.817352 168.0
343.178619 100.0
343.300293 172.0
343.669189 164.0
343.91275 124.0
343.963989 132.0
344.064117 140.0
344.256104 160.0
345.257629 176.0
346.005096 184.0
346.11618 224.0
346.490265 148.0
346.623657 172.0
346.949829 108.0
347.743683 124.0
348.28949 96.0
348.980743 200.0
349.371246 156.0
349.929535 132.0
349.990173 2532.0
350.167847 100.0
350.339203 40.0
350.421173 76.0
350.857239 40.0
350.898254 40.0
350.991241 312.0
351.297302 40.0
351.845886 144.0
351.935516 144.0
352.077423 172.0
352.122223 188.0
352.18573 100.0
352.746246 40.0
352.93692 88.0
353.247345 128.0
353.355835 88.0
353.643829 104.0
353.696381 144.0
353.950958 112.0
354.029602 120.0
354.161987 92.0
355.657471 184.0
355.85202 192.0
356.103638 140.0
356.344055 108.0
356.490601 100.0
356.64093 92.0
357.344177 116.0
357.577484 116.0
357.626434 84.0
358.523682 88.0
358.579346 116.0
358.609497 200.0
358.779114 172.0
358.858307 104.0
359.359955 72.0
359.74115 148.0
359.767548 212.0
359.997894 204.0
360.220734 56.0
360.345764 164.0
360.67041 136.0
360.882111 172.0
360.991791 236.0
361.025818 84.0
361.381409 204.0
361.426788 52.0
362.38855 80.0
362.714996 120.0
362.979889 28.0
363.34021 172.0
363.795624 204.0
364.578094 172.0
364.958221 172.0
365.017853 136.0
365.281494 32.0
365.315735 132.0
365.578278 160.0
365.684845 252.0
365.875183 84.0
365.90564 92.0
366.438843 108.0
367.548431 144.0
367.640015 48.0
367.991211 144.0
368.039124 80.0
368.434235 112.0
368.472443 184.0
368.536804 132.0
368.667328 84.0
369.103119 172.0
369.466461 136.0
369.952515 160.0
370.205231 68.0
370.465668 80.0
370.503998 100.0
370.588287 168.0
371.669586 112.0
371.734802 120.0
372.375946 176.0
372.725555 140.0
372.910034 112.0
373.052246 108.0
373.280975 172.0
373.325256 124.0
373.613739 180.0
373.644501 236.0
374.00238 36.0
374.040894 328.0
374.164734 216.0
374.576141 60.0
375.335419 96.0
375.420258 172.0
375.887024 100.0
375.929474 96.0
376.045258 48.0
377.142212 184.0
378.012421 136.0
378.445953 176.0
378.992096 72.0
379.604553 52.0
380.330078 140.0
380.38443 232.0
380.462067 128.0
380.528076 96.0
380.691162 80.0
380.94751 100.0
380.999664 196.0
381.386627 136.0
381.632416 72.0
381.724854 120.0
381.868744 204.0
381.896606 104.0
382.553619 80.0
382.627594 44.0
382.939117 104.0
383.22348 164.0
383.418335 176.0
383.952454 156.0
384.122131 92.0
384.346466 52.0
384.423706 176.0
384.439026 232.0
384.494751 76.0
384.561127 160.0
384.631378 104.0
384.695526 156.0
384.708771 68.0
384.723206 144.0
384.760193 180.0
384.830475 104.0
384.881226 68.0
384.937683 308.0
384.962708 128.0
384.995422 132.0
385.062561 176.0
385.08902 128.0
385.131195 188.0
385.252289 152.0
385.299164 140.0
385.357758 124.0
385.433075 224.0
385.506256 152.0
385.574463 164.0
385.60614 220.0
385.64859 124.0
385.702789 240.0
385.728088 116.0
385.752808 164.0
385.788879 204.0
385.861176 140.0
385.966736 104356.0
386.065155 120.0
386.082428 124.0
386.097229 152.0
386.135406 188.0
386.230347 72.0
386.268677 80.0
386.302032 88.0
386.360413 192.0
386.42926 120.0
386.487671 276.0
386.564484 56.0
386.610809 340.0
386.661804 60.0
386.692963 128.0
386.728546 172.0
386.799438 72.0
386.850891 124.0
386.865631 200.0
386.894836 128.0
386.968903 13776.0
387.078308 100.0
387.093201 120.0
387.152863 76.0
387.199951 100.0
387.246979 56.0
387.312042 64.0
387.370636 64.0
387.407867 188.0
387.443604 72.0
387.468781 64.0
387.498291 176.0
387.534729 84.0
387.610626 344.0
387.664795 84.0
387.701202 88.0
387.744843 180.0
387.795807 72.0
387.845581 216.0
387.963806 28844.0
388.114868 248.0
388.157715 64.0
388.193542 116.0
388.269897 156.0
388.353363 60.0
388.411407 52.0
388.453247 72.0
388.554993 84.0
388.583008 76.0
388.610413 72.0
388.703705 48.0
388.722656 84.0
388.786774 176.0
388.964813 3236.0
389.032745 108.0
389.076141 100.0
389.142944 60.0
389.18222 64.0
389.212036 144.0
389.255249 140.0
389.300476 116.0
389.370941 52.0
389.378021 136.0
389.412323 276.0
389.441223 216.0
389.504028 92.0
389.547363 116.0
389.577301 112.0
389.607208 176.0
389.634583 164.0
389.689667 80.0
389.785553 72.0
389.868073 60.0
389.961426 272.0
390.05954 56.0
390.11203 64.0
390.217926 72.0
390.405426 100.0
390.442078 44.0
390.497131 80.0
390.523407 104.0
390.560059 148.0
390.587585 40.0
390.622467 88.0
390.67807 204.0
390.725281 52.0
390.855133 68.0
390.89447 108.0
390.929901 48.0
390.961395 68.0
391.02829 52.0
391.060547 100.0
391.102478 80.0
391.170227 68.0
391.262329 132.0
391.327454 60.0
391.38974 88.0
391.435822 100.0
391.520416 84.0
391.582794 100.0
391.721313 112.0
391.945862 144.0
392.068054 80.0
392.233429 104.0
392.288757 116.0
392.41098 84.0
392.503998 88.0
392.584503 44.0
392.821136 88.0
392.864532 60.0
392.971069 120.0
393.121002 40.0
393.424927 48.0
393.496826 76.0
393.586823 84.0
393.75705 76.0
393.819824 56.0
394.254425 92.0
394.329529 44.0
394.614136 48.0
394.847473 68.0
395.975433 84.0
396.042786 52.0
396.656982 44.0
396.960571 144.0
396.997955 80.0
397.112976 88.0
397.168488 40.0
397.906647 64.0
397.967651 292.0
398.109161 132.0
398.272003 140.0
398.816345 52.0
398.961334 156.0
399.078735 116.0
399.548065 140.0
399.58786 72.0
399.981049 184.0
400.208771 100.0
400.996613 120.0
401.351471 108.0
401.543762 80.0
401.918762 96.0
402.202118 88.0
402.250031 120.0
402.309906 76.0
402.841064 48.0
402.976898 108.0
403.060791 108.0
403.392517 148.0
403.748383 132.0
403.892395 124.0
404.196442 60.0
404.883148 104.0
406.007172 152.0
406.055298 176.0
406.324066 40.0
406.556793 40.0
406.600952 88.0
407.970673 148.0
408.26825 32.0
408.384857 40.0
409.588409 20.0
409.951019 132.0
410.34201 80.0
411.976074 260.0
412.077545 80.0
412.990326 132.0
413.938232 148.0
413.979919 196.0
414.975555 100.0
415.279694 120.0
415.961151 132.0
416.2659 112.0
416.582703 116.0
416.940277 128.0
416.982269 144.0
417.525726 64.0
418.555328 48.0
419.260071 56.0
419.618774 96.0
419.655487 104.0
420.022522 48.0
420.095947 64.0
421.986877 188.0
422.970032 532.0
423.974518 288.0
424.537994 36.0
424.960205 164.0
424.971405 152.0
425.970917 284.0
426.975647 216.0
427.450592 124.0
427.759277 136.0
427.973999 1972.0
428.055725 92.0
428.101013 60.0
428.142181 168.0
428.311066 108.0
428.978821 372.0
429.312622 92.0
429.774628 80.0
429.975525 672.0
430.092407 52.0
430.373138 96.0
430.717468 140.0
430.965698 272.0
431.695465 68.0
431.740967 76.0
431.947754 116.0
432.121521 68.0
433.463104 164.0
438.971161 44.0
439.613617 56.0
439.984406 144.0
441.005493 156.0
441.96637 148.0
441.997681 132.0
442.037384 148.0
442.981842 148.0
443.993805 76.0
444.031555 180.0
444.555969 116.0
445.49649 112.0
449.859406 92.0
451.971313 228.0
452.599121 56.0
453.005707 92.0
453.794006 60.0
453.963623 292.0
454.031494 116.0
454.99472 136.0
455.480255 144.0
455.96167 304.0
456.968811 164.0
457.982666 436.0
458.03537 236.0
458.435883 72.0
458.866394 92.0
458.977264 128.0
459.021301 252.0
459.970795 132.0
460.329987 40.0
461.231476 140.0
462.917175 144.0
465.924011 236.0
466.241974 96.0
467.967926 480.0
468.10907 132.0
468.341644 112.0
468.980804 164.0
469.981171 188.0
470.062256 88.0
471.002441 116.0
473.017853 200.0
473.767365 56.0
474.018646 172.0
474.478119 80.0
474.963806 84.0
477.952881 68.0
478.305389 116.0
479.926086 136.0
481.008057 124.0
483.985382 144.0
485.982239 1052.0
486.986511 268.0
487.975677 248.0
488.985626 156.0
491.184326 44.0
492.195007 156.0
492.689697 108.0
493.312836 84.0
495.264313 72.0
495.939148 120.0
495.995453 72.0
496.540802 44.0
496.957825 112.0
496.988861 112.0
497.565857 40.0
497.958954 416.0
498.529755 88.0
498.680878 40.0
498.965363 164.0
499.979584 100.0
505.34787 80.0
505.482117 172.0
506.565643 88.0
508.386017 176.0
508.664307 68.0
508.994873 220.0
510.014008 188.0
510.834808 40.0
510.996765 124.0
511.374786 32.0
511.491821 128.0
512.041138 224.0
513.974548 248.0
514.986389 108.0
515.994141 92.0
519.30896 76.0
520.756897 96.0
521.965759 180.0
526.614319 108.0
527.014648 108.0
527.226562 124.0
527.404785 80.0
527.994629 144.0
529.001282 140.0
531.499146 72.0
534.55957 120.0
539.018799 176.0
540.865845 56.0
541.229919 132.0
542.100769 60.0
542.161011 88.0
542.73584 100.0
543.413086 64.0
544.499329 64.0
544.83844 92.0
545.015564 1172.0
545.22876 84.0
545.372803 80.0
545.960876 176.0
546.021057 348.0
546.428467 48.0
546.763489 92.0
546.837952 52.0
546.93573 104.0
547.02002 608.0
548.022644 160.0
548.23053 40.0
549.172302 120.0
549.228271 80.0
549.307556 116.0
549.890869 196.0
555.238586 52.0
566.916504 152.0
573.932922 60.0
574.719971 112.0
575.989929 100.0
580.584839 60.0
581.333252 116.0
583.124634 48.0
587.28949 104.0
593.329468 160.0
599.634277 64.0
605.727417 108.0
608.650513 36.0
609.716553 76.0
620.626465 104.0
623.128052 44.0
626.257141 48.0
631.102905 72.0
633.996338 68.0
635.64624 112.0
649.627502 72.0
649.947144 80.0
653.224182 40.0
657.968811 216.0
658.622437 76.0
658.66333 76.0
660.212036 72.0
660.697937 52.0
660.892395 60.0
662.853577 64.0
663.468628 92.0
671.232666 116.0
677.968628 144.0
686.426758 76.0
695.372925 56.0
705.745789 60.0
706.285217 40.0
718.039673 84.0
719.549805 96.0
723.736389 92.0
724.121948 80.0
725.386536 44.0
725.515198 68.0
727.827637 248.0
734.269348 56.0
740.32782 76.0
743.027222 80.0
750.713196 108.0
759.815125 68.0
766.56189 92.0
768.475281 124.0
771.319458 60.0
790.010254 100.0
790.989563 120.0
796.063721 120.0
796.400696 208.0
797.822449 72.0
811.372192 100.0
813.800537 60.0
814.663818 120.0
815.794739 160.0
829.621704 168.0
831.06134 48.0
844.015869 144.0
845.178589 168.0
852.107483 84.0
861.621704 104.0
864.048035 60.0
864.55127 88.0
870.272583 76.0
871.417969 164.0
883.439331 204.0
899.186157 92.0
907.567322 136.0
917.952271 60.0
918.742432 108.0
926.789856 84.0
936.747742 40.0
943.381226 72.0
967.070618 84.0
974.251465 184.0
997.442688 124.0
1002.332947 160.0
1007.020386 44.0
1016.796143 76.0
1032.117432 96.0
1037.514893 88.0
1042.078247 48.0
1059.504883 100.0
1061.760742 188.0
1084.293091 148.0
1086.726074 60.0
1087.743286 84.0
1087.822144 68.0
1094.376953 236.0
1103.170898 200.0
1129.271729 176.0
1129.773438 124.0
1130.235107 132.0
1130.750366 124.0
1134.910522 56.0
1140.2677 236.0
1145.44873 48.0
1162.487183 104.0
1163.260986 92.0
1167.364868 176.0
1175.396362 68.0
1180.47876 124.0
1184.26355 96.0
1186.655273 52.0
1187.272461 56.0
1189.365112 144.0
1213.379517 192.0
1218.821289 212.0
1219.731812 132.0
1221.630249 84.0
1231.906006 192.0
1236.88501 104.0
1241.032471 96.0
1255.934814 132.0
1262.857056 64.0
1273.048706 36.0
1279.683228 68.0
1284.993164 172.0
1288.348755 104.0
1289.920898 128.0
1290.728882 176.0
1293.282959 156.0
1297.724609 144.0
1297.961304 204.0
1298.427368 80.0
1305.300171 172.0
1309.712036 180.0
1323.976929 104.0
1325.208374 112.0
1330.052856 132.0
1330.778931 52.0
1332.282349 92.0
1336.320068 56.0
1339.651855 72.0
1346.508545 80.0
1347.063721 132.0
1347.852783 104.0
1348.048096 204.0
1362.470337 140.0
1364.491455 180.0
1364.667847 152.0
1366.86731 156.0
1372.377075 120.0
1373.498047 172.0
1374.147339 128.0
1376.996826 144.0
1379.597778 76.0
1381.279907 140.0
1383.896484 100.0
1384.133423 176.0
1386.429932 104.0
1387.297119 136.0
1387.727173 144.0
1399.392456 104.0
1404.564575 172.0
1405.624023 164.0
1413.103638 128.0
1413.290771 164.0
1415.626343 104.0
1420.235596 172.0
1427.114868 52.0
1431.742798 184.0
1433.626221 136.0
1434.319702 160.0
1443.818237 108.0
1446.065308 88.0
1450.344849 152.0
1451.929565 108.0
1452.877686 156.0
1455.306519 100.0
1457.516846 116.0
1465.971313 40.0
1468.922119 96.0
1470.929077 148.0
1474.740723 76.0
1476.942871 76.0
1479.230835 88.0
1481.880737 232.0
1485.207886 100.0
1489.153198 204.0
1489.545044 192.0
1498.584839 136.0
1501.41394 56.0
1501.560425 256.0
1502.054077 192.0
1502.463013 204.0
1504.608521 152.0
