>compound Renierone
>formula C17H17NO5 
>ionization [M+H]+
>parentmass 316.1179490960905
#inchi InChI=1S/C17H17NO5/c1-5-9(2)17(21)23-8-12-13-11(6-7-18-12)14(19)10(3)16(22-4)15(13)20/h5-7H,8H2,1-4H3/b9-5+
#inchikey JGSPEFLRDJUZIE
#Ion_Source LC-ESI
#Instrument qToF
#Compound_Source Isolated
#PI Dorrestein/Gerwick
#Data_Collector Luzzatto/Garg
#Scan -1
#Precursor_MZ 316.125
#ExactMass 315.111
#Charge 1
#CAS_Number N/A
#Pubmed_ID 3829146
#Smiles N/A
#INCHI_AUX N/A
#Library_Class 2
#SpectrumID CCMSLIB00000070275
#IonMode Positive
#UpdateWorkflowName UPDATE-SINGLE-ANNOTATED-SILVER
#LibraryQualityString Silver
#TaskID 6c7cf0ddbcd944488b3f58728dc48405
##Scan# 1020
#SpectrumFile 2D9_Renierone_MH_316.mzXML
#LibraryName gnps_library.mgf
#MQScore -1
#Organism Dorrestein_TLK_Lib
#TIC_Query 0
#RT_Query -1
#MZErrorPPM -1
#SharedPeaks 0
#MassDiff 0
#LibMZ -1
#SpecMZ 316.125
#SpecCharge 0
#internalFilename spec-00000.mgf

>collision 10
99.044151 260.0
107.967041 148.0
122.279213 200.0
123.114426 188.0
126.515022 156.0
129.05632 244.0
130.086716 188.0
130.611404 164.0
135.03418 288.0
141.357803 152.0
145.050308 196.0
146.260437 184.0
147.089279 200.0
149.779739 188.0
154.048752 220.0
158.059937 592.0
159.044434 196.0
160.044586 228.0
175.283569 200.0
181.675232 168.0
182.402649 236.0
186.056747 560.0
188.070847 536.0
188.692307 156.0
189.047745 268.0
189.885712 208.0
202.049652 1228.0
210.036392 220.0
212.619049 156.0
214.354446 220.0
214.905304 176.0
215.059906 172.0
215.345932 152.0
215.652588 208.0
215.681793 284.0
216.066788 4972.0
216.978088 152.0
217.071762 576.0
218.07254 324.0
220.059631 960.0
221.055847 220.0
224.885086 160.0
225.153671 172.0
226.175781 212.0
229.04216 180.0
229.114426 140.0
233.118835 204.0
233.665924 256.0
234.07666 236.0
240.129852 272.0
254.844498 152.0
255.047791 176.0
256.062042 168.0
268.485229 236.0
271.125641 192.0
274.062164 188.0
290.092346 176.0
296.902069 192.0
297.059784 200.0
298.09964 156.0
300.087708 128.0
301.085175 188.0
307.997528 192.0
313.933472 156.0
314.169678 188.0
314.797699 200.0
315.090729 196.0
315.177704 424.0
316.0784 188.0
316.120667 2660.0
316.243042 164.0
317.060822 160.0
317.085632 152.0
317.118774 240.0
317.129944 212.0
317.140381 540.0
317.173889 228.0
317.943512 264.0
318.096161 640.0
319.122375 164.0
319.154358 156.0
319.218323 184.0
341.228729 208.0
407.354523 184.0
422.915314 180.0
451.130554 204.0
1816.708008 232.0
1879.81897 284.0
1963.891235 180.0
1983.964722 156.0
