>compound OLOPATADINE HYDROCHLORIDE
>formula C21H23NO3
>ionization [M+H]+
>parentmass 338.175
#inchi InChI=1S/C21H23NO3/c1-22(2)11-5-8-18-17-7-4-3-6-16(17)14-25-20-10-9-15(12-19(18)20)13-21(23)24/h3-4,6-10,12H,5,11,13-14H2,1-2H3,(H,23,24)/b18-8-
#inchikey JBIMVDZLSHOPLA
#Ion_Source LC-ESI
#Instrument qTof
#Compound_Source Commercial
#PI Dorrestein
#Data_Collector Garg_Neha
#Scan -1
#Precursor_MZ 338.175
#ExactMass 337.168
#Charge 1
#CAS_Number N/A
#Pubmed_ID N/A
#Smiles CN(C)CC/C=C\1/c2ccccc2COc3ccc(CC(=O)O)cc13
#INCHI_AUX N/A
#Library_Class 1
#SpectrumID CCMSLIB00000079092
#IonMode Positive
#UpdateWorkflowName UPDATE-SINGLE-ANNOTATED-GOLD
#LibraryQualityString Gold
#TaskID 278b19f5865741e282cec7349aa7e7a1
##Scan# 1108
#SpectrumFile NCP003432_G2_H11_BD3_01_15725.mzXML
#LibraryName NIHcollectionI_05062014.mgf
#MQScore -1
#Organism NIHcollectionI_05062014
#TIC_Query 0
#RT_Query -1
#MZErrorPPM -1
#SharedPeaks 0
#MassDiff 0
#LibMZ -1
#SpecMZ 338.175
#SpecCharge 0
#internalFilename spec-00000.mgf

>collision 10
45.000694 164.0
46.306465 140.0
46.345749 140.0
46.802132 228.0
47.514221 168.0
47.554016 152.0
47.592453 192.0
48.027328 204.0
48.133625 180.0
48.587578 160.0
48.743084 144.0
48.764988 168.0
48.848747 172.0
49.050659 228.0
49.195927 148.0
49.431942 156.0
49.510338 184.0
49.622437 152.0
50.1045 152.0
50.196117 176.0
50.43895 164.0
50.637035 144.0
51.062817 156.0
51.279228 148.0
51.623287 160.0
51.98428 168.0
52.727386 176.0
53.058865 192.0
53.333221 164.0
53.410114 168.0
53.501965 184.0
53.635983 172.0
54.080017 164.0
54.612629 148.0
54.823162 164.0
55.168545 192.0
55.269115 160.0
55.647072 140.0
55.942921 144.0
56.153015 164.0
56.223133 144.0
56.510036 156.0
57.325378 144.0
57.596947 168.0
57.684589 148.0
58.430714 144.0
58.825417 144.0
59.469837 144.0
59.733334 164.0
59.834152 148.0
59.883427 172.0
60.059139 172.0
60.338642 140.0
60.68235 192.0
60.694752 156.0
61.017773 176.0
61.047245 160.0
61.235554 156.0
61.374249 144.0
61.491245 164.0
61.506855 148.0
61.714634 172.0
61.785011 164.0
61.855434 156.0
62.187729 220.0
62.223835 200.0
62.426529 156.0
62.547672 180.0
62.724091 172.0
63.186794 144.0
63.197868 172.0
63.581348 160.0
63.597221 172.0
64.016937 140.0
64.06472 164.0
64.329437 152.0
64.68866 196.0
64.706726 292.0
64.844482 192.0
64.958565 136.0
65.578995 144.0
65.704765 164.0
65.895279 140.0
66.363022 188.0
66.471703 296.0
66.715324 172.0
67.140305 164.0
67.182709 188.0
67.628807 168.0
67.873672 108.0
68.263718 188.0
68.653999 176.0
69.379868 192.0
69.492645 148.0
69.869781 176.0
69.908051 176.0
70.03791 144.0
70.334717 140.0
70.905052 180.0
71.428909 176.0
71.53492 184.0
71.927391 252.0
72.133766 176.0
72.786034 140.0
73.068176 208.0
73.083488 184.0
73.257141 180.0
73.533371 164.0
74.269089 168.0
74.373749 144.0
74.466469 184.0
74.567833 160.0
74.884407 148.0
75.130898 140.0
75.772293 140.0
76.10009 184.0
76.174767 252.0
76.301628 148.0
76.357269 224.0
76.583534 144.0
76.796173 164.0
76.963699 156.0
77.043121 152.0
77.320312 160.0
77.351814 212.0
77.740906 156.0
78.17144 164.0
78.189041 236.0
78.899895 140.0
78.931717 156.0
79.259186 160.0
79.446854 136.0
79.718773 200.0
80.443672 144.0
80.456161 172.0
80.754578 140.0
80.804665 148.0
80.985466 164.0
81.15033 140.0
81.845673 152.0
82.819069 220.0
83.130905 156.0
83.317268 156.0
83.89846 216.0
84.283554 164.0
84.37677 204.0
84.439705 184.0
84.453575 216.0
84.643906 148.0
84.799622 248.0
84.827896 188.0
85.177597 160.0
85.705597 200.0
85.960052 144.0
86.981567 136.0
87.158104 168.0
87.327278 208.0
87.407272 172.0
87.42588 276.0
87.919731 172.0
88.048546 144.0
88.109344 180.0
88.207359 164.0
88.454277 164.0
88.930367 220.0
89.057465 180.0
89.187691 140.0
89.407738 156.0
89.554588 148.0
89.594147 164.0
89.893936 164.0
90.722473 136.0
91.054642 1016.0
91.082909 208.0
91.126602 160.0
91.36805 192.0
91.548874 140.0
91.726067 156.0
91.932045 176.0
92.056618 280.0
92.151634 200.0
92.610748 144.0
93.049881 148.0
93.069778 176.0
93.288101 168.0
93.403473 144.0
93.784721 140.0
93.877258 204.0
93.933189 192.0
94.445068 180.0
94.489555 196.0
94.613419 260.0
94.873009 184.0
94.974091 128.0
95.048637 348.0
95.063087 236.0
95.661713 140.0
96.096306 228.0
97.037056 156.0
97.464935 188.0
97.561241 148.0
97.755959 144.0
97.992241 148.0
98.047417 144.0
98.47554 168.0
98.738396 144.0
98.791801 248.0
99.055077 184.0
99.527084 180.0
100.616158 172.0
100.658089 184.0
100.711014 152.0
101.127892 168.0
101.506523 168.0
101.622864 296.0
101.87381 184.0
102.19548 176.0
102.350464 216.0
102.668503 160.0
103.064499 208.0
103.862137 148.0
104.083351 148.0
104.275024 236.0
104.292595 152.0
104.451195 228.0
104.485779 160.0
104.677101 156.0
104.819695 140.0
105.07045 908.0
105.30114 152.0
105.920883 148.0
106.07457 140.0
106.26693 160.0
106.702751 164.0
106.832306 140.0
107.04969 340.0
107.122566 236.0
107.244133 140.0
107.312164 164.0
107.528763 164.0
107.803429 144.0
107.900574 148.0
108.297882 208.0
108.411827 144.0
108.594269 188.0
108.965843 180.0
109.065063 1392.0
109.18618 192.0
109.319321 168.0
109.994591 148.0
110.025902 140.0
110.06897 188.0
110.42083 160.0
110.460571 316.0
110.482971 124.0
110.795509 140.0
110.902382 144.0
111.040756 216.0
111.181076 204.0
111.786545 160.0
112.045525 148.0
112.125595 140.0
112.604507 144.0
112.908836 180.0
113.308899 192.0
113.380943 144.0
113.629036 148.0
113.677834 148.0
113.699059 160.0
114.088715 336.0
114.202583 152.0
114.345131 160.0
114.48777 140.0
114.502678 144.0
114.911949 140.0
114.998932 184.0
115.027191 140.0
115.055222 4804.0
115.097641 140.0
115.319817 152.0
115.559319 168.0
115.587135 212.0
115.662041 148.0
115.897614 180.0
115.921181 148.0
116.060059 952.0
116.275024 140.0
116.88533 144.0
117.070335 6692.0
117.285904 168.0
117.35273 184.0
117.483208 96.0
117.58786 164.0
117.811966 152.0
117.957207 172.0
117.987473 180.0
118.074738 392.0
118.115059 176.0
118.205925 148.0
118.257866 152.0
118.567566 204.0
118.587074 188.0
118.657799 128.0
118.751854 144.0
118.787735 156.0
119.049706 1356.0
119.253395 160.0
119.70372 168.0
119.816986 148.0
119.967354 196.0
120.061798 252.0
120.194176 172.0
120.400894 184.0
120.462715 152.0
120.600372 208.0
120.771812 156.0
120.829979 220.0
121.029152 140.0
121.066277 548.0
121.421402 192.0
121.572777 172.0
121.827469 148.0
121.867012 176.0
122.064835 152.0
122.480789 220.0
122.555687 148.0
123.045204 6404.0
123.188866 148.0
123.675331 144.0
123.748383 140.0
124.009781 152.0
124.04567 324.0
124.10067 164.0
124.673363 144.0
124.891243 216.0
124.960205 140.0
125.39888 152.0
125.59063 160.0
125.914253 140.0
126.004669 176.0
126.046051 156.0
126.202515 232.0
126.328041 192.0
126.410538 228.0
126.759865 168.0
127.050827 140.0
127.251083 148.0
127.725571 120.0
127.790489 164.0
128.062759 1196.0
128.094406 212.0
128.225098 196.0
128.327133 120.0
128.351334 140.0
128.455383 176.0
128.604004 196.0
128.703323 152.0
128.764297 160.0
129.014465 168.0
129.070435 3232.0
129.13916 132.0
129.185425 140.0
129.317184 132.0
129.451782 184.0
129.526016 152.0
130.000366 180.0
130.074844 724.0
130.104782 140.0
130.290085 148.0
130.418259 176.0
130.552399 176.0
130.611526 228.0
130.6866 168.0
130.80722 140.0
131.049255 2616.0
131.08223 160.0
131.324448 176.0
132.050674 140.0
132.13829 108.0
132.852448 212.0
132.907501 196.0
132.925858 160.0
133.06041 132.0
133.145325 140.0
134.061844 160.0
134.091812 144.0
134.504669 144.0
134.663986 144.0
134.721725 140.0
134.791046 144.0
134.906601 156.0
134.934341 160.0
134.955154 152.0
135.046356 272.0
135.554657 156.0
135.999939 316.0
136.110413 224.0
136.149231 132.0
136.317047 184.0
136.404099 168.0
136.750839 184.0
136.775406 140.0
136.96254 172.0
137.06076 8524.0
137.243042 144.0
138.062805 924.0
138.251312 148.0
138.478394 188.0
138.69162 144.0
138.761948 144.0
138.907333 180.0
138.989456 140.0
139.0383 172.0
139.066895 148.0
139.12088 200.0
140.060226 140.0
140.934357 180.0
141.070984 10624.0
141.172287 140.0
141.208572 140.0
141.297363 112.0
141.997238 176.0
142.075607 2276.0
142.118225 240.0
142.296219 164.0
142.871353 148.0
142.97998 172.0
143.0849 844.0
143.244263 112.0
143.330063 144.0
144.056152 176.0
144.090103 352.0
144.139771 160.0
144.558228 164.0
145.015656 188.0
145.064377 580.0
145.557816 168.0
145.632263 312.0
146.22287 180.0
146.286301 156.0
146.792252 144.0
146.98497 144.0
147.04422 488.0
147.130051 156.0
147.247345 124.0
147.332901 164.0
147.801941 144.0
147.925369 144.0
147.989212 208.0
148.053696 168.0
148.104553 156.0
148.169968 220.0
148.235382 144.0
149.062332 880.0
149.218414 160.0
149.487442 152.0
149.717224 156.0
149.78299 172.0
150.068115 144.0
150.277863 148.0
150.829773 188.0
151.04985 152.0
151.243149 152.0
151.270782 152.0
151.558319 104.0
151.764954 144.0
151.860596 212.0
152.059906 436.0
152.091232 192.0
152.233627 164.0
152.272919 156.0
152.378555 164.0
152.561615 196.0
153.071533 612.0
153.148514 164.0
153.348083 220.0
153.479263 112.0
153.658783 232.0
153.954987 224.0
154.073471 220.0
154.840332 140.0
155.05159 148.0
155.093872 356.0
155.187256 144.0
155.271576 196.0
155.502304 192.0
155.581726 152.0
155.688492 176.0
156.063721 168.0
156.098526 172.0
156.297516 168.0
156.915207 152.0
156.982529 168.0
157.067291 288.0
157.614075 144.0
158.096207 552.0
158.196808 152.0
158.319489 164.0
158.369583 160.0
158.47229 188.0
158.519897 176.0
158.66777 160.0
158.81572 160.0
159.080948 148.0
159.108246 176.0
159.292633 180.0
159.440872 216.0
160.084885 292.0
160.110123 132.0
160.255753 144.0
160.291443 164.0
160.442673 176.0
160.517975 148.0
160.682251 168.0
161.060822 1192.0
161.083282 220.0
161.275681 176.0
161.609497 140.0
161.632263 196.0
162.065063 176.0
162.383224 164.0
162.97435 120.0
163.038666 144.0
163.070145 148.0
163.441437 488.0
163.536133 132.0
163.632324 196.0
163.734177 204.0
163.780014 168.0
164.106216 172.0
164.141907 144.0
164.292389 148.0
164.419205 176.0
164.475388 160.0
164.514404 176.0
164.744232 152.0
164.772339 216.0
164.831345 128.0
164.916718 160.0
165.00058 144.0
165.023956 184.0
165.055588 56224.0
165.142151 256.0
165.267929 124.0
165.340363 140.0
165.612122 236.0
165.678619 176.0
165.733963 136.0
165.841476 448.0
165.918884 156.0
165.938049 108.0
166.013748 156.0
166.059021 5436.0
166.103516 204.0
166.383224 160.0
166.814804 264.0
167.059631 452.0
167.110962 132.0
167.165955 136.0
167.237625 232.0
167.270554 160.0
167.389877 116.0
167.832794 156.0
168.058716 148.0
168.089554 196.0
168.19548 152.0
168.683685 148.0
169.066544 656.0
169.100113 168.0
169.579269 164.0
169.97998 224.0
170.027939 156.0
170.069687 188.0
170.096634 172.0
171.049393 140.0
171.078033 164.0
171.102982 280.0
171.492188 140.0
172.110199 624.0
172.878967 224.0
172.981049 196.0
172.999374 168.0
173.0177 140.0
173.063339 128.0
173.121017 1468.0
173.58754 132.0
173.659683 144.0
174.127014 436.0
174.429016 164.0
174.981461 156.0
175.140503 152.0
175.424042 148.0
175.571686 148.0
175.705597 120.0
176.059906 144.0
176.42189 140.0
176.577896 152.0
176.861404 260.0
177.056046 440.0
177.417282 204.0
177.913361 156.0
178.039841 176.0
178.078415 3028.0
178.186905 144.0
178.404831 192.0
178.892532 168.0
179.085388 8484.0
179.155273 156.0
180.090164 844.0
180.242493 104.0
180.610077 144.0
180.684982 192.0
180.802719 212.0
181.065369 244.0
181.096619 444.0
181.129364 188.0
181.201691 208.0
181.424133 148.0
181.544785 236.0
181.979477 160.0
182.111053 168.0
182.578705 148.0
182.874634 180.0
182.94194 200.0
183.073074 220.0
183.122345 184.0
183.246262 200.0
183.310928 172.0
183.461853 172.0
183.661392 156.0
184.116364 168.0
184.303909 168.0
185.004379 140.0
185.117615 260.0
185.489273 252.0
185.546204 160.0
185.627548 188.0
186.126846 1124.0
186.30336 168.0
186.376724 228.0
186.833481 192.0
187.078629 720.0
187.130707 756.0
187.173691 196.0
187.451523 180.0
187.486954 180.0
187.588654 344.0
187.66687 220.0
188.075104 136.0
188.109543 144.0
188.130173 112.0
188.179794 152.0
188.319061 180.0
188.459366 164.0
188.482971 148.0
188.734451 172.0
189.055344 1436.0
189.142075 148.0
190.057373 404.0
190.077271 888.0
190.134247 176.0
190.471954 140.0
191.085678 3412.0
191.14061 204.0
191.188126 148.0
191.331238 168.0
191.566757 176.0
192.039322 252.0
192.091858 712.0
192.57077 196.0
192.642593 160.0
192.766922 172.0
193.066452 444.0
193.101044 3276.0
193.224564 124.0
193.328278 196.0
193.508209 184.0
193.571884 292.0
193.686523 112.0
193.757462 156.0
193.801788 180.0
193.857208 164.0
194.009644 144.0
194.070648 264.0
194.104019 340.0
194.167694 148.0
194.342453 160.0
194.459213 208.0
194.839432 176.0
195.076645 740.0
195.119263 144.0
195.264709 152.0
195.43161 176.0
195.665405 144.0
196.082596 140.0
196.122253 232.0
196.219818 196.0
196.270004 156.0
196.733139 168.0
196.769424 168.0
196.807541 164.0
197.097595 168.0
197.512756 160.0
197.549133 172.0
197.574753 124.0
198.061386 184.0
198.145416 152.0
198.339661 164.0
198.658447 180.0
198.972748 204.0
199.281693 220.0
199.768051 176.0
200.380051 112.0
200.409943 156.0
200.615677 140.0
200.655151 140.0
201.068817 264.0
201.199646 144.0
201.406113 136.0
201.541382 192.0
202.078094 1032.0
202.565521 148.0
202.857391 164.0
203.018997 144.0
203.085861 2552.0
203.595078 172.0
204.09375 5952.0
204.342651 144.0
204.988998 144.0
205.063446 1192.0
205.101074 5448.0
205.331085 140.0
205.827499 96.0
206.072662 1608.0
206.106201 1236.0
206.567841 160.0
207.038513 148.0
207.081375 5296.0
207.111099 512.0
207.256027 136.0
207.89679 124.0
208.00058 144.0
208.088348 1372.0
208.259003 152.0
208.811981 100.0
209.09201 556.0
209.131516 196.0
209.256851 168.0
209.946823 184.0
210.086838 168.0
210.185074 160.0
210.404297 144.0
210.49379 184.0
210.901138 176.0
210.967621 144.0
211.076263 180.0
211.210526 236.0
211.423782 180.0
211.992218 160.0
212.81601 252.0
212.964111 176.0
213.094833 152.0
213.273438 112.0
213.574478 172.0
213.8004 112.0
214.080887 140.0
214.386765 156.0
214.453796 148.0
214.902878 168.0
215.085419 3296.0
215.136353 152.0
215.336884 184.0
215.4823 96.0
215.796539 160.0
216.095062 1292.0
216.127121 188.0
217.066589 164.0
217.100723 1488.0
217.310822 156.0
217.46048 148.0
218.072723 1996.0
218.106522 284.0
218.840775 132.0
218.903946 192.0
219.081558 6968.0
219.11705 8980.0
219.179993 208.0
219.343933 128.0
219.668274 132.0
219.74765 168.0
219.817749 144.0
219.926956 200.0
220.084122 1856.0
220.121857 1572.0
220.236969 192.0
220.38353 204.0
220.449692 212.0
221.096786 10940.0
221.343597 184.0
221.369675 156.0
221.514801 176.0
221.69841 148.0
221.748886 148.0
221.980118 172.0
222.098999 1240.0
222.142456 136.0
222.229263 196.0
222.46669 156.0
222.635925 168.0
222.954865 112.0
223.074463 912.0
223.108231 280.0
223.23027 224.0
223.411697 180.0
223.630859 164.0
223.823822 188.0
223.89389 180.0
224.08107 520.0
224.141129 200.0
224.347473 156.0
224.495865 144.0
225.089844 624.0
225.40332 192.0
225.721344 196.0
225.776993 148.0
225.950485 220.0
226.069778 152.0
226.136002 168.0
226.663071 140.0
226.729004 140.0
227.083801 104.0
227.114365 176.0
227.243057 212.0
228.093018 1704.0
228.139709 152.0
228.750381 188.0
228.789505 180.0
229.036438 148.0
229.10141 18656.0
229.158279 172.0
229.60585 164.0
229.89267 144.0
229.981461 164.0
230.017715 184.0
230.075562 256.0
230.106064 3156.0
230.279099 152.0
230.327423 148.0
230.511719 168.0
230.712463 172.0
231.037094 180.0
231.081955 4808.0
231.111725 660.0
231.636337 144.0
231.743469 96.0
231.906616 104.0
231.976562 148.0
232.042419 216.0
232.089096 21316.0
232.282837 164.0
232.463715 116.0
232.593613 220.0
232.646973 204.0
232.771454 160.0
233.095215 8080.0
233.373077 256.0
233.477203 216.0
233.675659 168.0
233.806656 112.0
234.01506 144.0
234.066208 196.0
234.10408 8412.0
234.231277 208.0
234.298996 124.0
234.878571 124.0
235.072098 452.0
235.107727 1460.0
235.142578 208.0
235.662064 184.0
235.934067 160.0
236.084564 160.0
236.114731 204.0
236.659149 180.0
237.053223 172.0
237.091339 276.0
237.123245 192.0
237.190247 132.0
237.280426 200.0
237.369537 172.0
237.895752 112.0
238.09877 316.0
238.607376 188.0
239.072968 228.0
239.106369 172.0
239.857208 184.0
239.925034 164.0
240.00827 176.0
240.087341 124.0
240.131622 148.0
240.872391 160.0
241.391617 276.0
241.750458 144.0
242.156006 148.0
242.299957 152.0
242.356125 168.0
242.444122 164.0
242.51355 140.0
243.08725 316.0
243.247437 164.0
243.284683 144.0
243.32814 208.0
243.778519 160.0
244.095596 184.0
244.327805 188.0
244.601486 184.0
245.096878 1492.0
245.581085 188.0
245.708984 160.0
245.774506 140.0
245.811951 164.0
245.977356 160.0
246.103317 616.0
246.136292 108.0
246.352081 144.0
246.386444 152.0
246.815292 152.0
246.888123 104.0
246.922958 168.0
246.985535 208.0
247.00853 212.0
247.079712 480.0
247.113434 67500.0
247.257996 164.0
247.327377 128.0
247.399124 104.0
247.474823 156.0
247.515335 128.0
247.581848 328.0
247.652328 176.0
247.797424 176.0
248.116196 12716.0
248.321594 164.0
248.763458 188.0
248.93425 128.0
249.098846 480.0
249.12355 1932.0
249.193573 188.0
249.495163 100.0
249.557587 120.0
249.621048 144.0
249.673981 332.0
249.724243 108.0
249.757263 156.0
249.872681 140.0
249.935806 188.0
249.971344 120.0
250.095047 112.0
250.121887 276.0
250.19368 140.0
250.524338 140.0
250.954971 144.0
251.065872 148.0
251.105515 116.0
251.98938 104.0
252.0784 5176.0
252.607788 144.0
252.769913 116.0
253.022354 156.0
253.08667 6944.0
253.139511 244.0
254.090698 1232.0
254.451569 204.0
254.541077 148.0
254.690338 176.0
255.08876 104.0
255.141571 140.0
255.259216 140.0
256.346405 176.0
256.392487 164.0
256.48175 272.0
256.93222 220.0
257.099457 804.0
257.149689 120.0
257.381378 180.0
257.656067 168.0
257.956451 144.0
258.103546 352.0
258.812012 112.0
259.020966 116.0
259.628937 188.0
259.663055 152.0
259.711151 172.0
260.082214 360.0
260.847839 140.0
261.092529 224.0
261.116608 264.0
261.143646 156.0
261.462158 164.0
261.787292 152.0
262.641357 252.0
263.071411 280.0
264.073029 432.0
264.17569 152.0
264.622314 144.0
265.084686 1736.0
265.114502 488.0
265.772919 172.0
266.061768 192.0
266.088287 136.0
266.12558 144.0
266.180542 152.0
266.318298 192.0
266.36377 144.0
266.68631 188.0
267.013824 140.0
267.100708 144.0
267.179718 164.0
268.228271 228.0
268.733765 140.0
268.927948 152.0
269.194916 112.0
269.63327 172.0
270.403564 144.0
270.459229 164.0
271.381897 104.0
271.599487 240.0
271.864838 132.0
272.636963 236.0
273.540436 156.0
273.74884 208.0
274.249603 144.0
274.341919 208.0
274.590607 104.0
274.919098 160.0
275.107178 712.0
276.068726 268.0
276.113647 324.0
276.710632 172.0
277.083649 184.0
277.122284 96.0
278.096344 672.0
278.598938 124.0
278.694 148.0
278.973175 144.0
279.104401 300.0
280.093475 136.0
280.311127 148.0
280.421112 144.0
280.52533 152.0
280.56778 156.0
281.63559 248.0
281.724121 168.0
282.013153 208.0
282.127747 180.0
282.327576 164.0
283.865967 180.0
284.458313 148.0
284.752808 180.0
284.948608 240.0
285.140137 144.0
285.970886 184.0
286.182953 172.0
286.572968 196.0
288.991394 136.0
289.365021 144.0
289.547852 132.0
289.634308 188.0
290.056061 128.0
291.10437 264.0
291.16394 140.0
291.810974 136.0
291.880981 164.0
292.1203 196.0
292.175262 324.0
292.901825 208.0
292.944641 112.0
293.051849 160.0
293.118652 21668.0
293.243439 108.0
293.286407 136.0
293.482758 104.0
293.70517 168.0
293.876953 224.0
294.054718 128.0
294.121155 3572.0
294.184021 328.0
294.447021 144.0
294.522156 208.0
294.610962 156.0
294.71347 312.0
294.856995 160.0
295.126068 488.0
295.185669 136.0
295.568268 220.0
295.717285 132.0
295.835236 164.0
296.132782 116.0
296.693848 140.0
297.09967 144.0
297.794312 176.0
297.85495 216.0
298.49646 164.0
299.468109 164.0
299.991852 140.0
301.270477 116.0
301.693756 152.0
301.838959 188.0
303.660522 160.0
304.08725 236.0
304.147888 136.0
304.615021 160.0
304.823486 176.0
304.938171 204.0
305.125854 156.0
305.250702 196.0
305.62323 164.0
305.838989 156.0
305.946899 184.0
306.019989 180.0
306.1586 144.0
306.253326 236.0
306.807373 236.0
307.133301 292.0
307.416382 176.0
307.685547 172.0
307.850616 164.0
308.127258 120.0
308.175476 144.0
308.339691 160.0
308.484192 140.0
309.041595 128.0
309.690186 192.0
310.13028 104.0
310.292908 164.0
310.550964 184.0
311.122894 104.0
311.640656 148.0
312.389465 244.0
312.801178 164.0
313.158722 144.0
313.459778 196.0
313.537292 176.0
313.724121 156.0
314.027344 208.0
314.941498 140.0
314.994476 200.0
315.860504 148.0
315.915802 164.0
317.223785 168.0
317.267334 100.0
319.187134 180.0
319.642426 188.0
320.169281 144.0
321.345581 200.0
321.777435 276.0
322.079285 180.0
322.136841 100.0
322.331055 144.0
322.702759 148.0
322.837158 268.0
322.988251 120.0
323.144897 176.0
323.730499 144.0
323.926697 152.0
324.016235 160.0
324.144592 156.0
324.2724 180.0
324.358368 140.0
325.231873 180.0
325.842346 160.0
326.885071 144.0
329.202606 128.0
329.459381 168.0
329.509949 240.0
329.578613 144.0
329.799042 160.0
330.117188 208.0
330.641754 156.0
332.065552 144.0
332.319489 208.0
332.529968 224.0
333.093842 208.0
333.56778 308.0
334.239166 124.0
334.267059 156.0
334.321625 196.0
334.586395 172.0
334.724121 120.0
334.845459 140.0
335.025818 100.0
335.492279 120.0
335.912567 144.0
335.944824 144.0
336.007812 136.0
336.081635 144.0
336.148285 184.0
336.197662 120.0
336.237335 264.0
336.275055 188.0
336.388916 184.0
336.414307 224.0
336.445984 196.0
336.657593 268.0
336.705566 216.0
336.779877 100.0
336.841553 204.0
336.887695 204.0
336.988586 180.0
337.064026 256.0
337.139099 204.0
337.178772 348.0
337.216919 208.0
337.276855 212.0
337.311462 136.0
337.356232 172.0
337.399231 284.0
337.460693 336.0
337.525238 316.0
337.568115 204.0
337.609467 172.0
337.633148 312.0
337.647675 204.0
337.689148 276.0
337.735077 200.0
337.798157 564.0
337.824707 340.0
337.863098 252.0
337.889893 460.0
338.009583 576.0
338.042755 608.0
338.07724 660.0
338.107056 512.0
338.117676 600.0
338.178802 237700.0
338.293427 308.0
338.419739 328.0
338.467712 476.0
338.522888 732.0
338.559723 640.0
338.584351 748.0
338.63324 676.0
338.669403 340.0
338.735107 968.0
338.784729 12056.0
338.818909 580.0
338.867462 312.0
338.915466 340.0
338.954376 308.0
339.037048 276.0
339.078125 288.0
339.180756 142396.0
339.259827 120.0
339.327148 268.0
339.353943 240.0
339.416962 168.0
339.452637 180.0
339.492767 144.0
339.560181 164.0
339.598267 120.0
339.632324 316.0
339.674774 156.0
339.783783 324.0
339.859528 100.0
339.91922 244.0
339.955292 140.0
339.982483 244.0
340.013214 204.0
340.182526 18328.0
340.312744 276.0
340.405151 156.0
340.446686 108.0
340.484192 212.0
340.619537 208.0
340.679138 200.0
340.747894 100.0
340.787659 208.0
340.86264 192.0
340.88681 200.0
340.918762 372.0
340.941437 272.0
340.986816 248.0
341.182922 1616.0
341.304352 424.0
341.358459 380.0
341.428436 344.0
341.4823 472.0
341.54245 384.0
341.608917 300.0
341.708008 156.0
342.20932 180.0
342.249023 112.0
342.371124 168.0
342.41629 188.0
342.493469 384.0
342.58902 304.0
343.330109 152.0
343.369812 104.0
343.49408 96.0
343.55188 96.0
343.620148 128.0
343.751068 148.0
344.216553 188.0
346.337952 120.0
349.697235 116.0
350.362701 128.0
351.783569 112.0
352.286499 156.0
352.389374 104.0
355.58551 120.0
356.296814 104.0
358.173706 100.0
359.016296 148.0
359.183502 108.0
360.507263 96.0
360.601898 148.0
361.782745 112.0
368.154572 156.0
369.203094 152.0
381.41629 148.0
397.765503 140.0
418.975708 144.0
452.200562 160.0
470.245972 156.0
474.066956 160.0
536.63385 136.0
543.593689 160.0
613.345337 168.0
628.062134 152.0
630.578552 156.0
795.632263 112.0
802.090271 108.0
1115.05127 180.0
1156.210938 176.0
1177.722656 172.0
1201.991333 140.0
1218.553345 144.0
1247.964355 168.0
1255.371948 172.0
1285.799316 256.0
1346.220581 156.0
1403.9021 188.0
1411.720703 224.0
1417.349854 184.0
1439.744141 152.0
1461.895386 176.0
1489.664795 164.0
1548.265625 184.0
1578.75293 224.0
1585.085693 168.0
1614.467896 140.0
1618.060547 168.0
1625.811646 252.0
1629.633789 292.0
1639.38623 172.0
1646.461182 156.0
1647.575806 172.0
1659.886353 200.0
1667.029663 140.0
1671.241699 152.0
1678.988403 156.0
1681.036011 148.0
1685.085938 180.0
1695.469727 168.0
1718.873535 156.0
1743.202148 164.0
1751.613403 204.0
1759.201782 168.0
1760.604492 188.0
1765.995117 160.0
1766.739502 160.0
1766.823242 192.0
1773.036133 152.0
1781.098999 148.0
1781.603027 144.0
1802.582397 148.0
1814.898315 204.0
1831.767944 156.0
1832.884033 160.0
1833.122681 208.0
1835.689697 136.0
1836.421875 168.0
1837.92334 240.0
1843.26001 232.0
1847.911377 216.0
1848.339233 152.0
1850.727295 144.0
1868.897949 196.0
1872.33252 192.0
1877.770752 144.0
1897.980347 236.0
1902.760986 148.0
1910.652222 144.0
1913.872437 164.0
1917.383057 168.0
1921.175903 168.0
1927.383423 160.0
1932.428467 144.0
1934.257446 144.0
1935.255493 196.0
1942.073364 192.0
1945.987183 156.0
1949.043701 184.0
1950.221313 208.0
1954.178467 168.0
1964.275635 224.0
1968.369385 180.0
1972.910767 156.0
1974.290039 144.0
1979.812256 208.0
1980.591553 180.0
1985.324341 172.0
1987.613037 184.0
1995.749146 196.0
1997.919189 180.0
1998.817871 152.0
