>compound MLS002153785-01!Bambuterol hydrochloride81732-46-9
>formula C18H29N3O5
>ionization [M+H]+
>parentmass 368.216766
#inchi InChI=1S/C18H29N3O5/c1-18(2,3)19-11-15(22)12-8-13(25-16(23)20(4)5)10-14(9-12)26-17(24)21(6)7/h8-10,15,19,22H,11H2,1-7H3
#inchikey ANZXOIAKUNOVQU
#Ion_Source LC-ESI
#Instrument qTof
#Compound_Source NIH Pharmacologically Active Library
#PI Dorrestein
#Data_Collector VP/LMS
#Scan -1
#Precursor_MZ 368.221
#ExactMass 367.211
#Charge 1
#CAS_Number N/A
#Pubmed_ID N/A
#Smiles CN(C)C(=O)Oc1cc(OC(=O)N(C)C)cc(c1)C(O)CNC(C)(C)C
#INCHI_AUX N/A
#Library_Class 1
#SpectrumID CCMSLIB00000085401
#IonMode Positive
#UpdateWorkflowName UPDATE-SINGLE-ANNOTATED-GOLD
#LibraryQualityString Gold
#TaskID d252d724072548979f1f6f1ced849daf
##Scan# 1432
#SpectrumFile p4-A04_GA4_01_18328.mzXML
#LibraryName Pharm_Active_Library.mgf
#MQScore -1
#Organism Pharm_Active_Library
#TIC_Query 0
#RT_Query -1
#MZErrorPPM -1
#SharedPeaks 0
#MassDiff 0
#LibMZ -1
#SpecMZ 368.221
#SpecCharge 0
#internalFilename spec-00000.mgf

>collision 10
45.258003 180.0
45.823463 184.0
45.897594 140.0
45.993382 88.0
46.110889 152.0
46.225842 180.0
46.346355 140.0
46.415482 176.0
46.751015 164.0
46.795933 136.0
46.881748 124.0
47.112343 136.0
47.370892 140.0
47.458603 116.0
47.55463 36.0
47.715351 132.0
47.903889 216.0
47.981064 116.0
48.358177 172.0
48.528564 156.0
48.559074 148.0
48.574333 136.0
48.877201 204.0
49.150311 176.0
49.422783 184.0
49.623074 56.0
49.672157 232.0
49.784439 172.0
50.038948 128.0
50.048805 104.0
50.06007 156.0
50.224964 152.0
50.289871 164.0
50.569721 248.0
50.586708 132.0
50.85461 152.0
50.878742 176.0
50.973904 148.0
51.100452 172.0
51.162418 188.0
51.361153 156.0
51.393963 160.0
51.466759 248.0
51.641106 148.0
51.797123 116.0
52.187477 176.0
52.247883 68.0
52.440838 116.0
52.600948 192.0
52.755516 68.0
52.895832 156.0
52.985619 128.0
53.143654 144.0
53.171227 228.0
53.393505 204.0
53.560886 168.0
53.601681 200.0
53.734364 172.0
53.821938 164.0
53.909584 164.0
53.944012 180.0
54.098263 148.0
54.420803 84.0
54.608902 156.0
54.703072 120.0
54.791431 132.0
54.840061 224.0
55.175148 124.0
55.2062 192.0
55.377876 152.0
55.410465 76.0
55.632919 104.0
55.677464 112.0
55.724998 64.0
55.794849 144.0
55.860283 232.0
55.919804 112.0
55.989777 180.0
56.00169 220.0
56.294003 156.0
56.528698 72.0
56.585575 160.0
56.672443 148.0
57.04464 148.0
57.11832 132.0
57.164963 164.0
57.223667 184.0
57.43766 160.0
57.498013 128.0
57.611259 160.0
57.794197 276.0
58.00774 188.0
58.028961 116.0
58.044125 88.0
58.089626 160.0
58.100243 112.0
58.12907 132.0
58.270283 124.0
58.414703 112.0
58.445133 152.0
58.702564 232.0
59.046173 80.0
59.214523 76.0
59.312584 240.0
59.568844 192.0
59.608791 180.0
59.730247 196.0
59.762554 92.0
59.799488 164.0
59.975075 68.0
60.177166 84.0
60.215771 132.0
60.535896 220.0
60.802544 96.0
61.021564 152.0
61.194267 132.0
61.448315 120.0
62.091221 76.0
62.153973 124.0
62.224602 128.0
62.658676 108.0
62.762703 88.0
62.814747 160.0
62.838409 112.0
62.852612 160.0
62.88575 160.0
63.03104 40.0
63.296787 144.0
63.39817 84.0
63.410847 108.0
63.620228 112.0
63.66798 108.0
63.728226 40.0
63.938126 116.0
64.349388 156.0
64.424446 120.0
64.509148 104.0
64.536324 212.0
64.893372 72.0
65.14373 176.0
65.188721 208.0
65.291603 68.0
65.45414 176.0
65.682991 132.0
65.7556 208.0
65.802414 220.0
66.039955 48.0
66.067459 36.0
66.324928 128.0
66.882072 36.0
67.137863 128.0
67.396751 152.0
67.554367 68.0
67.868813 148.0
67.978722 120.0
68.280998 160.0
68.327057 148.0
68.626808 112.0
68.941971 224.0
69.168678 136.0
69.326019 180.0
69.392326 140.0
70.078751 152.0
70.180428 156.0
70.205437 128.0
70.242134 100.0
70.450798 116.0
70.502594 132.0
70.663116 232.0
70.852303 168.0
71.179367 160.0
71.529068 76.0
71.677269 88.0
71.695808 180.0
71.748306 164.0
71.761551 120.0
71.798645 120.0
71.9235 164.0
71.987656 84.0
72.168457 72.0
72.203972 84.0
72.329178 164.0
72.361336 112.0
72.38298 200.0
72.502365 220.0
72.702049 116.0
72.715622 136.0
72.739388 156.0
72.759758 204.0
72.776733 36.0
73.053436 188.0
73.07077 52.0
73.184807 212.0
73.223969 52.0
73.846931 156.0
73.927345 124.0
73.976974 180.0
74.487991 80.0
74.687386 204.0
74.757927 152.0
74.835381 168.0
75.272964 216.0
75.340714 64.0
75.849426 148.0
76.226082 232.0
76.436493 156.0
76.473038 184.0
76.866898 212.0
76.934967 168.0
77.19355 96.0
77.254768 100.0
77.289757 76.0
77.801537 144.0
78.297394 44.0
78.695915 108.0
78.846062 132.0
78.929146 60.0
79.554565 132.0
79.799736 220.0
80.038162 168.0
80.054184 136.0
80.323311 136.0
80.43573 96.0
80.476791 160.0
80.576805 124.0
80.666161 180.0
80.81102 168.0
80.945267 192.0
81.196152 64.0
81.352257 120.0
82.107979 136.0
82.255928 112.0
82.925179 96.0
82.966866 104.0
83.13192 152.0
83.184555 144.0
83.260818 116.0
83.317123 164.0
84.209694 140.0
84.461929 84.0
84.704262 164.0
84.785995 144.0
84.840988 196.0
84.881325 156.0
84.917999 96.0
84.96386 100.0
85.231918 156.0
85.279701 172.0
85.385971 160.0
85.482002 216.0
85.498566 144.0
85.640327 196.0
85.846741 116.0
86.127274 196.0
86.145744 112.0
86.173454 144.0
86.485985 104.0
87.263268 220.0
87.283714 128.0
87.415787 148.0
87.536789 36.0
87.705788 276.0
87.758522 128.0
87.864616 172.0
88.055229 176.0
88.550858 216.0
88.655769 128.0
88.916451 132.0
89.042236 200.0
89.103035 124.0
89.469078 176.0
89.516144 116.0
89.599022 208.0
89.744148 184.0
89.776199 168.0
89.936569 48.0
90.047966 52.0
90.131088 176.0
90.378784 160.0
90.992882 164.0
91.078331 168.0
91.302605 108.0
91.586189 140.0
91.658585 220.0
91.828255 96.0
91.998077 96.0
92.087822 156.0
92.240685 120.0
92.307198 96.0
92.495094 136.0
93.243118 140.0
93.296944 168.0
93.458496 124.0
93.612488 192.0
94.090668 96.0
94.164047 100.0
94.245178 180.0
94.848991 124.0
95.209869 172.0
95.233177 164.0
95.35363 204.0
95.513069 140.0
95.721313 160.0
95.8908 124.0
95.94928 104.0
96.076042 132.0
96.322006 136.0
96.458794 132.0
96.6035 52.0
97.022583 176.0
97.038261 160.0
97.201065 112.0
97.260239 244.0
97.354179 144.0
97.479904 208.0
97.495621 128.0
97.670609 256.0
97.749306 128.0
97.881187 188.0
97.936333 164.0
98.091995 184.0
98.119598 164.0
98.202415 96.0
98.249756 132.0
98.3274 80.0
98.362244 108.0
98.642738 68.0
98.808861 160.0
98.882072 84.0
99.002838 84.0
99.058296 152.0
99.192474 140.0
99.534286 72.0
99.643524 232.0
99.82679 140.0
100.051224 208.0
100.15876 64.0
100.356056 184.0
100.533585 168.0
100.611427 172.0
100.671326 160.0
100.691299 192.0
100.747231 40.0
100.945099 124.0
101.403549 176.0
101.579994 160.0
101.748566 144.0
101.953445 140.0
102.124336 152.0
102.15451 112.0
102.237007 28.0
102.666107 192.0
102.752838 180.0
102.900169 152.0
102.948494 176.0
102.978928 148.0
103.053673 192.0
103.09388 196.0
103.142586 136.0
103.282112 220.0
103.557381 248.0
103.766098 156.0
103.964882 180.0
104.007507 132.0
104.054199 160.0
104.137451 56.0
104.161827 100.0
104.871956 316.0
105.006523 184.0
105.033035 76.0
105.251404 200.0
105.310631 124.0
105.345352 80.0
105.746758 168.0
105.797302 88.0
106.065651 168.0
106.114853 132.0
106.131256 160.0
106.221489 112.0
106.560219 176.0
106.734932 148.0
107.049225 168.0
107.569328 136.0
107.645721 148.0
107.883324 68.0
108.651649 132.0
108.917847 188.0
109.114777 68.0
109.364403 200.0
109.423965 236.0
109.753769 204.0
109.966759 120.0
110.085754 164.0
110.700562 180.0
111.220505 180.0
111.335983 128.0
111.95005 148.0
111.994278 180.0
112.015343 152.0
112.095406 204.0
112.31044 176.0
112.32943 144.0
112.643066 172.0
113.001228 160.0
113.058365 160.0
113.119743 144.0
113.162086 88.0
113.668671 128.0
113.689888 36.0
113.836365 120.0
113.866096 144.0
113.957443 144.0
114.09771 168.0
114.12748 60.0
114.548073 184.0
114.649002 224.0
114.877144 160.0
115.35762 124.0
115.477364 140.0
115.592438 172.0
115.830528 228.0
115.873375 140.0
115.986832 204.0
116.049789 632.0
116.338913 220.0
116.422493 72.0
116.514854 64.0
116.53849 84.0
116.568573 176.0
116.742699 112.0
116.828728 60.0
116.87606 152.0
117.035339 140.0
117.057838 304.0
117.138718 196.0
117.769806 220.0
118.006271 140.0
118.047356 228.0
118.079796 104.0
118.32431 84.0
118.374115 224.0
118.419594 268.0
118.944313 120.0
118.979042 152.0
119.050697 512.0
119.657356 252.0
120.034294 76.0
120.080093 180.0
120.204445 200.0
120.377419 200.0
120.398727 132.0
120.494843 240.0
120.814026 68.0
121.059166 140.0
121.74337 128.0
121.760941 80.0
121.787292 188.0
122.132385 176.0
122.149979 168.0
122.455933 96.0
122.570488 152.0
122.588112 140.0
122.652031 144.0
122.83284 124.0
123.289879 104.0
123.482216 152.0
123.820839 248.0
123.995445 192.0
124.075661 180.0
124.235336 132.0
124.352936 140.0
124.639412 104.0
124.790558 120.0
125.130959 168.0
125.28463 156.0
125.30468 156.0
125.641327 148.0
125.740257 252.0
125.893547 200.0
126.002998 160.0
126.020866 180.0
126.130371 152.0
126.303291 156.0
126.450218 216.0
126.510658 108.0
126.918411 136.0
127.073174 184.0
127.405449 168.0
127.520042 160.0
127.542519 148.0
127.693161 120.0
127.821396 156.0
128.033005 108.0
128.100571 156.0
128.477036 80.0
128.506363 132.0
128.788559 128.0
129.016785 112.0
129.254257 40.0
129.378754 80.0
129.396866 52.0
129.510086 68.0
129.539536 204.0
129.607498 152.0
129.62941 144.0
129.918106 188.0
129.952133 88.0
129.97937 88.0
130.067337 152.0
130.360855 192.0
130.497238 228.0
130.665863 144.0
130.966034 104.0
131.095886 132.0
131.118683 164.0
131.175659 104.0
131.383179 80.0
131.421967 172.0
131.463043 132.0
131.483582 132.0
131.510971 88.0
131.554337 68.0
131.593155 140.0
131.705048 160.0
131.762161 228.0
132.092743 236.0
132.121078 76.0
132.26297 140.0
132.393463 88.0
132.533203 112.0
132.936768 188.0
133.042358 156.0
133.101959 192.0
133.14798 160.0
133.244278 152.0
133.359344 44.0
133.430603 56.0
133.909241 56.0
134.061295 52.0
134.086639 200.0
134.515656 88.0
134.700394 152.0
134.728104 128.0
134.76738 152.0
134.859818 164.0
135.087051 104.0
135.113174 136.0
135.22757 108.0
135.320175 168.0
135.537888 144.0
135.83606 204.0
135.966904 164.0
136.020279 176.0
136.039261 184.0
136.108505 112.0
136.127075 220.0
136.14798 208.0
136.871185 152.0
136.915436 132.0
137.150742 164.0
137.218353 124.0
137.234665 184.0
137.538254 152.0
137.860245 176.0
138.06517 148.0
138.09169 156.0
138.229462 144.0
138.841141 136.0
138.900864 148.0
139.049942 168.0
139.150879 200.0
139.172012 124.0
139.214279 168.0
139.686691 200.0
139.733749 184.0
139.804337 176.0
140.037415 124.0
140.228256 172.0
140.265961 184.0
140.282471 108.0
140.523026 92.0
140.645737 152.0
140.900772 96.0
141.016556 124.0
141.115845 160.0
141.515701 44.0
141.626999 156.0
141.764404 124.0
141.927963 196.0
142.0513 208.0
142.082016 164.0
142.167557 148.0
142.226883 128.0
142.250626 160.0
142.345596 184.0
142.454849 188.0
142.673477 108.0
142.751938 160.0
143.032684 196.0
143.409027 44.0
143.430466 212.0
143.630768 224.0
143.795395 168.0
143.888489 136.0
143.962509 164.0
144.050278 156.0
144.177521 168.0
144.218155 84.0
144.316162 152.0
144.490753 124.0
144.691788 60.0
144.723511 48.0
144.866608 136.0
144.928909 88.0
144.987198 184.0
145.014023 148.0
145.106262 108.0
145.180603 72.0
145.319717 88.0
145.518066 200.0
145.670227 152.0
145.696655 188.0
145.763931 160.0
145.811996 200.0
145.941803 36.0
145.961044 60.0
145.987488 176.0
146.05484 272.0
146.497757 176.0
147.071655 188.0
147.359024 180.0
147.48468 128.0
147.714401 164.0
147.738586 140.0
148.075043 148.0
148.41188 164.0
148.542847 224.0
148.593796 176.0
148.694717 236.0
149.019363 140.0
149.055115 180.0
149.089142 68.0
149.159622 192.0
149.380905 160.0
149.416183 52.0
149.919525 72.0
150.053467 184.0
150.106689 180.0
150.231079 148.0
150.265228 136.0
150.550827 116.0
150.690048 140.0
150.986725 164.0
151.11792 156.0
151.585602 80.0
151.83075 192.0
151.852814 148.0
152.004913 100.0
152.46904 164.0
152.582123 136.0
152.609161 224.0
152.776398 208.0
152.803467 92.0
152.951111 216.0
152.980652 136.0
153.172729 172.0
153.340271 64.0
153.663315 152.0
154.026199 72.0
154.135208 164.0
154.280731 144.0
154.384583 196.0
154.448883 96.0
154.547836 72.0
154.60228 196.0
154.733459 188.0
155.087708 96.0
155.288528 176.0
155.470444 160.0
155.501907 184.0
155.544098 208.0
155.675385 164.0
155.72287 112.0
155.757645 172.0
155.814789 92.0
155.88974 192.0
155.951462 136.0
156.03598 76.0
156.147873 172.0
156.232452 104.0
156.438995 176.0
156.778091 140.0
157.027039 236.0
157.09938 112.0
157.181717 164.0
157.209167 148.0
157.301514 76.0
157.331543 140.0
157.489182 172.0
157.543732 176.0
157.581207 140.0
157.821152 168.0
158.101318 196.0
158.196426 148.0
158.449371 188.0
158.699997 204.0
158.925735 88.0
158.993484 56.0
159.053726 120.0
159.088867 148.0
159.169205 200.0
159.432983 180.0
159.56871 180.0
159.634094 128.0
159.749786 260.0
159.837845 216.0
160.036194 432.0
160.139938 140.0
160.281006 156.0
160.350189 168.0
160.42215 196.0
160.523453 112.0
160.664246 64.0
160.96965 52.0
160.993652 124.0
161.017624 316.0
161.050461 96.0
161.176773 200.0
161.356232 188.0
161.566147 192.0
161.682541 204.0
161.710373 108.0
161.745804 64.0
162.014236 116.0
162.057297 200.0
162.121796 196.0
162.224564 144.0
162.315842 64.0
163.036789 160.0
163.059662 220.0
163.364777 60.0
163.624359 208.0
163.917267 156.0
164.076233 216.0
164.149231 152.0
164.279312 100.0
164.473251 68.0
164.621323 172.0
164.682617 124.0
164.825684 72.0
164.88858 184.0
164.940689 44.0
165.025055 104.0
165.459991 92.0
165.547592 432.0
165.669983 44.0
165.942993 216.0
166.005753 64.0
166.12886 144.0
166.221222 128.0
166.298218 208.0
166.411163 56.0
166.578094 180.0
166.621765 136.0
166.837646 212.0
167.15657 52.0
167.269043 252.0
167.451752 200.0
167.640701 72.0
167.746368 136.0
167.815979 192.0
167.846924 144.0
168.004242 144.0
168.045517 80.0
168.11261 108.0
169.224091 136.0
169.2733 156.0
169.413162 164.0
169.521973 88.0
169.568619 208.0
169.698242 128.0
170.121109 136.0
170.224976 160.0
170.530792 184.0
170.723907 188.0
170.833145 100.0
171.004883 120.0
171.025711 164.0
171.109009 92.0
171.13765 148.0
171.637924 208.0
171.708344 88.0
171.734421 112.0
171.851807 100.0
172.183334 256.0
172.266907 112.0
172.619751 156.0
172.902283 36.0
172.923218 252.0
173.077667 132.0
173.32753 144.0
173.423477 160.0
173.533569 144.0
173.73027 128.0
173.937576 200.0
174.618103 180.0
174.652283 92.0
174.6707 168.0
174.704895 212.0
174.846985 132.0
174.88768 164.0
174.915421 80.0
175.058594 168.0
175.089188 72.0
175.31839 200.0
175.386917 172.0
175.436996 252.0
175.476547 124.0
175.582016 48.0
175.674103 132.0
175.729736 140.0
176.030655 76.0
176.109879 172.0
176.318604 40.0
176.53009 48.0
177.054062 76.0
177.085846 92.0
177.210358 212.0
177.300446 68.0
177.3508 208.0
177.544342 132.0
177.584137 92.0
177.615952 112.0
177.727386 176.0
177.891922 344.0
178.048584 172.0
178.085464 176.0
178.12561 116.0
178.199997 116.0
178.667908 104.0
178.71315 132.0
178.895554 200.0
179.053879 188.0
179.091995 384.0
179.125793 140.0
179.16951 196.0
179.293655 176.0
179.533585 128.0
180.097 188.0
180.150146 224.0
180.329163 60.0
180.361237 48.0
180.409363 160.0
180.609909 132.0
180.794525 80.0
180.858749 112.0
180.966415 148.0
181.02742 176.0
181.196167 140.0
181.281906 104.0
181.332825 368.0
181.356949 56.0
181.378632 232.0
181.520493 160.0
182.003479 144.0
182.086731 56.0
182.108215 220.0
182.137756 204.0
182.540894 140.0
182.653854 108.0
182.858337 124.0
183.017166 172.0
183.138351 116.0
183.232635 76.0
183.456314 100.0
183.523727 200.0
183.777252 56.0
184.017471 164.0
184.287567 164.0
184.37674 152.0
184.715637 220.0
184.885162 152.0
184.92305 84.0
184.95282 148.0
185.050278 140.0
185.199219 224.0
185.346527 160.0
185.51355 148.0
185.567764 92.0
186.042542 84.0
186.129425 128.0
186.151154 164.0
186.219513 160.0
186.327698 168.0
186.463562 104.0
186.798004 180.0
186.879608 120.0
187.040176 228.0
187.096497 192.0
187.307022 268.0
187.374069 144.0
187.405106 136.0
187.533188 136.0
187.683121 140.0
187.770386 124.0
187.838577 132.0
188.059586 136.0
188.07869 144.0
188.278 156.0
188.455551 192.0
188.687866 192.0
188.854675 164.0
189.007874 200.0
189.068085 156.0
189.207687 248.0
189.352814 112.0
189.665161 152.0
189.695312 120.0
189.879013 188.0
190.073593 164.0
190.307098 40.0
190.394974 180.0
190.482864 128.0
190.515823 200.0
190.839905 196.0
191.068405 116.0
191.112427 128.0
191.214249 204.0
191.373901 184.0
191.708878 132.0
191.745728 168.0
191.853287 156.0
192.063202 668.0
192.330505 168.0
192.457504 156.0
192.598343 184.0
192.813843 220.0
193.012878 132.0
193.212021 164.0
193.231384 160.0
193.284515 180.0
193.34761 124.0
193.452789 176.0
193.494308 124.0
193.688156 264.0
193.77681 148.0
193.909821 152.0
194.080475 380.0
194.120514 116.0
194.378494 140.0
194.428436 128.0
194.497833 84.0
194.557587 188.0
194.786606 136.0
194.936646 196.0
195.081161 164.0
195.106186 348.0
195.451065 124.0
195.695999 168.0
195.824097 192.0
195.966171 232.0
196.09436 164.0
196.322968 160.0
196.401062 168.0
196.51265 136.0
196.646591 120.0
196.707993 200.0
196.738708 100.0
196.923004 56.0
197.333786 56.0
197.652634 180.0
197.682495 144.0
197.795364 112.0
197.840164 64.0
198.030563 52.0
198.344391 52.0
198.372421 96.0
198.422882 108.0
198.950302 76.0
199.12439 108.0
199.304184 176.0
199.531845 124.0
199.728683 176.0
200.018509 124.0
200.243759 140.0
200.576248 160.0
200.635437 136.0
200.863174 136.0
200.920273 152.0
201.038788 140.0
201.185562 168.0
201.359589 120.0
201.391693 152.0
201.67424 124.0
201.753387 128.0
202.336182 100.0
202.392807 140.0
202.48436 48.0
202.56839 140.0
202.834763 60.0
202.949554 244.0
203.654785 148.0
203.775085 172.0
204.027634 784.0
204.069672 144.0
204.276749 132.0
204.339874 228.0
204.459381 168.0
204.633026 60.0
205.029022 200.0
205.067322 240.0
205.096878 740.0
205.337952 148.0
205.439545 116.0
205.459518 200.0
205.607895 52.0
205.744904 160.0
205.787735 172.0
206.083923 812.0
206.133347 188.0
206.193359 116.0
206.299118 44.0
206.463333 148.0
206.616562 144.0
206.713837 200.0
206.960007 108.0
207.078995 152.0
207.140427 184.0
207.343857 124.0
207.372528 176.0
207.52446 224.0
207.662109 160.0
207.707993 172.0
208.115509 144.0
208.299316 192.0
208.445831 56.0
208.825317 108.0
208.874222 132.0
208.900101 184.0
209.066986 128.0
209.161957 152.0
209.251205 148.0
209.334702 156.0
209.562256 128.0
209.588196 200.0
210.219696 156.0
210.779892 144.0
210.846359 132.0
210.912842 84.0
210.964874 172.0
211.019791 200.0
211.318542 136.0
211.430557 48.0
211.482651 228.0
211.543427 152.0
211.754807 152.0
212.331558 164.0
212.566528 116.0
212.610062 212.0
212.656494 204.0
212.861496 248.0
213.228653 224.0
213.359467 128.0
213.510666 196.0
213.66774 144.0
213.693924 92.0
214.075226 160.0
214.113083 204.0
214.32692 236.0
214.453964 88.0
214.608475 84.0
214.659454 224.0
214.71637 152.0
215.072311 152.0
215.209518 136.0
215.285446 120.0
216.016144 152.0
216.232666 156.0
216.276566 180.0
216.712906 112.0
217.472427 112.0
217.613342 144.0
217.807159 104.0
217.912918 180.0
217.983429 148.0
218.027512 144.0
218.156845 100.0
218.186249 204.0
218.26857 112.0
218.339142 184.0
218.374435 196.0
218.668655 104.0
218.768738 140.0
219.054367 212.0
219.41095 128.0
219.620316 136.0
219.655716 160.0
219.956696 104.0
220.014206 216.0
220.057068 220.0
220.097641 460.0
220.13089 164.0
220.461746 56.0
220.75441 112.0
220.846085 144.0
221.061966 132.0
221.095749 152.0
221.515045 84.0
221.585754 208.0
221.695786 144.0
221.80365 132.0
222.024857 112.0
222.098999 140.0
222.167221 104.0
222.265137 148.0
222.29184 352.0
222.315582 152.0
222.466949 164.0
222.582748 120.0
222.94516 160.0
223.078903 88.0
223.114578 72.0
223.284073 156.0
223.459564 120.0
223.620255 52.0
223.676819 76.0
223.882248 40.0
223.917984 168.0
224.084808 172.0
224.159286 184.0
224.353027 116.0
224.62738 152.0
224.716873 164.0
224.851151 108.0
225.06012 184.0
225.089981 132.0
225.197479 136.0
225.340866 136.0
225.5112 224.0
225.573975 132.0
225.61882 148.0
225.63974 140.0
226.067474 172.0
226.202164 116.0
226.405762 184.0
226.429718 128.0
226.570496 184.0
226.76651 68.0
226.80423 176.0
226.837204 96.0
227.10408 100.0
227.353088 124.0
227.675842 196.0
227.698334 180.0
228.161087 192.0
228.269073 236.0
228.3806 164.0
228.850052 140.0
229.265747 136.0
229.368225 156.0
229.452637 324.0
229.62149 152.0
229.754211 156.0
229.823608 176.0
229.938278 156.0
229.974487 204.0
230.21904 228.0
230.747818 172.0
231.068405 160.0
231.092606 192.0
231.26207 164.0
231.292343 124.0
231.461884 224.0
231.53154 56.0
231.907211 176.0
232.060471 708.0
232.170975 116.0
232.664536 176.0
232.771835 124.0
233.061096 176.0
233.137543 268.0
233.315704 192.0
233.352188 120.0
233.756805 160.0
233.856918 156.0
234.134216 212.0
234.304779 196.0
234.350494 104.0
234.408386 140.0
234.429718 176.0
234.472382 164.0
234.520538 180.0
234.859589 120.0
234.90535 56.0
234.954147 124.0
235.094513 164.0
235.448639 52.0
235.732742 80.0
235.780334 188.0
235.998672 112.0
236.096527 76.0
236.117126 144.0
236.283112 116.0
236.359604 148.0
236.573853 168.0
236.699371 144.0
236.852509 76.0
237.123596 1392.0
237.223282 92.0
237.24649 148.0
237.312195 60.0
237.398041 60.0
237.493118 108.0
237.569809 164.0
237.637299 120.0
237.756973 48.0
237.849045 128.0
238.073181 96.0
238.12793 456.0
238.234299 132.0
238.663162 116.0
239.161545 176.0
239.204636 116.0
239.563858 104.0
239.999481 208.0
240.073486 184.0
240.681381 192.0
240.706085 104.0
240.787369 176.0
240.891403 152.0
241.209686 80.0
241.361176 132.0
241.52507 168.0
241.791168 88.0
241.819016 64.0
241.887115 96.0
242.240128 84.0
242.268005 180.0
242.593384 84.0
242.742218 228.0
242.887985 180.0
242.909698 72.0
243.182739 172.0
243.300705 160.0
243.514954 184.0
244.089874 204.0
244.226715 260.0
244.646805 116.0
244.970673 104.0
245.453751 124.0
245.528595 32.0
245.743835 132.0
245.965408 196.0
246.249542 44.0
246.293259 160.0
246.358856 140.0
246.717026 164.0
246.81517 92.0
247.07164 116.0
247.171753 164.0
247.638214 276.0
247.797974 156.0
248.026733 96.0
248.3591 196.0
248.53479 180.0
248.62265 164.0
248.716812 140.0
248.763885 76.0
248.785873 76.0
248.810989 160.0
248.892609 204.0
248.9328 176.0
248.958557 184.0
249.049316 156.0
249.087448 9764.0
249.169006 264.0
249.190994 48.0
249.247559 100.0
249.352341 140.0
249.406219 140.0
249.442413 184.0
249.48642 168.0
249.51149 144.0
249.58075 36.0
249.65184 92.0
249.679367 88.0
249.813477 52.0
249.933029 144.0
249.983383 44.0
250.089355 1376.0
250.153763 492.0
250.191116 172.0
250.219452 192.0
250.247787 52.0
250.298157 72.0
250.379517 48.0
250.518631 56.0
250.624207 164.0
250.707672 128.0
250.736038 116.0
250.830597 52.0
250.884186 124.0
250.947235 164.0
250.969299 84.0
251.000839 48.0
251.092163 460.0
251.138962 11392.0
251.231079 124.0
251.266495 124.0
251.287857 68.0
251.31311 80.0
251.338348 52.0
251.382523 140.0
251.448792 124.0
251.490829 76.0
251.559265 44.0
251.597153 156.0
251.631882 52.0
251.693451 96.0
251.748718 92.0
251.817505 128.0
251.912277 112.0
251.960342 60.0
252.068329 132.0
252.109589 172.0
252.141815 1632.0
252.320908 88.0
252.383392 136.0
252.481888 44.0
252.519836 128.0
252.693817 52.0
252.72229 64.0
252.839371 92.0
252.891724 172.0
252.991302 96.0
253.051453 72.0
253.144135 196.0
253.222458 140.0
253.311142 72.0
253.349167 104.0
253.65654 36.0
253.761154 124.0
253.830917 48.0
253.97052 188.0
254.110046 172.0
254.145432 236.0
254.211578 144.0
254.379791 100.0
254.646515 44.0
254.792633 116.0
254.872055 152.0
254.976929 76.0
255.005524 56.0
255.089691 168.0
255.212326 156.0
255.243958 136.0
255.342545 56.0
255.581131 124.0
255.784805 152.0
255.842102 168.0
255.896225 128.0
255.97583 204.0
256.221069 64.0
257.053253 108.0
257.101135 164.0
257.22879 156.0
257.790924 36.0
257.874023 36.0
257.912384 100.0
257.953918 136.0
258.97464 236.0
259.147644 140.0
259.234161 168.0
259.275818 120.0
259.641296 92.0
260.270264 68.0
260.337677 120.0
260.437256 172.0
260.540039 200.0
260.639648 220.0
260.941772 52.0
260.973907 132.0
261.086456 140.0
261.533691 124.0
261.762268 136.0
262.029602 104.0
262.152039 132.0
262.358307 104.0
262.438934 60.0
262.500183 236.0
262.738861 188.0
262.819519 144.0
263.05835 172.0
263.129364 176.0
263.158417 160.0
263.387726 132.0
263.804565 204.0
264.030914 68.0
264.406189 172.0
264.814117 176.0
264.969604 116.0
265.106049 112.0
265.258026 180.0
265.53363 144.0
265.650391 144.0
266.065796 216.0
266.137207 140.0
266.189178 112.0
266.263855 144.0
267.132996 268.0
267.164246 128.0
267.219543 88.0
267.538483 160.0
267.691498 104.0
267.903198 160.0
267.935791 120.0
268.04657 128.0
268.124786 96.0
268.180176 88.0
268.274719 204.0
268.571442 112.0
268.675842 156.0
269.109924 140.0
269.171936 140.0
269.194794 200.0
269.740417 120.0
269.805817 228.0
269.956207 168.0
270.34549 140.0
270.597534 144.0
270.771088 248.0
270.797302 140.0
270.925049 96.0
271.180634 76.0
271.458862 156.0
271.619995 184.0
272.043304 48.0
272.145081 176.0
272.332275 96.0
272.387329 200.0
272.874481 176.0
273.163879 108.0
273.578522 204.0
273.647644 148.0
274.250488 140.0
274.293335 180.0
274.454895 88.0
274.751709 116.0
274.787994 204.0
274.867188 120.0
275.06192 176.0
275.520935 68.0
275.858002 96.0
275.993561 40.0
276.064819 168.0
276.271362 132.0
276.346802 160.0
276.807556 156.0
276.993042 196.0
277.055969 224.0
277.118134 4660.0
277.163818 144.0
277.258087 92.0
277.410553 200.0
277.639343 140.0
277.699036 44.0
277.728882 116.0
277.835022 52.0
278.12265 320.0
278.422546 88.0
278.545441 128.0
278.797943 56.0
279.037262 156.0
279.123718 184.0
279.203522 80.0
279.416412 228.0
279.527466 120.0
279.872406 132.0
280.076691 196.0
280.375397 124.0
280.782135 200.0
280.908875 148.0
281.455017 100.0
281.516327 116.0
281.700012 284.0
281.766846 44.0
281.830322 176.0
282.36853 124.0
282.726501 48.0
282.907227 176.0
283.188507 60.0
283.262207 156.0
283.289001 112.0
283.654266 176.0
283.915771 40.0
284.103607 224.0
284.23111 184.0
284.660767 80.0
285.326141 148.0
285.699341 164.0
286.355713 124.0
286.662292 176.0
286.726318 172.0
286.753296 176.0
286.894867 120.0
287.097168 120.0
287.171356 160.0
287.371704 176.0
287.42099 152.0
287.532349 156.0
287.842926 140.0
287.876709 160.0
287.944244 172.0
288.427399 220.0
288.495026 124.0
288.701263 256.0
288.914368 160.0
288.941406 132.0
288.998932 140.0
289.229065 172.0
289.350922 160.0
289.388519 156.0
289.543945 232.0
289.665863 96.0
289.750549 192.0
289.882721 144.0
290.014893 176.0
290.130127 96.0
290.204712 80.0
290.269135 124.0
290.350525 68.0
290.40155 96.0
290.503174 72.0
290.59137 156.0
290.693176 84.0
290.866241 72.0
290.89682 80.0
291.331482 56.0
291.376587 144.0
291.535339 108.0
291.586304 56.0
291.668243 144.0
291.827667 144.0
291.905884 148.0
291.93988 188.0
292.028717 160.0
292.07251 80.0
292.191589 136.0
292.242615 52.0
292.389313 148.0
292.453613 200.0
292.497589 204.0
292.579681 128.0
292.630615 68.0
292.702118 96.0
292.766663 80.0
292.800903 76.0
292.850708 172.0
292.881348 96.0
292.905334 132.0
292.933716 152.0
292.961426 180.0
293.001862 148.0
293.040985 156.0
293.094818 184.0
293.155609 232.0
293.18927 144.0
293.23114 172.0
293.31311 148.0
293.377441 228.0
293.414246 116.0
293.45639 228.0
293.489227 156.0
293.515442 352.0
293.550507 128.0
293.603088 80.0
293.64444 220.0
293.676392 132.0
293.702271 248.0
293.731873 332.0
293.76297 140.0
293.798828 160.0
293.848969 144.0
293.887726 196.0
293.950348 148.0
293.984344 360.0
294.016174 476.0
294.054871 104.0
294.146027 183952.0
294.214813 168.0
294.259125 148.0
294.265259 244.0
294.313538 204.0
294.39386 304.0
294.459778 340.0
294.515472 200.0
294.550018 180.0
294.579254 164.0
294.603577 152.0
294.641144 120.0
294.708252 1508.0
294.738861 284.0
294.782288 148.0
294.833496 156.0
294.867188 116.0
294.902008 276.0
294.960876 108.0
294.992249 148.0
295.015686 156.0
295.088196 248.0
295.147369 24076.0
295.215057 88.0
295.263397 44.0
295.276367 68.0
295.325043 72.0
295.367554 112.0
295.403534 132.0
295.445312 44.0
295.471344 52.0
295.5 120.0
295.519897 108.0
295.548584 88.0
295.62149 204.0
295.664093 68.0
295.675507 64.0
295.702423 96.0
295.740265 64.0
295.767242 96.0
295.811218 104.0
295.858612 120.0
295.935669 156.0
295.986206 68.0
296.028107 60.0
296.079865 148.0
296.148071 3676.0
296.229767 68.0
296.242523 60.0
296.256653 44.0
296.343597 184.0
296.398071 72.0
296.432831 140.0
296.511139 32.0
296.542206 68.0
296.570709 64.0
296.605316 204.0
296.660614 92.0
296.690796 104.0
296.725037 80.0
296.759766 76.0
296.812531 92.0
296.831573 60.0
296.882874 120.0
296.930054 128.0
297.015381 92.0
297.067749 108.0
297.078308 68.0
297.091431 100.0
297.154572 404.0
297.19577 80.0
297.203674 84.0
297.232025 164.0
297.271698 132.0
297.379211 120.0
297.424225 56.0
297.450958 180.0
297.496063 112.0
297.550507 52.0
297.629456 72.0
297.677551 52.0
297.705017 80.0
297.76355 84.0
297.816528 104.0
297.849274 104.0
297.875793 104.0
297.93515 40.0
298.010742 104.0
298.048523 96.0
298.076019 64.0
298.135406 164.0
298.199738 96.0
298.262573 60.0
298.295776 108.0
298.326904 52.0
298.362183 136.0
298.392242 152.0
298.443817 76.0
298.534607 76.0
298.636383 56.0
298.698303 52.0
298.736145 80.0
298.856537 28.0
298.935699 160.0
298.963226 36.0
298.987305 48.0
299.097443 56.0
299.178558 100.0
299.214478 52.0
299.27301 44.0
299.407318 76.0
299.431427 56.0
299.465881 48.0
299.517517 44.0
299.69101 68.0
299.793152 68.0
300.196503 64.0
300.262024 132.0
300.29306 60.0
300.348236 88.0
300.555237 76.0
300.865845 72.0
300.910736 136.0
301.456482 48.0
301.601654 56.0
302.303711 68.0
302.33139 72.0
303.242249 136.0
303.304626 112.0
303.571594 88.0
303.595856 60.0
303.897644 44.0
304.144043 32.0
304.334991 80.0
304.36969 92.0
304.88382 52.0
305.868103 36.0
306.226746 60.0
306.373047 100.0
306.442719 64.0
306.773804 48.0
307.021362 72.0
307.167847 156.0
307.286469 48.0
307.57959 52.0
307.872894 92.0
307.907806 96.0
307.942719 44.0
308.141846 48.0
308.218719 92.0
308.368988 72.0
308.865479 36.0
309.334381 92.0
309.716034 88.0
310.084198 52.0
310.529205 144.0
310.953735 40.0
311.094116 172.0
311.14328 124.0
311.466492 92.0
311.617401 100.0
311.719299 120.0
311.933685 148.0
311.958313 40.0
312.021576 96.0
312.049713 104.0
312.088379 104.0
312.1539 5904.0
312.212952 48.0
312.255615 36.0
312.401398 32.0
312.461212 32.0
312.894073 80.0
313.155518 548.0
313.214539 104.0
313.270905 28.0
313.327271 76.0
313.573944 52.0
313.697296 36.0
313.848907 72.0
313.880646 60.0
313.98996 152.0
314.175659 276.0
314.239136 156.0
314.39212 52.0
314.536835 40.0
314.649811 112.0
314.882874 116.0
314.918182 136.0
315.087738 104.0
315.161926 164.0
315.303284 92.0
317.051575 60.0
317.398956 60.0
317.828156 128.0
318.087219 56.0
319.231262 144.0
321.961029 44.0
323.305237 160.0
327.203369 112.0
328.876007 88.0
330.086273 104.0
332.361053 136.0
332.61145 52.0
337.065552 48.0
339.89975 140.0
340.751587 48.0
342.178589 48.0
343.601166 120.0
346.525635 80.0
346.670135 52.0
346.785034 76.0
350.207001 124.0
350.601929 60.0
352.232391 180.0
353.204254 88.0
357.345856 92.0
357.925507 116.0
360.097687 60.0
360.524597 92.0
360.83075 52.0
361.137054 64.0
363.941376 72.0
366.234528 156.0
367.217896 176.0
368.216766 536.0
368.485229 92.0
368.844452 44.0
369.217346 404.0
369.249756 188.0
369.43335 36.0
369.750916 64.0
370.597198 44.0
371.245026 156.0
377.990234 100.0
379.436981 44.0
383.165924 112.0
384.846893 112.0
386.766388 152.0
391.88736 68.0
392.498291 124.0
399.421112 84.0
401.432373 112.0
401.496185 64.0
404.548828 108.0
415.125397 76.0
421.161011 152.0
424.393982 56.0
425.009216 56.0
425.193878 60.0
426.076721 108.0
429.138794 40.0
429.959656 76.0
431.380524 120.0
432.439423 92.0
435.042542 44.0
436.043579 100.0
437.632629 48.0
437.686768 72.0
443.036987 76.0
444.596771 108.0
445.684357 48.0
447.585602 72.0
447.985687 128.0
450.178925 92.0
450.216949 52.0
451.294464 96.0
451.755463 112.0
455.222473 76.0
456.34848 36.0
457.599365 68.0
461.417816 88.0
462.106415 68.0
462.774078 68.0
463.965118 68.0
465.634308 68.0
469.632721 60.0
473.158875 92.0
475.590759 52.0
483.352539 36.0
485.016724 64.0
485.235931 96.0
491.0448 136.0
491.975861 108.0
496.821716 68.0
500.452759 76.0
500.92038 48.0
510.826813 28.0
512.488037 120.0
515.845764 32.0
518.915161 48.0
520.516846 108.0
530.948975 96.0
531.724304 120.0
534.200928 120.0
539.420959 60.0
543.018677 68.0
545.172852 80.0
548.799011 120.0
549.325989 52.0
554.525513 60.0
554.905212 64.0
562.111145 76.0
569.909851 120.0
577.661804 56.0
579.222351 76.0
579.399597 36.0
580.813721 48.0
583.9646 88.0
584.835449 88.0
586.665955 72.0
599.851624 48.0
601.519958 104.0
604.56488 52.0
611.504456 80.0
619.746399 36.0
620.737549 80.0
622.911621 100.0
627.141113 52.0
634.028259 84.0
636.360779 64.0
655.771301 80.0
659.579041 44.0
660.110718 104.0
667.895996 60.0
668.992065 60.0
670.058105 64.0
677.119385 84.0
689.940796 72.0
693.568481 100.0
697.652405 76.0
700.035889 120.0
702.217712 92.0
706.617981 152.0
716.423645 32.0
716.716675 60.0
749.811646 116.0
753.953857 60.0
754.167053 88.0
760.981812 100.0
768.003723 68.0
772.516663 100.0
776.116577 56.0
777.941895 76.0
783.035156 108.0
786.436218 64.0
815.34137 92.0
816.910645 44.0
826.152222 40.0
839.771729 132.0
851.009888 72.0
852.77002 92.0
869.1745 80.0
874.434082 60.0
877.255493 84.0
877.402893 100.0
892.75647 56.0
894.428345 64.0
899.47113 68.0
927.326782 108.0
947.447815 48.0
955.939392 56.0
971.98114 76.0
998.097778 92.0
1010.080627 100.0
1014.342163 104.0
1047.185669 48.0
1048.976929 76.0
1063.881592 52.0
1066.265381 80.0
1072.663574 56.0
1124.951904 76.0
1133.807739 100.0
1135.349609 108.0
1167.088135 92.0
1173.658813 104.0
1189.284058 140.0
1196.185303 64.0
1231.423828 52.0
1253.839844 168.0
1265.438721 176.0
1283.279419 88.0
1301.230591 68.0
1303.177002 20.0
1306.04541 68.0
1306.735962 192.0
1311.409546 60.0
1349.500366 116.0
1357.745728 92.0
1367.679199 56.0
1369.4021 44.0
1369.733521 140.0
1403.074219 164.0
1403.894409 76.0
1404.483521 148.0
1420.333618 196.0
1435.495728 100.0
1436.679932 72.0
1443.341431 128.0
1454.65271 192.0
1456.072632 132.0
1459.233765 216.0
1469.401367 104.0
1471.805664 208.0
1473.264404 124.0
1484.124756 140.0
1497.78894 196.0
1499.93103 52.0
1501.604248 160.0
1502.552979 208.0
1505.223633 92.0
