>compound Brucine
>formula C23H26N2O4
>ionization [M+Na]+
>parentmass 417.178
#inchi InChI=1S/C23H26N2O4/c1-27-16-8-14-15(9-17(16)28-2)25-20(26)10-18-21-13-7-19-23(14,22(21)25)4-5-24(19)11-12(13)3-6-29-18/h3,8-9,13,18-19,21-22H,4-7,10-11H2,1-2H3/t13-,18-,19-,21-,22-,23+/m0/s1
#inchikey RRKTZKIUPZVBMF
#Ion_Source LC-ESI
#Instrument qTof
#Compound_Source Commercial
#PI Dorrestein
#Data_Collector Garg_Neha
#Scan -1
#Precursor_MZ 417.178
#ExactMass 394.189
#Charge 1
#CAS_Number N/A
#Pubmed_ID N/A
#Smiles COc1cc2N3[C@H]4[C@H]5[C@H]6C[C@@H]7N(CC[C@@]74c2cc1OC)CC6=CCO[C@H]5CC3=O
#INCHI_AUX N/A
#Library_Class 1
#SpectrumID CCMSLIB00000079093
#IonMode Positive
#UpdateWorkflowName UPDATE-SINGLE-ANNOTATED-GOLD
#LibraryQualityString Gold
#TaskID 278b19f5865741e282cec7349aa7e7a1
##Scan# 2065
#SpectrumFile NCP003432_G2_H11_BD3_01_15725.mzXML
#LibraryName NIHcollectionI_05062014.mgf
#MQScore -1
#Organism NIHcollectionI_05062014
#TIC_Query 0
#RT_Query -1
#MZErrorPPM -1
#SharedPeaks 0
#MassDiff 0
#LibMZ -1
#SpecMZ 417.178
#SpecCharge 0
#internalFilename spec-00000.mgf

>collision 10
44.959324 208.0
89.614899 164.0
131.422577 156.0
135.965149 148.0
139.607285 212.0
171.101501 156.0
182.111099 180.0
183.103806 320.0
184.044662 192.0
184.079758 228.0
192.079514 176.0
192.894104 140.0
198.093567 244.0
210.094986 124.0
211.358124 160.0
211.911148 144.0
212.961258 148.0
226.085251 628.0
226.953873 156.0
228.10144 208.0
233.856827 204.0
235.066696 160.0
238.795013 168.0
239.085083 156.0
240.10701 176.0
241.073395 108.0
242.082184 188.0
247.321487 216.0
249.111954 180.0
253.07193 268.0
254.081787 420.0
255.086365 368.0
256.085114 144.0
257.34314 160.0
259.072205 148.0
270.063385 160.0
271.083649 1032.0
272.084625 256.0
273.080597 156.0
273.416443 140.0
275.07431 184.0
277.429596 220.0
282.909668 148.0
283.068665 492.0
284.076599 620.0
285.067169 152.0
285.950745 152.0
286.081512 180.0
287.080688 240.0
293.904327 200.0
301.080811 2432.0
302.083893 536.0
303.073456 1508.0
304.070953 260.0
316.54364 140.0
317.077606 4852.0
317.167603 164.0
318.079071 436.0
327.093872 168.0
329.246368 140.0
331.094696 256.0
334.969788 140.0
335.749786 148.0
341.119019 148.0
342.530396 152.0
343.072083 160.0
343.1297 4628.0
344.131561 812.0
345.108154 172.0
345.139771 132.0
352.904327 176.0
359.122406 684.0
359.355865 180.0
364.171021 140.0
375.041351 172.0
375.118896 3892.0
376.118927 1928.0
376.904022 128.0
377.120972 140.0
416.855988 168.0
416.888489 156.0
417.165009 7248.0
418.16864 2000.0
418.250946 168.0
418.654022 140.0
419.173584 720.0
421.648438 144.0
457.246918 160.0
