>compound MLS001074335-01!(3,5-dimethyl-1-adamantyl)amine nitrate
>formula C12H21N
>ionization [M+H]+
>parentmass 180.17467612409052
#inchi InChI=1S/C12H21N/c1-10-3-9-4-11(2,6-10)8-12(13,5-9)7-10/h9H,3-8,13H2,1-2H3
#inchikey BUGYDGFZZOZRHP
#origInchi InChI=1S/C12H21N.HNO3/c1-10-3-9-4-11(2,6-10)8-12(13,5-9)7-10;2-1(3)4/h9H,3-8,13H2,1-2H3;(H,2,3,4)
#Ion_Source LC-ESI
#Instrument qTof
#Compound_Source NIH Pharmacologically Active Library
#PI Dorrestein
#Data_Collector VP/LMS
#Scan -1
#Precursor_MZ 180.179
#ExactMass 179.167
#Charge 1
#CAS_Number N/A
#Pubmed_ID N/A
#Smiles CC1(CC2CC3(C)C1)CC(N)(C2)C3.O[N+](=O)[O-]
#INCHI_AUX N/A
#Library_Class 1
#SpectrumID CCMSLIB00000085515
#IonMode Positive
#UpdateWorkflowName UPDATE-SINGLE-ANNOTATED-GOLD
#LibraryQualityString Gold
#TaskID d252d724072548979f1f6f1ced849daf
##Scan# 1452
#SpectrumFile p4-C02_GC2_01_18350.mzXML
#LibraryName Pharm_Active_Library.mgf
#MQScore -1
#Organism Pharm_Active_Library
#TIC_Query 0
#RT_Query -1
#MZErrorPPM -1
#SharedPeaks 0
#MassDiff 0
#LibMZ -1
#SpecMZ 180.179
#SpecCharge 0
#internalFilename spec-00000.mgf

>collision 10
44.904987 160.0
44.974369 188.0
45.049145 116.0
45.082546 164.0
45.103931 124.0
45.342171 168.0
45.476288 164.0
45.555511 196.0
45.794937 232.0
46.325787 204.0
46.670506 104.0
46.976933 308.0
47.062912 132.0
47.31448 148.0
47.603783 200.0
47.717827 164.0
47.924278 192.0
47.942192 152.0
48.053879 168.0
48.367577 108.0
48.440968 116.0
48.452049 144.0
48.507481 164.0
48.521343 52.0
48.667023 152.0
48.686462 144.0
48.753143 180.0
48.762871 136.0
48.780941 144.0
48.870625 148.0
49.108158 76.0
49.408482 212.0
49.442062 96.0
49.542877 260.0
49.610142 76.0
49.638184 144.0
49.65501 136.0
50.016102 232.0
50.211945 124.0
50.31213 112.0
50.381329 148.0
50.467537 128.0
50.675594 144.0
50.716694 148.0
50.850014 168.0
51.034683 156.0
51.100109 184.0
51.27668 92.0
51.580696 148.0
51.861244 160.0
51.905685 168.0
51.944408 204.0
51.954449 180.0
52.159798 164.0
52.185673 156.0
52.315151 152.0
52.354027 156.0
52.549358 172.0
52.651108 176.0
52.690105 164.0
52.784054 160.0
52.99538 188.0
53.035954 168.0
53.059151 84.0
53.140366 116.0
53.239071 152.0
53.359673 60.0
53.738342 136.0
54.004211 108.0
54.200378 140.0
54.242878 232.0
54.342602 216.0
54.357273 240.0
54.429199 132.0
54.467384 180.0
54.492355 28.0
54.534973 184.0
54.623192 224.0
54.894188 124.0
54.947285 120.0
54.978271 88.0
55.026981 128.0
55.143677 132.0
55.198376 80.0
55.248665 208.0
55.353748 68.0
55.418922 156.0
55.436703 148.0
55.473755 152.0
55.586472 128.0
55.646385 220.0
55.668118 104.0
55.715645 108.0
55.803329 132.0
55.83902 88.0
55.986351 220.0
56.034016 80.0
56.068901 224.0
56.104061 104.0
56.186085 216.0
56.345825 180.0
56.552185 204.0
56.592602 224.0
57.032146 124.0
57.101307 192.0
57.169006 164.0
57.304523 156.0
57.464336 144.0
57.58812 132.0
57.830032 152.0
57.84214 128.0
57.920879 200.0
57.987545 192.0
58.043636 172.0
58.107338 168.0
58.295616 84.0
58.631687 196.0
58.818008 136.0
58.876026 188.0
58.888245 168.0
58.932545 76.0
58.958519 52.0
58.979919 188.0
59.10685 132.0
59.128277 144.0
59.289078 196.0
59.331997 180.0
59.393333 136.0
59.422482 128.0
59.477726 212.0
59.556034 176.0
59.603657 176.0
59.642078 204.0
59.7328 152.0
59.755489 192.0
59.783569 124.0
59.971462 68.0
60.349674 208.0
60.375961 240.0
60.496647 184.0
60.6283 76.0
60.909122 108.0
61.014793 164.0
61.086327 172.0
61.313652 64.0
61.957413 92.0
62.128288 148.0
62.440865 124.0
62.577766 116.0
62.599812 168.0
62.769993 40.0
62.782608 136.0
62.831505 192.0
62.951332 192.0
63.236027 120.0
63.378548 152.0
63.720329 96.0
63.88023 136.0
63.905685 192.0
64.047363 148.0
64.068077 244.0
64.275337 168.0
64.382294 160.0
64.529297 232.0
64.548485 56.0
64.591667 180.0
64.809387 164.0
64.867081 152.0
65.006615 176.0
65.206924 148.0
65.294174 60.0
65.440605 160.0
65.750099 176.0
66.061935 200.0
66.191414 180.0
66.445885 184.0
66.476707 176.0
66.49456 204.0
66.557869 184.0
66.635834 176.0
66.796776 136.0
67.145325 128.0
67.854996 212.0
68.035454 48.0
68.06337 136.0
68.240814 160.0
68.413559 132.0
68.555206 156.0
68.56839 136.0
68.657417 148.0
68.814171 88.0
69.03228 188.0
69.172913 144.0
69.452942 60.0
69.482796 220.0
69.50769 172.0
69.647141 168.0
69.698639 140.0
69.815002 140.0
69.929794 132.0
70.37822 248.0
70.528572 228.0
71.079552 256.0
71.099686 80.0
71.366776 108.0
71.459282 132.0
71.76413 168.0
71.905823 200.0
71.956467 136.0
72.093277 180.0
72.352066 188.0
72.399475 196.0
72.429962 184.0
72.5401 216.0
72.981506 128.0
73.069946 200.0
73.120995 152.0
73.228584 144.0
73.352638 160.0
73.58123 116.0
74.291443 188.0
74.366676 180.0
74.791481 160.0
74.834518 132.0
74.996452 160.0
75.011963 68.0
75.255211 160.0
75.562851 196.0
75.649384 224.0
75.914467 80.0
76.060204 204.0
76.303406 196.0
76.336441 156.0
76.684616 168.0
76.794456 172.0
76.864235 192.0
76.927071 200.0
76.998657 212.0
77.031845 128.0
77.124451 168.0
77.976257 148.0
78.123955 208.0
78.275314 124.0
78.312294 168.0
78.358093 168.0
78.469131 216.0
78.534378 160.0
78.617294 128.0
78.702026 148.0
78.91935 144.0
78.949409 144.0
78.997162 96.0
79.07325 180.0
79.09095 184.0
79.188324 168.0
79.234383 40.0
79.282227 176.0
79.315895 112.0
79.484375 164.0
79.52874 204.0
79.594429 180.0
79.704559 204.0
79.748985 160.0
79.770317 32.0
79.930374 156.0
80.170776 204.0
80.450798 164.0
80.599037 132.0
80.613335 184.0
80.690193 140.0
80.743835 164.0
80.806442 164.0
80.851173 116.0
81.062485 104.0
81.293808 160.0
81.568596 196.0
81.611633 192.0
81.647705 140.0
81.667488 240.0
81.899681 192.0
81.918343 144.0
82.014992 204.0
82.55661 216.0
82.793678 244.0
82.971252 40.0
83.254303 236.0
83.537842 196.0
83.550575 128.0
83.909348 132.0
84.195442 248.0
84.214088 160.0
84.261581 96.0
84.393173 108.0
84.45092 132.0
84.67498 240.0
85.039825 156.0
85.074699 176.0
85.234489 192.0
85.580238 168.0
86.030739 200.0
86.212975 156.0
86.427475 56.0
86.540382 120.0
86.740456 144.0
86.968605 200.0
87.087433 208.0
87.187759 40.0
87.489075 208.0
87.964432 188.0
88.117569 112.0
88.471024 152.0
88.778305 220.0
88.821442 144.0
88.905869 164.0
89.042915 156.0
89.309799 40.0
89.571434 148.0
89.790161 168.0
89.908928 172.0
90.046745 164.0
90.113388 256.0
90.127968 144.0
90.182777 140.0
90.415398 244.0
90.457039 216.0
90.474075 144.0
90.54792 152.0
90.659698 148.0
90.703285 228.0
90.940384 172.0
91.055244 7948.0
91.105583 44.0
91.120781 40.0
91.158775 64.0
91.390755 144.0
91.45546 36.0
91.596359 168.0
91.661133 140.0
91.685905 220.0
91.77169 116.0
91.889938 40.0
91.96627 228.0
92.058945 1392.0
92.591454 184.0
92.666161 148.0
92.704483 172.0
92.740196 164.0
92.788818 40.0
92.892372 188.0
93.070541 1896.0
93.090462 208.0
93.155357 36.0
93.199547 64.0
93.224525 172.0
93.362938 156.0
93.51107 152.0
93.545723 164.0
93.728683 184.0
93.784569 44.0
94.031441 160.0
94.048813 180.0
94.075523 212.0
94.093208 116.0
94.332756 68.0
94.367554 224.0
94.502945 80.0
94.671341 136.0
94.712013 52.0
94.756569 112.0
94.77401 108.0
94.791443 172.0
94.969803 228.0
95.024117 200.0
95.064865 188.0
95.085922 812.0
95.197227 108.0
95.237648 284.0
95.381439 144.0
95.531166 36.0
95.550621 192.0
95.753059 60.0
95.836823 160.0
95.899178 128.0
96.084427 192.0
96.152718 172.0
96.185898 152.0
96.34407 160.0
96.611893 124.0
96.795876 172.0
96.956505 220.0
97.060402 168.0
97.211441 200.0
97.229103 172.0
97.333145 180.0
97.464745 304.0
97.930977 56.0
97.956581 196.0
98.228607 88.0
98.512863 196.0
98.771812 136.0
98.90834 212.0
98.98159 176.0
99.370079 180.0
99.518929 252.0
99.727516 200.0
99.834869 228.0
99.890564 172.0
99.992035 340.0
100.304741 192.0
100.402435 180.0
100.506165 132.0
101.111649 180.0
101.355957 152.0
101.4702 152.0
101.803276 144.0
101.951935 140.0
101.966003 104.0
102.004189 112.0
102.042389 184.0
102.114777 176.0
102.489204 148.0
102.888741 184.0
103.054611 1000.0
103.1269 40.0
103.648529 200.0
103.693596 196.0
103.717918 212.0
103.973465 80.0
104.010002 216.0
104.057671 128.0
104.101364 188.0
104.357384 52.0
104.430588 116.0
104.603539 208.0
104.707382 152.0
104.75219 172.0
104.862221 124.0
104.890755 104.0
104.951912 136.0
105.031448 220.0
105.070717 11336.0
105.137543 76.0
105.151825 52.0
105.188568 160.0
105.215103 104.0
105.341713 100.0
105.370316 76.0
105.390747 192.0
105.523422 232.0
105.674942 128.0
105.902168 48.0
106.074471 1356.0
106.146042 40.0
106.213715 144.0
106.435356 132.0
106.568871 176.0
106.60791 68.0
106.663399 52.0
106.780594 204.0
106.814316 152.0
106.838188 168.0
106.854645 132.0
106.871109 76.0
106.955482 120.0
106.982239 156.0
107.004082 144.0
107.034348 156.0
107.087029 40448.0
107.128357 88.0
107.160782 52.0
107.192322 136.0
107.228043 72.0
107.25116 64.0
107.27153 52.0
107.323555 60.0
107.375793 116.0
107.402603 40.0
107.427063 76.0
107.46862 100.0
107.50782 124.0
107.55323 72.0
107.592453 88.0
107.606697 80.0
107.691566 148.0
107.718414 48.0
107.749405 184.0
107.76387 60.0
107.838074 72.0
107.867195 76.0
107.9561 56.0
107.970573 160.0
107.987122 44.0
108.057449 56.0
108.089752 3788.0
108.117455 232.0
108.162987 32.0
108.256157 88.0
108.274796 36.0
108.361794 92.0
108.38044 132.0
108.45919 236.0
108.473701 64.0
108.488213 84.0
108.531563 44.0
108.644524 96.0
108.662415 64.0
108.724663 40.0
108.753716 64.0
108.780701 56.0
108.815582 140.0
108.847137 148.0
108.917747 120.0
108.953064 108.0
109.025787 188.0
109.04657 232.0
109.096985 364.0
109.381439 52.0
109.615494 104.0
109.758522 72.0
109.841942 172.0
110.013054 352.0
110.111191 44.0
110.550201 112.0
110.612991 152.0
110.864319 64.0
111.290138 96.0
111.407745 32.0
111.845123 192.0
111.952499 144.0
112.167397 100.0
112.431038 192.0
112.811226 92.0
112.851395 64.0
114.202217 244.0
114.813454 88.0
114.828384 40.0
114.91584 48.0
115.009735 100.0
115.031082 140.0
115.065239 152.0
115.257462 160.0
115.454124 128.0
115.481926 160.0
115.496895 116.0
116.908607 160.0
117.074364 192.0
117.507614 140.0
117.539978 196.0
118.177383 52.0
118.447311 64.0
118.588829 140.0
118.890282 128.0
119.020523 152.0
119.084213 800.0
119.479118 180.0
120.034508 180.0
120.051956 220.0
120.091698 304.0
120.219925 104.0
120.569336 220.0
120.597748 192.0
120.879868 140.0
121.101448 4880.0
121.293793 84.0
121.322289 104.0
121.420959 80.0
121.458244 152.0
121.570129 60.0
121.662315 64.0
121.684273 48.0
121.719398 116.0
121.74575 36.0
122.103355 312.0
122.167755 184.0
122.685265 80.0
122.881538 220.0
122.934494 52.0
123.07798 168.0
123.113304 172.0
125.139992 108.0
126.105896 112.0
126.584641 72.0
128.181763 68.0
128.326004 248.0
128.346298 140.0
128.793137 164.0
128.969376 148.0
129.632477 152.0
129.716339 68.0
129.886398 80.0
130.272293 208.0
130.483643 92.0
130.508652 52.0
131.132385 120.0
132.521744 232.0
133.099197 204.0
133.340958 132.0
133.679001 140.0
134.07048 128.0
134.106384 320.0
134.541016 152.0
134.829742 176.0
134.940689 160.0
135.067886 160.0
135.116684 2380.0
135.320129 152.0
135.52626 80.0
135.570282 68.0
135.767334 92.0
135.846191 64.0
136.122772 572.0
137.027161 168.0
137.407181 172.0
138.618332 232.0
139.592499 132.0
139.91954 76.0
140.17627 60.0
140.760666 200.0
140.971512 76.0
143.263474 300.0
144.507294 172.0
146.663773 180.0
146.79155 220.0
146.904907 132.0
146.953156 164.0
147.027954 280.0
147.093124 152.0
147.117264 180.0
147.225906 124.0
148.501328 196.0
149.171478 184.0
150.455276 152.0
151.350113 144.0
151.54361 200.0
155.414642 152.0
155.956009 124.0
156.351456 184.0
156.787262 152.0
157.288589 180.0
159.118515 308.0
159.367157 204.0
159.701508 216.0
160.058853 248.0
160.081512 168.0
160.278 124.0
160.701584 172.0
161.13208 336.0
162.454788 80.0
162.731415 140.0
162.799973 132.0
162.881256 116.0
162.916809 156.0
162.998108 132.0
163.114426 172.0
163.148911 27384.0
163.234146 56.0
163.26503 32.0
163.290466 32.0
163.428055 44.0
163.451996 80.0
163.493057 132.0
163.570923 64.0
163.616165 28.0
163.659439 44.0
163.803009 64.0
163.914154 144.0
164.151672 3748.0
164.243027 32.0
164.283844 48.0
164.365479 52.0
164.454803 84.0
164.505844 56.0
164.669266 112.0
164.738724 84.0
164.76561 128.0
164.881317 36.0
164.934982 56.0
165.016785 96.0
165.065369 60.0
165.121628 100.0
165.155121 332.0
165.223938 128.0
165.285355 96.0
165.319641 144.0
165.479874 168.0
165.500351 152.0
165.538757 64.0
165.841064 72.0
165.951294 36.0
166.12056 52.0
166.274078 48.0
166.700806 104.0
166.780472 80.0
166.911575 68.0
168.029404 116.0
169.021545 80.0
174.74884 76.0
175.45993 124.0
175.575958 52.0
176.220016 72.0
176.75412 56.0
180.17865 128.0
185.13324 84.0
185.957397 132.0
187.662994 76.0
188.582947 132.0
193.169388 72.0
198.135773 56.0
203.037552 84.0
206.111938 96.0
219.704178 88.0
224.071106 72.0
270.876373 92.0
307.645782 36.0
314.963806 36.0
342.85553 44.0
357.055145 76.0
387.477478 32.0
420.550354 52.0
431.70462 52.0
436.020203 128.0
441.648712 100.0
466.615112 128.0
475.865173 44.0
486.904114 56.0
488.644775 84.0
510.354919 84.0
528.200928 64.0
550.100281 44.0
586.370911 72.0
613.704956 88.0
623.421692 52.0
650.99707 68.0
664.877625 52.0
672.587524 204.0
709.617676 240.0
745.410461 132.0
747.585632 92.0
776.705322 64.0
788.386047 212.0
798.499634 92.0
801.139526 212.0
825.088562 64.0
826.466919 144.0
829.869141 168.0
832.439697 168.0
835.526184 160.0
842.149414 196.0
865.293762 208.0
865.358154 188.0
865.463501 156.0
865.738708 148.0
868.980164 152.0
872.556885 136.0
879.307312 156.0
883.80426 168.0
885.994873 80.0
896.970642 220.0
898.37793 176.0
898.962585 164.0
900.795532 108.0
903.348022 148.0
903.922363 156.0
905.634521 212.0
905.706421 160.0
908.267456 220.0
909.705994 92.0
914.6651 152.0
918.449158 240.0
924.78125 204.0
925.465271 220.0
926.143555 264.0
927.040161 200.0
927.779602 212.0
930.121155 104.0
931.827576 212.0
932.143494 200.0
932.508118 140.0
933.918701 184.0
938.242126 212.0
938.943359 180.0
939.431274 196.0
940.273315 224.0
941.756897 196.0
943.920288 40.0
945.676086 276.0
945.78009 48.0
946.43512 140.0
946.496399 72.0
946.631104 204.0
947.709167 200.0
951.554688 132.0
958.658936 172.0
960.212524 148.0
960.400085 144.0
964.398499 196.0
968.16626 232.0
969.29364 160.0
970.074585 224.0
970.533325 176.0
971.345764 144.0
974.126648 196.0
975.139465 152.0
976.183899 220.0
976.737427 172.0
977.664429 152.0
977.838684 164.0
978.050293 148.0
979.401428 184.0
980.890625 208.0
981.464233 268.0
983.572815 220.0
986.658752 48.0
986.846313 180.0
993.754578 40.0
994.564148 156.0
996.605103 44.0
997.635803 160.0
997.704956 152.0
998.528625 132.0
999.96936 136.0
1001.713501 148.0
1005.881592 152.0
1007.232849 172.0
1008.597717 196.0
1009.817993 152.0
1011.146606 176.0
1011.437744 152.0
1013.27417 176.0
1018.926941 184.0
1025.340942 144.0
1026.124878 124.0
1027.126099 124.0
1027.323853 52.0
1027.451416 156.0
1027.776855 144.0
1028.951172 136.0
1030.496826 216.0
1033.546631 200.0
1038.376709 228.0
1041.386719 108.0
1044.439819 144.0
1044.63916 116.0
1047.36853 168.0
1049.359741 52.0
1050.488281 128.0
1050.552856 128.0
1058.852173 164.0
1059.124146 180.0
1061.048706 308.0
1061.489624 88.0
1062.241943 200.0
1063.338501 172.0
1064.942139 52.0
1065.643677 104.0
1071.362305 184.0
1072.085571 252.0
1072.515747 180.0
1073.539307 152.0
1076.625977 108.0
1076.802246 172.0
1077.514282 192.0
1079.651733 80.0
1086.12915 188.0
1087.946777 148.0
1088.458862 160.0
1089.135376 104.0
1090.740723 236.0
1092.290405 176.0
1093.079834 124.0
1094.8573 88.0
1095.759644 148.0
1097.842529 140.0
1098.304199 264.0
1098.812134 148.0
1100.145264 152.0
1101.756592 232.0
1103.693115 200.0
1107.226685 144.0
1109.187866 176.0
1109.784546 76.0
1110.951782 100.0
1111.210449 152.0
1111.615234 172.0
1111.767822 192.0
1116.351562 172.0
1118.107788 192.0
1121.451172 140.0
1122.104492 208.0
1122.831299 180.0
1124.592651 128.0
1125.106567 172.0
1126.05481 176.0
1127.571411 132.0
1127.905518 280.0
1130.018799 160.0
1131.430908 252.0
1131.805786 132.0
1132.020142 48.0
1132.098022 228.0
1132.415161 128.0
1132.756836 236.0
1133.098511 152.0
1133.359741 176.0
1133.728271 200.0
1134.070068 228.0
1134.137085 72.0
1136.927124 164.0
1138.706177 156.0
1140.238037 188.0
1140.473267 172.0
1141.999512 88.0
1142.329102 196.0
1142.712524 160.0
1144.550049 208.0
1144.832886 176.0
1145.263916 44.0
1147.602295 188.0
1148.384521 172.0
1149.578613 192.0
1149.625854 68.0
1153.441772 168.0
1154.117798 88.0
1154.38147 56.0
1154.848145 180.0
1155.950928 196.0
1158.07666 160.0
1159.235107 160.0
1161.445312 140.0
1161.492798 128.0
1161.621582 204.0
1162.47644 176.0
1163.772949 140.0
1166.18457 64.0
1169.782715 172.0
1175.023315 216.0
1175.807983 188.0
1176.524658 216.0
1177.99292 92.0
1179.297974 184.0
1179.749146 180.0
1180.610596 176.0
1180.904663 140.0
1181.164673 168.0
1181.246704 172.0
1181.51355 196.0
1182.745239 164.0
1183.648926 160.0
1184.114624 172.0
1186.745972 176.0
1187.198486 204.0
1187.534546 160.0
1189.043945 164.0
1191.199829 156.0
1191.69458 104.0
1192.154907 164.0
1193.069092 164.0
1195.432251 164.0
1195.627808 144.0
1200.174194 168.0
1200.829224 232.0
1201.463867 228.0
1202.24353 208.0
1203.893433 172.0
1204.425293 180.0
1205.986816 180.0
1209.438232 136.0
1211.785767 60.0
1212.513306 176.0
1216.050415 180.0
1216.182251 124.0
1219.536987 164.0
1219.794189 136.0
1220.15564 100.0
1220.774536 160.0
1221.296021 124.0
1222.79895 172.0
1223.077271 148.0
1223.153931 180.0
1224.664795 216.0
1226.169678 44.0
1226.643677 208.0
1227.215332 100.0
1228.038208 164.0
1228.386963 132.0
1230.424683 80.0
1233.861938 216.0
1234.449219 208.0
1235.211548 204.0
1235.358521 152.0
1237.359985 128.0
1237.985229 172.0
1238.40332 136.0
1239.005737 140.0
1239.286011 180.0
1241.02417 164.0
1242.08313 208.0
1242.504028 160.0
1243.615967 128.0
1244.651733 188.0
1245.431274 172.0
1247.246338 196.0
1248.523682 180.0
1248.636108 184.0
1254.734009 96.0
1258.14856 168.0
1259.01709 180.0
1260.394531 216.0
1262.005981 252.0
1263.066772 156.0
1263.731812 208.0
1264.269531 216.0
1264.658813 208.0
1265.196777 164.0
1266.499756 160.0
1267.278931 200.0
1268.122314 244.0
1268.455444 188.0
1270.447998 176.0
1272.669434 252.0
1277.274536 128.0
1277.85791 152.0
1281.061401 192.0
1281.446167 244.0
1282.06604 140.0
1282.401001 140.0
1284.005127 68.0
1284.60437 176.0
1285.974365 136.0
1288.02356 200.0
1288.459229 164.0
1288.988037 160.0
1289.07373 196.0
1289.874146 120.0
1291.154053 168.0
1294.725098 168.0
1294.868286 184.0
1295.004395 168.0
1296.795654 164.0
1297.282959 168.0
1299.391479 180.0
1299.958252 132.0
1300.453491 88.0
1300.934326 232.0
1301.688232 132.0
1302.341797 176.0
1302.751221 180.0
1303.390625 140.0
1303.491211 224.0
1305.613525 272.0
1305.80603 216.0
1307.000122 60.0
1307.575928 112.0
1310.679565 116.0
1311.984131 108.0
1312.034546 140.0
1312.221069 156.0
1312.3302 176.0
1313.05127 136.0
1314.710571 200.0
1315.165161 160.0
1315.28064 156.0
1316.152954 196.0
1318.451294 224.0
1319.137939 128.0
1319.477783 172.0
1323.848022 204.0
1324.557861 188.0
1325.593872 152.0
1325.94165 124.0
1326.702759 188.0
1327.224731 144.0
1327.48584 156.0
1330.50415 188.0
1331.782227 128.0
1332.015381 176.0
1332.712036 144.0
1333.598633 172.0
1334.878052 148.0
1335.17627 140.0
1335.234497 164.0
1337.511719 136.0
1337.679199 108.0
1339.018921 120.0
1339.434082 152.0
1339.659912 188.0
1340.424927 200.0
1341.095337 140.0
1341.780518 132.0
1342.028442 180.0
1342.451416 132.0
1342.786865 208.0
1342.998291 148.0
1343.815308 148.0
1343.924805 184.0
1344.345581 224.0
1345.508545 192.0
1345.84436 148.0
1347.253906 188.0
1347.487793 108.0
1348.094238 216.0
1348.488892 228.0
1348.759277 144.0
1349.051636 164.0
1350.31665 220.0
1350.389771 196.0
1351.32605 248.0
1351.421143 216.0
1351.80896 172.0
1352.701904 140.0
1353.060669 248.0
1353.741577 184.0
1357.229492 180.0
1358.395508 184.0
1361.757324 120.0
1363.454346 192.0
1363.630737 160.0
1364.534912 120.0
1364.924561 224.0
1365.836548 372.0
1366.261841 180.0
1366.70459 136.0
1367.808472 176.0
1367.896851 196.0
1368.588867 76.0
1368.699341 96.0
1369.214844 224.0
1369.568359 120.0
1370.519775 112.0
1371.343994 60.0
1371.771484 124.0
1372.103271 36.0
1372.589844 148.0
1372.995483 72.0
1374.329712 148.0
1375.341675 196.0
1375.526123 180.0
1375.79187 184.0
1375.939575 168.0
1376.138916 160.0
1376.604126 32.0
1377.121094 180.0
1378.014893 172.0
1378.672485 128.0
1379.411621 136.0
1379.552002 160.0
1380.624146 68.0
1381.371216 240.0
1382.162842 172.0
1382.399536 156.0
1384.094727 196.0
1385.220459 284.0
1385.709351 152.0
1385.776001 220.0
1387.295288 40.0
1387.769775 132.0
1387.969971 180.0
1388.666992 232.0
1389.342041 172.0
1389.606934 264.0
1389.809448 144.0
1389.91333 148.0
1389.987549 152.0
1390.744507 208.0
1391.278931 144.0
1391.95459 160.0
1393.908203 196.0
1395.201416 124.0
1395.796265 180.0
1396.673828 220.0
1397.402832 184.0
1401.468018 168.0
1401.818237 152.0
1402.414429 180.0
1404.21875 168.0
1404.338013 128.0
1405.061646 188.0
1405.576416 112.0
1405.733154 156.0
1406.546631 168.0
1406.987061 268.0
1407.338013 116.0
1409.944946 144.0
1410.042114 92.0
1410.983887 136.0
1412.915894 184.0
1413.564331 132.0
1413.968506 172.0
1414.290283 116.0
1414.629639 204.0
1414.686646 168.0
1414.881714 200.0
1415.862549 124.0
1416.03479 204.0
1416.128418 176.0
1416.596558 152.0
1418.320068 212.0
1418.882202 144.0
1421.477417 172.0
1422.10022 180.0
1422.310425 172.0
1422.37793 244.0
1422.678223 184.0
1423.346436 248.0
1423.50415 220.0
1423.67688 104.0
1425.569946 176.0
1426.103516 256.0
1426.952881 152.0
1428.577393 168.0
1430.340698 212.0
1431.482544 168.0
1431.581055 192.0
1432.32605 200.0
1432.574585 156.0
1432.627319 204.0
1432.710205 240.0
1434.141968 180.0
1434.744995 164.0
1435.363159 232.0
1436.456787 180.0
1438.841431 48.0
1439.671997 184.0
1440.072266 144.0
1440.706787 136.0
1441.235596 244.0
1441.295044 84.0
1441.855225 132.0
1441.983765 184.0
1442.119751 164.0
1444.327637 176.0
1444.630249 208.0
1445.712158 192.0
1445.88623 244.0
1447.900024 176.0
1447.953003 188.0
1448.824097 144.0
1449.475708 148.0
1450.938477 160.0
1451.613281 180.0
1451.78772 216.0
1452.584106 192.0
1452.89502 172.0
1453.562744 152.0
1453.64624 192.0
1454.58728 212.0
1454.982056 96.0
1458.3927 128.0
1459.708008 124.0
1459.822021 248.0
1461.541138 32.0
1462.012939 84.0
1462.264038 152.0
1462.74353 236.0
1463.657104 192.0
1464.083618 208.0
1465.698486 172.0
1466.130249 208.0
1467.470581 204.0
1468.68689 212.0
1468.862427 68.0
1469.022583 160.0
1469.777832 176.0
1469.838867 116.0
1470.235718 56.0
1470.342529 172.0
1470.640259 160.0
1471.250854 172.0
1471.403564 216.0
1474.367188 152.0
1475.399048 156.0
1477.09436 176.0
1477.341553 156.0
1477.662842 168.0
1478.741821 48.0
1478.879517 132.0
1479.216309 44.0
1479.296143 176.0
1479.966553 148.0
1480.318848 204.0
1480.487305 88.0
1481.207275 180.0
1483.736084 192.0
1483.904785 144.0
1484.042725 176.0
1484.748169 72.0
1485.162354 124.0
1485.56897 40.0
1485.860474 124.0
1486.22876 176.0
1486.359131 148.0
1486.735107 188.0
1486.873291 180.0
1488.431641 140.0
1492.019653 116.0
1492.273315 76.0
1492.842407 160.0
1492.996216 212.0
1493.380737 200.0
1494.219238 152.0
1494.680786 188.0
1496.104614 152.0
1497.059448 104.0
1497.806519 64.0
1498.746338 152.0
1500.048828 148.0
1502.315918 224.0
1503.31897 40.0
1503.596802 32.0
1504.870483 64.0
