>compound Midazolam Hydrochloride
>formula C18H13ClFN3
>ionization [M+H]+
>parentmass 326.0854797680905
#inchi InChI=1S/C18H13ClFN3/c1-11-21-9-13-10-22-18(14-4-2-3-5-16(14)20)15-8-12(19)6-7-17(15)23(11)13/h2-9H,10H2,1H3
#inchikey DDLIGBOFAVUZHB
#Ion_Source LC-ESI
#Instrument qTof
#Compound_Source Commercial
#PI Dorrestein
#Data_Collector Garg_Neha
#Scan -1
#Precursor_MZ 326.085
#ExactMass 325.078
#Charge 1
#CAS_Number N/A
#Pubmed_ID N/A
#Smiles Cc1ncc2CN=C(c3ccccc3F)c4cc(Cl)ccc4-n12
#INCHI_AUX N/A
#Library_Class 1
#SpectrumID CCMSLIB00000078908
#IonMode Positive
#UpdateWorkflowName UPDATE-SINGLE-ANNOTATED-GOLD
#LibraryQualityString Gold
#TaskID 278b19f5865741e282cec7349aa7e7a1
##Scan# 1131
#SpectrumFile NCP003272_A2_B11_BB8_01_15713.mzXML
#LibraryName NIHcollectionI_05062014.mgf
#MQScore -1
#Organism NIHcollectionI_05062014
#TIC_Query 0
#RT_Query -1
#MZErrorPPM -1
#SharedPeaks 0
#MassDiff 0
#LibMZ -1
#SpecMZ 326.085
#SpecCharge 0
#internalFilename spec-00000.mgf

>collision 10
44.982319 164.0
45.007683 180.0
46.584854 160.0
46.632412 168.0
46.935993 212.0
47.447353 160.0
47.809978 192.0
47.892586 152.0
48.106319 156.0
48.42712 220.0
48.949299 156.0
49.247746 184.0
49.291718 236.0
49.328793 172.0
49.726589 152.0
50.20916 140.0
50.514248 176.0
50.546787 176.0
50.78054 140.0
50.838707 204.0
51.118492 172.0
51.251083 204.0
51.795395 148.0
51.818317 288.0
51.838375 168.0
51.868156 176.0
52.089455 176.0
52.236076 144.0
52.719082 152.0
52.953453 148.0
53.073734 192.0
53.34668 260.0
53.374302 152.0
53.669888 152.0
54.363529 148.0
54.624779 168.0
54.833195 204.0
54.870712 192.0
54.906185 140.0
55.158581 200.0
55.276901 156.0
55.420528 180.0
55.442757 144.0
55.540611 140.0
55.614799 172.0
55.806438 148.0
55.862953 184.0
55.923748 140.0
56.010319 144.0
56.225021 176.0
56.256969 148.0
56.362404 140.0
56.732082 152.0
56.783066 148.0
57.027794 192.0
57.304684 168.0
57.754265 128.0
57.774212 152.0
58.456989 160.0
58.677849 148.0
58.815144 160.0
58.841095 140.0
59.234528 164.0
59.284679 176.0
59.312267 332.0
59.390465 164.0
60.709637 160.0
61.165916 160.0
61.483875 188.0
61.561932 152.0
61.671291 144.0
61.711937 216.0
62.1003 200.0
62.401806 212.0
62.596916 140.0
62.981731 140.0
63.104996 144.0
63.165089 224.0
63.586555 192.0
63.708778 144.0
64.836922 228.0
64.916145 208.0
65.119293 140.0
65.558502 340.0
65.878006 156.0
66.120163 152.0
66.332687 320.0
66.350517 188.0
66.454315 184.0
66.722298 144.0
66.747841 180.0
66.800583 144.0
66.990814 140.0
67.084923 96.0
67.742264 208.0
67.775032 160.0
67.904732 168.0
68.191856 200.0
68.494606 140.0
68.740257 164.0
69.990105 244.0
70.045563 180.0
70.125046 176.0
70.230087 148.0
70.617584 140.0
71.372231 232.0
71.728271 116.0
71.793442 148.0
71.835381 204.0
71.855278 156.0
71.941689 148.0
72.073425 220.0
72.117363 144.0
72.15963 152.0
72.198517 144.0
72.525284 184.0
72.776352 152.0
72.998947 144.0
73.044189 160.0
73.673904 156.0
73.737122 140.0
73.773018 148.0
74.217003 140.0
74.498947 152.0
74.686996 156.0
74.742043 160.0
74.927994 156.0
75.148682 236.0
75.185997 180.0
75.459564 180.0
75.651062 144.0
75.921898 160.0
75.95977 172.0
76.491783 148.0
76.552719 152.0
76.713013 140.0
76.943291 164.0
77.196648 160.0
77.376266 164.0
77.511734 140.0
77.551361 216.0
77.60463 160.0
78.399864 132.0
78.713158 172.0
78.891609 184.0
79.004784 144.0
79.047249 172.0
79.087952 152.0
79.165855 212.0
79.263283 152.0
79.403328 200.0
79.646713 140.0
80.369278 140.0
80.749779 180.0
80.993195 204.0
81.184967 164.0
81.50515 164.0
81.754669 160.0
81.941338 196.0
82.192329 180.0
82.915115 208.0
83.175041 140.0
83.298897 212.0
83.393005 148.0
83.463173 180.0
83.690659 116.0
83.909981 140.0
83.984985 156.0
84.019409 156.0
84.129639 204.0
84.154892 144.0
84.221535 176.0
84.242126 176.0
84.386436 112.0
84.639 192.0
85.044151 172.0
85.441071 176.0
86.054794 144.0
86.162247 132.0
86.482094 136.0
86.637367 156.0
86.720749 172.0
86.746704 144.0
87.02169 124.0
87.127129 180.0
87.154999 160.0
87.225624 156.0
87.352066 208.0
87.366951 152.0
87.924072 164.0
88.093987 168.0
88.180855 164.0
88.604706 144.0
88.705902 192.0
88.749023 152.0
90.166023 124.0
90.416153 180.0
90.549858 140.0
90.577087 148.0
90.713524 184.0
90.851952 148.0
91.047455 160.0
91.208954 244.0
91.252281 172.0
91.336349 152.0
91.711456 164.0
91.745766 156.0
92.142067 128.0
92.174683 232.0
92.718689 168.0
92.86248 180.0
93.178276 152.0
93.196503 184.0
93.493324 144.0
93.631241 240.0
93.741051 240.0
94.078583 144.0
94.304581 208.0
94.459267 172.0
94.488281 140.0
94.606506 164.0
94.664421 160.0
94.909409 140.0
95.013306 176.0
95.059692 428.0
95.139671 176.0
95.181137 180.0
95.217117 152.0
95.422707 160.0
95.574974 184.0
95.890282 156.0
96.08918 140.0
96.102837 144.0
96.327347 180.0
96.347168 164.0
96.489548 148.0
96.939735 160.0
97.029007 132.0
97.214569 132.0
97.53244 140.0
97.611076 148.0
97.657478 236.0
97.89444 148.0
98.172302 164.0
98.584274 332.0
98.626114 116.0
98.82019 156.0
99.380905 168.0
99.538002 136.0
99.768181 156.0
99.790054 184.0
99.819878 168.0
99.919327 168.0
100.126343 300.0
100.276344 180.0
100.668777 184.0
101.160629 148.0
101.294792 216.0
101.451096 148.0
101.611534 140.0
101.727554 148.0
102.045334 472.0
102.069481 188.0
102.097359 176.0
102.125786 172.0
102.368256 192.0
102.552635 152.0
102.76236 140.0
103.042999 156.0
103.059166 200.0
103.125847 148.0
103.200645 172.0
103.619606 252.0
103.986633 148.0
104.047531 140.0
104.55162 144.0
104.75116 148.0
104.87545 244.0
104.952919 152.0
105.022514 160.0
105.054893 156.0
105.145744 236.0
105.285538 180.0
105.381546 224.0
105.395844 172.0
105.806946 176.0
105.897049 252.0
106.034317 348.0
106.050957 168.0
106.114258 192.0
106.501678 228.0
107.16452 228.0
107.222214 152.0
107.787651 164.0
107.880409 168.0
107.973701 216.0
108.29657 180.0
108.327637 216.0
108.512085 212.0
108.734039 140.0
109.047752 160.0
109.12664 140.0
109.159904 152.0
109.336731 196.0
109.411819 212.0
109.484543 292.0
110.007889 180.0
110.055901 160.0
110.522011 264.0
110.898964 152.0
111.004311 176.0
111.131516 204.0
111.186295 176.0
111.221977 172.0
111.35215 176.0
111.802055 208.0
111.967758 96.0
112.25708 144.0
112.337044 212.0
112.358322 160.0
112.611633 140.0
112.651764 284.0
112.795456 176.0
112.93924 204.0
113.199783 148.0
113.597443 136.0
113.668022 232.0
113.699852 160.0
113.894424 112.0
113.922798 180.0
113.978035 176.0
114.098671 148.0
114.499222 148.0
114.953293 192.0
115.005936 184.0
115.049339 128.0
115.339859 324.0
115.376442 176.0
115.489532 180.0
116.281006 168.0
116.374588 148.0
116.549278 120.0
116.797943 156.0
117.176819 144.0
117.621063 144.0
117.694458 176.0
117.956894 144.0
118.314133 144.0
118.440567 176.0
118.657272 192.0
118.722725 108.0
119.197182 160.0
119.963829 172.0
119.993111 140.0
120.134697 96.0
120.151382 252.0
120.183907 176.0
120.398033 232.0
121.046539 376.0
121.678986 156.0
121.850288 200.0
122.006325 160.0
122.040581 280.0
122.089882 172.0
122.120674 176.0
122.173462 184.0
122.656799 184.0
123.525734 152.0
124.101532 148.0
124.201332 184.0
124.330009 256.0
124.618683 200.0
124.698677 180.0
125.251938 116.0
125.434769 164.0
125.620506 188.0
125.725372 144.0
125.819122 148.0
125.861542 152.0
125.966507 144.0
126.479225 220.0
126.677856 204.0
126.88282 148.0
127.038658 156.0
127.09037 160.0
127.299126 156.0
127.338226 156.0
127.415924 144.0
127.867889 424.0
127.961937 144.0
128.051346 696.0
128.395081 140.0
128.424393 148.0
128.64447 104.0
128.948196 168.0
129.057526 1560.0
129.104187 140.0
129.165268 164.0
129.242172 144.0
129.366653 240.0
129.629684 148.0
129.695114 180.0
129.754044 200.0
129.941925 148.0
130.061401 312.0
130.41008 140.0
130.469177 144.0
130.498734 172.0
130.664764 236.0
131.04953 156.0
131.390289 148.0
131.453125 160.0
131.555542 156.0
132.044708 192.0
132.158279 176.0
132.21489 384.0
132.456802 208.0
132.475128 148.0
132.592743 132.0
132.770798 160.0
132.942856 156.0
133.051086 500.0
133.266617 148.0
133.92865 128.0
133.979843 164.0
134.050171 296.0
134.083527 164.0
134.214233 188.0
134.476334 164.0
134.865936 168.0
135.27536 140.0
135.374924 152.0
135.544022 156.0
135.680771 212.0
136.001328 104.0
136.055115 176.0
136.105347 172.0
136.12262 108.0
136.178192 220.0
136.428299 224.0
136.80246 176.0
136.875 276.0
136.930893 140.0
137.015442 256.0
137.126801 236.0
137.231506 152.0
137.343445 200.0
137.481094 172.0
137.812668 172.0
137.907455 100.0
138.011414 128.0
138.388321 136.0
138.596497 144.0
138.776459 160.0
138.802765 156.0
138.847321 156.0
138.874207 96.0
138.976349 144.0
139.009659 328.0
139.243958 180.0
139.380203 152.0
139.714066 148.0
140.010696 156.0
140.074234 160.0
140.293396 148.0
140.38063 164.0
140.999146 204.0
141.060593 160.0
141.155167 152.0
141.300171 172.0
141.647446 172.0
141.844116 164.0
142.065567 356.0
142.349457 148.0
142.619141 180.0
142.799271 160.0
143.071335 300.0
143.124634 164.0
143.46579 132.0
143.537186 180.0
143.656113 148.0
143.710983 204.0
143.727692 144.0
143.851791 152.0
144.066345 180.0
144.176147 160.0
144.552063 148.0
144.769897 232.0
144.870178 148.0
145.040634 180.0
145.534836 204.0
145.559052 140.0
145.66452 184.0
145.683731 192.0
145.719772 180.0
146.039261 264.0
146.386047 172.0
146.615082 200.0
146.708893 256.0
146.737823 196.0
147.041687 116.0
147.075562 152.0
147.290451 160.0
147.39151 116.0
147.413666 204.0
147.440247 200.0
147.551437 192.0
147.640076 140.0
147.686859 184.0
147.706207 184.0
147.802979 268.0
147.969986 156.0
148.05629 1032.0
148.294586 188.0
148.546753 180.0
148.67778 144.0
148.801575 188.0
149.015305 144.0
149.063522 180.0
149.168396 144.0
149.243011 156.0
149.341034 200.0
149.784042 184.0
149.854691 164.0
149.969223 200.0
150.029694 232.0
150.09201 120.0
150.256958 144.0
150.389771 192.0
150.422913 216.0
151.045181 304.0
151.369354 148.0
151.453995 112.0
151.802795 156.0
152.027481 912.0
152.067749 148.0
152.374649 192.0
152.659821 172.0
153.023987 156.0
153.042908 416.0
153.240723 172.0
153.270294 140.0
153.75856 164.0
153.841202 124.0
153.909149 160.0
153.953598 144.0
154.023056 240.0
154.049911 284.0
154.072144 148.0
154.100723 212.0
154.413269 168.0
154.452042 148.0
154.487473 148.0
154.516083 120.0
155.022354 124.0
155.063354 460.0
155.473602 156.0
155.619019 144.0
156.067413 152.0
156.637192 144.0
156.789185 140.0
156.806625 212.0
157.030762 120.0
157.188187 196.0
157.412842 208.0
157.430328 164.0
157.592682 164.0
157.642654 164.0
158.428299 160.0
158.576141 240.0
158.799271 140.0
159.170685 168.0
159.210861 144.0
159.308823 160.0
159.698441 152.0
159.781448 160.0
160.000397 164.0
160.05864 528.0
160.093033 172.0
160.269882 144.0
160.357407 208.0
160.385818 220.0
160.799454 288.0
160.892853 336.0
160.948395 148.0
161.043152 152.0
161.059799 252.0
161.17067 156.0
161.266708 156.0
161.365295 152.0
161.476547 144.0
161.494263 140.0
161.539261 116.0
162.00946 504.0
162.065704 164.0
162.094604 116.0
162.5177 140.0
162.697891 216.0
162.814697 160.0
163.001343 332.0
163.023407 296.0
163.072739 204.0
163.114502 148.0
163.131134 160.0
163.45784 224.0
163.702209 152.0
164.026489 2484.0
164.062485 488.0
164.487473 140.0
164.561508 172.0
164.74794 168.0
164.842484 200.0
165.011246 272.0
165.029007 616.0
165.076355 204.0
165.315567 156.0
165.35907 156.0
165.448654 176.0
165.489624 148.0
165.612534 192.0
165.630463 248.0
165.773941 144.0
166.023773 580.0
166.21756 152.0
166.48967 148.0
167.013977 192.0
167.03418 228.0
167.109146 144.0
167.304749 180.0
167.583572 152.0
167.633667 148.0
167.760727 200.0
167.786758 160.0
168.026352 156.0
168.066711 332.0
168.098587 152.0
168.708649 140.0
168.783112 152.0
168.846954 168.0
168.961578 156.0
169.04216 108.0
169.077057 1184.0
169.154892 176.0
169.178955 148.0
169.371979 148.0
169.440521 172.0
169.496521 108.0
169.813797 172.0
169.89151 192.0
169.944763 96.0
170.083755 2504.0
170.527786 164.0
170.560318 200.0
170.649963 180.0
170.686356 144.0
170.707169 156.0
170.800797 176.0
170.832001 148.0
171.008942 160.0
171.055801 156.0
171.089615 420.0
171.205444 148.0
171.408417 168.0
171.428238 152.0
171.528305 172.0
171.565659 188.0
171.707184 164.0
171.73587 168.0
172.038559 224.0
172.242249 144.0
172.393784 164.0
172.438126 140.0
172.472183 152.0
172.958694 152.0
173.051865 416.0
173.237961 148.0
173.430176 196.0
173.636078 120.0
173.919159 168.0
174.012756 176.0
174.059174 504.0
174.191116 168.0
174.388184 164.0
174.427338 156.0
174.799316 132.0
174.890549 176.0
175.077866 216.0
175.243423 164.0
175.325104 164.0
175.488541 164.0
176.024307 488.0
176.379349 156.0
176.552689 184.0
176.62146 140.0
176.701752 192.0
176.946945 144.0
177.024948 184.0
177.05806 108.0
177.426468 312.0
177.599487 148.0
177.842941 152.0
177.911957 240.0
177.943817 164.0
178.012009 176.0
178.039703 296.0
178.13237 152.0
178.158936 156.0
178.33493 152.0
178.665771 172.0
179.036865 172.0
179.079758 160.0
179.127228 244.0
179.231125 184.0
179.454758 176.0
179.548355 148.0
179.737747 148.0
179.881134 144.0
180.035873 100.0
180.517746 156.0
180.544479 144.0
180.758499 140.0
181.050003 228.0
181.086777 160.0
181.502411 148.0
181.631882 160.0
181.715958 176.0
181.789993 196.0
181.841156 188.0
182.053482 144.0
182.128448 168.0
182.284271 180.0
182.311142 228.0
182.387268 172.0
183.060379 3980.0
183.433121 148.0
183.500885 188.0
183.70076 176.0
183.964905 188.0
183.993317 160.0
184.068008 2728.0
184.149704 128.0
184.321411 188.0
184.364655 192.0
184.452652 180.0
184.642014 148.0
184.74588 172.0
185.078201 148.0
185.1194 208.0
185.37767 176.0
186.04718 648.0
186.180771 144.0
186.579147 160.0
186.611771 140.0
186.758621 164.0
186.807587 140.0
186.845673 156.0
187.016144 148.0
187.064941 616.0
187.128708 176.0
187.275757 160.0
187.308441 164.0
187.610931 220.0
187.681808 176.0
187.711807 208.0
187.793625 140.0
188.074448 412.0
188.216614 148.0
188.421463 164.0
188.476105 164.0
189.021835 3424.0
189.081894 1912.0
189.174225 200.0
189.208282 256.0
189.606277 192.0
189.874939 228.0
190.025558 612.0
190.090027 820.0
190.451309 144.0
190.725006 184.0
191.017807 1120.0
191.091522 144.0
191.531311 148.0
191.613281 160.0
191.685532 212.0
191.85791 96.0
192.016815 140.0
192.083572 164.0
192.212585 168.0
192.254639 188.0
192.297348 200.0
192.392639 168.0
192.432541 176.0
192.489273 168.0
192.55719 128.0
192.704727 160.0
192.762741 144.0
192.842484 136.0
192.982254 176.0
193.068161 232.0
193.202362 140.0
193.465256 144.0
193.68898 152.0
193.744965 156.0
193.828079 172.0
194.051483 240.0
194.074936 292.0
194.127457 168.0
194.169052 168.0
194.357697 168.0
194.393768 160.0
194.629868 136.0
194.745728 144.0
194.885239 152.0
194.958496 120.0
195.04921 204.0
195.079391 760.0
195.204758 164.0
195.300278 148.0
196.068817 2220.0
196.207245 156.0
196.342636 180.0
196.807571 120.0
196.893661 240.0
197.004929 340.0
197.052322 192.0
197.074509 260.0
197.325851 192.0
198.071548 640.0
198.257248 164.0
198.334564 204.0
198.358566 128.0
198.443817 160.0
198.915192 180.0
199.031342 244.0
199.074844 156.0
199.179138 144.0
199.257797 196.0
199.59227 140.0
199.766647 164.0
200.072922 116.0
200.128372 196.0
200.294479 124.0
200.509293 180.0
200.947128 148.0
201.028534 208.0
201.057266 128.0
202.017014 180.0
202.066376 580.0
202.147903 208.0
202.572601 176.0
202.787949 144.0
203.035873 712.0
203.071198 604.0
203.1008 152.0
203.125351 156.0
203.214111 308.0
203.403442 188.0
203.526352 136.0
204.021362 176.0
204.044601 272.0
204.077896 272.0
204.244522 164.0
204.275803 148.0
204.466446 184.0
204.628693 140.0
204.714111 156.0
204.752411 124.0
205.053162 3180.0
205.26944 100.0
205.352127 160.0
205.523651 140.0
206.046783 212.0
206.183762 160.0
206.231094 116.0
206.294769 168.0
206.387253 136.0
206.509216 172.0
206.563568 152.0
206.702423 164.0
206.729507 148.0
206.760986 148.0
206.7957 136.0
206.889786 184.0
207.051193 836.0
207.167572 180.0
207.195389 152.0
207.535645 196.0
207.639404 176.0
207.719086 152.0
207.775391 208.0
207.844193 164.0
207.92926 188.0
208.055511 6616.0
208.139832 176.0
208.296204 180.0
208.349503 184.0
208.800781 156.0
209.016006 152.0
209.063873 33412.0
209.121124 244.0
209.165375 128.0
209.189148 264.0
209.19696 260.0
209.25354 152.0
209.332825 200.0
209.682251 140.0
209.794159 168.0
210.004669 212.0
210.037476 156.0
210.067749 4436.0
210.120041 156.0
210.391327 168.0
210.634567 132.0
210.831192 180.0
210.922699 208.0
210.966217 140.0
211.07605 304.0
211.145645 136.0
211.254608 132.0
211.281433 148.0
211.310364 176.0
211.563965 152.0
211.597702 116.0
211.758438 96.0
211.967621 244.0
212.023682 152.0
212.076691 272.0
212.473923 148.0
212.718781 156.0
212.906967 172.0
213.030334 204.0
213.183487 196.0
213.27359 184.0
213.538162 172.0
213.798035 148.0
213.858215 144.0
213.930984 172.0
213.980469 168.0
214.078049 2428.0
214.106842 120.0
214.428452 164.0
214.663971 200.0
214.825607 200.0
214.94278 128.0
215.03862 276.0
215.085251 2076.0
215.158295 176.0
215.418198 160.0
215.73381 168.0
215.944336 172.0
216.042694 548.0
216.085266 504.0
216.144623 120.0
216.486954 172.0
216.998154 160.0
217.021805 1288.0
217.670197 140.0
217.837845 140.0
217.967117 172.0
218.023529 700.0
218.091721 180.0
218.232758 100.0
218.43457 224.0
219.033707 464.0
219.223618 140.0
219.289459 188.0
219.937347 204.0
220.020447 288.0
220.073959 208.0
220.487015 148.0
220.912476 180.0
221.028595 256.0
221.066223 124.0
221.078156 212.0
221.154129 108.0
221.454147 172.0
221.534134 144.0
221.605713 124.0
221.66449 140.0
221.877899 172.0
221.994659 200.0
222.071152 7412.0
222.545441 144.0
222.616699 168.0
222.976166 216.0
223.078873 7904.0
223.134201 168.0
223.380539 176.0
223.487366 220.0
223.599121 184.0
223.682175 116.0
223.739365 180.0
223.883545 168.0
224.024673 1012.0
224.081696 736.0
224.594315 140.0
224.837524 156.0
224.867371 196.0
225.02594 132.0
225.09108 128.0
225.222672 152.0
225.348129 156.0
225.410889 140.0
225.660812 188.0
225.769608 140.0
225.826431 172.0
225.882568 172.0
225.996948 140.0
226.021332 236.0
226.06575 2444.0
226.210205 184.0
226.703613 220.0
226.890945 136.0
227.072983 2536.0
227.153351 148.0
227.528458 176.0
227.557159 200.0
227.630539 180.0
227.867828 152.0
228.077774 256.0
228.144318 148.0
228.17485 156.0
228.2285 172.0
228.494217 172.0
229.036392 168.0
229.076492 1320.0
229.247223 204.0
229.29715 148.0
229.589584 204.0
229.981201 180.0
230.048218 3956.0
230.403854 208.0
230.471024 144.0
230.628067 112.0
230.694672 176.0
230.929657 140.0
231.051498 2564.0
231.086823 688.0
231.354523 164.0
231.581253 164.0
232.041367 1512.0
232.210144 112.0
232.317825 232.0
232.363342 228.0
232.424423 144.0
232.513794 116.0
232.739685 168.0
232.815598 156.0
232.921906 160.0
233.003922 144.0
233.051437 792.0
233.162582 176.0
233.271347 164.0
233.313919 172.0
233.353531 132.0
233.469879 208.0
233.620102 152.0
233.721466 152.0
234.033218 764.0
234.068222 248.0
234.125488 176.0
234.193329 164.0
234.354782 168.0
234.479721 108.0
234.513245 176.0
234.836426 144.0
235.081497 288.0
235.208679 160.0
235.452942 152.0
235.593445 168.0
235.807327 220.0
235.840958 156.0
235.885864 228.0
236.080994 824.0
236.155884 240.0
236.204819 148.0
236.384171 160.0
236.71286 196.0
236.826889 172.0
237.027084 152.0
237.063248 216.0
237.093719 500.0
237.134766 188.0
237.428452 164.0
237.750488 124.0
237.865631 148.0
237.930099 188.0
238.01506 172.0
238.045258 876.0
238.066544 1596.0
238.349472 148.0
238.532196 224.0
238.885834 140.0
238.993515 200.0
239.041061 132.0
239.081345 160.0
239.125824 156.0
239.470657 140.0
239.4953 148.0
240.036346 264.0
240.164154 200.0
240.323196 272.0
240.54985 176.0
240.735107 180.0
240.972946 148.0
241.023041 188.0
241.081085 156.0
241.158356 172.0
241.193298 144.0
241.230621 168.0
241.507736 208.0
241.56221 124.0
241.690262 200.0
241.752136 140.0
241.779999 152.0
242.017761 696.0
242.090805 196.0
242.429993 148.0
242.473724 184.0
242.572906 156.0
242.656601 204.0
242.745255 128.0
242.912537 116.0
243.022415 260.0
243.090927 1716.0
243.159119 192.0
243.224304 188.0
243.708771 292.0
243.864136 208.0
243.89212 264.0
243.916367 236.0
243.991592 212.0
244.032852 42908.0
244.09343 224.0
244.315826 180.0
244.34314 104.0
244.398682 144.0
244.731018 132.0
244.819244 296.0
245.037781 5540.0
245.104187 220.0
245.540405 212.0
245.567215 332.0
245.642075 144.0
245.716949 160.0
245.932266 144.0
246.030548 8824.0
246.076401 284.0
246.197632 156.0
246.315201 100.0
246.50563 152.0
246.533417 140.0
246.668808 196.0
246.786896 132.0
246.909073 136.0
247.034302 1464.0
247.110367 144.0
247.167923 112.0
247.72084 180.0
248.005096 100.0
248.083542 424.0
248.323822 152.0
248.562637 96.0
248.695389 180.0
248.731842 164.0
248.841751 120.0
248.953461 224.0
249.083054 34232.0
249.179352 96.0
249.417221 172.0
249.506454 240.0
249.747604 128.0
249.793121 316.0
250.089554 21052.0
250.176956 128.0
250.279709 120.0
250.429504 244.0
250.603088 128.0
250.648605 104.0
250.715454 124.0
250.797089 144.0
251.095001 4112.0
251.363907 204.0
251.591354 136.0
251.754883 164.0
251.792465 104.0
251.876205 156.0
251.972412 124.0
252.05632 264.0
252.094803 260.0
252.118103 300.0
252.446259 188.0
252.508347 160.0
252.593994 104.0
252.70845 108.0
252.761429 148.0
252.875351 144.0
253.075058 312.0
253.592285 144.0
253.688431 184.0
253.804245 180.0
254.048172 148.0
254.073486 220.0
254.44606 188.0
254.625671 156.0
254.860504 156.0
255.032974 176.0
255.070297 3776.0
255.229202 140.0
255.542664 160.0
255.926025 168.0
256.031586 188.0
256.070374 640.0
256.359222 168.0
256.44046 124.0
256.550476 188.0
256.706696 168.0
256.885315 172.0
257.038422 1772.0
257.278442 184.0
257.34726 96.0
257.677612 108.0
257.827209 240.0
257.916687 172.0
257.948517 168.0
258.048279 12540.0
258.2547 124.0
258.881226 104.0
259.049652 2500.0
259.221252 148.0
259.315399 148.0
259.618317 164.0
259.690521 188.0
260.043854 4116.0
260.104431 220.0
260.252838 124.0
260.550812 140.0
260.671082 120.0
260.832062 176.0
260.864899 108.0
260.933258 156.0
261.045319 720.0
261.084686 164.0
261.12439 172.0
261.53479 140.0
261.726349 300.0
262.034943 176.0
262.088196 472.0
262.143494 144.0
262.237213 144.0
262.430359 156.0
262.498077 208.0
262.607727 156.0
262.795654 108.0
262.872253 160.0
263.030396 144.0
263.098145 2404.0
263.608521 140.0
263.698792 180.0
263.728912 248.0
263.854156 144.0
263.928619 152.0
263.954376 164.0
264.047028 376.0
264.102783 740.0
264.235779 176.0
264.459076 300.0
264.841125 168.0
264.8638 180.0
265.052277 5708.0
265.108368 324.0
265.151611 236.0
265.281219 300.0
265.341705 184.0
265.442047 276.0
265.493744 144.0
265.561249 132.0
265.639526 128.0
265.685394 160.0
266.059814 892.0
266.109589 152.0
266.365631 200.0
266.426331 156.0
266.459839 200.0
266.635315 140.0
266.757874 136.0
267.051086 1396.0
267.197845 180.0
267.268372 160.0
267.525085 116.0
267.572113 208.0
267.694214 144.0
268.03244 1076.0
268.233429 160.0
268.30188 268.0
268.477936 152.0
268.607544 168.0
268.650818 164.0
268.81723 164.0
268.924927 148.0
269.035431 568.0
269.188995 144.0
269.417145 172.0
269.50293 148.0
269.714142 128.0
269.833038 144.0
270.03067 728.0
270.102783 3312.0
270.212921 200.0
270.250031 176.0
270.369476 148.0
270.448029 204.0
270.919556 164.0
271.041901 408.0
271.111084 2024.0
271.381653 212.0
271.652649 164.0
271.775238 184.0
272.048889 748.0
272.113159 932.0
272.162994 128.0
272.403351 136.0
272.901825 224.0
273.061615 924.0
273.080353 604.0
273.319977 152.0
273.526886 184.0
273.579559 144.0
273.836395 176.0
273.902283 216.0
274.052795 240.0
274.089691 1468.0
274.126312 160.0
274.372253 168.0
274.526825 172.0
274.641785 312.0
274.70108 108.0
274.935883 152.0
275.043427 252.0
275.085327 480.0
275.285492 120.0
275.40506 112.0
275.796234 160.0
275.825989 180.0
276.017731 248.0
276.093872 1072.0
276.232727 144.0
276.557526 200.0
276.618927 168.0
276.719177 196.0
276.742371 228.0
276.921204 156.0
277.051544 448.0
277.094635 448.0
277.285645 152.0
277.383698 140.0
277.607208 140.0
277.982056 236.0
278.063141 184.0
278.105774 112.0
278.382111 156.0
278.895355 172.0
278.995087 176.0
279.066803 440.0
279.354218 156.0
279.725769 104.0
279.900055 240.0
280.043243 144.0
280.07431 304.0
280.523071 148.0
280.633087 148.0
280.789795 204.0
281.06485 340.0
281.325195 176.0
281.457214 156.0
281.628326 184.0
281.747803 168.0
281.943085 108.0
282.047668 548.0
282.124725 116.0
282.270996 280.0
282.551025 180.0
282.942169 148.0
283.038757 1200.0
283.152649 272.0
283.200897 132.0
283.307281 168.0
283.507782 180.0
284.051392 4800.0
284.334442 108.0
284.379547 132.0
284.644958 168.0
284.691986 144.0
284.88559 168.0
285.059021 27048.0
285.136047 404.0
285.280212 104.0
285.545593 176.0
285.605133 108.0
285.691559 100.0
285.972748 160.0
286.061157 5568.0
286.162781 96.0
286.235474 204.0
286.50827 164.0
286.55545 256.0
286.611786 120.0
286.8992 140.0
287.05658 6776.0
287.233032 268.0
288.059723 1060.0
288.091675 484.0
288.38916 172.0
288.465546 144.0
288.962677 180.0
289.052612 2900.0
289.100189 1268.0
289.172485 192.0
289.307129 108.0
289.504242 220.0
289.611328 144.0
289.668182 120.0
289.771851 144.0
289.79895 140.0
289.895508 176.0
289.990631 120.0
290.05661 904.0
290.109314 25908.0
290.251709 128.0
290.438049 108.0
290.480377 144.0
290.533813 180.0
290.636078 228.0
290.681549 240.0
290.782745 136.0
290.820923 116.0
290.84967 272.0
290.904999 500.0
290.93457 212.0
290.980835 268.0
291.014526 100.0
291.05307 1272.0
291.118073 199288.0
291.313904 284.0
291.397491 184.0
291.434418 300.0
291.490356 164.0
291.525116 180.0
291.55661 296.0
291.677124 936.0
291.747864 96.0
291.813263 232.0
291.898773 340.0
291.94101 160.0
292.059967 308.0
292.120514 28368.0
292.233887 188.0
292.287323 184.0
292.377625 264.0
292.47876 140.0
292.510284 204.0
292.576843 104.0
292.702423 168.0
292.782013 132.0
292.826233 288.0
292.967102 204.0
293.122467 2628.0
293.243713 232.0
293.308746 108.0
293.567688 188.0
293.604462 132.0
293.681824 148.0
293.715759 112.0
293.847778 104.0
293.94339 148.0
293.981293 180.0
294.027435 240.0
294.052643 104.0
294.125977 316.0
294.236847 104.0
294.418854 156.0
294.64035 164.0
294.701843 164.0
294.739441 216.0
294.807892 308.0
294.897369 192.0
294.970428 156.0
295.020691 136.0
295.099426 180.0
295.132507 144.0
295.183807 248.0
295.213928 204.0
295.281708 96.0
295.533112 344.0
295.95575 180.0
296.107788 152.0
296.135193 156.0
296.258514 180.0
296.292755 176.0
296.39212 164.0
296.530914 136.0
296.995483 152.0
297.059814 2568.0
297.297394 192.0
297.918884 144.0
298.065063 1048.0
298.16626 204.0
298.34845 176.0
298.448151 140.0
298.479095 144.0
298.608673 152.0
299.071686 3376.0
299.149994 148.0
299.425446 228.0
300.029816 120.0
300.075317 724.0
300.183594 144.0
300.610413 148.0
300.997955 216.0
301.070984 1216.0
301.319153 144.0
301.882568 160.0
301.973877 100.0
302.07608 268.0
302.157166 112.0
302.370361 176.0
303.163422 140.0
303.315918 152.0
303.449158 184.0
303.797913 140.0
303.86731 188.0
304.063263 184.0
304.10672 184.0
304.783905 176.0
304.842987 140.0
304.938782 148.0
305.073425 488.0
305.287933 152.0
305.659058 268.0
305.708862 144.0
305.768494 156.0
305.855042 168.0
306.076996 2672.0
306.142029 144.0
306.250793 200.0
306.339569 108.0
306.501831 212.0
306.558563 140.0
306.816498 192.0
307.043396 948.0
307.080536 800.0
307.188477 216.0
307.708038 204.0
308.051605 408.0
308.076111 988.0
308.511078 164.0
308.834167 168.0
309.05899 11676.0
309.327576 132.0
309.378021 136.0
309.492737 140.0
309.584076 96.0
309.702881 224.0
309.769836 168.0
309.922546 128.0
310.061462 2628.0
310.151794 156.0
310.19342 144.0
310.252045 172.0
310.309998 252.0
310.344177 172.0
310.424805 228.0
310.516449 112.0
310.558411 172.0
310.887878 172.0
311.059906 5116.0
311.17569 184.0
311.858368 108.0
312.059875 1152.0
312.294281 176.0
312.336517 208.0
312.503418 140.0
313.014618 148.0
313.058929 1256.0
313.419678 204.0
314.205994 196.0
314.290588 224.0
314.38562 136.0
314.583527 212.0
314.683136 112.0
315.413879 124.0
315.551514 164.0
316.322113 160.0
317.277435 176.0
317.7052 160.0
318.180298 140.0
318.392303 136.0
318.724365 152.0
319.694489 200.0
320.274811 168.0
320.321106 228.0
321.300415 96.0
321.781006 108.0
322.001556 136.0
322.159546 108.0
322.210083 156.0
322.402924 156.0
322.546814 140.0
322.626373 152.0
322.862366 148.0
323.044006 200.0
323.177704 128.0
323.307861 128.0
323.450134 144.0
323.623566 276.0
323.725586 128.0
323.754944 136.0
323.794952 116.0
323.846558 108.0
323.912231 148.0
324.022095 260.0
324.06073 320.0
324.152588 248.0
324.370514 136.0
324.411896 124.0
324.4729 112.0
324.52298 268.0
324.577148 152.0
324.632721 148.0
324.660553 196.0
324.705597 228.0
324.766388 120.0
324.826996 240.0
324.924225 108.0
324.9664 168.0
325.077148 5644.0
325.132324 268.0
325.169952 1072.0
325.244934 156.0
325.271912 128.0
325.302216 248.0
325.353271 152.0
325.417755 120.0
325.513214 216.0
325.545532 396.0
325.642212 164.0
325.66626 496.0
325.692352 544.0
325.722168 484.0
325.76889 380.0
325.778473 396.0
325.792938 308.0
325.819885 188.0
325.853638 400.0
325.906616 632.0
325.933533 756.0
325.95932 904.0
326.088043 295920.0
326.191956 184.0
326.206848 340.0
326.21759 364.0
326.34317 360.0
326.423187 1952.0
326.483612 592.0
326.535339 932.0
326.570496 172.0
326.608185 176.0
326.637421 1992.0
326.685486 11252.0
326.779205 148.0
326.817474 236.0
326.874664 248.0
326.903015 148.0
326.979797 428.0
327.030579 888.0
327.090057 132296.0
327.152557 224.0
327.196228 160.0
327.262421 232.0
327.311798 520.0
327.346771 432.0
327.382385 416.0
327.437531 120.0
327.500031 288.0
327.542358 224.0
327.555634 304.0
327.588531 204.0
327.681152 368.0
327.745148 320.0
327.774506 220.0
327.801849 128.0
327.859772 224.0
327.917542 244.0
327.973602 288.0
328.085266 180884.0
328.195251 104.0
328.284149 188.0
328.42514 216.0
328.463715 332.0
328.524261 164.0
328.566986 216.0
328.635345 424.0
328.677429 1712.0
328.714355 348.0
328.772522 208.0
328.831909 172.0
328.857971 220.0
328.897217 232.0
328.911652 120.0
328.923645 324.0
328.974426 368.0
329.009857 340.0
329.087067 27224.0
329.182373 336.0
329.221588 320.0
329.276367 520.0
329.309387 388.0
329.412689 492.0
329.465607 312.0
329.493195 400.0
329.552734 260.0
329.589905 132.0
329.622192 128.0
329.678528 132.0
329.712341 120.0
329.762299 136.0
329.882751 124.0
329.956329 124.0
330.025848 168.0
330.100861 224.0
330.173706 228.0
330.212128 224.0
330.262299 180.0
330.366425 208.0
330.393616 116.0
330.434937 316.0
330.480255 120.0
330.649292 128.0
330.68335 112.0
330.788391 160.0
330.974213 116.0
331.022369 112.0
331.148743 116.0
331.182251 112.0
331.282745 204.0
331.343872 220.0
331.464478 152.0
331.495972 300.0
331.556122 148.0
331.677246 136.0
331.769135 132.0
331.948761 100.0
332.204865 136.0
338.027924 168.0
338.076599 100.0
339.297241 128.0
340.340851 116.0
340.684021 108.0
341.090271 140.0
342.401764 100.0
342.444977 136.0
342.836853 148.0
343.11496 144.0
343.655151 164.0
343.896088 116.0
346.054169 124.0
346.827454 136.0
347.329681 124.0
351.165436 160.0
369.476379 140.0
381.170227 176.0
431.372162 176.0
434.300354 120.0
435.299835 160.0
443.187622 140.0
446.38678 104.0
446.491241 152.0
448.044434 144.0
467.026459 144.0
492.33728 152.0
502.369904 108.0
548.775146 136.0
655.88623 148.0
693.07312 144.0
842.86969 172.0
941.436584 124.0
1034.016846 148.0
1047.945068 196.0
1186.74353 176.0
1210.55896 200.0
1253.843872 216.0
1340.532715 188.0
1362.782104 116.0
1436.071167 180.0
1501.66748 216.0
1584.565918 156.0
1595.327271 184.0
1599.34436 204.0
1605.957642 168.0
1626.850342 152.0
1634.775269 144.0
1637.576904 192.0
1640.969482 172.0
1652.575684 156.0
1665.229736 156.0
1683.660156 152.0
1686.119141 180.0
1697.572021 228.0
1698.695679 180.0
1702.758545 184.0
1718.068726 144.0
1729.803223 188.0
1748.245361 140.0
1761.861328 212.0
1791.802612 212.0
1801.310791 220.0
1817.778076 144.0
1819.144531 232.0
1849.344849 252.0
1859.69873 200.0
1873.956543 140.0
1875.473145 188.0
1902.583374 144.0
1906.439819 196.0
1911.344238 180.0
1927.178589 208.0
1931.864624 164.0
1957.598633 164.0
1966.741089 200.0
1973.908691 180.0
1976.665771 152.0
1989.286499 192.0
1998.751831 144.0
