>compound Isovitexin
>formula C21H20O10
>ionization [M+H]+
>parentmass 433.1129232920905
#inchi InChI=1S/C21H20O10/c22-7-14-17(26)19(28)20(29)21(31-14)16-11(25)6-13-15(18(16)27)10(24)5-12(30-13)8-1-3-9(23)4-2-8/h1-6,14,17,19-23,25-29H,7H2/t14-,17-,19+,20-,21+/m1/s1
#inchikey MYXNWGACZJSMBT
#Ion_Source DI-ESI
#Instrument qTof
#Compound_Source Isolated
#PI Norberto Lopes
#Data_Collector Denise Silva
#Scan -1
#Precursor_MZ 433.074
#ExactMass 432.106
#Charge 1
#CAS_Number 38953-85-4
#Pubmed_ID N/A
#Smiles O=C1C2=C(O)C([C@H]3[C@H](O)[C@@H](O)[C@H](O)[C@@H](CO)O3)=C(O)C=C2OC(C4=CC=C(O)C=C4)=C1
#INCHI_AUX N/A
#Library_Class 3
#SpectrumID CCMSLIB00000081702
#IonMode Positive
#UpdateWorkflowName UPDATE-SINGLE-ANNOTATED-BRONZE
#LibraryQualityString Bronze
#TaskID 52bd5f0db6314c93924d5ce5c86348eb
##Scan# 1
#SpectrumFile gnps_Isovitexin_pos_MplusH.mgf
#LibraryName gnps_library.mgf
#MQScore -1
#Organism batch_27_05_V02
#TIC_Query 0
#RT_Query -1
#MZErrorPPM -1
#SharedPeaks 0
#MassDiff 0
#LibMZ -1
#SpecMZ 433.074
#SpecCharge 0
#internalFilename spec-00000.mgf

>collision 10
121.017838 158.0
145.040512 127.0
149.010864 199.0
165.003174 715.0
183.012405 246.0
195.01326 135.0
217.029236 145.0
243.006134 149.0
261.018616 242.0
267.036591 514.0
271.036407 2368.0
283.03598 39595.0
295.034973 2957.0
297.048859 1187.0
305.055939 243.0
307.034546 586.0
309.047424 4826.0
313.041473 41057.0
321.046875 432.0
323.063324 8203.0
325.042633 848.0
327.055206 214.0
333.045685 1209.0
335.030884 302.0
337.040588 16012.0
341.033081 108.0
343.046997 1002.0
349.039948 6186.0
351.05307 2928.0
355.049591 416.0
361.035889 4816.0
367.049347 3175.0
379.047852 8327.0
397.056366 6168.0
415.066864 1979.0
433.073822 539.0
