>compound Carvedilol
>formula C24H26N2O4
>ionization [M+H]+
>parentmass 407.19653376409053
#inchi InChI=1S/C24H26N2O4/c1-28-21-10-4-5-11-22(21)29-14-13-25-15-17(27)16-30-23-12-6-9-20-24(23)18-7-2-3-8-19(18)26-20/h2-12,17,25-27H,13-16H2,1H3
#inchikey OGHNVEJMJSYVRP
#Ion_Source LC-ESI
#Instrument qTof
#Compound_Source Commercial
#PI Dorrestein
#Data_Collector Garg_Neha
#Scan -1
#Precursor_MZ 407.197
#ExactMass 406.189
#Charge 1
#CAS_Number 72956-09-3
#Pubmed_ID N/A
#Smiles C12=CC=CC(=C1C3=C(N2)C=CC=C3)OCC(CNCCOC4=CC=CC=C4OC)O
#INCHI_AUX N/A
#Library_Class 1
#SpectrumID CCMSLIB00000078306
#IonMode Positive
#UpdateWorkflowName UPDATE-SINGLE-ANNOTATED-GOLD
#LibraryQualityString Gold
#TaskID 77f51c88eb8b467eb4a01dd2d0cb90d2
##Scan# 1165
#SpectrumFile Plate5_1_20_GH6_01_16508.mzXML
#LibraryName FDALibrary_2_04302014.mgf
#MQScore -1
#Organism FDALibrary_2_04302014
#TIC_Query 0
#RT_Query -1
#MZErrorPPM -1
#SharedPeaks 0
#MassDiff 0
#LibMZ -1
#SpecMZ 407.197
#SpecCharge 0
#internalFilename spec-00000.mgf

>collision 10
45.035439 192.0
45.232849 196.0
45.272163 196.0
45.284214 176.0
45.321724 312.0
45.340485 188.0
45.35791 172.0
45.412117 168.0
45.614292 192.0
45.772526 176.0
45.949615 152.0
46.042751 204.0
46.149815 176.0
46.221191 172.0
46.310474 156.0
46.41647 148.0
46.449673 236.0
46.507145 216.0
46.551945 160.0
46.630741 184.0
46.667442 140.0
46.695999 160.0
46.770832 208.0
46.805912 240.0
46.973866 156.0
47.055744 140.0
47.286762 164.0
47.338783 184.0
47.575478 136.0
47.6007 236.0
47.71199 152.0
48.036987 152.0
48.110126 144.0
48.231689 160.0
48.252422 168.0
48.314884 172.0
48.558449 144.0
48.770878 140.0
48.897446 200.0
48.915539 164.0
49.049263 220.0
49.16642 180.0
49.204174 176.0
49.255779 196.0
49.399757 180.0
49.418652 168.0
49.534142 148.0
49.552353 140.0
49.622429 144.0
49.65889 188.0
49.672916 184.0
49.706852 148.0
49.727638 224.0
49.768349 196.0
50.055195 148.0
50.08477 200.0
50.117172 160.0
50.172138 172.0
50.299095 164.0
50.430458 200.0
50.747368 212.0
50.767406 160.0
50.954769 144.0
50.981571 212.0
51.001038 192.0
51.062801 184.0
51.118282 284.0
51.188034 168.0
51.264957 304.0
51.399139 164.0
51.419189 188.0
51.710537 196.0
51.787849 144.0
51.937237 196.0
52.069668 168.0
52.083324 340.0
52.115887 192.0
52.215553 140.0
52.294685 144.0
52.339722 168.0
52.477631 152.0
52.582935 184.0
52.59737 140.0
52.691235 140.0
52.724468 168.0
52.803986 204.0
52.900928 140.0
52.974781 172.0
52.990719 152.0
53.113941 208.0
53.136654 152.0
53.147308 144.0
53.206814 140.0
53.3312 280.0
53.748547 140.0
53.78627 148.0
53.927872 172.0
54.214725 176.0
54.45092 164.0
54.744766 168.0
54.775978 148.0
54.815758 240.0
54.854076 156.0
54.975018 200.0
55.031109 172.0
55.139328 184.0
55.310513 140.0
55.706432 248.0
55.808979 164.0
55.878883 156.0
55.960743 176.0
56.002438 148.0
56.031082 140.0
56.053589 204.0
56.073956 292.0
56.141041 168.0
56.242493 188.0
56.312668 184.0
56.34404 152.0
56.358978 208.0
56.405308 224.0
56.474087 180.0
56.510479 172.0
56.578835 140.0
56.599796 160.0
56.733139 164.0
57.015324 160.0
57.069439 204.0
57.213871 176.0
57.271091 260.0
57.375069 144.0
57.405224 192.0
57.654308 144.0
57.666401 176.0
57.722336 164.0
57.781322 148.0
57.926655 140.0
58.152119 172.0
58.254314 188.0
58.274063 144.0
58.354614 204.0
58.596607 144.0
58.620823 184.0
58.67281 204.0
58.684219 192.0
58.831841 112.0
58.951191 176.0
59.175014 112.0
59.208431 148.0
59.267349 176.0
59.350121 184.0
59.42144 108.0
59.485126 180.0
59.509689 216.0
59.592628 180.0
60.049824 152.0
60.091053 176.0
60.119247 180.0
60.178703 224.0
60.360229 180.0
60.409721 228.0
60.687874 212.0
60.731911 164.0
60.753628 168.0
60.7971 232.0
60.848858 188.0
60.927502 232.0
60.980331 176.0
61.011421 180.0
61.03474 160.0
61.112514 196.0
61.221165 100.0
61.283783 188.0
61.360153 164.0
61.402252 188.0
61.44281 164.0
61.48624 120.0
61.57299 380.0
61.593884 216.0
61.619228 152.0
61.725513 204.0
61.745842 204.0
61.757729 144.0
61.800541 124.0
61.830101 216.0
61.928959 176.0
61.97282 172.0
62.223766 192.0
62.245747 164.0
62.28344 204.0
62.546028 200.0
62.585884 164.0
62.656261 200.0
62.695347 144.0
62.77763 236.0
62.910164 196.0
62.930946 156.0
62.981182 172.0
63.086071 192.0
63.104481 224.0
63.238945 228.0
63.295937 200.0
63.322857 140.0
63.380119 164.0
63.476578 208.0
63.530502 140.0
63.755177 108.0
63.875912 160.0
63.967506 228.0
64.059868 204.0
64.188599 140.0
64.205338 164.0
64.291061 144.0
64.382057 152.0
64.450745 148.0
64.490692 176.0
64.790314 368.0
64.821976 192.0
64.862038 156.0
65.279472 164.0
65.31926 168.0
65.340591 148.0
65.375992 168.0
65.464531 188.0
65.631447 204.0
65.745033 204.0
65.867737 140.0
65.919434 148.0
65.958221 204.0
66.024513 144.0
66.043922 148.0
66.090836 164.0
66.113487 320.0
66.157188 144.0
66.272179 140.0
66.298103 124.0
66.351593 140.0
66.364563 216.0
66.413216 148.0
66.500832 192.0
66.902328 416.0
67.032631 184.0
67.070114 156.0
67.127174 200.0
67.277283 156.0
67.292595 200.0
67.354027 144.0
67.385063 176.0
67.421852 176.0
67.488037 160.0
67.535461 180.0
67.563271 152.0
67.671288 304.0
67.696465 148.0
67.740067 172.0
67.830193 180.0
68.068085 348.0
68.138466 188.0
68.383728 160.0
68.492844 132.0
68.536873 160.0
68.695145 280.0
68.718246 156.0
68.850227 184.0
69.083351 180.0
69.109825 160.0
69.234749 148.0
69.280762 208.0
69.295258 212.0
69.472649 184.0
69.636452 188.0
69.981201 148.0
69.997437 208.0
70.019508 164.0
70.317932 156.0
70.484932 172.0
70.586899 212.0
70.878151 184.0
70.893234 172.0
70.913345 152.0
70.929131 220.0
71.047722 172.0
71.065948 168.0
71.139793 184.0
71.386772 152.0
71.667877 168.0
72.00695 168.0
72.031723 168.0
72.059311 144.0
72.315735 204.0
72.392532 244.0
72.490784 196.0
72.577232 176.0
72.638924 128.0
72.666428 184.0
72.776031 192.0
72.823303 176.0
72.850479 160.0
72.880104 164.0
72.896355 172.0
73.034058 160.0
73.083397 184.0
73.114021 236.0
73.228088 156.0
73.294533 328.0
73.399139 204.0
73.446259 156.0
73.475258 176.0
73.50486 252.0
73.586189 188.0
73.664825 196.0
74.239838 148.0
74.342766 144.0
74.414856 156.0
74.489693 152.0
74.557426 228.0
74.615868 148.0
74.633064 280.0
74.72422 228.0
74.785072 100.0
74.915314 132.0
74.930244 144.0
74.964218 208.0
75.092278 168.0
75.211906 144.0
75.293053 220.0
75.31356 248.0
75.419182 156.0
75.443382 176.0
75.737549 180.0
75.786057 152.0
75.931786 124.0
75.973297 228.0
76.044678 164.0
76.146881 196.0
76.228531 160.0
76.268501 180.0
76.320656 152.0
76.529449 180.0
76.678215 160.0
76.770454 128.0
76.905998 192.0
76.951385 144.0
77.038704 264.0
77.122581 192.0
77.173119 128.0
77.232735 260.0
77.437515 196.0
77.458389 144.0
77.477806 200.0
77.6987 208.0
77.750313 140.0
77.767136 172.0
77.796974 140.0
77.83062 148.0
77.849648 252.0
77.86721 164.0
77.909363 160.0
77.955048 148.0
77.975586 140.0
78.061546 168.0
78.322754 148.0
78.363266 176.0
78.40509 180.0
78.427475 136.0
78.484886 160.0
78.571747 144.0
78.630516 188.0
78.758423 208.0
78.811424 176.0
78.852928 148.0
78.931618 196.0
79.033684 188.0
79.099693 168.0
79.185722 176.0
79.227188 164.0
79.279602 152.0
79.560593 180.0
79.693428 192.0
79.734665 168.0
79.760063 220.0
79.846672 164.0
79.887581 180.0
80.026398 188.0
80.160088 140.0
80.395378 148.0
80.532845 168.0
80.596519 336.0
80.63826 152.0
80.813507 144.0
80.851082 144.0
80.931641 160.0
81.041504 224.0
81.425529 212.0
81.505615 196.0
81.782562 160.0
81.876183 168.0
81.923019 344.0
82.013351 184.0
82.106865 168.0
82.204285 148.0
82.245789 144.0
82.515045 156.0
82.56739 140.0
82.643898 204.0
82.661461 188.0
82.74472 156.0
82.834412 160.0
82.9272 120.0
83.016701 196.0
83.104889 156.0
83.266953 184.0
83.355972 168.0
83.386864 192.0
83.419579 204.0
83.531944 192.0
83.609352 180.0
83.701584 292.0
83.721611 156.0
83.788193 196.0
83.934685 164.0
83.957565 176.0
84.091705 156.0
84.352905 264.0
84.398605 224.0
84.451645 280.0
84.474838 164.0
84.539459 220.0
84.557976 168.0
84.742706 156.0
84.762863 140.0
84.806847 144.0
84.900352 164.0
84.927856 192.0
84.944366 180.0
84.987068 260.0
85.067314 148.0
85.278549 140.0
85.341049 176.0
85.41143 224.0
85.4869 180.0
85.697243 184.0
85.760773 144.0
85.931572 168.0
86.027786 212.0
86.079941 180.0
86.221001 136.0
86.246208 144.0
86.28688 180.0
86.529831 164.0
86.75029 164.0
86.868378 168.0
87.016846 156.0
87.07119 224.0
87.241638 148.0
87.319733 164.0
87.349495 208.0
87.500229 148.0
87.547523 160.0
87.669731 176.0
87.682777 204.0
87.729378 148.0
87.877808 204.0
87.942024 168.0
87.97744 160.0
88.167847 188.0
88.192406 144.0
88.229042 208.0
88.350197 164.0
88.398026 180.0
88.485992 140.0
88.570786 144.0
88.633965 184.0
88.834572 156.0
88.900238 144.0
88.969688 140.0
89.005356 184.0
89.223305 188.0
89.280487 204.0
89.298393 116.0
89.430222 180.0
89.579849 140.0
89.716545 196.0
89.74482 156.0
89.795738 196.0
89.839119 156.0
89.859871 156.0
89.959892 204.0
90.0392 144.0
90.06942 140.0
90.183899 136.0
90.275421 224.0
90.345604 152.0
90.360542 172.0
90.382233 120.0
90.411629 220.0
90.501633 168.0
90.585823 148.0
90.704147 288.0
90.815834 220.0
90.887383 192.0
91.018234 148.0
91.053947 520.0
91.089096 192.0
91.114189 100.0
91.15551 164.0
91.269051 144.0
91.412949 204.0
91.479149 120.0
91.539154 160.0
91.663879 132.0
91.880432 152.0
91.922401 196.0
91.94912 140.0
92.285324 148.0
92.408081 152.0
92.491936 344.0
92.5149 216.0
92.677696 152.0
92.709846 144.0
93.033592 360.0
93.071106 380.0
93.149643 164.0
93.1968 168.0
93.236099 160.0
93.339912 176.0
93.392387 152.0
93.463013 180.0
93.543846 204.0
93.588127 168.0
93.871376 140.0
93.911873 188.0
94.029564 188.0
94.074532 196.0
94.111473 140.0
94.140282 160.0
94.15506 156.0
94.178329 164.0
94.231529 176.0
94.24778 180.0
94.344414 140.0
94.359879 152.0
94.386948 176.0
94.539764 164.0
94.578476 160.0
94.624649 108.0
94.796928 168.0
94.892303 172.0
94.955132 132.0
94.988533 116.0
95.049759 1140.0
95.082397 172.0
95.256172 96.0
95.276573 200.0
95.447662 144.0
95.612633 120.0
95.671349 192.0
95.735603 232.0
95.788193 172.0
95.98452 152.0
96.051178 172.0
96.066223 216.0
96.099594 136.0
96.135384 160.0
96.185982 156.0
96.344154 144.0
96.398155 216.0
96.53537 188.0
96.641327 148.0
96.723526 196.0
96.769073 180.0
96.852753 176.0
96.918404 176.0
96.970314 148.0
96.992676 304.0
97.016754 168.0
97.173698 204.0
97.252197 100.0
97.333237 180.0
97.620972 196.0
97.673233 196.0
97.74012 144.0
97.875938 168.0
97.936989 168.0
97.972443 248.0
98.018822 204.0
98.169548 148.0
98.214905 140.0
98.353027 140.0
98.374741 292.0
98.527298 144.0
98.601891 140.0
98.619675 140.0
98.697304 220.0
98.940132 172.0
98.993591 184.0
99.121353 228.0
99.223434 172.0
99.322586 176.0
99.362259 188.0
99.431709 148.0
99.47657 180.0
99.616364 200.0
99.632256 160.0
99.722847 176.0
99.828606 188.0
99.897942 248.0
99.920677 160.0
100.012062 148.0
100.037941 196.0
100.056061 156.0
100.075615 33584.0
100.111458 164.0
100.151405 244.0
100.218376 180.0
100.250031 116.0
100.266151 108.0
100.434479 400.0
100.480362 140.0
100.720474 128.0
100.808868 216.0
100.890884 164.0
100.987785 212.0
101.025162 164.0
101.080284 1072.0
101.11779 196.0
101.175842 212.0
101.245682 168.0
101.278778 168.0
101.452301 192.0
101.755989 128.0
101.775986 144.0
101.88578 184.0
101.90435 136.0
101.950508 160.0
102.091217 552.0
102.13504 204.0
102.157173 180.0
102.298035 176.0
102.342407 96.0
102.359276 144.0
102.462936 176.0
102.518639 108.0
102.610352 132.0
102.664734 152.0
102.684898 200.0
102.727257 164.0
103.002045 156.0
103.155357 148.0
103.224098 164.0
103.260506 160.0
103.508568 200.0
103.570175 172.0
103.616768 164.0
103.639053 204.0
103.713776 156.0
103.803543 108.0
103.875328 144.0
103.941177 148.0
104.075142 164.0
104.089287 128.0
104.138092 180.0
104.538239 184.0
104.595581 192.0
104.727936 172.0
104.789047 180.0
104.852211 176.0
104.890373 172.0
104.941628 232.0
104.996964 272.0
105.017067 140.0
105.127525 160.0
105.145889 140.0
105.190796 176.0
105.274506 144.0
105.388451 128.0
105.417503 156.0
105.462463 168.0
105.640358 140.0
105.656731 152.0
105.759041 148.0
106.070389 148.0
106.156494 280.0
106.185204 264.0
106.413696 196.0
106.487831 304.0
106.651276 160.0
106.78286 188.0
106.805489 144.0
106.928795 176.0
106.951576 276.0
107.023628 168.0
107.04026 156.0
107.084366 128.0
107.237877 180.0
107.316208 160.0
107.349197 184.0
107.431053 152.0
107.496475 132.0
107.549324 140.0
107.615379 164.0
107.829758 144.0
107.848595 112.0
107.879822 168.0
108.055817 160.0
108.104057 144.0
108.169479 108.0
108.2481 144.0
108.272301 140.0
108.293663 144.0
108.332741 240.0
108.646179 132.0
108.7332 180.0
108.89872 160.0
108.91848 152.0
109.001091 248.0
109.02343 176.0
109.062271 476.0
109.088036 192.0
109.163918 168.0
109.202744 140.0
109.263435 112.0
109.28595 172.0
109.351082 188.0
109.398338 176.0
109.577827 192.0
109.67955 280.0
109.741394 160.0
109.917297 152.0
109.996605 148.0
110.035225 296.0
110.107269 148.0
110.184555 176.0
110.282768 140.0
110.385742 172.0
110.405983 124.0
110.439377 416.0
110.61116 152.0
110.632095 172.0
110.759827 148.0
110.778679 188.0
110.893921 192.0
110.944229 176.0
111.08345 196.0
111.114105 152.0
111.128792 164.0
111.206161 152.0
111.257744 144.0
111.2967 148.0
111.330299 180.0
111.377144 172.0
111.414314 192.0
111.435326 144.0
111.48996 172.0
111.55722 140.0
111.731766 160.0
111.841194 208.0
111.909119 180.0
111.927505 176.0
112.144493 208.0
112.169785 208.0
112.186653 204.0
112.266769 172.0
112.31958 104.0
112.638237 140.0
112.73542 144.0
112.781372 160.0
112.856895 132.0
112.872826 184.0
112.91114 232.0
113.215637 148.0
113.283409 176.0
113.40419 144.0
113.44297 136.0
113.480507 160.0
113.558968 144.0
113.587059 136.0
113.824242 164.0
114.066437 216.0
114.194016 140.0
114.240807 156.0
114.276978 140.0
114.31102 152.0
114.492531 228.0
114.534561 152.0
114.653877 156.0
114.813766 180.0
114.871353 240.0
114.92469 172.0
115.002403 212.0
115.054153 200.0
115.08477 184.0
115.21653 152.0
115.406242 184.0
115.594841 184.0
115.730484 148.0
115.814003 192.0
115.846138 172.0
115.910408 172.0
115.966125 176.0
116.049782 324.0
116.205467 144.0
116.257797 188.0
116.422173 148.0
116.448875 184.0
116.611656 172.0
116.69722 252.0
116.749748 152.0
116.764038 188.0
116.789368 200.0
116.846542 148.0
116.878822 144.0
117.079018 236.0
117.104858 144.0
117.175941 160.0
117.251366 204.0
117.290161 160.0
117.347244 224.0
117.570702 108.0
117.598595 212.0
117.672287 192.0
117.691422 168.0
117.749725 324.0
117.786583 192.0
117.808044 188.0
117.862061 220.0
117.926895 164.0
118.043633 148.0
118.109161 148.0
118.19072 180.0
118.340073 160.0
118.500343 156.0
118.683319 276.0
118.794342 176.0
118.832062 224.0
118.881973 160.0
118.949249 156.0
118.970154 140.0
119.048271 840.0
119.172935 152.0
119.344643 144.0
119.390312 144.0
119.43528 160.0
119.509476 128.0
119.564545 176.0
119.774544 192.0
119.799507 152.0
119.906273 148.0
120.056847 348.0
120.088989 184.0
120.220314 172.0
120.2416 196.0
120.408058 152.0
120.515099 176.0
120.553284 136.0
120.692139 160.0
120.929504 372.0
120.983337 208.0
121.027954 488.0
121.064598 1372.0
121.101372 160.0
121.118896 180.0
121.202141 164.0
121.271439 148.0
121.366798 200.0
121.675896 248.0
121.887764 164.0
121.933533 184.0
121.987175 132.0
122.035851 808.0
122.069679 180.0
122.154259 124.0
122.358986 192.0
122.474136 144.0
122.551239 148.0
122.643799 344.0
122.663635 176.0
122.762642 128.0
122.807709 116.0
122.899612 152.0
122.945953 180.0
123.043732 2672.0
123.077362 252.0
123.1856 208.0
123.271187 188.0
123.310356 144.0
123.406342 180.0
123.424126 180.0
123.588989 180.0
123.701859 160.0
123.799278 172.0
123.974991 176.0
124.029694 180.0
124.051193 600.0
124.096199 144.0
124.308632 156.0
124.404572 176.0
124.446754 208.0
124.609856 184.0
124.885811 184.0
124.929024 156.0
125.028267 304.0
125.0681 392.0
125.12941 188.0
125.208229 188.0
125.267136 148.0
125.367546 172.0
125.397919 128.0
125.541534 184.0
125.5616 160.0
125.593193 168.0
125.746719 152.0
125.938789 164.0
126.106361 168.0
126.128166 164.0
126.182365 220.0
126.207214 140.0
126.311592 188.0
126.517944 220.0
126.66655 212.0
126.708656 304.0
126.783714 152.0
126.856216 152.0
126.952621 176.0
126.986267 140.0
127.035614 184.0
127.054115 176.0
127.147797 172.0
127.192688 184.0
127.325157 148.0
127.423988 140.0
127.525421 116.0
127.604538 216.0
127.714256 192.0
127.761215 148.0
127.866974 148.0
128.056534 220.0
128.161118 180.0
128.436066 268.0
128.506943 184.0
128.702362 240.0
128.743561 140.0
129.068115 456.0
129.267578 168.0
129.401947 176.0
129.444977 244.0
129.504547 144.0
129.537827 156.0
129.597397 124.0
129.639786 148.0
129.807541 200.0
129.835785 216.0
129.855164 156.0
129.955124 116.0
130.06424 1052.0
130.102493 160.0
130.283478 172.0
130.331879 184.0
130.372116 124.0
130.413696 212.0
130.477341 316.0
130.511444 164.0
130.632217 192.0
130.659286 160.0
130.761169 108.0
130.900543 200.0
130.927872 256.0
130.993927 160.0
131.018982 140.0
131.066833 376.0
131.381454 188.0
131.541199 176.0
131.573502 108.0
131.602844 204.0
131.888397 180.0
131.943268 140.0
132.04158 220.0
132.079071 576.0
132.151382 172.0
132.186157 140.0
132.486923 136.0
132.528564 164.0
132.734131 356.0
132.775864 272.0
132.838669 212.0
132.983231 160.0
133.036026 160.0
133.086533 200.0
133.219589 128.0
133.249603 184.0
133.403259 144.0
133.484039 160.0
133.502441 184.0
133.581635 232.0
133.707184 188.0
133.797089 148.0
133.889511 292.0
133.931793 324.0
134.027283 168.0
134.089493 224.0
134.132797 168.0
134.155136 184.0
134.391586 288.0
134.440033 176.0
134.548523 156.0
134.613174 240.0
134.635345 164.0
134.656677 100.0
134.761002 156.0
134.985214 176.0
135.043777 304.0
135.077469 180.0
135.121674 184.0
135.142502 176.0
135.168701 176.0
135.186462 208.0
135.386017 176.0
135.473572 160.0
135.577835 140.0
135.640411 144.0
135.755524 160.0
135.800949 168.0
135.972092 140.0
136.051529 1100.0
136.142822 212.0
136.283249 176.0
136.311142 192.0
136.359848 148.0
136.622696 304.0
136.815842 140.0
136.958908 156.0
136.999817 200.0
137.030106 192.0
137.05864 2540.0
137.088028 388.0
137.153183 148.0
137.17926 148.0
137.225494 96.0
137.328491 140.0
137.355942 228.0
137.391464 148.0
137.657547 284.0
137.699005 144.0
137.734619 356.0
137.800034 124.0
137.844513 136.0
137.879486 176.0
138.062302 200.0
138.206863 144.0
138.239624 164.0
138.387085 148.0
138.494812 140.0
138.636597 112.0
138.786926 208.0
138.883682 216.0
138.932571 144.0
138.950775 204.0
139.00824 144.0
139.053894 436.0
139.132629 144.0
139.184357 128.0
139.343994 216.0
139.374863 148.0
139.447159 152.0
139.560226 208.0
139.668411 172.0
139.724869 160.0
139.791428 140.0
139.862061 156.0
139.917847 144.0
140.045013 140.0
140.078537 208.0
140.164795 156.0
140.285767 180.0
140.327789 264.0
140.407959 148.0
140.629745 156.0
140.783539 136.0
140.856415 236.0
140.874222 148.0
140.999405 108.0
141.068542 404.0
141.111328 180.0
141.286652 160.0
141.336334 204.0
141.371826 180.0
141.446671 116.0
141.475906 180.0
141.689117 164.0
141.71991 140.0
141.763611 252.0
141.934967 236.0
141.975922 192.0
142.049042 140.0
142.067596 228.0
142.155304 200.0
142.227417 152.0
142.263016 164.0
142.60759 128.0
142.724792 120.0
142.830765 108.0
142.89534 116.0
143.072739 144.0
143.103165 260.0
143.145096 140.0
143.166534 176.0
143.509415 160.0
143.588348 140.0
143.781601 140.0
143.865265 156.0
143.886627 320.0
143.92572 208.0
143.962082 140.0
143.979752 140.0
144.042587 184.0
144.155487 248.0
144.230621 204.0
144.286758 124.0
144.35733 100.0
144.412338 228.0
144.4841 212.0
144.613312 164.0
144.688522 200.0
144.713852 148.0
144.934204 164.0
144.967758 148.0
145.020477 176.0
145.056442 152.0
145.12117 176.0
145.185913 160.0
145.238678 148.0
145.358627 144.0
145.418625 172.0
145.521851 204.0
145.671539 156.0
145.759628 164.0
145.776459 212.0
145.978378 184.0
146.031219 148.0
146.059921 292.0
146.13855 160.0
146.428406 164.0
146.490616 160.0
146.642838 236.0
146.691437 172.0
146.797119 212.0
146.885605 116.0
146.934464 132.0
146.979523 124.0
147.2146 168.0
147.258072 152.0
147.662827 176.0
147.744736 180.0
147.897217 232.0
148.031952 148.0
148.053741 212.0
148.076279 300.0
148.187424 216.0
148.218475 160.0
148.280609 256.0
148.550003 204.0
148.613693 108.0
148.643845 188.0
148.705917 164.0
148.800583 184.0
148.917145 140.0
148.980301 168.0
149.060928 424.0
149.086609 192.0
149.12645 164.0
149.181992 168.0
149.225754 164.0
149.529587 124.0
149.663712 140.0
149.759781 240.0
149.84639 220.0
149.972214 208.0
149.997467 176.0
150.041351 172.0
150.066528 1124.0
150.197266 184.0
150.23027 136.0
150.300323 168.0
150.401871 192.0
150.421921 172.0
150.482941 144.0
150.605042 160.0
150.762924 200.0
150.850754 208.0
150.959412 144.0
151.029526 168.0
151.074493 8896.0
151.102936 220.0
151.175262 184.0
151.205276 192.0
151.332291 248.0
151.45134 152.0
151.481201 192.0
151.532181 176.0
151.80426 144.0
151.940018 164.0
152.077026 1640.0
152.124283 340.0
152.167404 184.0
152.228317 148.0
152.297546 220.0
152.3172 172.0
152.37616 144.0
152.454788 164.0
152.826096 224.0
152.870071 152.0
152.899918 168.0
152.968826 156.0
153.069199 292.0
153.153503 156.0
153.18306 164.0
153.224945 188.0
153.296402 144.0
153.354767 152.0
153.452179 120.0
153.490295 212.0
153.5979 244.0
153.730408 188.0
153.920486 164.0
154.006622 168.0
154.063843 2284.0
154.168396 292.0
154.223114 304.0
154.322693 216.0
154.34549 216.0
154.397415 164.0
154.456421 164.0
154.591568 268.0
154.627609 176.0
154.662155 156.0
154.778503 152.0
154.81813 200.0
155.021255 208.0
155.070328 584.0
155.231964 160.0
155.319595 108.0
155.400574 144.0
155.48558 156.0
155.544159 216.0
155.571884 188.0
155.598907 108.0
155.649704 220.0
155.872803 172.0
155.999161 156.0
156.025543 280.0
156.079529 2868.0
156.188141 144.0
156.425781 108.0
156.493362 172.0
156.661102 208.0
156.908249 160.0
156.98262 204.0
157.063629 556.0
157.085754 324.0
157.153137 156.0
157.214615 152.0
157.329437 156.0
157.40683 168.0
157.456772 140.0
157.5392 192.0
157.611664 160.0
157.670624 152.0
157.841614 176.0
158.004196 360.0
158.034439 268.0
158.067917 500.0
158.509964 156.0
158.74559 160.0
158.775986 100.0
158.848419 216.0
158.882904 188.0
158.936234 148.0
158.991562 168.0
159.095016 180.0
159.149582 156.0
159.207336 176.0
159.29274 160.0
159.35051 144.0
159.430054 232.0
159.461853 144.0
159.503815 196.0
159.699799 148.0
159.772888 180.0
159.797226 160.0
159.824646 180.0
159.913559 168.0
160.00441 200.0
160.122757 144.0
160.375992 204.0
160.600327 200.0
160.684174 240.0
160.693268 172.0
160.808533 156.0
161.040817 172.0
161.102448 180.0
161.136002 176.0
161.32634 196.0
161.430008 208.0
161.450241 216.0
161.49173 128.0
161.639969 184.0
161.688049 180.0
161.708298 176.0
161.858841 244.0
161.878036 160.0
161.952896 212.0
162.040009 148.0
162.058014 140.0
162.089935 352.0
162.23436 152.0
162.405823 172.0
162.441559 164.0
162.461914 296.0
162.57341 148.0
162.92543 184.0
162.96608 176.0
163.054092 164.0
163.075714 320.0
163.10585 164.0
163.131271 164.0
163.259094 220.0
163.359528 168.0
163.450943 104.0
163.497391 152.0
163.543823 168.0
163.571335 164.0
163.683792 144.0
163.71138 140.0
163.790329 168.0
163.843826 148.0
163.915161 148.0
164.055344 236.0
164.073181 224.0
164.111847 128.0
164.190475 180.0
164.302704 172.0
164.435394 172.0
164.626877 160.0
164.668839 204.0
164.723923 224.0
164.747742 148.0
164.798813 140.0
165.010147 204.0
165.075394 704.0
165.278702 188.0
165.315414 236.0
165.43483 208.0
165.474548 116.0
165.529556 164.0
165.670425 172.0
165.765442 168.0
165.960022 176.0
166.026077 116.0
166.067169 1372.0
166.159363 244.0
166.225845 108.0
166.250961 156.0
166.283112 144.0
166.455246 144.0
166.506607 212.0
166.657654 220.0
166.706604 160.0
166.793381 208.0
166.890244 192.0
166.922928 152.0
166.940918 176.0
167.003952 204.0
167.074356 2272.0
167.263458 220.0
167.301132 208.0
167.39119 156.0
167.50972 156.0
167.600082 104.0
167.697815 184.0
167.777725 140.0
167.828995 216.0
168.045944 156.0
168.079605 5640.0
168.120773 224.0
168.316956 164.0
168.421524 204.0
168.455612 164.0
168.518433 144.0
168.585617 208.0
168.621796 232.0
168.740707 176.0
168.768478 172.0
168.77887 104.0
168.828613 176.0
168.846725 172.0
168.885788 116.0
168.906204 144.0
168.935242 144.0
169.060257 192.0
169.083435 364.0
169.198624 200.0
169.237747 168.0
169.361176 200.0
169.392441 152.0
169.452438 204.0
169.47316 160.0
169.693466 224.0
169.83609 140.0
169.894394 144.0
169.990555 156.0
170.057388 744.0
170.098114 384.0
170.173447 224.0
170.287704 168.0
170.337067 196.0
170.431015 144.0
170.458252 148.0
170.576126 208.0
170.714935 196.0
170.935028 192.0
171.04805 188.0
171.067169 208.0
171.119827 172.0
171.208374 148.0
171.302139 176.0
171.377686 144.0
171.408951 140.0
171.472824 172.0
171.515808 228.0
171.63736 172.0
171.710114 160.0
171.823318 120.0
172.050568 172.0
172.115921 120.0
172.290375 160.0
172.325531 156.0
172.462616 140.0
172.565247 168.0
172.612305 176.0
172.654144 172.0
172.698608 224.0
172.790161 224.0
172.892212 228.0
172.984573 140.0
173.025711 152.0
173.138199 96.0
173.218338 200.0
173.279755 160.0
173.325806 180.0
173.363602 200.0
173.381943 156.0
173.487778 212.0
173.575928 164.0
173.593933 384.0
173.809387 220.0
173.951096 172.0
173.977356 144.0
174.06189 160.0
174.087158 408.0
174.158539 152.0
174.194077 188.0
174.221588 168.0
174.272491 180.0
174.51622 188.0
174.579865 116.0
174.607971 188.0
174.702026 220.0
174.781586 264.0
174.881592 200.0
174.909195 152.0
174.92897 180.0
174.9711 212.0
175.036209 164.0
175.326691 148.0
175.403122 160.0
175.724854 168.0
175.814651 128.0
175.842072 152.0
175.865601 164.0
175.92543 176.0
176.042618 124.0
176.065018 300.0
176.109299 196.0
176.292145 156.0
176.321625 176.0
176.38826 172.0
176.726257 116.0
176.837357 176.0
176.890289 284.0
177.012421 124.0
177.072357 204.0
177.290237 160.0
177.324692 168.0
177.417816 176.0
177.518219 196.0
177.685577 160.0
177.762253 184.0
177.991791 128.0
178.074005 556.0
178.182922 148.0
178.248199 176.0
178.36087 112.0
178.482117 156.0
178.566345 184.0
178.645767 100.0
178.772583 144.0
178.822159 136.0
178.95517 152.0
179.073334 340.0
179.150726 184.0
179.379318 168.0
179.552628 232.0
179.643539 176.0
179.800735 204.0
179.882172 196.0
180.000137 144.0
180.032822 132.0
180.101166 20256.0
180.206116 108.0
180.41069 100.0
180.500153 156.0
180.783432 200.0
180.877853 164.0
180.899277 168.0
180.929962 96.0
180.963531 288.0
181.047333 324.0
181.102036 2248.0
181.183868 188.0
181.286148 108.0
181.33345 380.0
181.376495 180.0
181.448456 168.0
181.477951 148.0
181.520691 128.0
181.769669 148.0
181.830704 104.0
181.893768 312.0
181.924118 120.0
182.058563 2028.0
182.095505 2088.0
182.18956 136.0
182.395828 188.0
182.546631 204.0
182.596741 184.0
182.671402 124.0
182.694031 240.0
182.836273 156.0
182.8741 148.0
182.985214 168.0
183.067444 12000.0
183.150925 120.0
183.17308 132.0
183.205765 152.0
183.291656 172.0
183.323441 176.0
183.426865 136.0
183.454742 212.0
183.749603 136.0
183.863419 100.0
183.942902 292.0
184.010849 364.0
184.075226 19484.0
184.124329 328.0
184.152847 148.0
184.221527 180.0
184.257812 120.0
184.283539 200.0
184.312225 176.0
184.394318 120.0
184.547379 148.0
184.58316 140.0
184.613388 236.0
184.669067 148.0
184.75563 160.0
184.827301 156.0
184.969818 136.0
185.079559 3076.0
185.152405 96.0
185.21312 148.0
185.318832 168.0
185.374344 152.0
185.395798 96.0
185.440704 172.0
185.509552 120.0
185.627762 312.0
185.672852 220.0
185.8909 184.0
185.997528 152.0
186.049393 192.0
186.08345 276.0
186.167786 148.0
186.197861 148.0
186.247299 144.0
186.334396 148.0
186.378937 256.0
186.57785 148.0
186.727615 152.0
186.825989 200.0
187.035751 160.0
187.080032 152.0
187.129669 240.0
187.173264 116.0
187.291031 184.0
187.33403 204.0
187.583664 220.0
187.727539 168.0
187.765884 140.0
187.86618 164.0
187.945312 164.0
188.065384 144.0
188.103592 156.0
188.264297 288.0
188.347809 120.0
188.406708 156.0
188.528091 208.0
188.558746 136.0
188.594742 188.0
188.688629 180.0
188.837601 96.0
188.868683 168.0
188.969528 116.0
189.007034 140.0
189.088699 328.0
189.112442 120.0
189.368301 172.0
189.501877 184.0
189.700043 132.0
189.758698 140.0
189.851166 116.0
189.925964 156.0
189.9935 168.0
190.05217 248.0
190.166183 124.0
190.356842 116.0
190.392548 176.0
190.413483 160.0
190.458466 144.0
190.51889 184.0
190.703796 132.0
190.800171 160.0
190.862442 152.0
190.984512 236.0
191.044434 164.0
191.072083 616.0
191.180084 200.0
191.201645 248.0
191.30365 120.0
191.341187 212.0
191.433533 200.0
191.481613 152.0
191.641388 152.0
191.681351 192.0
191.731384 152.0
191.787445 152.0
191.825958 140.0
191.939957 112.0
192.079941 2528.0
192.236603 116.0
192.264587 176.0
192.291077 140.0
192.38327 176.0
192.432968 348.0
192.504761 156.0
192.529602 220.0
192.659424 148.0
192.683014 108.0
192.765717 136.0
192.80864 168.0
192.935242 224.0
192.968964 152.0
193.042084 144.0
193.08812 2576.0
193.132111 176.0
193.374344 160.0
193.454742 148.0
193.649048 324.0
193.713394 212.0
193.778107 156.0
193.90181 160.0
193.985748 256.0
194.030334 136.0
194.096725 49132.0
194.148987 332.0
194.283691 108.0
194.312149 180.0
194.342728 188.0
194.380188 120.0
194.448441 124.0
194.495361 164.0
194.588638 224.0
194.666077 188.0
194.731979 288.0
194.783401 132.0
194.84726 220.0
195.038513 176.0
195.099106 6904.0
195.281677 156.0
195.343628 160.0
195.37854 160.0
195.61557 204.0
195.74057 176.0
195.827072 108.0
195.870255 104.0
195.921112 156.0
195.943497 296.0
195.987701 116.0
196.02301 136.0
196.075607 19172.0
196.150452 176.0
196.237381 120.0
196.309036 124.0
196.443634 128.0
196.545761 104.0
196.582092 168.0
196.63649 152.0
196.685959 168.0
196.856262 164.0
196.945084 220.0
197.009888 196.0
197.037827 160.0
197.079422 3012.0
197.121201 304.0
197.22052 136.0
197.256104 128.0
197.320099 328.0
197.339661 280.0
197.438385 144.0
197.542587 136.0
197.633347 148.0
197.754929 116.0
197.944046 156.0
198.012726 148.0
198.08873 1968.0
198.17627 132.0
198.222397 204.0
198.240524 200.0
198.359604 148.0
198.529709 156.0
198.699341 288.0
198.746262 200.0
198.842804 200.0
198.888824 140.0
198.950333 132.0
199.006744 168.0
199.095581 360.0
199.197708 176.0
199.253021 128.0
199.501205 168.0
199.702209 124.0
199.93573 156.0
200.057846 124.0
200.094803 144.0
200.145981 180.0
200.207367 156.0
200.274887 176.0
200.293854 216.0
201.013657 144.0
201.101151 208.0
201.131775 160.0
201.171707 144.0
201.329834 140.0
201.411194 228.0
201.473877 172.0
201.673965 104.0
201.764969 184.0
201.787582 176.0
201.972076 140.0
202.002518 292.0
202.296814 192.0
202.417633 148.0
202.446869 308.0
202.533569 144.0
202.689072 136.0
202.730225 176.0
202.829926 140.0
203.62088 176.0
203.696915 172.0
203.816971 148.0
204.080643 2708.0
204.125565 252.0
204.203033 124.0
204.288147 128.0
204.371429 140.0
204.402725 168.0
204.463135 140.0
204.559265 160.0
204.673859 292.0
204.843063 184.0
204.878204 188.0
204.938782 208.0
204.960861 304.0
204.990234 188.0
205.085434 996.0
205.174591 196.0
205.280075 156.0
205.359711 208.0
205.468323 152.0
205.526611 112.0
205.675537 256.0
205.71376 372.0
205.768509 264.0
205.82225 164.0
205.890182 152.0
206.030746 208.0
206.11676 11040.0
206.228546 108.0
206.353683 176.0
206.399109 208.0
206.504639 132.0
206.555038 108.0
206.668304 156.0
206.711227 188.0
206.791351 156.0
206.875671 192.0
206.938339 220.0
207.020157 152.0
207.067581 2716.0
207.118988 1196.0
207.227539 124.0
207.320557 240.0
207.367035 156.0
207.578506 256.0
207.671875 148.0
207.695847 200.0
207.764923 164.0
207.808289 160.0
207.935806 160.0
208.073059 972.0
208.131287 3764.0
208.18602 152.0
208.231888 236.0
208.305481 184.0
208.354126 292.0
208.37677 196.0
208.400101 156.0
208.448944 140.0
208.52861 144.0
208.770905 156.0
208.802536 164.0
208.871506 172.0
208.90094 208.0
208.991333 152.0
209.080292 1016.0
209.112549 524.0
209.138168 760.0
209.181 152.0
209.441498 192.0
209.558701 164.0
209.742706 160.0
209.779236 136.0
209.827637 176.0
209.885315 140.0
209.974609 168.0
210.040726 184.0
210.090836 11468.0
210.163116 152.0
210.213593 200.0
210.365631 172.0
210.492767 168.0
210.586273 160.0
210.731003 152.0
210.811096 156.0
210.84021 116.0
211.011353 152.0
211.051651 136.0
211.094604 2524.0
211.18248 156.0
211.352646 152.0
211.456818 204.0
211.589966 188.0
211.694214 184.0
211.720276 192.0
211.769501 128.0
211.870895 140.0
212.106415 1060.0
212.176743 172.0
212.276672 252.0
212.437317 144.0
212.521042 144.0
212.572861 148.0
212.610275 252.0
212.722137 140.0
212.914032 120.0
213.018799 216.0
213.066147 160.0
213.110779 420.0
213.160645 160.0
213.428543 128.0
213.535492 120.0
213.577759 176.0
213.673767 208.0
213.730484 152.0
213.797684 136.0
213.833801 164.0
213.854172 156.0
213.877457 172.0
213.983566 160.0
214.017197 212.0
214.047989 152.0
214.083832 148.0
214.133682 212.0
214.158813 136.0
214.209412 180.0
214.250198 180.0
214.52121 152.0
214.614502 152.0
214.663101 156.0
214.763229 176.0
214.859573 160.0
215.005386 208.0
215.056091 108.0
215.07753 184.0
215.10463 144.0
215.271042 164.0
215.431839 116.0
215.459305 132.0
215.536865 196.0
215.811615 376.0
215.972458 192.0
216.019257 144.0
216.080688 176.0
216.343231 164.0
216.447937 128.0
216.47197 200.0
216.584198 168.0
216.609589 168.0
216.75705 236.0
216.809799 144.0
216.855438 188.0
216.915482 140.0
217.085495 168.0
217.249527 152.0
217.339355 184.0
217.726196 108.0
217.863205 164.0
217.904282 184.0
218.100769 252.0
218.195251 144.0
218.402695 272.0
218.450974 96.0
218.509933 144.0
218.568787 164.0
218.624268 112.0
218.673569 100.0
218.760086 168.0
218.926559 192.0
219.049194 264.0
219.069046 600.0
219.092087 276.0
219.148834 148.0
219.251968 208.0
219.273209 156.0
219.408188 100.0
219.479889 132.0
219.511383 248.0
219.611649 196.0
219.666687 128.0
219.776352 164.0
219.810486 220.0
219.959824 204.0
220.004105 228.0
220.072327 676.0
220.112808 500.0
220.201935 176.0
220.225845 172.0
220.27948 160.0
220.385086 164.0
220.531006 180.0
220.558029 124.0
220.684586 236.0
220.846268 144.0
220.920364 220.0
221.083694 1644.0
221.171738 180.0
221.287842 252.0
221.358246 272.0
221.379913 164.0
221.436768 156.0
221.488556 140.0
221.529053 236.0
221.636688 156.0
221.687057 168.0
221.721146 176.0
221.799362 188.0
221.870941 144.0
221.910019 128.0
221.951706 124.0
222.026489 312.0
222.091263 87916.0
222.182709 156.0
222.265045 144.0
222.30838 108.0
222.42659 148.0
222.485626 168.0
222.56131 164.0
222.589005 240.0
222.712921 156.0
222.743896 316.0
222.875214 264.0
222.925323 176.0
223.001389 336.0
223.056396 164.0
223.094238 12172.0
223.307022 180.0
223.343323 132.0
223.460037 268.0
223.524551 112.0
223.556473 148.0
223.687714 296.0
223.742691 248.0
223.838379 100.0
223.89711 284.0
223.92952 180.0
224.030075 360.0
224.054047 268.0
224.128174 47352.0
224.201553 128.0
224.258789 132.0
224.34137 116.0
224.382996 164.0
224.498901 132.0
224.57489 236.0
224.65593 288.0
224.702286 144.0
224.736816 180.0
224.826584 108.0
224.876038 144.0
224.968735 120.0
225.014404 184.0
225.038223 116.0
225.072098 148.0
225.13063 7008.0
225.193604 160.0
225.218124 116.0
225.323166 132.0
225.445282 112.0
225.49884 128.0
225.587601 196.0
225.675323 108.0
225.730698 108.0
225.808441 116.0
225.974854 200.0
226.005615 128.0
226.03894 200.0
226.131744 496.0
226.189667 108.0
226.269302 156.0
226.312607 128.0
226.511078 168.0
226.786743 136.0
227.18631 108.0
227.306763 116.0
227.608383 172.0
227.675659 276.0
227.704483 144.0
227.771027 232.0
228.245392 160.0
228.382492 184.0
228.404251 200.0
228.844162 152.0
228.865234 148.0
228.940735 112.0
229.051956 188.0
229.082077 180.0
229.324203 152.0
229.392456 200.0
229.418121 164.0
229.809723 156.0
229.862473 228.0
229.874649 128.0
229.956512 148.0
230.057358 136.0
230.093704 160.0
230.255859 156.0
230.304672 192.0
230.405685 180.0
230.72937 140.0
230.829346 156.0
230.927612 124.0
231.01709 148.0
231.195602 176.0
231.237976 168.0
231.52861 196.0
231.66394 136.0
231.734589 144.0
231.810349 160.0
231.90126 140.0
231.940674 184.0
232.037674 148.0
232.092377 148.0
232.15976 168.0
232.265106 156.0
232.581985 112.0
232.84938 200.0
233.086914 176.0
233.227646 156.0
233.498245 140.0
233.592697 148.0
233.65033 220.0
233.683807 100.0
233.761566 144.0
233.808563 152.0
234.095261 276.0
234.21965 188.0
234.278137 164.0
234.328094 136.0
234.464233 108.0
234.588303 176.0
234.685852 176.0
234.761932 128.0
235.084381 316.0
235.226059 112.0
235.518143 128.0
235.610611 140.0
235.643402 120.0
235.71756 224.0
235.762695 124.0
235.833282 216.0
236.108765 2176.0
236.231186 168.0
236.346497 116.0
236.403244 208.0
236.434814 156.0
236.540253 188.0
236.561691 316.0
236.71051 164.0
236.760269 256.0
236.808533 128.0
236.953674 328.0
236.989136 168.0
237.024155 152.0
237.109818 564.0
237.241867 116.0
237.277039 188.0
237.460693 120.0
237.545792 108.0
237.58667 156.0
237.766251 304.0
237.851105 180.0
237.965225 244.0
238.085175 144.0
238.108994 268.0
238.225739 136.0
238.395813 148.0
238.515549 104.0
238.620193 148.0
238.725067 220.0
238.755493 188.0
238.823151 152.0
238.880173 172.0
238.944107 112.0
239.013153 152.0
239.117462 164.0
239.143311 144.0
239.293976 252.0
239.728546 140.0
239.823822 148.0
239.968719 152.0
240.100601 1328.0
240.21402 176.0
240.258194 128.0
240.432556 176.0
240.554871 152.0
240.609024 132.0
240.666016 164.0
240.720306 168.0
240.785339 212.0
240.856003 236.0
240.879944 204.0
240.909988 228.0
240.936417 180.0
240.974258 132.0
241.042847 176.0
241.105438 252.0
241.151016 164.0
241.234467 164.0
241.411194 100.0
241.556061 176.0
241.741776 176.0
241.768524 208.0
241.859299 332.0
242.022888 228.0
242.453201 164.0
242.504349 140.0
242.543228 200.0
242.902985 112.0
242.975266 128.0
243.116791 120.0
243.331787 144.0
243.380386 184.0
243.485382 172.0
243.542221 152.0
243.593231 172.0
243.632233 140.0
243.772919 196.0
244.02774 368.0
244.142792 164.0
244.234589 100.0
244.38913 184.0
244.499603 172.0
244.544113 176.0
244.582687 156.0
244.670349 152.0
244.780716 152.0
244.817917 120.0
244.899933 132.0
245.132721 160.0
245.168381 180.0
245.815628 144.0
246.055954 176.0
246.077469 120.0
246.222305 148.0
246.326492 216.0
246.387009 152.0
246.46199 160.0
246.615112 196.0
246.673126 236.0
246.746414 164.0
246.914291 128.0
246.974686 180.0
247.123108 1392.0
247.200378 116.0
247.274185 204.0
247.461533 140.0
247.485107 124.0
247.874237 144.0
247.954666 212.0
248.022263 120.0
248.106674 1780.0
248.274445 184.0
248.361099 280.0
248.389786 144.0
248.415588 144.0
248.506561 164.0
248.558044 140.0
248.608734 124.0
248.663467 140.0
248.697983 156.0
248.728516 160.0
248.77742 144.0
248.866638 216.0
249.108963 276.0
249.209854 192.0
249.304123 140.0
249.410507 104.0
249.564392 120.0
249.668442 140.0
249.854187 172.0
250.009842 156.0
250.111526 440.0
250.140747 148.0
250.31485 120.0
250.459869 172.0
250.536636 128.0
250.593811 120.0
250.860886 124.0
250.899414 96.0
251.060684 136.0
251.112473 144.0
251.16246 136.0
251.259598 96.0
251.356033 160.0
251.432297 176.0
251.587677 144.0
251.657135 160.0
251.914963 244.0
251.97612 144.0
252.097626 132.0
252.183105 152.0
252.458801 148.0
252.551453 176.0
252.680893 100.0
252.73494 152.0
252.919815 144.0
252.995682 228.0
253.049301 160.0
253.143265 144.0
253.288956 160.0
253.468903 160.0
253.509735 164.0
253.59314 184.0
253.672806 132.0
253.729309 96.0
253.799194 168.0
253.954575 144.0
254.113449 372.0
254.317581 196.0
254.512222 144.0
254.705353 188.0
254.760834 160.0
254.789429 212.0
254.877258 192.0
255.121994 336.0
255.179703 160.0
255.339493 236.0
255.506561 140.0
255.590637 188.0
255.811752 160.0
255.896194 280.0
255.959869 188.0
256.069885 200.0
256.118683 680.0
256.201782 164.0
256.349976 252.0
256.518738 136.0
256.688965 124.0
256.823517 156.0
256.863403 104.0
256.916046 196.0
257.034088 188.0
257.127014 160.0
257.318146 168.0
257.412445 136.0
257.66626 232.0
258.005035 148.0
258.200745 116.0
258.27533 100.0
258.569977 240.0
258.772186 148.0
258.800079 132.0
258.896698 124.0
258.936157 152.0
259.140228 364.0
259.174988 116.0
259.423187 168.0
259.675018 112.0
259.739471 336.0
259.95752 204.0
260.045471 192.0
260.40921 248.0
260.637848 112.0
260.674194 196.0
260.912781 228.0
260.971649 152.0
261.052704 140.0
261.112122 280.0
261.145386 188.0
261.249817 196.0
261.404877 144.0
261.501892 96.0
261.551483 108.0
261.907104 220.0
261.977783 144.0
262.090729 172.0
262.119751 200.0
262.151978 160.0
262.409821 172.0
262.459869 124.0
262.597565 120.0
262.638794 228.0
262.703308 164.0
262.764343 104.0
262.801178 180.0
262.967896 148.0
263.206879 156.0
263.361053 176.0
263.636414 152.0
263.772766 152.0
264.248108 180.0
264.32843 140.0
264.372681 160.0
264.567932 148.0
264.641357 160.0
264.735016 100.0
264.878815 104.0
265.133423 540.0
265.421051 152.0
265.570251 152.0
265.789825 144.0
265.848724 128.0
265.942352 176.0
266.038727 196.0
266.116943 400.0
266.279999 156.0
266.400177 152.0
266.758484 136.0
266.787811 140.0
266.884155 96.0
266.942963 152.0
267.073059 140.0
267.118713 220.0
267.18689 244.0
267.766296 140.0
267.921082 140.0
268.045654 128.0
268.093903 208.0
268.359375 288.0
268.475433 188.0
268.69458 148.0
268.789581 160.0
268.926971 152.0
269.04483 120.0
269.151093 196.0
269.207428 156.0
269.297394 120.0
269.355072 156.0
269.390656 192.0
269.511536 140.0
269.599762 196.0
269.691284 176.0
269.850281 144.0
269.95282 164.0
270.047668 140.0
270.085999 184.0
270.12616 156.0
270.395325 184.0
270.42392 192.0
270.528656 176.0
270.56012 124.0
270.69931 172.0
270.863556 160.0
270.902069 148.0
271.170227 140.0
271.229675 144.0
271.543152 144.0
271.618164 132.0
271.814911 192.0
271.839691 152.0
271.871399 132.0
272.022003 160.0
272.090363 148.0
272.381409 160.0
272.72641 184.0
272.930237 276.0
273.232819 188.0
273.282074 124.0
273.675537 152.0
273.709381 176.0
273.825165 160.0
274.027252 176.0
274.070007 216.0
274.183319 132.0
274.531281 184.0
274.573639 128.0
274.622925 192.0
274.725159 168.0
274.904175 144.0
275.091461 148.0
275.179565 192.0
275.249939 152.0
275.312683 204.0
275.40802 244.0
275.489838 196.0
275.692444 96.0
275.791748 196.0
275.90744 144.0
276.026459 140.0
276.056213 160.0
276.340698 176.0
276.400238 212.0
276.507477 124.0
276.627411 164.0
276.674957 188.0
276.840973 252.0
276.937439 140.0
277.075684 156.0
277.264374 160.0
277.407074 156.0
277.615967 212.0
277.679596 124.0
277.736938 100.0
277.826172 268.0
277.980865 176.0
278.357086 320.0
278.432343 152.0
278.502075 184.0
278.565186 208.0
278.596741 132.0
278.651306 152.0
278.835419 96.0
278.916656 140.0
279.076996 164.0
279.31311 148.0
279.536438 160.0
279.702942 108.0
279.885529 224.0
280.351501 152.0
280.569794 148.0
280.708557 144.0
280.836731 176.0
280.861969 164.0
280.898682 172.0
281.089142 128.0
281.152161 144.0
281.234161 184.0
281.331207 124.0
281.4505 208.0
281.526154 200.0
281.713165 140.0
281.765198 204.0
281.870209 140.0
282.054382 268.0
282.09375 164.0
282.134979 164.0
282.242279 128.0
282.361481 104.0
282.540192 168.0
282.592682 164.0
282.664093 172.0
282.697906 100.0
282.799194 264.0
282.881866 276.0
282.91037 228.0
282.941315 124.0
282.967682 136.0
283.004242 108.0
283.07843 312.0
283.14447 36340.0
283.257477 196.0
283.354553 140.0
283.413666 136.0
283.687744 228.0
283.82196 168.0
283.871979 304.0
283.992279 128.0
284.089325 148.0
284.147186 6408.0
284.202087 116.0
284.251648 148.0
284.279999 176.0
284.522766 116.0
284.865417 168.0
284.899017 152.0
284.922943 324.0
284.968445 132.0
285.14856 864.0
285.199005 160.0
285.293488 208.0
285.694733 144.0
285.742859 140.0
285.936218 120.0
286.078674 192.0
286.135345 116.0
286.240601 168.0
286.375183 156.0
286.409393 152.0
286.496948 168.0
286.591675 140.0
286.776642 148.0
286.800232 140.0
287.042053 204.0
287.185883 132.0
287.20993 204.0
287.297394 100.0
287.365204 156.0
287.508484 176.0
287.606384 140.0
287.744781 152.0
287.780945 220.0
287.862946 168.0
288.115143 240.0
288.288605 192.0
288.534821 128.0
288.870605 144.0
289.064209 128.0
289.36084 152.0
289.574158 172.0
289.601257 140.0
289.736572 152.0
290.037231 168.0
290.140045 160.0
290.216339 112.0
290.332336 140.0
290.504944 100.0
290.661743 132.0
290.696289 260.0
290.787933 172.0
290.842224 140.0
290.882965 228.0
290.947479 144.0
290.998383 144.0
291.485046 160.0
291.553833 156.0
291.624756 156.0
291.692474 168.0
291.776398 176.0
291.830811 156.0
291.870239 300.0
291.908997 220.0
292.04715 136.0
292.128754 124.0
292.201508 168.0
292.262756 160.0
292.33432 120.0
292.417664 124.0
292.606415 120.0
292.669647 228.0
292.811798 156.0
292.849976 188.0
293.012451 104.0
293.200287 164.0
293.276031 144.0
293.619385 160.0
293.710419 180.0
293.8078 208.0
293.978271 184.0
294.21225 168.0
294.342865 172.0
294.485443 160.0
294.524902 196.0
294.584473 180.0
294.618652 168.0
294.745056 184.0
294.782074 140.0
294.919342 164.0
294.996307 128.0
295.143799 152.0
295.670837 144.0
295.8367 112.0
295.904541 140.0
296.342926 168.0
296.391937 172.0
296.449158 200.0
296.586151 132.0
296.894806 156.0
296.956543 168.0
296.989258 172.0
297.027679 136.0
297.052582 140.0
297.518799 168.0
297.5914 240.0
297.705353 128.0
297.737457 188.0
297.804108 152.0
297.869568 172.0
297.942963 248.0
298.0177 348.0
298.120361 188.0
298.158173 164.0
298.264862 96.0
298.297119 132.0
298.368988 228.0
298.519135 188.0
298.628113 180.0
298.766663 136.0
298.859222 120.0
298.990417 196.0
299.093689 140.0
299.147522 300.0
299.190063 304.0
299.293365 164.0
299.431885 156.0
299.475861 208.0
299.680664 124.0
299.758362 172.0
299.806091 104.0
299.825012 328.0
299.876312 132.0
300.048523 336.0
300.136505 132.0
300.262238 128.0
300.312012 156.0
300.588959 124.0
300.63504 124.0
300.679138 140.0
300.859283 148.0
301.024353 192.0
301.06781 388.0
301.096863 176.0
301.141754 148.0
301.197021 140.0
301.525269 152.0
301.62204 164.0
301.725281 116.0
301.897766 96.0
301.974731 160.0
302.006165 180.0
302.208862 116.0
302.322296 112.0
302.379517 196.0
302.752899 160.0
303.184174 232.0
303.249634 208.0
303.328552 156.0
303.36322 216.0
303.477631 148.0
303.526154 144.0
303.557373 196.0
303.670013 100.0
303.848724 164.0
304.07428 140.0
304.237061 144.0
304.313782 184.0
304.417969 224.0
304.458588 180.0
304.52771 220.0
304.6315 200.0
304.681946 148.0
304.875366 168.0
305.023041 124.0
305.053772 264.0
305.4599 156.0
305.678375 164.0
305.881653 152.0
305.921295 176.0
306.217133 152.0
306.2854 148.0
306.382324 384.0
306.534698 100.0
306.620331 152.0
306.665375 188.0
306.864075 160.0
307.038422 148.0
307.078186 140.0
307.12561 180.0
307.153534 188.0
307.251984 196.0
307.292969 152.0
307.446594 168.0
307.632812 148.0
308.048828 148.0
308.097931 132.0
308.25589 148.0
308.380737 212.0
308.421021 188.0
308.569489 160.0
308.697205 196.0
308.816132 156.0
309.050507 168.0
309.187775 204.0
309.347992 156.0
309.375977 152.0
309.449493 352.0
309.521362 168.0
309.580444 192.0
309.64386 136.0
309.952789 116.0
310.108063 180.0
310.348602 96.0
310.486725 176.0
310.514771 176.0
310.635681 128.0
310.697174 212.0
310.890137 148.0
310.979767 276.0
311.037567 144.0
311.126709 128.0
311.177277 100.0
311.304382 288.0
311.339508 192.0
311.386993 160.0
311.42215 112.0
311.917511 212.0
311.955994 112.0
312.037415 148.0
312.404694 104.0
312.470428 136.0
312.551819 164.0
312.784546 172.0
312.991394 164.0
313.059143 144.0
313.0961 268.0
313.150726 316.0
313.400818 204.0
313.471313 328.0
313.585052 116.0
313.661743 112.0
313.743011 140.0
313.770905 352.0
313.834351 160.0
314.116486 152.0
314.141205 152.0
314.455231 168.0
314.490234 144.0
314.551392 116.0
314.747314 152.0
314.905151 184.0
314.993805 144.0
315.086243 256.0
315.424225 328.0
316.417053 148.0
316.452484 180.0
316.484344 232.0
316.661407 140.0
316.711945 164.0
316.778687 144.0
316.873932 144.0
316.928223 188.0
317.003448 196.0
317.077759 120.0
317.247375 172.0
317.409149 200.0
317.494263 176.0
317.627533 104.0
317.996277 128.0
318.299774 212.0
318.411438 192.0
318.458832 208.0
318.502228 160.0
318.57193 160.0
318.999695 144.0
319.127686 360.0
319.269104 124.0
319.309021 184.0
319.340546 144.0
319.429962 200.0
319.498505 136.0
319.661652 136.0
319.881897 168.0
319.938843 144.0
320.034973 176.0
320.132263 140.0
320.199585 156.0
320.275665 164.0
320.490875 148.0
320.579956 164.0
320.611633 172.0
320.849976 180.0
320.947113 164.0
321.437103 184.0
321.655701 200.0
321.705078 136.0
321.926697 96.0
322.039124 144.0
322.176727 144.0
322.482147 164.0
322.71286 164.0
323.235291 240.0
323.337738 108.0
323.41568 160.0
323.474243 188.0
323.838165 168.0
323.891907 196.0
323.951294 144.0
324.139099 152.0
324.203583 172.0
324.241028 116.0
324.338715 132.0
324.472748 128.0
324.587158 184.0
324.626617 144.0
324.759308 168.0
324.791687 124.0
324.829071 144.0
324.861115 128.0
324.94165 196.0
325.164734 156.0
325.286041 100.0
325.429291 144.0
325.674561 280.0
325.714874 160.0
325.79953 312.0
326.184784 160.0
326.355316 248.0
326.479614 252.0
326.51593 148.0
327.017578 136.0
327.207153 140.0
327.277618 136.0
327.465698 176.0
327.520569 188.0
327.599152 168.0
327.713074 144.0
327.825409 184.0
327.968842 156.0
328.027802 148.0
328.119568 208.0
328.341492 172.0
328.412994 164.0
328.485748 208.0
328.666138 104.0
328.877197 140.0
328.95755 172.0
329.000275 180.0
329.131775 192.0
329.167877 196.0
329.606628 172.0
330.12912 156.0
330.472748 168.0
330.574066 176.0
330.631958 196.0
330.662476 128.0
330.769501 144.0
330.811127 152.0
330.90387 172.0
330.983093 196.0
331.066376 172.0
331.206604 156.0
331.320984 152.0
331.517334 124.0
331.548187 200.0
331.709229 112.0
331.839294 184.0
332.087006 152.0
332.342499 172.0
332.406952 148.0
332.528687 436.0
332.618134 168.0
333.092682 228.0
333.404419 204.0
333.464447 172.0
333.4935 144.0
333.620728 196.0
333.77005 164.0
333.867004 132.0
333.911621 192.0
334.034821 128.0
334.104401 264.0
334.140778 140.0
334.195374 144.0
334.276306 132.0
334.424622 192.0
334.57193 180.0
334.686401 184.0
334.764984 148.0
335.193054 256.0
335.233887 176.0
335.444519 160.0
335.510803 164.0
335.598877 140.0
335.699829 140.0
335.77478 172.0
335.972748 188.0
336.178162 104.0
336.33374 260.0
336.372742 164.0
336.55722 276.0
336.659485 244.0
336.787292 160.0
336.837311 300.0
337.046692 160.0
337.168976 148.0
337.270721 132.0
337.435822 180.0
337.552246 144.0
337.810791 144.0
337.917358 124.0
338.015686 252.0
338.118134 180.0
338.16571 228.0
338.330444 172.0
338.396332 196.0
338.508575 180.0
338.647491 184.0
338.69458 188.0
338.794006 176.0
338.860291 100.0
339.01889 96.0
339.084442 136.0
339.167267 196.0
339.197113 176.0
339.330597 152.0
339.482056 132.0
339.572632 148.0
339.609283 152.0
339.642303 140.0
339.673523 212.0
339.746826 212.0
340.058563 160.0
340.09729 196.0
340.198517 164.0
340.317535 188.0
340.431366 172.0
340.618683 140.0
340.883209 144.0
340.956696 176.0
341.361084 256.0
341.434631 148.0
341.495117 164.0
341.650909 200.0
341.934082 212.0
341.997559 212.0
342.224915 284.0
342.494629 172.0
342.525818 144.0
342.63092 160.0
342.811462 148.0
343.08606 224.0
343.150574 168.0
343.178375 96.0
343.390961 128.0
343.426666 152.0
343.618286 128.0
343.648468 316.0
343.862518 204.0
344.080292 152.0
344.293762 128.0
344.396179 104.0
344.475769 212.0
344.58551 120.0
344.807983 152.0
344.920288 208.0
345.284882 144.0
345.359558 128.0
345.419373 136.0
345.443939 284.0
345.477234 176.0
345.643738 144.0
345.670471 176.0
345.769531 216.0
345.806549 192.0
345.935181 240.0
346.010132 152.0
346.051514 184.0
346.095306 164.0
346.16449 140.0
346.28656 172.0
346.418884 96.0
346.483124 112.0
346.538544 148.0
346.671539 128.0
346.736938 116.0
346.984497 192.0
347.363922 168.0
347.638184 136.0
347.862183 128.0
348.071045 100.0
348.170013 132.0
348.346008 180.0
348.428192 152.0
348.475098 160.0
348.601318 124.0
348.777496 164.0
348.911316 140.0
348.952209 160.0
349.213928 128.0
349.366455 176.0
349.424561 160.0
349.498962 156.0
349.658966 156.0
349.913757 144.0
350.347839 248.0
350.617645 188.0
350.675934 160.0
350.87027 128.0
350.981812 112.0
351.055908 144.0
351.149231 152.0
351.1828 288.0
351.248291 172.0
351.346924 152.0
351.381561 112.0
351.432739 144.0
351.509094 436.0
351.596924 156.0
351.63681 116.0
351.787445 100.0
351.824615 140.0
351.909149 144.0
352.171875 156.0
352.267517 192.0
352.421417 176.0
352.799652 148.0
353.03537 100.0
353.277374 128.0
353.401794 144.0
353.431702 148.0
353.583099 164.0
353.977875 184.0
354.138306 128.0
354.216461 196.0
354.29715 104.0
354.408966 140.0
354.959808 164.0
355.17749 268.0
355.588623 132.0
355.625122 172.0
355.751862 132.0
355.911865 100.0
355.952576 296.0
356.022705 188.0
356.096863 148.0
356.373688 132.0
356.418182 100.0
356.549011 216.0
356.828674 164.0
356.908783 212.0
356.998779 180.0
357.144501 136.0
357.290436 132.0
357.470093 144.0
357.635223 152.0
357.715973 208.0
357.826813 124.0
357.887054 196.0
357.964203 164.0
358.060272 148.0
358.120544 148.0
358.174347 216.0
358.25238 212.0
358.32312 112.0
358.457031 208.0
358.643951 136.0
358.696136 268.0
358.816193 152.0
358.862488 144.0
358.968506 148.0
359.230865 232.0
359.315491 180.0
359.51712 152.0
359.81366 160.0
359.8703 164.0
359.957092 236.0
360.006226 180.0
360.069397 132.0
360.154602 112.0
360.256531 164.0
360.422302 332.0
360.476959 160.0
360.899719 176.0
360.928253 168.0
361.054291 332.0
361.21051 204.0
361.295135 208.0
361.442688 152.0
361.640717 136.0
361.825775 220.0
361.886108 128.0
361.987152 100.0
362.036987 160.0
362.183044 200.0
362.219757 264.0
362.451385 132.0
362.692596 96.0
362.759216 284.0
362.881134 108.0
363.026062 168.0
363.492828 152.0
363.559174 144.0
363.588806 220.0
363.64444 160.0
363.868408 184.0
364.058258 156.0
364.167938 328.0
364.295746 112.0
364.445709 180.0
364.507629 160.0
364.730438 108.0
364.764954 136.0
364.801758 208.0
364.917023 168.0
364.998596 144.0
365.116547 252.0
365.222198 128.0
365.293854 216.0
365.377197 148.0
366.005188 144.0
366.086273 152.0
366.288055 116.0
366.430328 188.0
366.583191 148.0
366.720398 124.0
366.835724 344.0
366.885284 168.0
366.919617 152.0
367.117889 172.0
367.287628 132.0
367.477203 140.0
367.520935 276.0
367.558868 204.0
367.813263 240.0
367.942047 112.0
367.979553 208.0
368.047241 196.0
368.251343 144.0
368.484375 168.0
368.547974 192.0
368.652496 204.0
368.713623 168.0
368.755676 140.0
368.793884 184.0
368.969727 212.0
369.015625 152.0
369.042389 228.0
369.199707 136.0
369.260345 160.0
369.404968 172.0
369.78067 228.0
370.062195 148.0
370.171143 148.0
370.214233 144.0
370.626984 148.0
370.689789 144.0
370.803314 296.0
370.845398 144.0
370.942139 136.0
371.001404 140.0
371.298126 96.0
371.345123 168.0
371.417542 164.0
371.531799 148.0
371.640564 148.0
372.080353 136.0
372.153534 140.0
372.33017 144.0
372.420837 232.0
372.526062 332.0
372.552948 168.0
372.676178 160.0
372.789856 188.0
372.837891 104.0
372.918518 344.0
373.127594 228.0
373.163025 124.0
373.304199 156.0
373.402435 144.0
373.562012 204.0
373.667755 196.0
374.102722 164.0
374.152771 176.0
374.206116 192.0
374.291382 160.0
374.379944 172.0
374.433868 196.0
374.664978 144.0
374.735138 152.0
374.838348 160.0
374.957825 228.0
375.011108 164.0
375.046448 168.0
375.277771 148.0
375.540741 120.0
375.663788 156.0
375.709717 164.0
375.857361 192.0
376.014526 164.0
376.124634 356.0
376.502167 168.0
376.628418 220.0
376.694092 152.0
376.736786 180.0
376.775208 164.0
376.957489 164.0
377.030243 164.0
377.558075 172.0
377.686523 132.0
377.792969 184.0
378.004761 236.0
378.117126 104.0
378.151794 292.0
378.376312 192.0
378.461487 144.0
378.553284 136.0
378.875916 172.0
378.945221 112.0
379.010315 192.0
379.082489 320.0
379.337067 148.0
379.452484 124.0
379.511505 180.0
379.676025 188.0
379.841156 228.0
379.95517 132.0
380.116608 184.0
380.320923 108.0
380.431 216.0
380.528046 236.0
380.555237 192.0
380.766083 116.0
380.882599 148.0
380.947479 204.0
381.031372 128.0
381.067902 184.0
381.48761 180.0
381.533295 356.0
381.639252 164.0
381.91568 244.0
382.015137 252.0
382.102081 240.0
382.475647 212.0
382.596344 144.0
382.737823 176.0
382.775421 208.0
382.818268 176.0
382.915619 168.0
383.500031 152.0
383.586884 188.0
383.63623 248.0
383.682831 144.0
383.877472 148.0
384.075775 168.0
384.152832 116.0
384.219849 208.0
384.315063 148.0
384.436035 164.0
384.580872 148.0
384.758636 292.0
384.80603 132.0
384.915833 156.0
385.219543 148.0
385.291138 152.0
385.382874 292.0
385.717072 184.0
385.83606 108.0
386.121643 188.0
386.247101 196.0
386.280151 148.0
386.444458 148.0
387.082489 160.0
387.223938 196.0
387.458496 140.0
387.783173 168.0
387.88562 244.0
388.114441 144.0
388.385223 136.0
388.475952 132.0
388.567993 188.0
388.61795 120.0
388.663239 160.0
388.709229 140.0
388.808899 108.0
388.863312 212.0
388.921753 148.0
388.97406 168.0
389.003601 264.0
389.187256 1420.0
389.502289 152.0
389.608337 168.0
389.643707 216.0
389.693542 152.0
390.01239 220.0
390.042999 216.0
390.087646 120.0
390.192993 432.0
390.252899 144.0
390.339386 148.0
390.378723 180.0
390.41803 144.0
390.480957 184.0
390.614471 132.0
390.670471 252.0
390.702026 264.0
390.799591 160.0
390.858612 148.0
391.059326 144.0
391.108154 140.0
391.194824 156.0
391.429382 164.0
391.912506 104.0
391.992676 148.0
392.066803 172.0
392.128906 108.0
392.177887 176.0
392.304047 316.0
392.361023 292.0
392.394714 156.0
392.548492 164.0
392.747192 216.0
392.776459 204.0
392.848541 180.0
392.918365 124.0
393.195465 156.0
393.276306 148.0
393.371307 100.0
393.412537 160.0
393.493286 168.0
393.561157 208.0
393.862701 140.0
394.218292 140.0
394.260925 188.0
394.953644 144.0
395.005066 140.0
395.064392 96.0
395.188446 172.0
395.499664 160.0
395.75058 228.0
395.858948 144.0
396.07489 176.0
396.114868 192.0
396.357758 220.0
396.41452 228.0
396.851074 116.0
396.937286 196.0
397.027039 192.0
397.334412 144.0
397.378052 152.0
397.630188 208.0
397.702271 148.0
397.878113 148.0
397.908112 180.0
397.95932 164.0
398.103241 172.0
398.150299 152.0
398.299042 168.0
398.772614 164.0
398.881653 148.0
398.946747 140.0
399.058075 152.0
399.332458 148.0
399.407288 136.0
399.454651 116.0
399.630157 136.0
399.697296 112.0
399.75415 220.0
399.845673 148.0
399.8815 148.0
399.937225 260.0
400.120331 172.0
400.151398 148.0
400.227661 168.0
400.318268 228.0
400.748688 136.0
400.785461 144.0
400.82132 200.0
400.869049 144.0
400.964783 144.0
401.159485 104.0
401.297394 220.0
401.350861 180.0
401.424103 128.0
401.455109 212.0
401.516327 188.0
401.578766 164.0
401.614197 168.0
401.666534 168.0
401.771332 160.0
401.921844 172.0
401.966217 172.0
402.006104 144.0
402.059662 228.0
402.164154 156.0
402.240082 136.0
402.384064 104.0
402.418793 192.0
402.753693 148.0
402.813354 136.0
402.952209 152.0
402.993622 240.0
403.023895 264.0
403.0625 108.0
403.234283 172.0
403.299255 128.0
403.380127 112.0
403.439148 120.0
403.495667 148.0
403.535034 104.0
403.705994 144.0
403.759399 176.0
403.88089 212.0
403.957703 196.0
404.077667 152.0
404.154816 140.0
404.291321 132.0
404.316315 144.0
404.363373 104.0
404.413635 168.0
404.426331 152.0
404.508148 112.0
404.574219 128.0
404.62207 276.0
404.690399 212.0
404.742767 208.0
404.812592 352.0
404.902191 240.0
404.943695 196.0
405.032288 144.0
405.085785 320.0
405.169708 272.0
405.237823 308.0
405.281769 228.0
405.386414 376.0
405.458923 140.0
405.511963 304.0
405.595154 108.0
405.632507 116.0
405.685181 264.0
405.715302 228.0
405.754547 224.0
405.789856 276.0
405.803833 272.0
405.820953 312.0
405.849365 288.0
405.93988 432.0
405.966858 460.0
406.047668 296.0
406.136383 280.0
406.186523 852.0
406.24762 172.0
406.313538 448.0
406.376495 584.0
406.419952 468.0
406.463226 140.0
406.490265 360.0
406.533539 336.0
406.573395 484.0
406.637573 540.0
406.693481 372.0
406.756775 588.0
406.799927 788.0
406.810089 404.0
406.824097 744.0
406.872345 360.0
406.898682 608.0
406.915405 472.0
406.926605 636.0
406.963531 1028.0
407.021362 460.0
407.055359 940.0
407.103577 1344.0
407.138733 1884.0
407.198608 237772.0
407.34671 364.0
407.468658 328.0
407.574219 2252.0
407.699249 1252.0
407.746643 584.0
407.807526 1224.0
407.871368 17072.0
407.970123 576.0
408.020508 452.0
408.075348 432.0
408.201843 194036.0
408.312347 152.0
408.48349 760.0
408.572601 784.0
408.689545 180.0
408.743164 100.0
408.807739 412.0
408.864471 3636.0
408.967102 196.0
409.007904 156.0
409.091156 300.0
409.144989 152.0
409.203217 41488.0
409.397675 164.0
409.457886 176.0
409.543701 340.0
409.718689 156.0
409.827728 440.0
409.9104 212.0
409.985229 352.0
410.026581 116.0
410.070618 180.0
410.139008 204.0
410.202454 3672.0
410.342743 220.0
410.431396 556.0
410.499939 888.0
410.533844 492.0
410.582825 276.0
410.640015 240.0
410.685364 256.0
410.734283 352.0
410.747009 292.0
410.761841 548.0
410.807312 224.0
410.891266 364.0
410.941315 284.0
410.971405 292.0
411.029999 272.0
411.069427 236.0
411.110779 240.0
411.163239 252.0
411.207306 248.0
411.254333 168.0
411.304199 132.0
411.37851 128.0
411.486969 128.0
411.533173 96.0
411.587494 176.0
411.63797 220.0
411.776215 176.0
411.804321 244.0
411.854736 156.0
411.929047 124.0
411.999451 96.0
412.053314 252.0
412.325836 116.0
412.369629 96.0
412.683441 176.0
412.746155 288.0
412.970856 144.0
414.120026 116.0
414.221375 108.0
414.41153 160.0
415.580627 96.0
415.775055 156.0
416.29599 120.0
416.355682 156.0
417.034668 100.0
419.462219 140.0
419.97821 140.0
421.800385 104.0
422.521088 124.0
423.561401 112.0
423.838531 156.0
424.223816 140.0
424.277802 152.0
425.336151 224.0
425.557831 140.0
427.121735 108.0
427.602692 108.0
429.239594 96.0
429.463135 160.0
435.264771 104.0
435.96991 112.0
437.69165 104.0
487.204437 152.0
518.556519 128.0
538.621521 136.0
540.070312 148.0
541.181396 96.0
549.454041 112.0
558.673584 140.0
583.480591 156.0
586.807373 180.0
600.200012 140.0
615.269043 112.0
652.712219 112.0
660.870728 112.0
663.49353 96.0
676.576477 144.0
691.210632 132.0
740.602417 192.0
804.877686 160.0
837.799194 192.0
856.265381 168.0
877.829102 120.0
908.681091 120.0
1035.889526 152.0
1178.430176 164.0
1208.379517 156.0
1239.166992 212.0
1240.673828 176.0
1249.15686 188.0
1250.19812 140.0
1274.068726 204.0
1288.759521 140.0
1296.408813 180.0
1298.487793 168.0
1313.44812 208.0
1319.463501 148.0
1323.717896 204.0
1338.648315 112.0
1341.358032 212.0
1343.881226 176.0
1344.384766 196.0
1355.045654 224.0
1361.963257 160.0
1365.579346 160.0
1370.924194 216.0
1374.603882 148.0
1376.840698 148.0
1378.406738 192.0
1380.395142 144.0
1382.118652 180.0
1392.526733 152.0
1396.956665 140.0
1399.549561 124.0
1410.161987 180.0
1411.702026 184.0
1414.560059 152.0
1418.417725 144.0
1422.462158 136.0
1422.693481 196.0
1423.444336 156.0
1428.848389 148.0
1432.356445 180.0
1433.584473 160.0
1440.669312 256.0
1446.401123 164.0
1447.635254 180.0
1448.13501 220.0
1448.703125 148.0
1450.582397 156.0
1451.348145 172.0
1459.548584 152.0
1462.188232 180.0
1463.093994 168.0
1466.567505 224.0
1468.633789 184.0
1473.947144 252.0
1474.429688 168.0
1480.847534 204.0
1484.477173 104.0
1488.224609 152.0
1488.332031 144.0
1497.606445 200.0
1511.23938 152.0
1511.943481 216.0
1513.011719 140.0
1521.50061 144.0
1522.354736 180.0
1524.483276 148.0
1525.82019 184.0
1527.476562 152.0
1529.515259 180.0
1531.165771 140.0
1534.687988 144.0
1537.17627 180.0
1537.94104 184.0
1538.877808 152.0
1541.205322 144.0
1541.783569 168.0
1542.416626 152.0
1544.997192 140.0
1548.198486 180.0
1551.770386 164.0
1554.744385 212.0
1555.835449 152.0
1556.000244 184.0
1559.80249 216.0
1561.477173 152.0
1564.057861 172.0
1566.8927 168.0
1567.988037 176.0
1571.741699 192.0
1580.172119 204.0
1580.235352 144.0
1584.724487 180.0
1584.993896 164.0
1589.196289 188.0
1592.196777 180.0
1596.360962 144.0
1597.331299 168.0
1600.705688 260.0
1602.442139 196.0
1605.678345 168.0
1608.630615 156.0
1610.714722 196.0
1611.945068 172.0
1615.358887 140.0
1616.406982 140.0
1616.535034 152.0
1617.639526 144.0
1619.90564 208.0
1620.458374 196.0
1623.071289 212.0
1629.195068 208.0
1630.360107 156.0
1642.404541 196.0
1647.102295 156.0
1647.570801 232.0
1648.24585 160.0
1652.753174 216.0
1653.052612 152.0
1654.517578 156.0
1659.532593 156.0
1659.727173 156.0
1660.424561 152.0
1661.041016 224.0
1664.490112 184.0
1668.617676 160.0
1672.188599 152.0
1673.116577 168.0
1676.394653 180.0
1679.342041 204.0
1680.973633 180.0
1681.463379 172.0
1683.56958 148.0
1684.075928 148.0
1684.463501 160.0
1684.990845 176.0
1686.053101 212.0
1686.41272 168.0
1688.505737 168.0
1690.043579 148.0
1691.140137 164.0
1693.113159 160.0
1693.924072 144.0
1695.251343 144.0
1702.215698 172.0
1710.90625 180.0
1712.561401 140.0
1714.744751 152.0
1717.119141 204.0
1722.343628 252.0
1724.285278 204.0
1725.029175 164.0
1725.177979 180.0
1725.403687 220.0
1727.005371 144.0
1727.328003 140.0
1728.221436 236.0
1733.553955 148.0
1734.333008 148.0
1734.78064 224.0
1735.045898 192.0
1736.140381 156.0
1741.111328 196.0
1743.279541 228.0
1745.507324 224.0
1746.472046 156.0
1747.147949 144.0
1747.728271 156.0
1748.302368 196.0
1749.109741 172.0
1750.762207 124.0
1751.332886 268.0
1753.582397 144.0
1755.56665 200.0
1757.268188 196.0
1757.468384 148.0
1761.54248 164.0
1762.6698 180.0
1762.996338 184.0
1769.822021 188.0
1770.081543 200.0
1771.446777 148.0
1771.949341 220.0
1772.016357 188.0
1772.787231 140.0
1773.09729 164.0
1773.927002 196.0
1774.062988 248.0
1776.984741 160.0
1777.13916 144.0
1778.624512 196.0
1778.809204 160.0
1779.338013 220.0
1780.118896 196.0
1780.883179 148.0
1781.546753 228.0
1782.790283 152.0
1786.767334 148.0
1788.113647 148.0
1789.25 184.0
1790.395142 212.0
1790.858398 192.0
1791.212158 148.0
1791.287964 220.0
1792.079834 156.0
1792.678101 200.0
1793.251099 160.0
1796.185303 148.0
1806.562866 180.0
1806.753174 160.0
1807.27771 152.0
1807.590698 204.0
1809.562866 160.0
1811.747925 180.0
1813.688354 172.0
1814.502197 164.0
1814.765015 232.0
1821.59668 160.0
1824.434937 204.0
1827.156372 160.0
1827.564697 188.0
1832.059937 164.0
1833.09082 188.0
1834.096436 184.0
1834.301025 216.0
1836.850708 152.0
1838.480225 164.0
1840.178833 164.0
1843.424683 172.0
1843.604126 168.0
1844.287842 172.0
1845.535889 172.0
1846.450928 240.0
1847.879395 160.0
1848.700806 176.0
1849.394043 232.0
1850.85791 176.0
1850.943604 164.0
1851.328857 168.0
1851.448853 160.0
1852.515381 176.0
1854.72168 188.0
1855.355957 184.0
1858.606567 148.0
1862.950684 160.0
1863.242798 176.0
1863.328491 160.0
1864.351196 184.0
1864.497314 244.0
1864.56604 200.0
1864.772339 144.0
1865.778076 188.0
1866.070312 140.0
1869.54541 156.0
1871.990112 152.0
1874.557251 228.0
1875.444824 156.0
1878.083252 196.0
1878.160889 144.0
1881.906128 192.0
1884.172363 224.0
1884.238037 232.0
1885.240356 140.0
1885.862671 168.0
1889.372559 188.0
1889.71936 216.0
1890.748169 184.0
1891.54541 144.0
1894.350952 148.0
1897.722168 156.0
1900.688599 144.0
1902.181274 148.0
1902.302856 172.0
1902.571899 160.0
1903.171021 220.0
1904.751587 172.0
1905.098999 176.0
1905.316162 176.0
1905.931152 140.0
1906.402344 164.0
1906.949829 164.0
1907.0802 144.0
1907.219238 188.0
1908.079834 140.0
1912.376953 204.0
1914.414185 168.0
1917.306396 196.0
1920.096191 164.0
1921.011963 168.0
1922.329468 140.0
1922.643555 172.0
1923.708374 192.0
1924.04895 156.0
1927.682373 140.0
1928.049316 164.0
1928.512573 164.0
1929.325562 164.0
1931.355347 160.0
1931.887817 152.0
1932.064697 160.0
1932.281494 176.0
1933.471436 176.0
1933.979126 140.0
1935.546143 204.0
1936.229126 156.0
1936.719604 200.0
1939.365723 148.0
1940.277344 148.0
1940.969971 192.0
1944.022583 212.0
1944.321045 188.0
1945.268921 204.0
1945.778076 164.0
1946.550781 196.0
1947.104004 144.0
1948.922363 188.0
1950.50415 204.0
1951.014038 152.0
1953.775391 168.0
1961.489502 260.0
1962.097778 172.0
1963.896606 168.0
1964.081787 172.0
1967.046631 164.0
1968.141357 188.0
1968.697632 156.0
1970.11084 148.0
1971.2948 164.0
1971.639404 160.0
1974.070435 156.0
1980.061646 188.0
1982.435791 156.0
1982.524414 148.0
1984.01355 172.0
1984.607544 152.0
1985.786987 228.0
1986.06189 176.0
1990.223999 164.0
1991.538208 160.0
1992.115601 188.0
1992.710815 148.0
1992.977417 176.0
1993.52832 176.0
1993.598145 136.0
1994.674805 192.0
1994.941528 152.0
1997.244507 140.0
2002.575928 168.0
