>compound Vincristine
>formula C46H56N4O10
>ionization [M+Na]+
>parentmass 847.387329
#inchi InChI=1S/C46H56N4O10/c1-7-42(55)22-28-23-45(40(53)58-5,36-30(14-18-48(24-28)25-42)29-12-9-10-13-33(29)47-36)32-20-31-34(21-35(32)57-4)50(26-51)38-44(31)16-19-49-17-11-15-43(8-2,37(44)49)39(60-27(3)52)46(38,56)41(54)59-6/h9-13,15,20-21,26,28,37-39,47,55-56H,7-8,14,16-19,22-25H2,1-6H3/t28-,37-,38+,39+,42-,43+,44-,45-,46-/m0/s1
#inchikey OGWKCGZFUXNPDA
#origInchi InChI=1S/C46H56N4O10.H2O4S/c1-7-42(55)22-28-23-45(40(53)58-5,36-30(14-18-48(24-28)25-42)29-12-9-10-13-33(29)47-36)32-20-31-34(21-35(32)57-4)50(26-51)38-44(31)16-19-49-17-11-15-43(8-2,37(44)49)39(60-27(3)52)46(38,56)41(54)59-6;1-5(2,3)4/h9-13,15,20-21,26,28,37-39,47,55-56H,7-8,14,16-19,22-25H2,1-6H3;(H2,1,2,3,4)/t28-,37-,38+,39+,42-,43+,44-,45-,46-;/m0./s1
#Ion_Source LC-ESI
#Instrument qTof
#Compound_Source Commercial
#PI Dorrestein
#Data_Collector Garg_Neha
#Scan -1
#Precursor_MZ 847.389
#ExactMass 824.4
#Charge 1
#CAS_Number 2068-78-2
#Pubmed_ID N/A
#Smiles C1(=CC2=C(C=C1[C@@]3(C4=C(C5=C(N4)C=CC=C5)CCN6C[C@](C3)(C[C@@](C6)(O)CC)[H])C(OC)=O)[C@]78[C@@](N2C=O)([C@]([C@@H]([C@]9([C@@]7(N(CC8)CC=C9)[H])CC)OC(=O)C)(C(OC)=O)O)[H])OC.S(=O)(=O)(O)O
#INCHI_AUX N/A
#Library_Class 1
#SpectrumID CCMSLIB00000078061
#IonMode Positive
#UpdateWorkflowName UPDATE-SINGLE-ANNOTATED-GOLD
#LibraryQualityString Gold
#TaskID 77f51c88eb8b467eb4a01dd2d0cb90d2
##Scan# 1102
#SpectrumFile Plate1_61_88_GG4_01_16491.mzXML
#LibraryName FDALibrary_2_04302014.mgf
#MQScore -1
#Organism FDALibrary_2_04302014
#TIC_Query 0
#RT_Query -1
#MZErrorPPM -1
#SharedPeaks 0
#MassDiff 0
#LibMZ -1
#SpecMZ 847.389
#SpecCharge 0
#internalFilename spec-00000.mgf

>collision 10
67.569633 192.0
100.034866 164.0
179.13295 184.0
190.081467 172.0
195.086304 160.0
224.127167 164.0
226.139725 176.0
259.623444 168.0
295.185364 148.0
302.389496 172.0
323.186951 196.0
353.190643 164.0
354.193085 188.0
354.691467 336.0
357.207397 140.0
373.289154 212.0
384.19278 184.0
384.227844 176.0
384.705109 216.0
385.196014 192.0
452.16095 148.0
456.66684 212.0
463.201935 160.0
471.164948 148.0
471.687836 180.0
475.208771 192.0
486.2099 144.0
508.751465 176.0
541.73645 180.0
546.225647 156.0
552.289429 172.0
563.19928 148.0
566.197937 176.0
573.214661 164.0
578.932922 172.0
588.260864 156.0
593.209717 144.0
595.296021 192.0
600.216064 132.0
603.208618 144.0
604.304138 148.0
605.295593 160.0
607.270142 124.0
619.433289 148.0
620.325256 156.0
623.340759 128.0
630.279358 160.0
636.289856 160.0
637.325928 128.0
655.995483 160.0
658.260864 216.0
663.254456 116.0
663.344788 188.0
663.395935 292.0
664.270508 156.0
664.346558 260.0
680.75531 164.0
689.293396 156.0
689.884033 164.0
692.25061 132.0
702.384277 160.0
705.337708 120.0
705.382324 128.0
706.365723 284.0
707.301819 140.0
711.330505 148.0
712.031433 160.0
722.318665 140.0
725.308716 108.0
727.3396 116.0
728.336731 156.0
733.344971 192.0
738.40155 224.0
745.356934 248.0
747.363159 388.0
748.385071 204.0
755.336792 264.0
756.369263 124.0
759.33551 108.0
759.384277 108.0
760.36145 156.0
765.389709 700.0
765.4552 180.0
766.387146 344.0
767.402649 156.0
768.347229 132.0
769.359802 132.0
771.400879 148.0
773.355164 308.0
776.890564 156.0
783.406067 152.0
787.364136 848.0
788.376099 344.0
789.365112 168.0
790.371643 128.0
805.375427 1292.0
806.375305 472.0
807.487427 152.0
808.001892 696.0
809.006042 220.0
815.363647 352.0
816.323303 168.0
817.363525 184.0
818.336609 132.0
818.379211 144.0
826.393555 136.0
829.380066 148.0
845.355408 256.0
846.336365 176.0
846.683167 176.0
847.160034 136.0
847.224365 124.0
847.387329 9624.0
847.758057 144.0
847.946228 144.0
848.165405 156.0
848.391541 4432.0
848.599976 108.0
849.393494 1472.0
850.032349 360.0
850.391357 300.0
851.348877 176.0
852.048828 184.0
852.214355 108.0
852.338806 136.0
874.033752 204.0
