>compound Tylosin tartrate
>formula C46H77NO17
>ionization [M+H]+
>parentmass 916.5264264560905
#inchi InChI=1S/C46H77NO17/c1-13-33-30(22-58-45-42(57-12)41(56-11)37(52)26(5)60-45)18-23(2)14-15-31(49)24(3)19-29(16-17-48)39(25(4)32(50)20-34(51)62-33)64-44-38(53)36(47(9)10)40(27(6)61-44)63-35-21-46(8,55)43(54)28(7)59-35/h14-15,17-18,24-30,32-33,35-45,50,52-55H,13,16,19-22H2,1-12H3/b15-14+,23-18+/t24-,25+,26-,27-,28+,29+,30-,32-,33-,35+,36-,37-,38-,39-,40-,41-,42-,43+,44-,45-,46-/m1/s1
#inchikey WBPYTXDJUQJLPQ
#origInchi InChI=1S/C46H77NO17.C4H6O6/c1-13-33-30(22-58-45-42(57-12)41(56-11)37(52)26(5)60-45)18-23(2)14-15-31(49)24(3)19-29(16-17-48)39(25(4)32(50)20-34(51)62-33)64-44-38(53)36(47(9)10)40(27(6)61-44)63-35-21-46(8,55)43(54)28(7)59-35;5-1(3(7)8)2(6)4(9)10/h14-15,17-18,24-30,32-33,35-45,50,52-55H,13,16,19-22H2,1-12H3;1-2,5-6H,(H,7,8)(H,9,10)/b15-14+,23-18+;/t24-,25+,26-,27-,28+,29+,30-,32-,33-,35+,36-,37-,38-,39-,40-,41-,42-,43+,44-,45-,46-;1-,2-/m11/s1
#Ion_Source LC-ESI
#Instrument qTof
#Compound_Source Commercial
#PI Dorrestein
#Data_Collector Garg_Neha
#Scan -1
#Precursor_MZ 916.526
#ExactMass 915.519
#Charge 1
#CAS_Number 74610-55-2,1405-54-5,1401-69-0(free base)
#Pubmed_ID N/A
#Smiles [C@H]1([C@H](OC(C[C@H]([C@@H]([C@H]([C@H](C[C@H](C(/C=C/C(=C/1)C)=O)C)CC(=O)[H])O[C@@]2([C@@H]([C@H]([C@@H]([C@H](O2)C)O[C@@]3(O[C@H]([C@@H]([C@](C3)(C)O)O)C)[H])N(C)C)O)[H])C)O)=O)CC)CO[C@H]4([C@@H]([C@@H]([C@@H]([C@H](O4)C)O)OC)OC).C([C@@H]([C@H](C(=O)O)O)O)(=O)O
#INCHI_AUX N/A
#Library_Class 1
#SpectrumID CCMSLIB00000078593
#IonMode Positive
#UpdateWorkflowName UPDATE-SINGLE-ANNOTATED-GOLD
#LibraryQualityString Gold
#TaskID 77f51c88eb8b467eb4a01dd2d0cb90d2
##Scan# 1129
#SpectrumFile Plate9_41_60_GC6_01_15755.mzXML
#LibraryName FDALibrary_2_04302014.mgf
#MQScore -1
#Organism FDALibrary_2_04302014
#TIC_Query 0
#RT_Query -1
#MZErrorPPM -1
#SharedPeaks 0
#MassDiff 0
#LibMZ -1
#SpecMZ 916.526
#SpecCharge 0
#internalFilename spec-00000.mgf

>collision 10
44.901836 184.0
47.611603 160.0
47.900471 188.0
49.709351 196.0
50.961857 220.0
51.56036 172.0
51.83226 140.0
52.647919 212.0
53.10236 212.0
53.29253 220.0
53.477219 144.0
54.109303 212.0
54.323269 152.0
54.739212 164.0
55.633739 296.0
56.985367 160.0
57.823803 180.0
58.672939 168.0
58.721733 164.0
58.765972 156.0
58.921703 244.0
59.453037 140.0
61.792953 144.0
61.952644 156.0
62.736835 144.0
62.989323 212.0
63.681519 180.0
65.087448 160.0
65.140945 132.0
65.538879 140.0
65.56144 148.0
66.215744 156.0
66.598518 192.0
66.765923 164.0
67.5243 184.0
69.034042 140.0
69.531044 156.0
69.581078 172.0
70.385048 188.0
70.583893 184.0
70.893578 188.0
70.937157 140.0
71.535187 152.0
71.754196 148.0
72.304871 156.0
72.779526 188.0
73.121216 140.0
73.851463 176.0
74.93985 172.0
75.711998 180.0
77.401199 156.0
77.471252 176.0
77.621986 208.0
77.713196 176.0
78.495941 196.0
78.640602 168.0
82.372726 140.0
82.667435 188.0
83.847923 164.0
85.717461 152.0
86.911667 176.0
87.063881 156.0
88.052811 192.0
88.698326 184.0
89.613548 176.0
90.641441 148.0
90.749481 204.0
90.998032 156.0
92.850929 188.0
93.123466 144.0
93.415634 148.0
93.617729 188.0
94.337418 184.0
96.0131 192.0
96.085266 184.0
96.822189 240.0
97.400795 164.0
98.096283 964.0
98.600716 140.0
99.045258 328.0
99.098061 296.0
99.380928 212.0
99.599304 140.0
99.738396 148.0
100.076546 588.0
100.888603 144.0
100.956589 164.0
101.059898 4532.0
101.08329 364.0
102.035355 204.0
102.064117 800.0
102.091652 264.0
102.35527 196.0
103.075394 156.0
103.301834 196.0
105.034584 156.0
105.473595 164.0
106.983391 144.0
107.191414 200.0
107.475967 176.0
107.909714 152.0
108.064835 184.0
108.089668 144.0
108.184875 216.0
108.234566 164.0
109.062813 304.0
110.369469 160.0
110.97039 228.0
111.077339 144.0
112.075371 484.0
113.08329 320.0
114.090408 1060.0
115.009171 220.0
115.098564 496.0
116.070786 1588.0
116.107376 284.0
116.256737 140.0
117.073647 424.0
117.550056 176.0
117.59845 104.0
118.072853 144.0
118.874413 144.0
119.4095 184.0
121.44445 172.0
122.744186 164.0
123.116905 120.0
123.163506 148.0
123.6278 196.0
124.861282 216.0
125.096169 172.0
125.924385 160.0
126.088791 464.0
126.734192 180.0
126.942657 232.0
127.075165 4204.0
127.099106 200.0
127.128845 140.0
128.078415 760.0
128.109665 488.0
128.440521 140.0
128.657166 188.0
129.055939 148.0
129.090973 180.0
129.113586 172.0
129.145248 272.0
130.008453 180.0
130.024338 152.0
130.086182 784.0
131.090927 156.0
132.102325 6236.0
132.285843 172.0
133.105484 468.0
133.987152 184.0
134.114105 248.0
134.346802 160.0
135.081406 152.0
135.119232 204.0
136.705521 232.0
137.095764 268.0
137.135147 196.0
137.17366 160.0
138.087311 236.0
138.269119 144.0
139.220932 196.0
140.381104 160.0
142.100739 148.0
142.51387 176.0
143.001358 148.0
143.069336 1340.0
143.101349 296.0
143.663788 144.0
143.713898 212.0
144.075195 268.0
144.101746 480.0
144.15564 152.0
145.086411 9680.0
145.703491 236.0
145.924606 148.0
146.088654 636.0
146.784195 220.0
146.861374 152.0
147.084366 280.0
147.113541 108.0
149.097137 264.0
149.385422 160.0
149.867462 236.0
150.123413 156.0
150.824112 232.0
151.073532 152.0
151.109772 136.0
153.050995 308.0
153.123123 152.0
154.235901 148.0
155.712601 140.0
155.881531 236.0
156.10199 7644.0
156.354034 180.0
157.103699 520.0
158.116379 644.0
158.642014 228.0
158.862686 176.0
159.078506 152.0
159.121979 152.0
159.543243 152.0
160.462173 160.0
160.497467 236.0
161.094559 196.0
161.545578 156.0
162.670731 224.0
163.082214 180.0
163.111511 316.0
163.148315 160.0
163.270355 148.0
164.123428 156.0
164.850922 152.0
165.088669 144.0
165.109131 192.0
165.513458 168.0
165.682495 172.0
165.882385 152.0
169.09697 140.0
169.115082 224.0
170.791245 144.0
170.994186 160.0
171.102921 156.0
171.173813 212.0
171.804565 168.0
171.976791 176.0
172.094894 536.0
172.763321 180.0
172.89415 204.0
173.094574 300.0
173.12883 136.0
173.381256 144.0
173.651047 124.0
173.682297 220.0
173.736588 204.0
173.933167 156.0
173.965027 192.0
174.041458 184.0
174.113144 119048.0
174.300934 156.0
174.330566 136.0
174.545944 336.0
174.65802 128.0
174.761703 144.0
175.07312 148.0
175.115372 11136.0
175.351196 104.0
175.442505 104.0
175.847198 108.0
175.89772 164.0
175.983368 200.0
176.042938 140.0
176.118149 1276.0
176.308487 116.0
176.425873 128.0
176.444641 184.0
178.138626 152.0
179.096222 216.0
181.091446 148.0
181.273621 152.0
183.102127 124.0
185.131271 248.0
187.909271 156.0
189.089752 180.0
189.133545 176.0
189.163651 144.0
191.10849 1012.0
191.142471 164.0
192.123138 568.0
193.120514 208.0
193.170303 172.0
195.097809 188.0
197.090408 148.0
197.133301 148.0
199.115768 212.0
199.159424 200.0
201.126083 172.0
203.105774 184.0
205.156845 176.0
206.166031 216.0
207.100006 156.0
207.140915 400.0
208.603729 140.0
209.121994 312.0
211.143967 140.0
212.105225 144.0
213.132599 380.0
213.164566 204.0
214.144821 272.0
215.113022 180.0
215.181351 208.0
219.106186 468.0
219.139664 192.0
220.113037 148.0
221.120316 196.0
223.145477 152.0
225.152557 188.0
227.136948 200.0
227.181946 428.0
229.075806 152.0
229.130035 332.0
229.160172 144.0
229.202347 176.0
231.389099 164.0
232.154816 1436.0
233.15744 532.0
237.161392 148.0
238.119156 160.0
239.158371 140.0
243.136597 152.0
244.173767 148.0
245.155792 292.0
247.175186 136.0
247.281219 140.0
248.101913 148.0
249.442352 144.0
253.15274 144.0
255.12767 136.0
255.164429 160.0
256.131195 160.0
257.150299 128.0
259.175415 148.0
261.182678 148.0
263.168091 184.0
265.144562 256.0
267.179108 132.0
269.158112 204.0
276.180908 1992.0
277.185547 228.0
283.17514 144.0
283.207214 224.0
284.72937 104.0
285.137665 148.0
289.144501 172.0
295.17395 140.0
297.217651 144.0
297.272552 148.0
299.162933 148.0
299.231018 204.0
300.179321 144.0
301.201385 260.0
302.213837 144.0
303.082916 212.0
303.15567 152.0
305.174744 132.0
305.749847 184.0
306.193451 152.0
307.159454 156.0
307.45752 160.0
309.182922 240.0
313.182495 328.0
314.191132 168.0
317.17926 140.0
318.192322 2016.0
319.192383 340.0
320.195801 148.0
322.171906 164.0
323.203705 284.0
325.212036 232.0
327.189117 272.0
327.217926 200.0
328.238678 160.0
329.212769 152.0
331.195282 416.0
332.19043 116.0
332.231476 144.0
332.725281 152.0
333.210815 148.0
335.200439 208.0
341.210785 548.0
342.219238 192.0
343.230225 244.0
345.189606 160.0
345.2435 352.0
346.216156 188.0
347.213654 156.0
348.19696 716.0
349.203674 140.0
350.196014 148.0
353.217133 684.0
354.205048 204.0
355.231232 160.0
356.240784 160.0
357.199341 184.0
358.238312 156.0
359.22821 716.0
360.224579 128.0
361.2341 444.0
363.210815 120.0
371.220032 704.0
372.223785 256.0
373.234955 392.0
374.241364 144.0
377.230164 288.0
378.238159 284.0
382.17337 168.0
389.233704 1504.0
390.234741 256.0
391.251587 504.0
392.260895 136.0
405.22998 144.0
407.241058 1000.0
408.240875 348.0
409.257294 444.0
410.257812 108.0
413.242249 192.0
419.264191 192.0
425.245361 160.0
433.259674 152.0
453.124817 112.0
457.255005 196.0
471.525665 116.0
518.281189 140.0
520.108826 148.0
529.876953 164.0
531.35321 164.0
548.697021 148.0
549.326599 144.0
577.853821 176.0
580.357056 236.0
581.359985 112.0
582.357849 428.0
596.333435 140.0
598.357422 2048.0
599.362854 856.0
600.360352 292.0
601.354675 256.0
648.141602 112.0
656.016724 160.0
656.577637 176.0
657.189758 168.0
660.919678 148.0
670.481445 144.0
671.156738 172.0
671.399109 172.0
693.910034 172.0
696.187317 148.0
705.386597 240.0
710.24231 148.0
714.848511 148.0
722.269775 148.0
725.438721 156.0
729.786072 112.0
733.79425 188.0
734.613953 200.0
735.909241 144.0
736.39856 148.0
740.40033 164.0
742.451111 156.0
743.429199 232.0
752.42627 120.0
752.632812 184.0
754.447266 204.0
755.472046 128.0
756.452454 104.0
760.916809 148.0
761.932861 172.0
763.191467 160.0
765.218384 124.0
770.436279 384.0
771.461365 132.0
772.222229 100.0
772.325928 116.0
772.449402 9276.0
772.572083 172.0
772.670471 120.0
773.357239 156.0
773.451843 3448.0
773.583862 192.0
773.717468 112.0
774.456543 1464.0
775.181641 216.0
775.44928 292.0
775.513245 224.0
776.4552 264.0
776.890259 144.0
777.404419 148.0
777.447693 120.0
778.520264 160.0
782.884155 128.0
789.984558 132.0
791.782104 148.0
793.664978 252.0
800.666809 152.0
801.742859 180.0
801.923218 208.0
805.997742 148.0
808.020935 120.0
811.567383 144.0
811.658142 160.0
811.765869 184.0
813.309021 164.0
815.211609 156.0
816.672729 180.0
817.617188 164.0
821.982361 144.0
822.929871 176.0
824.268433 140.0
827.436279 120.0
829.394287 164.0
832.308655 148.0
836.804993 180.0
836.963318 104.0
839.593933 144.0
844.153198 200.0
846.146484 144.0
848.892944 140.0
850.819275 144.0
852.044678 144.0
856.879333 140.0
869.524597 96.0
882.31134 168.0
882.901184 224.0
886.873901 184.0
887.795471 124.0
893.883118 148.0
894.068481 120.0
897.9823 120.0
899.254822 112.0
899.502014 144.0
899.573914 104.0
899.833374 144.0
900.818848 148.0
901.58075 112.0
901.77179 208.0
902.394226 96.0
902.475708 140.0
902.635071 140.0
903.524719 192.0
904.060364 132.0
904.240906 140.0
905.307556 160.0
905.779968 96.0
905.936218 148.0
906.4776 112.0
906.922852 208.0
907.402405 112.0
907.475342 128.0
907.572144 184.0
907.615845 200.0
907.84845 176.0
908.24353 120.0
908.352478 108.0
908.501892 200.0
908.575928 184.0
908.667358 180.0
908.742188 168.0
909.258972 120.0
909.575317 112.0
909.63031 120.0
909.754089 224.0
909.945496 172.0
910.034973 152.0
910.148499 176.0
910.319031 236.0
910.404907 304.0
910.456787 172.0
910.810059 108.0
910.856201 104.0
911.165466 104.0
911.343933 132.0
911.482178 100.0
911.651184 264.0
911.703003 260.0
911.764648 128.0
911.805542 176.0
912.073547 184.0
912.222107 152.0
912.277832 168.0
912.384766 140.0
912.450684 200.0
912.531189 196.0
912.688049 164.0
912.754395 220.0
912.813354 144.0
912.919495 232.0
913.131165 160.0
913.21698 192.0
913.269958 204.0
913.354736 196.0
913.420166 208.0
913.526489 148.0
913.704102 196.0
913.763245 124.0
913.834717 204.0
913.89209 128.0
914.017639 340.0
914.059692 96.0
914.12793 116.0
914.187683 168.0
914.379028 108.0
914.422302 340.0
914.473511 200.0
914.530945 128.0
914.613708 184.0
914.679443 280.0
914.696289 128.0
914.852356 124.0
914.931946 164.0
915.059692 200.0
915.149902 324.0
915.266418 272.0
915.325012 200.0
915.371033 180.0
915.417725 216.0
915.495239 232.0
915.531189 224.0
915.692932 132.0
915.744507 220.0
915.827026 292.0
915.872559 236.0
915.92749 176.0
915.947266 152.0
915.970093 336.0
916.015564 432.0
916.121704 248.0
916.205627 328.0
916.246033 436.0
916.304077 792.0
916.365051 772.0
916.531311 225572.0
916.692932 572.0
916.710999 476.0
916.73761 456.0
916.753418 372.0
916.899902 288.0
916.986633 288.0
917.07373 272.0
917.183289 348.0
917.245361 288.0
917.533142 149944.0
917.69165 400.0
917.941528 176.0
918.003784 328.0
918.113464 436.0
918.158997 308.0
918.228821 268.0
918.301086 220.0
918.394409 296.0
918.534973 43076.0
918.776306 300.0
918.861877 344.0
918.896179 224.0
918.934692 332.0
919.016968 252.0
919.059509 340.0
919.106689 180.0
919.239502 328.0
919.361877 252.0
919.536438 11348.0
919.813354 172.0
919.92749 236.0
920.02594 156.0
920.09729 216.0
920.253174 132.0
920.376282 192.0
920.42511 220.0
920.537109 2320.0
920.783997 152.0
920.841614 164.0
920.900574 148.0
920.945984 100.0
921.031738 292.0
921.129639 192.0
921.176819 184.0
921.222473 120.0
921.287231 136.0
921.308289 220.0
921.425598 180.0
921.537292 236.0
921.646179 600.0
921.729187 104.0
921.790771 528.0
921.862549 144.0
921.894226 156.0
922.013916 1776.0
922.105286 200.0
922.280273 96.0
922.33844 224.0
922.453979 176.0
922.478088 140.0
922.608643 224.0
922.761169 216.0
922.860107 160.0
922.881836 156.0
922.907898 168.0
922.923401 212.0
922.995667 236.0
923.092834 240.0
923.226624 260.0
923.309937 216.0
923.580933 212.0
923.757568 392.0
923.919739 116.0
924.036255 164.0
924.126892 172.0
924.214661 100.0
924.305725 112.0
924.393311 124.0
924.589233 132.0
924.864685 112.0
925.365112 156.0
926.044006 224.0
927.150146 112.0
929.122742 140.0
929.213745 156.0
929.945557 100.0
935.54126 96.0
939.821899 116.0
941.004517 100.0
967.04303 144.0
980.175781 100.0
995.032776 144.0
1002.782593 152.0
1052.022949 156.0
1079.383667 124.0
1116.291626 152.0
1151.707153 96.0
1161.94104 140.0
1179.784302 148.0
1190.054077 172.0
1195.073853 96.0
1210.540405 140.0
1217.683594 184.0
1228.330078 96.0
1235.066528 140.0
1254.595337 212.0
1262.3302 96.0
1269.294434 140.0
1275.838013 152.0
1280.658325 96.0
1280.930786 104.0
1285.713013 172.0
1291.485962 184.0
1292.308594 184.0
1293.081421 144.0
1308.68042 140.0
1329.597656 104.0
1361.218018 160.0
1371.687378 148.0
1374.917969 168.0
1386.944092 180.0
1426.665161 168.0
1434.399536 136.0
1443.871948 164.0
1443.99292 228.0
1445.733032 164.0
1447.3302 164.0
1447.504395 192.0
1458.991699 160.0
1463.154785 192.0
1465.217041 144.0
1473.917725 204.0
1478.839966 144.0
1482.033325 188.0
1493.125854 220.0
1498.460327 144.0
1513.963013 160.0
1518.225342 152.0
1533.299805 168.0
1546.546143 152.0
1558.599854 208.0
1559.582153 156.0
1567.010864 156.0
1575.539429 188.0
1575.713135 156.0
1618.897339 184.0
1625.647217 148.0
1629.31665 180.0
1635.77417 168.0
1636.329712 184.0
1640.220703 140.0
1647.863037 148.0
1651.986206 204.0
1661.099365 180.0
1661.862061 212.0
1689.194946 160.0
1702.267456 156.0
1704.731812 176.0
1707.008911 240.0
1708.571655 172.0
1735.247925 200.0
1746.242432 200.0
1755.086426 148.0
1755.595093 172.0
1759.792358 212.0
1762.699097 172.0
1763.785522 144.0
1766.779297 160.0
1769.365234 160.0
1780.945923 188.0
1800.798218 188.0
1808.001465 156.0
1823.938232 288.0
1827.203735 144.0
1831.809326 156.0
1835.789673 144.0
1840.431641 168.0
1842.686523 160.0
1842.874512 244.0
1845.660889 172.0
1850.238403 168.0
1855.430054 168.0
1865.199219 224.0
1866.248047 184.0
1877.244019 144.0
1884.382446 148.0
1887.580566 220.0
1891.845947 216.0
1894.816528 144.0
1900.486816 252.0
1918.306885 144.0
1920.896851 188.0
1925.313232 200.0
1940.591553 200.0
1944.960327 172.0
1947.814087 192.0
1963.454712 172.0
1973.892822 156.0
1976.396118 152.0
1987.463013 172.0
1987.809082 192.0
