>compound Moxifloxacin
>formula C21H24FN3O4
>ionization [M+H]+
>parentmass 402.18236092009056
#inchi InChI=1S/C21H24FN3O4/c1-29-20-17-13(19(26)14(21(27)28)9-25(17)12-4-5-12)7-15(22)18(20)24-8-11-3-2-6-23-16(11)10-24/h7,9,11-12,16,23H,2-6,8,10H2,1H3,(H,27,28)/t11-,16+/m0/s1
#inchikey FABPRXSRWADJSP
#Ion_Source DI-ESI
#Instrument qTof
#Compound_Source Commercial
#PI Norberto Lopes
#Data_Collector Denise Silva
#Scan -1
#Precursor_MZ 402.178
#ExactMass 401.175
#Charge 1
#CAS_Number 151096-09-2
#Pubmed_ID N/A
#Smiles O=C1C(C(O)=O)=CN(C2CC2)C3=C(OC)C(N4C[C@](NCCC5)([H])[C@]5([H])C4)=C(F)C=C31
#INCHI_AUX N/A
#Library_Class 3
#SpectrumID CCMSLIB00000081725
#IonMode Positive
#UpdateWorkflowName UPDATE-SINGLE-ANNOTATED-BRONZE
#LibraryQualityString Bronze
#TaskID 52bd5f0db6314c93924d5ce5c86348eb
##Scan# 1
#SpectrumFile gnps_Moxifloxacin_pos_MplusH.mgf
#LibraryName gnps_library.mgf
#MQScore -1
#Organism batch_27_05_V02
#TIC_Query 0
#RT_Query -1
#MZErrorPPM -1
#SharedPeaks 0
#MassDiff 0
#LibMZ -1
#SpecMZ 402.178
#SpecCharge 0
#internalFilename spec-00000.mgf

>collision 10
203.06189 26395.0
204.063217 33826.0
205.052704 21836.0
207.052078 26683.0
216.062836 24776.0
217.070175 36487.0
219.057724 53151.0
220.060257 71452.0
230.076935 21524.0
231.088089 84377.0
232.063248 52890.0
233.06601 38666.0
234.076187 69776.0
242.082809 26320.0
243.092987 29453.0
245.067337 95640.0
246.074966 63858.0
247.081421 60520.0
248.055496 92801.0
249.097595 33491.0
260.054993 399811.0
261.098633 244835.0
270.10788 26746.0
278.065216 51549.0
285.091217 31687.0
287.077057 49348.0
295.124939 34981.0
298.105652 132284.0
300.105133 33228.0
302.124023 31587.0
305.086121 70765.0
311.109528 55443.0
312.109711 102610.0
313.139221 56373.0
315.128998 29243.0
323.127441 78210.0
324.125977 34941.0
326.102325 33118.0
327.168274 31674.0
328.10379 37794.0
330.119995 28948.0
338.179016 29864.0
341.145081 524011.0
343.143555 58951.0
358.187347 167363.0
364.160095 566452.0
373.135925 24606.0
382.168945 142616.0
384.169861 1267858.0
402.177948 1256769.0
