>compound MLS001140328-01!2-(2,3,4,7,9,10-hexahydro-[1,4]dioxepino[2,3-g]isoquinolin-8-yl)-N-phenylacetamide
>formula C20H22N2O3
>ionization [M+H]+
>parentmass 339.170288
#inchi InChI=1S/C20H22N2O3/c23-20(21-17-5-2-1-3-6-17)14-22-8-7-15-11-18-19(12-16(15)13-22)25-10-4-9-24-18/h1-3,5-6,11-12H,4,7-10,13-14H2,(H,21,23)
#inchikey GQGJCWGYQYFVOP
#Ion_Source LC-ESI
#Instrument qTof
#Compound_Source NIH Natural Product Library
#PI Dorrestein
#Data_Collector VVP/LMS
#Scan -1
#Precursor_MZ 339.171
#ExactMass 338.163
#Charge 1
#CAS_Number N/A
#Pubmed_ID N/A
#Smiles O=C(CN1CCc2cc3OCCCOc3cc2C1)Nc4ccccc4
#INCHI_AUX N/A
#Library_Class 1
#SpectrumID CCMSLIB00000080056
#IonMode Positive
#UpdateWorkflowName UPDATE-SINGLE-ANNOTATED-GOLD
#LibraryQualityString Gold
#TaskID b1d8e8f6646f4e71acdff9ca3d919d08
##Scan# 1580
#SpectrumFile p2-E03_GE3_01_18027.mzXML
#LibraryName NIH_Natural_Products_Library.mgf
#MQScore -1
#Organism NIH_Natural_Products_Library
#TIC_Query 0
#RT_Query -1
#MZErrorPPM -1
#SharedPeaks 0
#MassDiff 0
#LibMZ -1
#SpecMZ 339.171
#SpecCharge 0
#internalFilename spec-00000.mgf

>collision 10
94.949043 244.0
95.002747 220.0
95.031914 160.0
95.055199 180.0
95.070198 652.0
95.089195 348.0
95.109329 148.0
95.16848 188.0
95.187195 152.0
95.210503 128.0
95.241608 164.0
95.274597 128.0
95.290138 148.0
95.329399 176.0
95.344551 176.0
95.368149 196.0
95.397026 216.0
95.434395 272.0
95.469017 156.0
95.503975 148.0
95.527321 152.0
95.553154 228.0
95.575432 224.0
95.614876 340.0
95.630447 192.0
95.671326 92.0
95.698639 128.0
95.726898 236.0
95.779724 84.0
95.837875 132.0
95.877792 84.0
95.925034 176.0
95.967461 172.0
95.981941 112.0
95.994759 140.0
96.018158 92.0
96.04351 108.0
96.069038 144.0
96.086288 108.0
96.10984 140.0
96.142288 128.0
96.173943 180.0
96.223625 204.0
96.27475 180.0
96.300201 196.0
96.349991 192.0
96.37587 124.0
96.398605 132.0
96.424248 76.0
96.480934 164.0
96.504395 152.0
96.555504 232.0
96.596443 176.0
96.635437 108.0
96.65657 180.0
96.674568 336.0
96.692184 124.0
96.714935 152.0
96.746994 160.0
96.761803 156.0
96.77636 132.0
96.793983 176.0
96.81356 152.0
96.83902 192.0
96.854691 172.0
96.878052 164.0
96.909546 192.0
96.956573 136.0
96.971428 228.0
96.995773 172.0
97.028282 48.0
97.084984 188.0
97.148766 212.0
97.209549 128.0
97.278244 176.0
97.303009 176.0
97.336205 100.0
97.376839 176.0
97.401955 140.0
97.42749 176.0
97.441246 352.0
97.487358 240.0
97.54734 172.0
97.576859 180.0
97.595985 164.0
97.626747 172.0
97.653549 96.0
97.710594 228.0
97.732231 168.0
97.761749 196.0
97.793243 128.0
97.807014 132.0
97.82473 160.0
97.840485 116.0
97.885765 256.0
97.919243 100.0
97.96402 108.0
97.996071 104.0
98.030693 112.0
98.055038 316.0
98.084602 160.0
98.117485 152.0
98.139954 124.0
98.169304 104.0
98.174263 140.0
98.234619 100.0
98.256317 92.0
98.317375 136.0
98.340576 172.0
98.384598 92.0
98.406311 312.0
98.422112 116.0
98.454308 224.0
98.474152 192.0
98.493637 128.0
98.552475 172.0
98.584091 100.0
98.611176 172.0
98.639427 136.0
98.660439 204.0
98.677559 180.0
98.722343 192.0
98.748177 168.0
98.781807 260.0
98.811478 208.0
98.839424 192.0
98.868553 152.0
98.884697 116.0
98.922592 164.0
98.953979 56.0
98.975761 140.0
98.9916 44.0
99.046707 228.0
99.062355 188.0
99.105125 128.0
99.128128 208.0
99.134842 104.0
99.158928 144.0
99.185669 140.0
99.20533 160.0
99.213341 140.0
99.24176 108.0
99.25515 196.0
99.276962 176.0
99.33448 156.0
99.37812 224.0
99.428513 152.0
99.464989 200.0
99.494484 176.0
99.513092 176.0
99.544861 52.0
99.613953 152.0
99.636223 176.0
99.679939 112.0
99.723656 160.0
99.753471 168.0
99.779648 144.0
99.819084 168.0
99.846039 180.0
99.87278 228.0
99.98484 184.0
100.038712 184.0
100.058189 184.0
100.073776 108.0
100.088745 116.0
100.133514 124.0
100.149078 152.0
100.185303 112.0
100.206512 232.0
100.239098 172.0
100.270981 56.0
100.311844 128.0
100.356262 144.0
100.382622 180.0
100.406555 184.0
100.442459 188.0
100.489143 188.0
100.505997 296.0
100.510887 252.0
100.532272 248.0
100.553635 72.0
100.57415 200.0
100.595772 120.0
100.616074 120.0
100.634445 176.0
100.669983 96.0
100.710281 136.0
100.729263 356.0
100.753868 144.0
100.777847 216.0
100.829552 96.0
100.844887 204.0
100.877769 64.0
100.895241 152.0
100.943283 140.0
100.967751 152.0
100.984871 228.0
101.01384 184.0
101.036423 156.0
101.060112 152.0
101.090088 52.0
101.168533 208.0
101.193398 256.0
101.23391 156.0
101.286385 180.0
101.30201 168.0
101.32605 84.0
101.39325 208.0
101.440086 168.0
101.456314 132.0
101.472351 292.0
101.492401 152.0
101.57431 92.0
101.590675 172.0
101.626526 152.0
101.631592 132.0
101.664764 160.0
101.694267 160.0
101.729729 164.0
101.750694 212.0
101.756683 156.0
101.78064 376.0
101.809456 164.0
101.887794 136.0
101.911278 268.0
101.922661 240.0
101.947113 160.0
101.974197 144.0
102.044556 516.0
102.098846 444.0
102.113304 148.0
102.171692 148.0
102.195404 184.0
102.253761 160.0
102.281937 140.0
102.383522 204.0
102.40934 372.0
102.430084 228.0
102.445045 152.0
102.463181 104.0
102.479431 184.0
102.535721 152.0
102.605598 376.0
102.636597 100.0
102.651855 164.0
102.699348 160.0
102.744949 220.0
102.78508 224.0
102.854401 176.0
102.870544 236.0
102.902016 188.0
102.93821 156.0
102.960297 204.0
102.993721 180.0
103.025078 260.0
103.05455 8040.0
103.105637 184.0
103.173859 84.0
103.218307 156.0
103.258499 156.0
103.28228 132.0
103.312317 244.0
103.363541 196.0
103.389999 92.0
103.41024 120.0
103.428452 68.0
103.456795 132.0
103.483116 160.0
103.514709 132.0
103.551964 52.0
103.571732 216.0
103.584373 316.0
103.617493 148.0
103.635017 400.0
103.661362 140.0
103.679306 112.0
103.708603 168.0
103.724579 220.0
103.749344 180.0
103.762703 176.0
103.778923 448.0
103.82151 284.0
103.89193 156.0
103.926987 192.0
103.952332 156.0
103.981781 184.0
104.004105 64.0
104.030495 216.0
104.05928 1252.0
104.080849 40.0
104.122696 176.0
104.1465 256.0
104.176704 92.0
104.204819 196.0
104.23111 108.0
104.264076 152.0
104.291367 124.0
104.325058 148.0
104.355553 148.0
104.37645 188.0
104.405502 184.0
104.411674 140.0
104.479446 192.0
104.49913 256.0
104.519196 120.0
104.558968 168.0
104.590607 144.0
104.657043 136.0
104.687225 156.0
104.766945 172.0
104.787033 212.0
104.818428 284.0
104.833801 168.0
104.848824 160.0
104.876694 208.0
104.899117 132.0
104.922783 164.0
104.955528 232.0
104.993988 144.0
105.026939 268.0
105.070038 9936.0
105.118271 204.0
105.175735 184.0
105.201828 148.0
105.243423 220.0
105.281097 112.0
105.327293 168.0
105.33213 140.0
105.342667 56.0
105.347351 160.0
105.374619 144.0
105.392738 212.0
105.42366 136.0
105.44001 52.0
105.480888 164.0
105.527908 92.0
105.553207 140.0
105.589256 192.0
105.627388 180.0
105.684212 232.0
105.699722 116.0
105.730133 200.0
105.759071 160.0
105.801804 164.0
105.841194 352.0
105.86058 124.0
105.888878 60.0
105.918785 140.0
105.939034 128.0
105.952057 288.0
105.98719 232.0
106.03096 532.0
106.065697 81576.0
106.137794 84.0
106.154068 72.0
106.204575 112.0
106.245583 124.0
106.264107 152.0
106.282013 120.0
106.299362 76.0
106.315735 392.0
106.35215 80.0
106.372711 200.0
106.402687 360.0
106.432831 160.0
106.457764 176.0
106.474167 184.0
106.520859 164.0
106.554726 36.0
106.583046 204.0
106.606895 100.0
106.632332 120.0
106.637909 92.0
106.683372 428.0
106.699745 240.0
106.714523 48.0
106.742752 100.0
106.767433 168.0
106.795242 88.0
106.822273 168.0
106.837486 52.0
106.900162 108.0
106.948952 204.0
106.962242 172.0
106.981148 204.0
107.018295 92.0
107.051788 1028.0
107.068604 8456.0
107.116341 36.0
107.139595 140.0
107.171089 248.0
107.209335 236.0
107.224541 188.0
107.250671 188.0
107.295029 180.0
107.334648 208.0
107.353081 144.0
107.369865 128.0
107.387169 236.0
107.427773 52.0
107.472122 192.0
107.491058 112.0
107.510147 432.0
107.53904 168.0
107.576195 204.0
107.594772 44.0
107.625748 120.0
107.653984 148.0
107.699104 176.0
107.71344 112.0
107.732452 120.0
107.7808 140.0
107.81736 184.0
107.847015 148.0
107.871796 260.0
107.896111 84.0
107.929688 40.0
107.95549 180.0
107.988831 172.0
108.020485 92.0
108.054642 440.0
108.080841 572.0
108.101173 200.0
108.127533 76.0
108.169106 224.0
108.202591 68.0
108.271797 152.0
108.320633 52.0
108.337204 112.0
108.37056 164.0
108.407654 100.0
108.432526 72.0
108.487747 168.0
108.51384 176.0
108.537704 112.0
108.573021 172.0
108.630112 164.0
108.663162 88.0
108.694633 152.0
108.726227 136.0
108.732323 188.0
108.783096 216.0
108.832886 48.0
108.84742 128.0
108.867081 192.0
108.888954 180.0
108.950203 184.0
108.990746 124.0
109.005295 140.0
109.028305 236.0
109.064705 496.0
109.092583 204.0
109.160378 192.0
109.208275 320.0
109.22567 128.0
109.271523 192.0
109.292938 236.0
109.326561 196.0
109.338493 124.0
109.370476 244.0
109.420502 184.0
109.43586 104.0
109.495667 128.0
109.501892 96.0
109.53791 64.0
109.570129 128.0
109.630363 192.0
109.666023 148.0
109.704613 84.0
109.719208 368.0
109.75882 188.0
109.795082 124.0
109.823471 184.0
109.84803 176.0
109.865425 36.0
109.886055 188.0
109.966377 236.0
110.01545 196.0
110.065254 192.0
110.088524 104.0
110.21386 160.0
110.268013 140.0
110.292633 92.0
110.326721 300.0
110.360168 60.0
110.392578 172.0
110.454277 108.0
110.508675 148.0
110.565346 144.0
110.661461 56.0
110.755508 44.0
110.84597 180.0
110.879311 120.0
110.893982 156.0
110.946388 132.0
110.961067 148.0
110.984131 168.0
111.032356 112.0
111.065918 96.0
111.10997 156.0
111.149834 160.0
111.163979 92.0
111.181313 140.0
111.201118 128.0
111.27713 132.0
111.360901 96.0
111.392914 164.0
111.429085 188.0
111.500397 128.0
111.550926 176.0
111.582512 196.0
111.614052 188.0
111.644905 184.0
111.705063 204.0
111.713318 200.0
111.721695 244.0
111.74025 172.0
111.761284 116.0
111.799164 140.0
111.853889 156.0
111.920242 108.0
111.942314 124.0
111.9739 208.0
112.030769 124.0
112.045517 56.0
112.066589 108.0
112.10424 192.0
112.155098 200.0
112.186714 168.0
112.216232 132.0
112.238403 264.0
112.272377 168.0
112.286766 116.0
112.292686 156.0
112.314423 216.0
112.344879 172.0
112.418724 160.0
112.454605 176.0
112.482048 152.0
112.509338 168.0
112.547493 176.0
112.577057 200.0
112.661537 116.0
112.772209 176.0
112.81575 136.0
112.852821 164.0
112.991341 160.0
113.071259 156.0
113.080002 120.0
113.115219 216.0
113.135246 120.0
113.166328 188.0
113.188179 80.0
113.239006 176.0
113.306282 216.0
113.32798 192.0
113.370918 196.0
113.425461 100.0
113.506027 164.0
113.631165 116.0
113.673294 172.0
113.7118 400.0
113.767624 120.0
113.811577 152.0
113.868912 136.0
113.885902 84.0
113.909973 216.0
113.928528 212.0
113.961578 148.0
113.983025 144.0
113.997505 268.0
114.012192 100.0
114.019196 168.0
114.034523 132.0
114.060204 136.0
114.087776 192.0
114.110672 176.0
114.128166 148.0
114.15963 136.0
114.162773 132.0
114.204727 184.0
114.229561 136.0
114.251526 128.0
114.269928 228.0
114.277634 148.0
114.302589 156.0
114.341553 148.0
114.357193 164.0
114.379204 96.0
114.40049 184.0
114.429176 236.0
114.452087 188.0
114.470184 236.0
114.499016 320.0
114.519737 156.0
114.549553 56.0
114.568726 140.0
114.602951 64.0
114.636909 140.0
114.709969 260.0
114.728561 152.0
114.766937 124.0
114.788261 220.0
114.81385 184.0
114.827522 104.0
114.892769 200.0
114.925346 180.0
114.968468 132.0
115.001602 320.0
115.054642 2512.0
115.101936 172.0
115.123291 176.0
115.14785 168.0
115.183769 240.0
115.202316 92.0
115.227951 124.0
115.251457 312.0
115.299606 188.0
115.330528 192.0
115.349762 168.0
115.388245 56.0
115.407761 136.0
115.428398 164.0
115.433617 128.0
115.445312 192.0
115.473778 132.0
115.550789 140.0
115.565765 132.0
115.589302 152.0
115.611275 164.0
115.65889 356.0
115.690552 156.0
115.723511 120.0
115.864502 128.0
115.868156 168.0
115.942642 140.0
115.981224 228.0
116.000511 292.0
116.024094 76.0
116.0606 560.0
116.089096 164.0
116.112007 148.0
116.161339 128.0
116.197807 180.0
116.219269 140.0
116.25885 148.0
116.281502 140.0
116.414604 100.0
116.445053 156.0
116.472816 152.0
116.509109 164.0
116.524147 200.0
116.591125 188.0
116.706841 152.0
116.730492 120.0
116.782799 324.0
116.827278 160.0
116.868156 128.0
116.90258 180.0
116.937019 292.0
116.97361 120.0
116.999634 228.0
117.019936 152.0
117.058029 4156.0
117.093636 196.0
117.124336 156.0
117.181847 196.0
117.206207 72.0
117.230125 160.0
117.255768 164.0
117.278664 116.0
117.313965 156.0
117.402367 172.0
117.428886 176.0
117.447662 88.0
117.475525 148.0
117.501587 136.0
117.572388 168.0
117.615959 108.0
117.633232 228.0
117.667931 164.0
117.689362 200.0
117.719597 156.0
117.745506 144.0
117.788704 68.0
117.819168 212.0
117.838394 188.0
117.866486 416.0
117.909706 140.0
117.933479 260.0
117.963737 180.0
117.998589 132.0
118.015625 32.0
118.064125 1860.0
118.112946 124.0
118.141876 192.0
118.160538 140.0
118.18866 148.0
118.223373 184.0
118.24276 180.0
118.262238 152.0
118.321129 176.0
118.348831 164.0
118.368729 144.0
118.391792 120.0
118.418129 200.0
118.437622 148.0
118.454956 132.0
118.496117 212.0
118.541618 176.0
118.569786 148.0
118.600594 112.0
118.621811 184.0
118.64257 104.0
118.672668 56.0
118.695518 144.0
118.722183 176.0
118.745224 120.0
118.751488 104.0
118.761253 284.0
118.819153 140.0
118.8536 164.0
118.892929 144.0
118.952545 196.0
118.998177 184.0
119.049553 4968.0
119.075401 948.0
119.10849 288.0
119.150291 76.0
119.212158 144.0
119.253448 180.0
119.281708 80.0
119.329536 208.0
119.366501 392.0
119.399117 160.0
119.425217 168.0
119.453491 108.0
119.503532 156.0
119.552155 128.0
119.597107 136.0
119.616699 180.0
119.634109 144.0
119.650505 72.0
119.673302 144.0
119.713585 236.0
119.749519 280.0
119.78437 80.0
119.806152 180.0
119.866684 116.0
119.892685 140.0
119.917282 208.0
119.969597 216.0
120.025711 184.0
120.055618 1292.0
120.081032 2208.0
120.137207 316.0
120.194244 100.0
120.23867 208.0
120.307732 56.0
120.362312 148.0
120.384087 128.0
120.469078 172.0
120.50563 260.0
120.584412 232.0
120.604965 168.0
120.652901 124.0
120.670395 60.0
120.694443 168.0
120.826118 196.0
120.875999 56.0
120.903473 72.0
120.945541 284.0
120.972298 104.0
121.011856 112.0
121.036636 176.0
121.064468 5124.0
121.089165 2316.0
121.132156 248.0
121.148788 108.0
121.173309 112.0
121.211029 216.0
121.235512 152.0
121.270378 148.0
121.287735 44.0
121.316231 92.0
121.346359 172.0
121.413872 100.0
121.436829 104.0
121.453903 148.0
121.489471 172.0
121.53949 312.0
121.55423 132.0
121.570656 192.0
121.592819 172.0
121.623329 248.0
121.640892 44.0
121.658142 284.0
121.724319 112.0
121.739693 212.0
121.796318 188.0
121.818932 156.0
121.872826 184.0
121.890236 240.0
121.935219 160.0
121.952545 156.0
121.989471 156.0
122.034843 136.0
122.070564 780.0
122.15509 128.0
122.190292 44.0
122.229897 144.0
122.280937 288.0
122.30162 216.0
122.370766 116.0
122.4104 196.0
122.435699 196.0
122.45536 48.0
122.483078 100.0
122.55455 248.0
122.601524 168.0
122.632027 200.0
122.703629 160.0
122.740929 168.0
122.795097 156.0
122.826942 176.0
122.854424 244.0
122.875473 184.0
122.901947 156.0
122.943878 160.0
122.968155 116.0
122.990227 108.0
123.005531 60.0
123.043076 652.0
123.08004 712.0
123.116066 180.0
123.140366 196.0
123.176224 176.0
123.195587 72.0
123.229668 168.0
123.243057 140.0
123.279549 132.0
123.30127 176.0
123.335899 192.0
123.363312 80.0
123.403328 204.0
123.434525 216.0
123.506813 156.0
123.538231 172.0
123.555931 232.0
123.573631 144.0
123.637802 184.0
123.677643 156.0
123.704201 132.0
123.722672 176.0
123.757339 300.0
123.799408 48.0
123.821556 96.0
123.844063 188.0
123.938797 220.0
123.958374 400.0
123.992332 340.0
124.027451 164.0
124.03257 168.0
124.041298 204.0
124.066536 164.0
124.084282 184.0
124.102982 212.0
124.127373 84.0
124.163994 172.0
124.189667 220.0
124.241379 120.0
124.289299 196.0
124.327026 180.0
124.353661 160.0
124.42247 144.0
124.469093 132.0
124.523857 232.0
124.556419 176.0
124.586807 124.0
124.693466 128.0
124.731255 156.0
124.75354 148.0
124.792274 148.0
124.811287 180.0
124.875778 156.0
124.913589 192.0
124.987007 192.0
125.060768 308.0
125.098289 176.0
125.11911 136.0
125.137291 108.0
125.202934 160.0
125.267532 152.0
125.303993 164.0
125.32991 336.0
125.452042 200.0
125.505997 140.0
125.537216 172.0
125.570671 164.0
125.609253 160.0
125.626434 124.0
125.657661 220.0
125.71122 232.0
125.738457 232.0
125.810852 356.0
125.840019 216.0
125.921066 128.0
125.967972 96.0
126.011757 388.0
126.034996 132.0
126.061607 44.0
126.064362 128.0
126.086395 136.0
126.122154 104.0
126.144508 156.0
126.199463 156.0
126.258537 168.0
126.319939 204.0
126.341301 144.0
126.365913 88.0
126.397232 156.0
126.414391 168.0
126.455421 60.0
126.486755 108.0
126.524811 140.0
126.547867 228.0
126.574066 180.0
126.655563 232.0
126.690536 152.0
126.706215 164.0
126.744888 168.0
126.759987 324.0
126.825432 180.0
126.84964 352.0
126.869812 168.0
126.905685 160.0
126.925507 124.0
126.953049 144.0
126.994362 140.0
127.008842 200.0
127.024544 44.0
127.055954 292.0
127.135948 172.0
127.22876 108.0
127.255699 304.0
127.312752 176.0
127.347771 144.0
127.381989 188.0
127.453354 212.0
127.509537 216.0
127.534256 72.0
127.567978 60.0
127.58371 116.0
127.612938 168.0
127.648918 120.0
127.678146 104.0
127.788368 176.0
127.806374 252.0
127.831757 256.0
127.849129 144.0
127.880638 148.0
127.948166 132.0
127.96843 92.0
128.011215 104.0
128.060104 708.0
128.083847 112.0
128.108063 220.0
128.207199 112.0
128.222977 164.0
128.250641 116.0
128.299225 168.0
128.328918 288.0
128.357498 184.0
128.419128 192.0
128.470703 152.0
128.500336 60.0
128.552338 160.0
128.599365 172.0
128.667343 120.0
128.707977 172.0
128.737152 196.0
128.755402 184.0
128.776764 192.0
128.804016 292.0
128.828583 212.0
128.894073 256.0
128.939468 136.0
128.970047 128.0
129.024292 128.0
129.044647 128.0
129.070633 1384.0
129.093872 160.0
129.14415 92.0
129.162231 156.0
129.270844 212.0
129.301498 180.0
129.369324 164.0
129.423813 124.0
129.468689 132.0
129.497223 164.0
129.587845 148.0
129.681656 60.0
129.706757 144.0
129.803177 136.0
129.837189 184.0
129.873428 184.0
129.952042 156.0
129.963974 112.0
129.979034 308.0
130.042221 348.0
130.066681 1068.0
130.126007 148.0
130.168503 172.0
130.216232 180.0
130.241486 180.0
130.28186 128.0
130.343246 168.0
130.386597 156.0
130.407043 116.0
130.426559 252.0
130.44342 156.0
130.49115 180.0
130.586655 140.0
130.648071 32.0
130.677658 108.0
130.711945 172.0
130.729996 152.0
130.768539 128.0
130.813782 132.0
130.819427 108.0
130.826691 164.0
130.903 156.0
130.925232 252.0
130.941711 108.0
130.95993 64.0
130.981369 192.0
131.005295 140.0
131.049408 10680.0
131.083298 2396.0
131.121017 80.0
131.148666 196.0
131.180115 120.0
131.212875 112.0
131.242706 96.0
131.280197 152.0
131.322327 240.0
131.370834 144.0
131.406021 164.0
131.41922 196.0
131.440964 376.0
131.476807 168.0
131.566589 180.0
131.605301 76.0
131.630417 56.0
131.650436 80.0
131.702774 212.0
131.737762 168.0
131.758331 72.0
131.781174 164.0
131.803284 136.0
131.833725 172.0
131.859436 180.0
131.902298 156.0
131.927139 124.0
131.957153 180.0
132.002625 164.0
132.02562 140.0
132.055237 3348.0
132.080933 24788.0
132.133591 252.0
132.175644 260.0
132.214584 52.0
132.253494 140.0
132.290497 284.0
132.330765 116.0
132.375092 128.0
132.399689 112.0
132.449265 100.0
132.476303 384.0
132.505676 200.0
132.554565 176.0
132.581268 104.0
132.589478 68.0
132.594513 120.0
132.635468 172.0
132.653641 172.0
132.705841 44.0
132.724182 116.0
132.749054 172.0
132.770416 172.0
132.798981 124.0
132.812775 204.0
132.86409 88.0
132.89061 180.0
132.928177 204.0
132.951599 208.0
132.974228 216.0
132.989716 172.0
133.009735 188.0
133.064041 7504.0
133.083893 3404.0
133.128052 140.0
133.169327 160.0
133.201935 192.0
133.273254 188.0
133.320129 196.0
133.356705 120.0
133.4478 232.0
133.456451 48.0
133.465439 324.0
133.495972 80.0
133.515762 136.0
133.54863 152.0
133.578537 68.0
133.601212 168.0
133.641693 48.0
133.656754 168.0
133.727127 172.0
133.755722 200.0
133.776276 176.0
133.801758 144.0
133.817871 40.0
133.846039 120.0
133.867035 120.0
133.897446 172.0
133.906143 96.0
133.917999 204.0
133.955002 176.0
134.006729 212.0
134.067139 2456.0
134.096375 1456.0
134.154236 264.0
134.176865 152.0
134.210831 124.0
134.237228 72.0
134.255676 64.0
134.276443 148.0
134.292587 36.0
134.317947 160.0
134.376389 196.0
134.419464 156.0
134.447159 152.0
134.500244 64.0
134.546417 200.0
134.56488 48.0
134.587967 140.0
134.613373 192.0
134.649216 160.0
134.668793 204.0
134.77507 156.0
134.799759 168.0
134.820435 132.0
134.839767 52.0
134.881378 48.0
134.909119 124.0
134.927612 164.0
134.946106 136.0
135.015564 204.0
135.042175 1632.0
135.079346 2628.0
135.181122 112.0
135.216751 112.0
135.267334 136.0
135.299011 252.0
135.316284 160.0
135.361618 104.0
135.418167 144.0
135.459869 124.0
135.476089 180.0
135.496933 124.0
135.580353 124.0
135.608154 168.0
135.649887 288.0
135.729263 184.0
135.771988 224.0
135.826797 148.0
135.900345 156.0
135.94075 104.0
136.004776 196.0
136.025665 160.0
136.052734 2048.0
136.118546 196.0
136.134796 152.0
136.154648 64.0
136.173203 112.0
136.204468 128.0
136.220734 112.0
136.239319 176.0
136.290436 168.0
136.331802 204.0
136.362473 44.0
136.432205 204.0
136.541138 132.0
136.62352 164.0
136.646164 124.0
136.673965 348.0
136.713638 240.0
136.736908 196.0
136.781143 116.0
136.850983 188.0
136.892899 172.0
136.919525 164.0
136.983383 80.0
137.007019 128.0
137.059692 3712.0
137.109543 132.0
137.14093 180.0
137.182999 148.0
137.216034 224.0
137.268066 60.0
137.325089 156.0
137.375351 160.0
137.401016 156.0
137.429016 40.0
137.455841 192.0
137.503265 188.0
137.529358 96.0
137.558624 156.0
137.587967 188.0
137.617676 168.0
137.660095 156.0
137.691589 184.0
137.725494 128.0
137.78389 348.0
137.849716 160.0
137.867081 160.0
137.931122 180.0
137.977448 200.0
138.034531 68.0
138.064377 192.0
138.106476 84.0
138.232819 200.0
138.292023 148.0
138.319412 152.0
138.364166 172.0
138.394547 220.0
138.417297 104.0
138.436478 48.0
138.462234 148.0
138.485657 160.0
138.513763 80.0
138.570786 212.0
138.588608 156.0
138.61821 164.0
138.659027 132.0
138.684814 192.0
138.703568 152.0
138.736389 136.0
138.765427 188.0
138.790314 96.0
138.870041 120.0
138.888367 252.0
138.949799 68.0
139.062927 192.0
139.158676 180.0
139.196243 88.0
139.243439 176.0
139.271393 68.0
139.306641 88.0
139.33197 176.0
139.363022 172.0
139.394913 160.0
139.411377 76.0
139.420456 136.0
139.439011 224.0
139.47438 208.0
139.496979 192.0
139.570358 336.0
139.614197 280.0
139.65654 168.0
139.685104 44.0
139.746262 160.0
139.777084 164.0
139.812515 128.0
139.852158 136.0
139.875702 84.0
139.92984 160.0
140.023651 200.0
140.057007 104.0
140.097061 188.0
140.116623 208.0
140.148895 156.0
140.18895 140.0
140.223404 200.0
140.245514 124.0
140.283218 140.0
140.330521 128.0
140.353958 156.0
140.405838 188.0
140.431778 196.0
140.450607 152.0
140.494812 188.0
140.547363 212.0
140.566772 180.0
140.594315 148.0
140.67482 68.0
140.743286 160.0
140.779251 192.0
140.814133 132.0
140.85199 372.0
140.976257 356.0
141.005493 184.0
141.069885 460.0
141.137878 140.0
141.159164 172.0
141.194626 124.0
141.238327 236.0
141.350769 244.0
141.369904 176.0
141.402832 92.0
141.428864 140.0
141.484894 132.0
141.563812 156.0
141.600281 220.0
141.634857 72.0
141.653809 52.0
141.670395 152.0
141.709122 180.0
141.818253 80.0
141.845749 52.0
141.890579 224.0
141.912125 200.0
141.974884 164.0
142.023041 188.0
142.063843 484.0
142.151703 156.0
142.171631 188.0
142.208847 156.0
142.240128 204.0
142.293015 60.0
142.31311 64.0
142.358047 160.0
142.384354 152.0
142.409027 144.0
142.434235 108.0
142.457977 196.0
142.481735 124.0
142.63382 128.0
142.665298 264.0
142.683746 120.0
142.728928 120.0
142.771652 128.0
142.802643 160.0
142.821671 184.0
142.857346 172.0
142.878571 100.0
142.884445 92.0
142.891434 136.0
142.930054 108.0
142.969177 80.0
142.990601 132.0
143.048981 1224.0
143.085541 1308.0
143.154861 60.0
143.186249 160.0
143.217865 88.0
143.252304 180.0
143.316071 184.0
143.376419 192.0
143.405014 152.0
143.431229 136.0
143.485199 164.0
143.503204 104.0
143.525543 180.0
143.551575 184.0
143.588791 192.0
143.636307 128.0
143.662537 280.0
143.693558 96.0
143.720184 196.0
143.761124 188.0
143.775833 116.0
143.800934 108.0
143.829575 168.0
143.861542 256.0
143.905655 244.0
143.93187 184.0
143.978668 244.0
144.000839 176.0
144.053574 1004.0
144.08107 2584.0
144.112457 124.0
144.133072 104.0
144.202179 144.0
144.221298 48.0
144.263 108.0
144.302582 172.0
144.322784 200.0
144.35997 180.0
144.378342 228.0
144.460419 232.0
144.481949 148.0
144.510208 168.0
144.572876 128.0
144.596817 44.0
144.632706 196.0
144.666107 156.0
144.707886 120.0
144.733261 76.0
144.774094 148.0
144.813751 216.0
144.853394 148.0
144.932068 180.0
144.989655 132.0
145.027924 120.0
145.062973 2148.0
145.096695 1824.0
145.138199 116.0
145.202042 180.0
145.234741 332.0
145.257889 124.0
145.310898 184.0
145.35408 116.0
145.402084 108.0
145.437759 176.0
145.472672 244.0
145.51564 156.0
145.546112 176.0
145.565323 108.0
145.614731 132.0
145.619644 296.0
145.639694 132.0
145.655457 220.0
145.690506 136.0
145.724976 232.0
145.774307 236.0
145.795944 136.0
145.822372 264.0
145.880066 172.0
145.939346 256.0
145.958267 68.0
146.005096 156.0
146.029144 88.0
146.061111 3016.0
146.09639 3372.0
146.127777 168.0
146.168518 100.0
146.174286 132.0
146.217911 96.0
146.252899 164.0
146.283356 92.0
146.308273 76.0
146.354019 160.0
146.404587 224.0
146.42688 128.0
146.520889 132.0
146.583038 364.0
146.616028 188.0
146.667542 308.0
146.688889 184.0
146.722351 168.0
146.755386 76.0
146.831924 112.0
146.873474 88.0
146.934875 128.0
146.981171 256.0
147.000504 144.0
147.044968 1756.0
147.068558 12032.0
147.102829 1196.0
147.126358 176.0
147.156616 64.0
147.166809 40.0
147.172394 68.0
147.210037 204.0
147.235153 40.0
147.259201 144.0
147.282486 252.0
147.29892 156.0
147.323547 100.0
147.340469 112.0
147.364624 136.0
147.389557 252.0
147.411423 108.0
147.461166 148.0
147.526016 292.0
147.606186 132.0
147.6241 168.0
147.676468 52.0
147.71727 212.0
147.760773 232.0
147.792862 140.0
147.83432 96.0
147.847031 224.0
147.899536 208.0
147.930542 112.0
147.976532 60.0
147.993484 348.0
148.050919 1596.0
148.075409 6292.0
148.109344 416.0
148.172226 136.0
148.210266 112.0
148.228439 164.0
148.275009 164.0
148.309891 196.0
148.345398 228.0
148.368576 156.0
148.395676 136.0
148.414108 60.0
148.444763 148.0
148.495758 164.0
148.606201 140.0
148.647827 140.0
148.651657 128.0
148.686768 208.0
148.717392 104.0
148.767349 224.0
148.793503 172.0
148.819214 72.0
148.846985 60.0
148.868851 96.0
148.900925 172.0
148.951721 224.0
148.977142 184.0
149.060333 30908.0
149.084961 3208.0
149.149612 120.0
149.156815 68.0
149.235764 44.0
149.262604 224.0
149.316925 148.0
149.334106 284.0
149.386551 172.0
149.409378 88.0
149.43277 72.0
149.522644 188.0
149.554443 72.0
149.58609 200.0
149.608002 144.0
149.642075 180.0
149.657578 152.0
149.702957 104.0
149.738159 100.0
149.789734 140.0
149.814987 176.0
149.907578 192.0
149.938232 104.0
149.967484 152.0
150.007507 56.0
150.029648 116.0
150.066681 6728.0
150.134018 80.0
150.175751 168.0
150.230484 64.0
150.242722 188.0
150.305313 76.0
150.339218 92.0
150.373047 60.0
150.390015 176.0
150.455978 324.0
150.492996 132.0
150.536942 236.0
150.637329 156.0
150.735489 116.0
150.760239 128.0
150.799164 156.0
150.817413 160.0
150.88266 268.0
150.903473 292.0
150.9646 84.0
150.986603 140.0
151.074051 1688.0
151.116302 216.0
151.160294 116.0
151.19223 252.0
151.226364 128.0
151.249359 152.0
151.280228 108.0
151.300812 184.0
151.334076 140.0
151.36084 168.0
151.407547 172.0
151.471222 164.0
151.500168 148.0
151.537369 92.0
151.569962 184.0
151.659714 256.0
151.730988 100.0
151.765305 108.0
151.793655 164.0
151.821716 136.0
151.841324 176.0
151.860947 100.0
151.883026 112.0
151.927856 104.0
151.946808 144.0
152.037598 172.0
152.072617 104.0
152.110199 200.0
152.139252 184.0
152.157272 132.0
152.197159 188.0
152.235046 176.0
152.288025 228.0
152.312576 140.0
152.337143 160.0
152.387527 204.0
152.469727 148.0
152.499313 40.0
152.543564 180.0
152.561401 140.0
152.589325 120.0
152.60994 136.0
152.678665 76.0
152.724091 200.0
152.75531 188.0
152.889465 144.0
152.946976 44.0
153.010971 136.0
153.073288 304.0
153.15451 224.0
153.235092 216.0
153.279449 132.0
153.299164 112.0
153.427338 40.0
153.47171 144.0
153.517761 148.0
153.601746 208.0
153.611313 152.0
153.636948 160.0
153.654221 140.0
153.671494 120.0
153.701096 136.0
153.730438 144.0
153.792419 132.0
153.855026 120.0
153.873291 188.0
153.893631 196.0
153.934464 112.0
153.967712 144.0
154.014114 132.0
154.078186 240.0
154.162872 36.0
154.219711 176.0
154.254318 124.0
154.283783 196.0
154.339447 240.0
154.37439 120.0
154.402664 148.0
154.435669 132.0
154.471924 184.0
154.543671 48.0
154.565933 112.0
154.598114 140.0
154.652557 172.0
154.7276 228.0
154.763962 100.0
154.811005 116.0
154.850632 88.0
154.86908 196.0
154.939804 124.0
154.979034 216.0
155.024048 156.0
155.065002 512.0
155.083618 476.0
155.120987 240.0
155.135056 204.0
155.187653 164.0
155.205002 168.0
155.242203 104.0
155.316605 180.0
155.37117 116.0
155.405914 132.0
155.446671 196.0
155.472916 196.0
155.50766 28.0
155.543076 132.0
155.616882 160.0
155.659088 132.0
155.67746 200.0
155.708755 180.0
155.728622 180.0
155.767395 112.0
155.790726 164.0
155.818054 104.0
155.850357 144.0
155.956055 128.0
155.979584 124.0
156.008987 140.0
156.081177 412.0
156.149002 172.0
156.185974 156.0
156.225769 192.0
156.3004 72.0
156.338333 188.0
156.392487 360.0
156.453644 196.0
156.494827 184.0
156.530548 96.0
156.574234 204.0
156.646469 116.0
156.673874 128.0
156.721207 60.0
156.793472 156.0
156.835846 204.0
156.855789 64.0
156.878632 172.0
156.930161 280.0
156.99292 132.0
157.02533 144.0
157.062347 492.0
157.087067 960.0
157.142319 192.0
157.187485 164.0
157.258698 160.0
157.322449 232.0
157.344727 140.0
157.427139 176.0
157.527039 48.0
157.570694 176.0
157.648453 108.0
157.731934 76.0
157.764435 232.0
157.801941 176.0
157.846939 200.0
157.871948 148.0
157.896957 56.0
157.914474 120.0
158.016479 220.0
158.066376 996.0
158.097107 1052.0
158.139648 152.0
158.157166 136.0
158.18721 140.0
158.204727 36.0
158.224762 100.0
158.252289 120.0
158.318451 324.0
158.358185 156.0
158.412933 224.0
158.447647 148.0
158.49025 156.0
158.521393 184.0
158.559967 228.0
158.577957 124.0
158.613998 168.0
158.66568 92.0
158.693329 168.0
158.727768 184.0
158.791061 208.0
158.82489 256.0
158.845367 172.0
158.868958 152.0
158.891403 116.0
158.961136 268.0
158.998108 152.0
159.042206 328.0
159.072281 2356.0
159.102478 996.0
159.127899 184.0
159.154938 188.0
159.197372 396.0
159.216614 164.0
159.256775 208.0
159.305725 188.0
159.348328 128.0
159.400146 200.0
159.445923 180.0
159.464691 172.0
159.49408 84.0
159.523682 232.0
159.547714 120.0
159.598053 172.0
159.631531 144.0
159.642075 220.0
159.700272 156.0
159.743027 160.0
159.765274 156.0
159.790604 136.0
159.840073 244.0
159.858765 188.0
159.881409 144.0
159.926712 68.0
159.968307 320.0
159.991013 144.0
160.01474 116.0
160.023941 152.0
160.076248 53616.0
160.108292 828.0
160.144058 148.0
160.191422 32.0
160.22757 212.0
160.249802 108.0
160.271561 356.0
160.314102 116.0
160.329346 236.0
160.358566 200.0
160.389771 228.0
160.434525 188.0
160.478195 48.0
160.493973 260.0
160.537064 212.0
160.558472 192.0
160.576752 128.0
160.629883 128.0
160.67627 80.0
160.700363 48.0
160.723068 136.0
160.74884 132.0
160.759872 48.0
160.764236 140.0
160.782059 232.0
160.823029 232.0
160.859344 128.0
160.877014 68.0
160.923508 164.0
160.96965 256.0
161.019211 168.0
161.060547 7948.0
161.080948 8856.0
161.164368 88.0
161.197678 192.0
161.213882 248.0
161.243271 148.0
161.266022 44.0
161.288025 96.0
161.328568 92.0
161.349899 132.0
161.382217 152.0
161.429901 180.0
161.468597 192.0
161.506226 80.0
161.537994 128.0
161.546982 72.0
161.555481 136.0
161.5784 240.0
161.625122 200.0
161.711166 152.0
161.729843 72.0
161.756729 120.0
161.776886 176.0
161.841309 244.0
161.871445 116.0
161.895981 52.0
161.930603 348.0
161.959305 108.0
161.984634 116.0
162.025162 352.0
162.06601 3660.0
162.090546 3072.0
162.127991 596.0
162.199036 116.0
162.269897 212.0
162.293808 84.0
162.319595 72.0
162.382568 220.0
162.422714 236.0
162.47316 176.0
162.508484 88.0
162.570312 152.0
162.594177 176.0
162.610916 156.0
162.643906 144.0
162.669434 140.0
162.732758 144.0
162.772629 148.0
162.870667 224.0
162.936783 132.0
162.977722 200.0
162.983322 148.0
163.022064 224.0
163.079254 16128.0
163.162979 84.0
163.183029 252.0
163.220612 96.0
163.256989 236.0
163.302521 116.0
163.355972 212.0
163.416611 132.0
163.440765 80.0
163.485153 120.0
163.524078 164.0
163.590057 56.0
163.61412 204.0
163.642975 56.0
163.765213 64.0
163.812607 92.0
163.849274 104.0
163.911789 156.0
163.941193 160.0
163.971588 140.0
163.996979 180.0
164.078476 1728.0
164.112106 292.0
164.15625 64.0
164.206512 136.0
164.250336 172.0
164.268738 140.0
164.327713 280.0
164.36058 120.0
164.400024 44.0
164.422989 32.0
164.440857 64.0
164.479141 88.0
164.54808 76.0
164.569992 144.0
164.6017 68.0
164.637451 124.0
164.765152 160.0
164.837616 144.0
164.872971 144.0
164.957825 104.0
164.987503 140.0
165.036072 104.0
165.08577 656.0
165.162018 80.0
165.197708 192.0
165.231918 180.0
165.289307 96.0
165.359482 208.0
165.41983 68.0
165.461014 132.0
165.486389 72.0
165.516861 120.0
165.535278 132.0
165.555527 56.0
165.722229 156.0
165.770706 136.0
165.820465 204.0
165.851425 284.0
165.929626 212.0
165.961823 168.0
165.993729 176.0
166.044693 188.0
166.1203 136.0
166.175842 152.0
166.204071 184.0
166.238068 160.0
166.261612 140.0
166.310593 160.0
166.337524 132.0
166.358047 264.0
166.378586 160.0
166.396561 128.0
166.46846 164.0
166.55835 168.0
166.589172 156.0
166.614868 72.0
166.640549 64.0
166.670044 184.0
166.733139 204.0
166.830734 168.0
166.863571 148.0
166.920715 144.0
166.946442 44.0
167.031311 148.0
167.074295 344.0
167.141937 140.0
167.175812 320.0
167.208847 196.0
167.257751 256.0
167.297302 120.0
167.348984 136.0
167.419952 136.0
167.472778 164.0
167.4991 148.0
167.551315 124.0
167.574509 168.0
167.638367 324.0
167.664688 200.0
167.69046 184.0
167.716232 208.0
167.747162 232.0
167.793564 100.0
167.845139 204.0
167.897568 196.0
167.919403 160.0
167.971512 116.0
168.045807 60.0
168.062317 140.0
168.091675 124.0
168.108246 160.0
168.202499 160.0
168.221817 204.0
168.270859 156.0
168.332123 216.0
168.374298 140.0
168.404602 132.0
168.454224 196.0
168.523972 112.0
168.556198 196.0
168.601959 200.0
168.74498 204.0
168.796921 100.0
168.836761 124.0
168.872971 180.0
168.898834 148.0
168.922104 184.0
168.974365 140.0
168.997131 144.0
169.061356 88.0
169.144653 128.0
169.245605 212.0
169.281265 144.0
169.305099 140.0
169.323441 144.0
169.359558 184.0
169.41655 124.0
169.470947 156.0
169.498077 180.0
169.597931 108.0
169.632172 232.0
169.670517 56.0
169.691254 136.0
169.758392 184.0
169.858582 92.0
169.981766 92.0
170.064056 568.0
170.095474 276.0
170.133163 136.0
170.256927 164.0
170.360825 160.0
170.397934 200.0
170.430984 92.0
170.472549 104.0
170.515106 88.0
170.610306 32.0
170.631104 160.0
170.667511 164.0
170.697021 148.0
170.718063 172.0
170.748123 128.0
170.839157 120.0
170.85997 144.0
170.901596 140.0
170.940628 128.0
170.958847 36.0
171.051437 104.0
171.079681 1480.0
171.152939 172.0
171.182083 180.0
171.232193 144.0
171.310349 100.0
171.362442 180.0
171.391281 172.0
171.411957 84.0
171.441086 180.0
171.503174 168.0
171.620483 108.0
171.638733 180.0
171.657715 144.0
171.68306 160.0
171.7173 124.0
171.726089 88.0
171.736465 168.0
171.807175 176.0
171.825333 52.0
171.847397 92.0
171.881317 32.0
171.924103 116.0
171.964828 172.0
172.033585 292.0
172.076736 2160.0
172.111282 1312.0
172.163239 64.0
172.186661 116.0
172.233765 148.0
172.273209 224.0
172.303543 172.0
172.341202 104.0
172.360443 160.0
172.382904 236.0
172.445404 40.0
172.489838 144.0
172.510742 68.0
172.541412 240.0
172.562531 252.0
172.619843 176.0
172.648987 156.0
172.659698 136.0
172.761795 212.0
172.819351 108.0
172.863831 152.0
172.958054 60.0
173.005173 124.0
173.059799 1576.0
173.084656 5120.0
173.153488 136.0
173.171326 300.0
173.209427 76.0
173.280151 216.0
173.305283 108.0
173.325333 148.0
173.370667 176.0
173.39183 84.0
173.413025 176.0
173.436539 172.0
173.458359 144.0
173.480774 184.0
173.523895 176.0
173.586823 216.0
173.647141 276.0
173.717957 56.0
173.744202 60.0
173.765182 260.0
173.804108 164.0
173.884109 100.0
173.946259 144.0
173.985641 100.0
174.013428 96.0
174.056671 1564.0
174.090759 6232.0
174.128113 216.0
174.1642 160.0
174.1931 168.0
174.218231 144.0
174.251556 188.0
174.319199 144.0
174.340668 380.0
174.37439 168.0
174.53212 116.0
174.550522 140.0
174.592606 52.0
174.622971 132.0
174.647842 28.0
174.668884 56.0
174.708344 100.0
174.762558 196.0
174.793335 92.0
174.828964 132.0
174.879379 144.0
174.922012 140.0
174.943634 136.0
174.965591 64.0
174.998566 188.0
175.063171 5228.0
175.097626 2664.0
175.135773 328.0
175.172562 220.0
175.243896 160.0
175.262619 144.0
175.405289 216.0
175.524017 120.0
175.574509 136.0
175.606384 208.0
175.649673 140.0
175.669876 188.0
175.718033 140.0
175.738464 44.0
175.772766 64.0
175.882477 84.0
175.90303 36.0
175.920563 188.0
175.962799 240.0
176.00798 128.0
176.071503 4528.0
176.146545 60.0
176.192566 100.0
176.239197 68.0
176.33963 160.0
176.447876 140.0
176.507904 144.0
176.532806 188.0
176.564178 136.0
176.582794 268.0
176.644073 136.0
176.697525 176.0
176.747803 120.0
176.771622 100.0
176.823181 140.0
176.865616 116.0
176.9133 252.0
176.954086 132.0
176.994995 224.0
177.024826 284.0
177.091354 61176.0
177.136444 252.0
177.194107 228.0
177.212982 256.0
177.256607 188.0
177.312653 160.0
177.343491 120.0
177.350082 200.0
177.391006 108.0
177.439392 80.0
177.487656 100.0
177.521973 132.0
177.542145 372.0
177.583496 96.0
177.630768 136.0
177.652359 144.0
177.67778 160.0
177.694794 116.0
177.72554 132.0
177.776459 172.0
177.812225 228.0
177.863541 60.0
177.889557 60.0
177.9086 164.0
177.917191 208.0
177.94873 264.0
177.975739 124.0
178.006897 76.0
178.034012 232.0
178.09314 6844.0
178.151276 292.0
178.195496 40.0
178.253952 52.0
178.275208 92.0
178.299805 108.0
178.403229 264.0
178.465302 68.0
178.474243 32.0
178.518387 100.0
178.555344 160.0
178.610977 220.0
178.712753 160.0
178.74855 76.0
178.876053 180.0
178.906342 220.0
178.97403 196.0
179.062149 180.0
179.094925 684.0
179.131927 320.0
179.166565 68.0
179.221649 200.0
179.24382 116.0
179.285873 364.0
179.324814 136.0
179.369492 200.0
179.401077 116.0
179.432739 100.0
179.459015 256.0
179.495438 224.0
179.536118 148.0
179.558395 240.0
179.641861 220.0
179.691772 144.0
179.729126 124.0
179.776688 68.0
179.806503 272.0
179.843872 160.0
179.962311 140.0
180.010849 44.0
180.088867 328.0
180.110184 160.0
180.153625 124.0
180.191696 144.0
180.276535 144.0
180.311264 88.0
180.346313 180.0
180.373428 224.0
180.394135 128.0
180.455612 348.0
180.482361 40.0
180.506424 124.0
180.533157 204.0
180.593277 256.0
180.61235 212.0
180.723083 184.0
180.749832 108.0
180.779495 148.0
180.821228 180.0
180.880981 116.0
180.91745 132.0
180.937195 120.0
181.018738 68.0
181.105896 168.0
181.15947 48.0
181.185226 176.0
181.218414 148.0
181.269318 52.0
181.288086 224.0
181.347046 96.0
181.376526 116.0
181.426346 144.0
181.499283 188.0
181.508179 148.0
181.516678 204.0
181.604843 184.0
181.65004 136.0
181.768082 88.0
181.819077 140.0
181.874542 132.0
182.060684 156.0
182.097961 252.0
182.156036 136.0
182.182343 108.0
182.191956 160.0
182.206299 152.0
182.276993 144.0
182.324936 144.0
182.348145 156.0
182.44223 40.0
182.493256 212.0
182.533646 104.0
182.603561 120.0
182.630463 228.0
182.695023 128.0
182.738068 52.0
182.8134 128.0
183.019379 192.0
183.055679 112.0
183.081863 360.0
183.139297 164.0
183.166107 160.0
183.211899 72.0
183.233444 132.0
183.306885 120.0
183.327759 180.0
183.347122 88.0
183.377686 196.0
183.411301 136.0
183.457138 156.0
183.551498 180.0
183.610825 188.0
183.643188 36.0
183.691742 180.0
183.71785 136.0
183.761887 172.0
183.852356 196.0
183.891403 108.0
183.910309 208.0
184.012878 160.0
184.078171 236.0
184.1371 128.0
184.22052 244.0
184.294891 172.0
184.334305 184.0
184.358627 48.0
184.385651 36.0
184.50354 176.0
184.539734 112.0
184.615448 188.0
184.684204 180.0
184.710114 232.0
184.72905 160.0
184.748322 156.0
184.784821 200.0
184.805969 204.0
184.856201 128.0
184.929214 160.0
184.959045 64.0
184.983414 56.0
185.03595 128.0
185.084335 580.0
185.110657 184.0
185.167282 220.0
185.251495 188.0
185.31282 176.0
185.359879 232.0
185.549606 216.0
185.60112 180.0
185.628235 184.0
185.682465 176.0
185.728577 124.0
185.815613 148.0
185.856079 168.0
185.902222 140.0
185.921219 156.0
185.972778 188.0
186.018921 172.0
186.065826 296.0
186.091904 568.0
186.11937 132.0
186.156723 228.0
186.206543 160.0
186.247009 192.0
186.279617 156.0
186.301346 108.0
186.380478 128.0
186.410019 164.0
186.461655 56.0
186.540482 180.0
186.579498 136.0
186.627472 140.0
186.670135 180.0
186.747131 200.0
186.793365 60.0
186.921051 176.0
187.019211 104.0
187.045166 128.0
187.072906 388.0
187.098495 1192.0
187.25737 136.0
187.281845 88.0
187.332352 148.0
187.384125 160.0
187.41954 136.0
187.438614 52.0
187.523102 144.0
187.583054 156.0
187.623947 148.0
187.707214 224.0
187.73912 168.0
187.794937 164.0
187.843948 148.0
187.89122 120.0
187.92395 140.0
187.96489 136.0
188.007996 80.0
188.072845 3876.0
188.106369 3180.0
188.162033 192.0
188.202362 140.0
188.232391 168.0
188.285645 96.0
188.312866 268.0
188.36348 164.0
188.475494 136.0
188.535614 168.0
188.606674 80.0
188.625809 96.0
188.647675 120.0
188.672287 276.0
188.710556 148.0
188.770721 144.0
188.798065 184.0
188.833618 208.0
188.864151 120.0
188.900238 124.0
188.913437 168.0
188.94603 164.0
189.00322 112.0
189.0914 11660.0
189.176331 224.0
189.210266 124.0
189.256088 132.0
189.290634 44.0
189.310715 192.0
189.411285 152.0
189.468674 76.0
189.49263 140.0
189.52977 148.0
189.554703 140.0
189.586487 92.0
189.613815 148.0
189.62326 144.0
189.6306 164.0
189.655014 40.0
189.718048 112.0
189.787506 152.0
189.808533 64.0
189.827728 72.0
189.889511 188.0
189.923721 340.0
189.963547 292.0
189.995834 304.0
190.097763 23280.0
190.189865 140.0
190.230331 168.0
190.265808 184.0
190.345154 128.0
190.386093 124.0
190.400131 108.0
190.424011 160.0
190.484726 156.0
190.512054 72.0
190.54509 68.0
190.588074 84.0
190.615585 176.0
190.697174 120.0
190.719131 168.0
190.738266 364.0
190.790802 220.0
190.84111 196.0
190.863785 124.0
190.880814 212.0
190.906097 200.0
190.96669 88.0
190.992294 208.0
191.028458 164.0
191.106598 19608.0
191.158386 108.0
191.183746 116.0
191.237366 76.0
191.270111 64.0
191.297821 60.0
191.328735 176.0
191.363708 152.0
191.414093 344.0
191.460083 224.0
191.484863 184.0
191.503311 92.0
191.539963 76.0
191.567505 184.0
191.59877 136.0
191.738327 60.0
191.774857 116.0
191.80336 168.0
191.843079 44.0
191.867889 72.0
191.889938 48.0
191.913666 112.0
191.966278 64.0
191.98645 172.0
192.014023 152.0
192.052643 60.0
192.079941 156.0
192.109985 3892.0
192.180801 184.0
192.220108 220.0
192.23938 116.0
192.275879 92.0
192.313843 156.0
192.340485 336.0
192.375214 160.0
192.425186 60.0
192.447266 112.0
192.4888 196.0
192.513535 144.0
192.537308 152.0
192.60051 164.0
192.70137 100.0
192.766144 100.0
192.814667 128.0
192.845062 104.0
192.900345 68.0
192.919693 44.0
192.956406 148.0
193.088364 160.0
193.114624 396.0
193.208298 168.0
193.254333 188.0
193.312454 160.0
193.398239 128.0
193.457962 280.0
193.473648 148.0
193.519119 132.0
193.548431 160.0
193.600342 40.0
193.648071 120.0
193.70282 92.0
193.769318 132.0
193.798523 176.0
193.824722 92.0
193.869064 124.0
193.986542 332.0
194.093597 212.0
194.215622 312.0
194.281509 160.0
194.329361 172.0
194.559708 124.0
194.579758 288.0
194.863129 332.0
194.912445 212.0
194.963959 124.0
195.081985 144.0
195.16539 144.0
195.270905 148.0
195.276352 80.0
195.312775 52.0
195.354507 132.0
195.426834 120.0
195.449097 188.0
195.490845 192.0
195.526886 84.0
195.591873 160.0
195.635574 152.0
195.666199 60.0
195.744156 160.0
195.980911 176.0
196.057175 164.0
196.106323 136.0
196.340515 88.0
196.379562 120.0
196.452087 88.0
196.524612 60.0
196.560898 200.0
196.619492 60.0
196.678101 168.0
196.747894 156.0
196.803726 172.0
196.879135 196.0
196.923981 132.0
196.962921 104.0
197.066284 112.0
197.125595 176.0
197.233963 164.0
197.284271 148.0
197.368149 64.0
197.40007 192.0
197.449249 120.0
197.505188 156.0
197.524765 148.0
197.583511 128.0
197.684235 116.0
197.715012 104.0
197.780273 140.0
197.847 156.0
197.894165 232.0
197.913773 128.0
197.966965 152.0
198.091156 308.0
198.221893 64.0
198.283539 176.0
198.362015 160.0
198.555481 44.0
198.577927 128.0
198.642441 92.0
198.684509 156.0
198.714264 172.0
198.772568 64.0
198.794998 192.0
198.872528 108.0
198.913376 168.0
198.953934 196.0
199.069046 112.0
199.092926 148.0
199.113083 176.0
199.299377 184.0
199.34433 236.0
199.425842 80.0
199.475845 152.0
199.525803 200.0
199.563583 40.0
199.631073 48.0
199.707001 96.0
199.740341 208.0
199.810349 168.0
199.892685 184.0
199.967468 244.0
200.01651 40.0
200.069031 128.0
200.106339 1200.0
200.182617 232.0
200.250214 92.0
200.292465 160.0
200.342896 108.0
200.372818 80.0
200.427765 160.0
200.503769 52.0
200.582687 232.0
200.613708 156.0
200.658813 48.0
200.692642 224.0
200.729294 136.0
200.763138 56.0
200.830826 244.0
200.863571 92.0
200.940842 144.0
200.971878 108.0
201.091446 2492.0
201.198578 212.0
201.293228 156.0
201.322845 108.0
201.364258 220.0
201.404709 200.0
201.456299 164.0
201.480072 132.0
201.508331 172.0
201.564835 108.0
201.63266 112.0
201.685379 120.0
201.729538 160.0
201.802261 352.0
201.835007 152.0
201.871536 176.0
201.897491 160.0
201.933533 124.0
201.955505 128.0
202.003052 152.0
202.022858 176.0
202.048325 172.0
202.087402 32292.0
202.141693 160.0
202.183884 88.0
202.190613 76.0
202.260559 196.0
202.317169 52.0
202.339493 320.0
202.366287 68.0
202.408127 168.0
202.44458 168.0
202.486328 92.0
202.50972 276.0
202.555038 40.0
202.583725 124.0
202.621597 200.0
202.696701 200.0
202.716537 32.0
202.763977 168.0
202.795944 180.0
202.881516 136.0
202.955093 124.0
202.982895 220.0
203.003754 212.0
203.025528 180.0
203.048004 104.0
203.094543 45460.0
203.172241 52.0
203.200394 260.0
203.248962 64.0
203.277191 100.0
203.314957 192.0
203.345032 52.0
203.385849 208.0
203.411407 272.0
203.43219 100.0
203.472076 92.0
203.525574 348.0
203.573807 112.0
203.621948 184.0
203.667831 108.0
203.701035 212.0
203.720932 108.0
203.766617 92.0
203.793579 188.0
203.843811 48.0
203.887741 164.0
203.920593 192.0
203.973831 52.0
204.005096 120.0
204.025009 152.0
204.060501 172.0
204.09642 4460.0
204.148285 100.0
204.200531 116.0
204.266724 148.0
204.302628 64.0
204.360245 128.0
204.394165 136.0
204.412598 160.0
204.436478 132.0
204.46727 196.0
204.518585 188.0
204.579742 124.0
204.619598 44.0
204.644516 184.0
204.682236 248.0
204.776215 164.0
204.804703 56.0
204.890152 76.0
204.962189 184.0
205.023712 204.0
205.054916 196.0
205.109344 5540.0
205.192245 40.0
205.282166 124.0
205.305038 108.0
205.336777 112.0
205.364456 92.0
205.411835 112.0
205.440903 64.0
205.466034 108.0
205.505981 44.0
205.534515 68.0
205.554489 88.0
205.583023 136.0
205.634659 88.0
205.663406 212.0
205.724319 232.0
205.744507 128.0
205.783646 224.0
205.834229 304.0
205.944092 108.0
205.967026 56.0
206.047318 164.0
206.114212 2916.0
206.172455 288.0
206.266418 248.0
206.28746 188.0
206.34201 156.0
206.451477 168.0
206.525833 56.0
206.551575 164.0
206.771881 176.0
206.811951 216.0
206.86348 136.0
206.975143 144.0
206.995178 172.0
207.038132 140.0
207.066574 56.0
207.11409 268.0
207.158432 104.0
207.310287 200.0
207.352325 228.0
207.390533 72.0
207.467926 96.0
207.516663 96.0
207.545334 64.0
207.568085 120.0
207.611298 100.0
207.642838 228.0
207.671524 92.0
207.700195 168.0
207.723145 72.0
207.77478 64.0
207.812088 160.0
207.838577 172.0
207.94101 276.0
207.994476 144.0
208.087143 148.0
208.136429 76.0
208.1996 108.0
208.254166 92.0
208.274277 60.0
208.308746 192.0
208.374207 132.0
208.422272 108.0
208.518494 68.0
208.69136 88.0
208.761398 136.0
208.831879 136.0
208.869278 192.0
208.892288 116.0
208.992981 188.0
209.075592 140.0
209.137192 140.0
209.279587 180.0
209.33551 160.0
209.399933 76.0
209.421921 124.0
209.482407 132.0
209.583237 100.0
209.637985 60.0
209.862823 108.0
209.885895 112.0
210.205109 180.0
210.295532 176.0
210.367706 124.0
210.543823 60.0
210.76915 76.0
210.809601 212.0
210.850067 124.0
211.031693 132.0
211.136276 152.0
211.202789 236.0
211.298248 48.0
211.330078 164.0
211.385056 148.0
211.431366 156.0
211.52977 108.0
211.65715 168.0
211.770096 180.0
211.856995 112.0
212.001862 176.0
212.043671 160.0
212.085922 116.0
212.174194 220.0
212.21347 48.0
212.35556 84.0
212.448074 112.0
212.529617 196.0
212.693863 168.0
212.719543 324.0
212.883759 164.0
212.930222 68.0
212.981049 168.0
213.049316 164.0
213.110931 224.0
213.162628 136.0
213.197495 96.0
213.246902 92.0
213.357361 96.0
213.537643 180.0
213.570633 152.0
213.703461 152.0
213.770599 156.0
213.901352 128.0
213.949417 208.0
214.003235 104.0
214.023621 56.0
214.058563 212.0
214.215225 284.0
214.302261 108.0
214.358597 92.0
214.384827 84.0
214.434372 148.0
214.529388 168.0
214.552429 216.0
214.599442 160.0
214.650101 128.0
214.704498 184.0
214.716583 120.0
214.726654 160.0
214.84552 136.0
214.865936 96.0
214.962219 140.0
214.991913 276.0
215.045731 124.0
215.087723 100.0
215.128586 180.0
215.256058 176.0
215.312103 268.0
215.359268 112.0
215.379715 76.0
215.468094 156.0
215.54953 176.0
215.614914 104.0
215.671906 176.0
215.698212 160.0
215.724518 108.0
215.759598 164.0
215.787766 132.0
215.841461 36.0
215.906967 212.0
215.924744 192.0
215.962494 104.0
215.988739 304.0
216.03183 216.0
216.102249 26540.0
216.189575 44.0
216.271027 176.0
216.305328 204.0
216.371506 76.0
216.413605 140.0
216.486206 100.0
216.575836 60.0
216.615021 172.0
216.646103 104.0
216.671432 84.0
216.719391 192.0
216.748871 132.0
216.781113 80.0
216.814285 240.0
216.861801 148.0
216.888168 196.0
216.893494 204.0
216.906586 128.0
216.999496 336.0
217.04718 140.0
217.107117 3840.0
217.195206 192.0
217.231277 140.0
217.257111 172.0
217.303894 448.0
217.327362 196.0
217.351364 152.0
217.430161 176.0
217.464645 164.0
217.499313 156.0
217.510773 132.0
217.558777 112.0
217.591339 284.0
217.640137 344.0
217.670364 264.0
217.693924 156.0
217.72641 240.0
217.757645 280.0
217.799728 432.0
217.86322 372.0
217.883957 412.0
217.909149 376.0
217.955872 352.0
217.989075 340.0
218.027847 500.0
218.084091 848.0
218.119598 357240.0
218.204681 132.0
218.228851 144.0
218.254272 228.0
218.288681 108.0
218.32074 68.0
218.330292 184.0
218.373001 188.0
218.389648 164.0
218.411896 308.0
218.446182 220.0
218.471619 264.0
218.510117 240.0
218.567123 200.0
218.603073 5976.0
218.63765 444.0
218.663223 260.0
218.681946 156.0
218.69838 344.0
218.721771 280.0
218.774857 168.0
218.796219 204.0
218.804489 140.0
218.816391 300.0
218.823807 48.0
218.874191 168.0
218.93866 168.0
218.98671 136.0
219.0186 140.0
219.055542 232.0
219.084488 268.0
219.121475 66464.0
219.197495 76.0
219.229324 108.0
219.270981 188.0
219.305634 128.0
219.333145 128.0
219.36705 112.0
219.404984 152.0
219.43158 132.0
219.456772 288.0
219.487091 80.0
219.519318 108.0
219.556244 100.0
219.587204 240.0
219.640152 152.0
219.662003 232.0
219.711487 132.0
219.7939 232.0
219.856842 76.0
219.8853 164.0
219.936432 120.0
219.97496 116.0
219.983643 56.0
220.030975 148.0
220.042084 156.0
220.052277 148.0
220.062302 88.0
220.123825 5916.0
220.181702 184.0
220.207901 176.0
220.28952 116.0
220.333984 240.0
220.362183 252.0
220.385864 164.0
220.395248 144.0
220.425369 276.0
220.45369 120.0
220.461624 84.0
220.484772 260.0
220.51561 272.0
220.549835 276.0
220.601547 484.0
220.649551 236.0
220.702591 336.0
220.725983 712.0
220.747086 192.0
220.789398 336.0
220.837448 212.0
220.869415 76.0
220.889694 136.0
220.923401 180.0
220.995514 84.0
221.041489 148.0
221.074997 80.0
221.127136 224.0
221.172195 72.0
221.194901 72.0
221.236755 32.0
221.287811 72.0
221.314468 104.0
221.346802 104.0
221.354568 88.0
221.379333 108.0
221.400711 128.0
221.469055 80.0
221.496719 104.0
221.534241 152.0
221.566208 92.0
221.607697 84.0
221.631393 56.0
221.662079 56.0
221.724747 52.0
221.767715 108.0
221.81218 48.0
221.84726 92.0
221.875763 124.0
221.913437 84.0
222.006775 44.0
222.040482 76.0
222.076065 108.0
222.101685 44.0
222.206589 44.0
222.233292 52.0
222.295609 52.0
222.319351 40.0
222.368393 84.0
222.44902 52.0
222.473694 84.0
222.530685 80.0
222.589478 100.0
222.794418 156.0
222.836014 92.0
222.986389 76.0
223.013275 80.0
223.049973 68.0
223.103485 144.0
223.171234 76.0
223.213501 44.0
223.304047 124.0
223.399185 52.0
223.430618 80.0
223.522858 40.0
223.624039 76.0
223.719284 48.0
223.796692 40.0
223.921768 84.0
224.087494 88.0
224.105225 136.0
224.145187 104.0
224.365753 28.0
224.4552 36.0
224.502899 60.0
224.574615 92.0
224.838181 104.0
224.88179 76.0
225.037033 56.0
225.096741 72.0
225.470154 216.0
225.49234 76.0
225.664459 92.0
225.742203 112.0
225.879776 112.0
225.906708 140.0
225.97551 72.0
226.229889 32.0
226.448486 60.0
226.676163 88.0
226.841003 44.0
226.885971 60.0
227.101868 32.0
227.149857 76.0
227.491959 48.0
227.606033 128.0
227.720154 56.0
227.807266 120.0
228.114929 208.0
228.222 76.0
228.244995 80.0
228.289383 168.0
228.387405 88.0
228.444565 152.0
228.616058 104.0
228.829773 40.0
228.862885 56.0
229.007446 116.0
229.05864 84.0
229.091278 96.0
229.35997 68.0
229.453415 108.0
229.489594 120.0
229.510712 64.0
229.69165 56.0
229.821381 116.0
229.945099 76.0
230.023575 80.0
230.044708 52.0
230.088333 168.0
230.144333 92.0
230.183594 56.0
230.28627 68.0
230.431274 120.0
230.540054 116.0
230.694199 52.0
230.781876 64.0
230.936096 120.0
230.966339 88.0
231.317352 52.0
231.529297 80.0
232.047455 68.0
232.183899 32.0
232.332535 96.0
232.450851 80.0
232.660278 80.0
232.836395 80.0
233.04483 104.0
233.24353 48.0
233.34993 112.0
233.43811 52.0
233.483719 156.0
233.763596 108.0
233.842728 108.0
234.259872 80.0
234.339081 48.0
234.448776 52.0
234.479263 84.0
234.912231 36.0
235.006805 68.0
235.05867 148.0
235.127029 140.0
235.196014 96.0
235.24791 52.0
235.553268 64.0
236.051437 96.0
236.100372 152.0
236.46138 92.0
236.544022 100.0
236.70015 36.0
236.752472 48.0
236.79509 52.0
237.049362 60.0
237.101456 164.0
237.334427 84.0
237.426422 44.0
237.573654 44.0
237.742416 68.0
237.975693 60.0
238.396515 80.0
238.577866 64.0
239.048447 44.0
239.091522 148.0
240.432114 76.0
240.654373 44.0
240.679077 124.0
240.747009 136.0
240.913803 68.0
242.721283 56.0
243.422562 72.0
244.100128 164.0
245.326691 68.0
245.950562 64.0
246.10318 88.0
246.12114 136.0
246.247177 40.0
246.694 152.0
247.128708 160.0
247.216324 60.0
248.105865 104.0
248.821152 100.0
248.946762 40.0
249.458893 64.0
249.619232 84.0
250.037628 92.0
250.141495 52.0
250.358749 124.0
250.71788 120.0
251.115128 92.0
251.323318 72.0
251.534775 88.0
251.948456 200.0
252.552216 124.0
252.922409 180.0
253.204208 108.0
253.530518 48.0
254.1203 140.0
254.942719 216.0
255.5755 76.0
256.21228 40.0
257.842804 76.0
258.379974 96.0
258.828064 76.0
258.936951 80.0
259.25412 80.0
261.286621 84.0
261.853149 72.0
261.97879 108.0
262.097992 88.0
262.6138 92.0
262.791199 56.0
263.1091 136.0
263.627533 56.0
264.80188 40.0
264.879608 40.0
265.281433 60.0
265.90097 72.0
266.465973 64.0
267.1203 188.0
267.95932 44.0
268.490631 72.0
268.846222 128.0
268.950653 84.0
269.319611 104.0
270.143341 88.0
271.830658 40.0
272.418365 72.0
272.904755 124.0
273.585785 104.0
273.799805 40.0
275.43573 76.0
275.511719 56.0
276.004181 36.0
276.808228 76.0
277.053345 40.0
277.315125 116.0
279.102692 136.0
281.31665 88.0
282.149261 1868.0
282.265503 88.0
282.526398 36.0
282.86438 36.0
282.887817 72.0
282.911255 84.0
283.151794 284.0
284.147888 128.0
284.745392 52.0
285.037628 124.0
285.235931 124.0
285.535187 76.0
286.416992 64.0
286.713501 64.0
287.573517 76.0
288.194855 104.0
288.395203 100.0
293.019531 68.0
293.15921 72.0
293.725189 60.0
293.928864 80.0
294.148315 116.0
294.605896 96.0
296.104065 188.0
296.522034 92.0
297.02948 108.0
299.46991 104.0
299.641235 164.0
299.917816 44.0
300.324677 68.0
302.030975 152.0
303.540955 96.0
304.050903 36.0
304.134216 176.0
304.352936 88.0
305.124237 164.0
305.764282 52.0
306.147217 212.0
306.338776 152.0
308.656189 92.0
309.110931 136.0
309.383942 64.0
309.671082 124.0
309.884766 72.0
310.095001 72.0
310.83847 84.0
312.215515 72.0
312.275299 60.0
312.591919 36.0
312.848846 56.0
313.077728 68.0
313.285522 76.0
313.680206 40.0
314.341492 20.0
314.805695 68.0
315.243744 68.0
315.46286 88.0
315.50528 52.0
317.431396 36.0
317.456207 32.0
317.778992 80.0
318.034515 60.0
318.794525 52.0
319.025543 232.0
319.260223 44.0
319.687103 76.0
319.843719 64.0
319.9505 76.0
319.993225 60.0
320.620148 40.0
321.047943 48.0
321.153473 628.0
321.204865 124.0
322.104401 48.0
322.165375 172.0
322.915741 60.0
322.990875 60.0
323.187622 64.0
323.223419 116.0
324.15799 172.0
324.670624 92.0
326.185791 36.0
326.236115 64.0
327.002258 140.0
327.520752 140.0
329.678223 120.0
330.582306 216.0
331.88269 96.0
332.575592 96.0
332.673615 60.0
333.723541 76.0
334.069061 48.0
334.316467 84.0
334.443848 108.0
334.931763 136.0
335.430969 88.0
335.686157 96.0
335.832031 188.0
335.948761 48.0
337.155609 1044.0
337.639923 108.0
337.928894 40.0
338.158813 140.0
338.27655 236.0
338.3461 44.0
338.694 156.0
339.066071 188.0
339.119019 116.0
339.170288 5540.0
339.294952 32.0
339.47464 124.0
339.522308 76.0
339.59259 120.0
339.643341 52.0
339.729736 152.0
339.756073 60.0
339.85611 52.0
339.991882 136.0
340.024902 80.0
340.06897 56.0
340.176483 736.0
340.278198 64.0
340.349091 80.0
340.395691 148.0
340.476471 108.0
340.821777 68.0
340.924683 72.0
340.964508 128.0
341.016541 88.0
341.053314 72.0
341.119476 140.0
341.18103 120.0
341.362122 72.0
341.652679 64.0
341.759369 60.0
341.796173 40.0
341.936005 48.0
342.101654 88.0
342.315186 96.0
342.368866 168.0
342.619202 104.0
342.775482 96.0
344.081329 84.0
344.827484 112.0
345.404297 56.0
345.837219 116.0
346.848389 92.0
347.79425 108.0
348.601624 112.0
348.711639 68.0
349.421875 128.0
349.526062 104.0
350.602264 88.0
351.187592 60.0
351.818207 120.0
352.083313 52.0
353.399109 124.0
354.241455 44.0
354.548676 96.0
354.987305 68.0
355.541382 80.0
355.591278 96.0
356.177002 72.0
356.289703 60.0
356.537689 44.0
357.146759 48.0
358.536041 96.0
359.672058 60.0
360.683594 100.0
361.144897 72.0
362.52298 100.0
364.92569 60.0
365.100616 80.0
365.138641 36.0
367.496582 152.0
367.828613 108.0
367.86084 100.0
367.916412 100.0
368.626831 28.0
369.165833 112.0
369.716705 80.0
369.762634 116.0
372.2276 104.0
372.428253 80.0
373.41507 32.0
373.607391 108.0
375.703094 40.0
377.431366 92.0
377.510712 36.0
377.912994 68.0
380.005219 92.0
380.688354 56.0
381.885345 68.0
382.321075 64.0
385.108673 44.0
385.479797 60.0
385.745575 88.0
386.480804 112.0
387.240234 60.0
389.149963 56.0
390.450623 52.0
390.600098 40.0
391.513214 60.0
392.39978 88.0
394.95874 92.0
395.132782 104.0
395.362274 84.0
397.569641 56.0
398.975739 48.0
403.308777 68.0
404.580811 68.0
404.797028 76.0
404.913147 116.0
405.995209 88.0
406.560852 100.0
406.617035 144.0
408.111389 36.0
410.934784 36.0
413.330811 44.0
414.108063 92.0
415.470032 56.0
415.790588 48.0
415.843353 80.0
417.01712 72.0
417.52533 60.0
417.627014 84.0
419.392242 80.0
423.078644 36.0
426.429871 80.0
431.301697 52.0
433.304596 84.0
434.677002 84.0
437.449127 76.0
437.615662 68.0
437.80719 56.0
440.017151 40.0
442.567535 68.0
443.384369 76.0
445.322693 128.0
447.303101 104.0
448.769165 92.0
450.964294 48.0
451.25174 36.0
451.848053 108.0
453.31308 84.0
454.279755 60.0
454.687073 48.0
459.115784 60.0
459.759949 76.0
462.739258 84.0
463.690216 48.0
465.766846 44.0
467.082153 64.0
468.188263 44.0
469.037048 40.0
469.653625 56.0
476.006805 108.0
476.315155 80.0
479.038208 52.0
479.927277 88.0
480.485535 116.0
482.367706 56.0
483.452393 104.0
483.688721 40.0
484.441895 80.0
488.207764 32.0
488.788422 100.0
488.819214 108.0
489.285767 40.0
489.567566 68.0
492.884796 80.0
495.956085 96.0
497.002686 92.0
498.117004 92.0
498.356903 60.0
499.108063 48.0
500.358276 48.0
501.070862 68.0
501.40506 72.0
503.091095 80.0
503.814545 100.0
503.912811 68.0
508.435394 76.0
511.316132 52.0
512.946594 100.0
514.2276 64.0
515.550842 64.0
515.948608 68.0
516.120361 36.0
516.898376 64.0
519.734924 140.0
522.518433 100.0
526.46283 176.0
533.974182 56.0
536.184021 100.0
536.26239 104.0
539.687683 72.0
540.784058 72.0
541.17749 92.0
541.862976 64.0
544.813538 56.0
547.977112 88.0
548.662231 84.0
548.774109 44.0
551.939758 36.0
553.202942 88.0
553.600952 40.0
555.138 100.0
559.441772 68.0
560.298889 108.0
560.371521 48.0
562.897705 60.0
564.589478 76.0
566.423767 36.0
568.407532 44.0
571.248657 52.0
571.377136 84.0
572.095703 40.0
572.45282 64.0
573.634399 124.0
574.068237 100.0
574.249451 72.0
575.113037 68.0
575.90564 64.0
576.885193 88.0
580.734985 76.0
582.97699 84.0
586.061401 52.0
586.962769 64.0
588.641968 120.0
591.092712 88.0
592.467773 32.0
592.540405 68.0
596.38855 116.0
598.757935 68.0
600.995422 100.0
603.608643 64.0
604.552734 96.0
605.502502 76.0
609.254822 92.0
609.89856 100.0
615.954346 108.0
617.773438 84.0
619.04541 48.0
625.728699 56.0
630.17749 80.0
631.802307 120.0
632.037415 160.0
632.447815 72.0
635.178589 96.0
638.211914 68.0
641.877563 68.0
642.195251 120.0
645.44751 52.0
646.9552 56.0
648.849915 60.0
650.214355 52.0
653.497009 120.0
657.221497 56.0
657.976868 68.0
658.691833 60.0
659.545105 80.0
662.180115 128.0
662.420837 64.0
673.402466 92.0
674.973511 156.0
677.038208 92.0
679.946594 44.0
682.070862 80.0
684.011047 32.0
684.880615 36.0
685.438049 92.0
686.5849 108.0
686.866516 88.0
688.025024 68.0
689.785461 76.0
690.323975 84.0
696.187866 76.0
703.047302 108.0
710.428284 52.0
713.577576 56.0
717.821167 84.0
719.448486 212.0
721.98114 32.0
723.843323 104.0
731.407776 132.0
731.553101 72.0
749.37085 164.0
750.128357 80.0
750.270081 40.0
753.850586 56.0
756.842651 52.0
759.385376 144.0
760.559509 100.0
764.340515 80.0
767.97644 100.0
768.991638 76.0
769.703796 100.0
773.856201 72.0
774.288086 116.0
774.570557 84.0
778.075256 176.0
779.158203 92.0
787.122864 52.0
787.603149 128.0
794.723999 52.0
796.644043 68.0
797.582458 44.0
800.721985 144.0
801.020508 132.0
801.75293 116.0
802.186951 60.0
802.981934 172.0
803.450134 176.0
804.742554 72.0
808.139343 56.0
808.624023 92.0
809.356262 120.0
809.814941 104.0
810.443787 76.0
815.926331 168.0
816.074158 208.0
817.154785 144.0
818.628967 172.0
824.127686 100.0
829.914246 132.0
832.220764 192.0
832.996094 112.0
834.243042 152.0
839.453613 132.0
841.370361 96.0
841.865723 144.0
843.841858 132.0
845.658203 180.0
848.200928 100.0
849.52887 44.0
851.484924 64.0
855.07196 224.0
856.108215 80.0
856.719788 40.0
857.716248 132.0
859.58252 124.0
862.543518 140.0
864.678345 48.0
867.46051 176.0
869.002869 184.0
869.800964 120.0
871.192627 104.0
871.82135 136.0
872.926453 140.0
872.973511 60.0
873.891113 152.0
875.810242 124.0
877.277466 68.0
877.430725 80.0
881.107422 108.0
881.686523 120.0
881.976074 44.0
882.868835 156.0
883.439209 112.0
883.933655 208.0
884.099304 176.0
884.50769 132.0
885.259583 144.0
886.337708 112.0
886.710999 68.0
889.035767 196.0
890.19928 160.0
893.218445 184.0
897.619629 108.0
898.472534 156.0
898.520203 180.0
900.281006 128.0
900.723022 100.0
901.147156 100.0
903.269348 224.0
905.028809 96.0
906.148865 120.0
910.01123 160.0
911.999634 136.0
912.107849 144.0
912.955566 124.0
913.322449 116.0
914.074463 140.0
915.110291 196.0
916.390381 144.0
918.2854 248.0
918.351746 144.0
918.550781 276.0
919.745483 232.0
920.391479 184.0
920.796082 132.0
922.530151 216.0
923.981567 96.0
925.960938 208.0
927.190735 44.0
928.973328 140.0
929.482971 208.0
930.247681 208.0
930.381226 112.0
932.069641 192.0
934.36792 140.0
935.597229 80.0
936.900452 140.0
941.597168 160.0
943.760315 100.0
944.255676 208.0
947.377319 188.0
947.597107 164.0
949.295715 96.0
949.780212 132.0
950.05011 100.0
950.737305 120.0
951.013489 188.0
952.358093 148.0
953.949585 156.0
955.191711 136.0
955.696167 132.0
956.225342 200.0
957.228821 140.0
957.955566 124.0
958.70105 56.0
959.268127 172.0
959.607178 152.0
962.290955 120.0
962.908447 176.0
965.02179 128.0
965.170166 108.0
966.12262 112.0
966.518616 120.0
968.028931 256.0
968.146606 180.0
968.970398 192.0
969.428894 108.0
970.736877 172.0
971.054138 108.0
972.335144 196.0
972.765686 148.0
973.721863 156.0
974.585327 180.0
974.809021 48.0
975.212952 160.0
976.692749 180.0
976.798523 76.0
977.234009 112.0
977.358398 120.0
980.278748 36.0
982.7854 132.0
982.903931 112.0
983.053711 180.0
983.60675 92.0
984.09613 200.0
984.333374 184.0
984.495728 56.0
986.751404 168.0
987.426697 164.0
988.778076 152.0
988.921997 188.0
990.568787 104.0
990.71283 40.0
992.455139 76.0
993.634216 136.0
994.230347 172.0
994.443726 100.0
995.561218 48.0
996.547363 192.0
996.936951 96.0
997.364319 156.0
997.603149 104.0
998.043274 180.0
998.099854 48.0
998.338806 148.0
998.621826 156.0
999.036926 128.0
999.439575 92.0
1001.019531 164.0
1001.27771 76.0
1001.372192 176.0
1002.480957 156.0
1002.59436 112.0
1003.010376 160.0
1004.858032 128.0
1005.110413 76.0
1005.943481 124.0
1006.29071 156.0
1007.370605 68.0
1009.412048 152.0
1011.47821 164.0
1011.861755 248.0
1012.753479 276.0
1012.842163 156.0
1013.089233 52.0
1013.52002 52.0
1014.762329 128.0
1015.662781 124.0
1016.233704 136.0
1016.354309 156.0
1016.43042 212.0
1016.599365 168.0
1016.906372 204.0
1017.090454 96.0
1017.407837 132.0
1018.595337 156.0
1018.728699 164.0
1018.932007 192.0
1020.648071 108.0
1021.086853 168.0
1021.436646 56.0
1022.244629 152.0
1022.416443 128.0
1023.237549 148.0
1023.957092 184.0
1024.810669 128.0
1024.93811 80.0
1025.018188 200.0
1025.224854 160.0
1026.404175 184.0
1027.526733 144.0
1029.020142 176.0
1029.479858 128.0
1029.537354 68.0
1030.105713 204.0
1030.782959 216.0
1031.628906 100.0
1032.086914 160.0
1032.579346 200.0
1033.225342 156.0
1034.300415 232.0
1034.543701 168.0
1034.7677 192.0
1035.043091 100.0
1035.171143 220.0
1035.741089 140.0
1035.989014 136.0
1036.067749 36.0
1036.670044 192.0
1037.157104 116.0
1038.105957 136.0
1039.594238 144.0
1039.716187 124.0
1039.86377 100.0
1040.409424 204.0
1040.922974 72.0
1042.15625 200.0
1042.477539 152.0
1042.831055 172.0
1044.258301 152.0
1044.689209 148.0
1044.940186 100.0
1045.841064 64.0
1046.10498 156.0
1046.42688 236.0
1046.568481 156.0
1046.987061 196.0
1047.425049 172.0
1047.560303 108.0
1048.965088 128.0
1049.917603 184.0
1050.048218 168.0
1050.441772 120.0
1051.467651 48.0
1052.481079 108.0
1052.59729 28.0
1052.855591 180.0
1053.578979 152.0
1053.934326 128.0
1054.270386 120.0
1054.373779 124.0
1054.787476 224.0
1054.994263 44.0
1055.149414 112.0
1055.718384 68.0
1055.841309 152.0
1056.46875 172.0
1056.559326 124.0
1057.40686 180.0
1057.501221 196.0
1058.462158 164.0
1058.818237 236.0
1059.997314 128.0
1060.755493 204.0
1061.715088 40.0
1061.890259 184.0
1062.220947 136.0
1062.681641 124.0
1063.551147 124.0
1064.667847 68.0
1065.155029 136.0
1065.362793 40.0
1066.473999 80.0
1067.377563 156.0
1067.567139 172.0
1067.774292 40.0
1067.826294 164.0
1068.372681 124.0
1069.2771 208.0
1070.045288 88.0
1071.256592 184.0
1071.432373 276.0
1072.188232 160.0
1072.318604 168.0
1072.520508 160.0
1073.016724 40.0
1073.179077 184.0
1073.244263 84.0
1073.351807 72.0
1073.459473 156.0
1073.596436 100.0
1073.700684 236.0
1074.503052 72.0
1074.953247 124.0
1075.011963 188.0
1076.014893 68.0
1076.121582 104.0
1076.408936 148.0
1077.480103 172.0
1077.525757 176.0
1077.767578 184.0
1078.865479 172.0
1079.055054 180.0
1079.310059 156.0
1079.787476 132.0
1080.45459 168.0
1080.500366 60.0
1080.559326 112.0
1080.709839 152.0
1080.860229 168.0
1081.200073 160.0
1081.473755 152.0
1081.861572 144.0
1083.236816 120.0
1084.291626 212.0
1085.235596 76.0
1085.734009 72.0
1085.924194 128.0
1087.098511 140.0
1087.40686 176.0
1088.19458 180.0
1088.496582 176.0
1089.028564 156.0
1089.707275 128.0
1089.862915 76.0
1090.197998 152.0
1090.322876 208.0
1091.335205 176.0
1091.473267 116.0
1091.92041 160.0
1092.058472 152.0
1093.033569 172.0
1093.565186 116.0
1093.907471 128.0
1094.236572 84.0
1094.453857 176.0
1094.611938 52.0
1094.769897 124.0
1095.39563 44.0
1095.46814 168.0
1096.087402 116.0
1096.878296 188.0
1097.109009 180.0
1097.379272 164.0
1097.781494 164.0
1097.985962 144.0
1098.12439 208.0
1098.57959 120.0
1098.836792 160.0
1098.89624 108.0
1099.35144 168.0
1099.53186 216.0
1099.597656 152.0
1100.216064 224.0
1100.440552 88.0
1100.922607 252.0
1100.988647 112.0
1101.074463 96.0
1101.556641 56.0
1101.682129 64.0
1102.237183 240.0
1102.567505 104.0
1102.997192 204.0
1103.195435 204.0
1103.711182 180.0
1103.810303 236.0
1103.929321 204.0
1104.055054 204.0
1104.266602 64.0
1104.78418 144.0
1105.037598 204.0
1105.31189 324.0
1105.404541 200.0
1105.761841 96.0
1106.092773 176.0
1106.278076 196.0
1106.357544 116.0
1106.847534 152.0
1106.973267 136.0
1107.284546 148.0
1107.383911 136.0
1107.628906 344.0
1108.530029 136.0
1108.622803 140.0
1108.742065 172.0
1109.292114 84.0
1109.517578 144.0
1110.034668 136.0
1110.691284 116.0
1110.837158 136.0
1111.255127 144.0
1112.005005 124.0
1112.363403 124.0
1112.525024 140.0
1113.219849 200.0
1114.415527 152.0
1114.508545 168.0
1114.697998 108.0
1114.887207 136.0
1115.259399 48.0
1115.930908 152.0
1116.462769 176.0
1117.680054 232.0
1117.92627 84.0
1118.046143 100.0
1118.279053 200.0
1119.273071 136.0
1119.410767 120.0
1120.116699 124.0
1120.168579 180.0
1120.616333 144.0
1121.056152 172.0
1121.482666 200.0
1121.595947 148.0
1121.762573 148.0
1121.809326 140.0
1122.069214 52.0
1122.202637 128.0
1122.762695 88.0
1122.882812 104.0
1123.17627 128.0
1124.07019 208.0
1124.53064 188.0
1124.610718 156.0
1124.957886 140.0
1125.004639 128.0
1125.411865 176.0
1126.313354 156.0
1126.533813 84.0
1126.774292 156.0
1128.391602 196.0
1128.692505 156.0
1128.836426 124.0
1129.020142 164.0
1129.067017 68.0
1129.281006 128.0
1129.481689 136.0
1130.08374 184.0
1130.317871 128.0
1130.786377 152.0
1131.315186 76.0
1131.375366 52.0
1131.649902 176.0
1132.131958 116.0
1132.647705 108.0
1132.721313 100.0
1132.934204 184.0
1134.001099 192.0
1134.094971 192.0
1134.336304 144.0
1134.993286 120.0
1135.067017 84.0
1135.18103 32.0
1135.301758 156.0
1135.368774 168.0
1135.563232 60.0
1135.979126 152.0
1136.435303 172.0
1136.562866 196.0
1136.716431 188.0
1137.180176 160.0
1137.302856 128.0
1137.421875 68.0
1137.626831 160.0
1137.770874 164.0
1137.905151 160.0
1138.05957 108.0
1138.166992 108.0
1138.845337 76.0
1139.221436 48.0
1139.275146 132.0
1139.424072 192.0
1139.469971 132.0
1139.60437 124.0
1139.664795 224.0
1139.829468 120.0
1140.155396 196.0
1140.274414 112.0
1140.679565 56.0
1140.746826 180.0
1141.614136 88.0
1142.293457 316.0
1142.367432 108.0
1142.730713 136.0
1142.851807 144.0
1143.726685 156.0
1144.399902 112.0
1144.743286 112.0
1144.817383 40.0
1145.234863 140.0
1145.302246 188.0
1145.544678 140.0
1146.407104 128.0
1146.562134 104.0
1146.784546 136.0
1146.973267 200.0
1147.357544 172.0
1147.728271 176.0
1148.200317 124.0
1148.483643 116.0
1148.699463 96.0
1148.942261 204.0
1149.083984 156.0
1149.142944 184.0
1149.80603 116.0
1150.3479 68.0
1150.717285 96.0
1150.9198 136.0
1152.304321 112.0
1152.865234 60.0
1152.926025 160.0
1153.169312 248.0
1153.289185 124.0
1153.520752 124.0
1153.906128 104.0
1153.960205 204.0
1154.372681 144.0
1154.534912 116.0
1154.710815 112.0
1155.502197 176.0
1156.395386 96.0
1156.564575 196.0
1157.519165 148.0
1157.661377 164.0
1157.857788 180.0
1158.169312 176.0
1158.914551 164.0
1159.693848 172.0
1159.809082 184.0
1160.946167 176.0
1161.151489 120.0
1161.266724 196.0
1161.490601 140.0
1161.622803 208.0
1161.700806 152.0
1161.802612 140.0
1162.603271 148.0
1163.43811 120.0
1163.601074 116.0
1163.825073 120.0
1164.137451 136.0
1164.198608 160.0
1164.510986 132.0
1165.414429 84.0
1165.699829 116.0
1166.053223 140.0
1167.168091 184.0
1167.569214 152.0
1167.637207 168.0
1168.004517 136.0
1168.093018 136.0
1168.24939 204.0
1168.344604 160.0
1168.800537 128.0
1168.848145 188.0
1169.161133 140.0
1170.331909 132.0
1170.726929 32.0
1171.067383 128.0
1171.210449 44.0
1172.007446 136.0
1172.082397 180.0
1173.418335 44.0
1173.745605 64.0
1173.827393 204.0
1174.673096 164.0
1174.80957 140.0
1174.960449 164.0
1175.348511 164.0
1175.908081 140.0
1176.031006 176.0
1176.3927 220.0
1176.973022 120.0
1177.076172 148.0
1177.198364 76.0
1177.608154 52.0
1177.669556 400.0
1177.840332 228.0
1177.89502 172.0
1178.571289 124.0
1178.947144 96.0
1179.083862 128.0
1179.425537 132.0
1179.698975 104.0
1179.876709 136.0
1179.95874 104.0
1180.92981 172.0
1181.148682 124.0
1181.679688 120.0
1182.06543 48.0
1182.195435 88.0
1182.544434 228.0
1183.224609 208.0
1183.996704 152.0
1184.146484 64.0
1184.217529 276.0
1184.47522 40.0
1184.65332 108.0
1184.735596 156.0
1184.804077 80.0
1184.893188 208.0
1185.160278 176.0
1185.24939 168.0
1185.804443 132.0
1186.023804 228.0
1186.154053 104.0
1186.25 176.0
1186.901245 172.0
1187.127563 104.0
1187.196167 136.0
1187.333374 164.0
1187.622803 136.0
1187.792847 184.0
1188.399658 156.0
1188.451416 164.0
1189.185669 164.0
1189.288696 340.0
1189.3573 104.0
1189.666138 92.0
1189.803467 116.0
1190.165771 140.0
1190.311523 152.0
1190.57251 44.0
1190.675537 136.0
1190.737305 208.0
1190.792236 128.0
1191.135742 52.0
1191.376099 132.0
1191.705933 160.0
1191.760864 160.0
1192.042603 200.0
1192.468628 156.0
1192.709229 412.0
1192.990967 116.0
1193.506592 144.0
1193.561646 28.0
1193.678589 192.0
1194.214966 208.0
1194.558838 128.0
1194.827148 132.0
1195.30188 156.0
1195.520386 148.0
1195.834595 152.0
1196.265381 164.0
1196.451294 136.0
1197.015869 72.0
1197.415283 188.0
1197.621948 76.0
1197.918091 180.0
1198.269409 128.0
1200.006226 168.0
1200.116577 164.0
1200.623291 180.0
1200.999268 188.0
1201.068237 92.0
1201.171631 128.0
1201.420044 216.0
1201.730469 172.0
1201.978882 132.0
1202.050049 244.0
1202.434326 112.0
1202.61377 188.0
1202.668945 132.0
1203.110718 96.0
1203.338623 180.0
1203.560547 136.0
1204.160278 148.0
1204.719727 132.0
1204.795776 120.0
1205.053345 168.0
1205.133667 240.0
1206.053345 200.0
1206.184692 196.0
1206.281494 188.0
1206.44043 140.0
1206.488892 136.0
1206.848389 72.0
1207.03186 68.0
1207.740479 156.0
1207.967651 136.0
1208.349243 132.0
1208.480713 124.0
1208.79895 160.0
1208.923462 196.0
1209.733276 140.0
1209.91333 148.0
1210.210938 116.0
1210.439453 88.0
1210.647217 96.0
1210.9104 188.0
1211.395264 128.0
1211.991089 204.0
1212.282104 108.0
1212.43457 212.0
1212.57312 44.0
1212.62854 192.0
1212.933594 108.0
1213.557495 92.0
1213.737671 184.0
1213.973511 100.0
1214.084473 144.0
1214.303955 192.0
1214.452026 148.0
1214.61853 144.0
1215.91272 208.0
1216.464233 144.0
1216.880737 196.0
1217.200195 120.0
1217.401489 132.0
1217.783447 168.0
1218.039795 204.0
1218.651855 140.0
1218.775635 196.0
1218.867188 128.0
1218.978394 96.0
1219.360596 140.0
1219.47876 192.0
1219.854126 144.0
1220.020996 188.0
1220.278198 160.0
1220.434204 188.0
1220.862183 232.0
1221.182129 108.0
1221.363037 156.0
1221.557739 172.0
1221.682983 156.0
1222.232544 160.0
1222.517944 116.0
1222.60144 152.0
1223.45752 192.0
1223.701172 128.0
1223.965698 216.0
1224.160767 220.0
1224.237305 96.0
1224.503418 168.0
1224.652954 172.0
1224.96167 132.0
1225.059204 52.0
1225.881348 84.0
1226.069458 128.0
1226.236694 36.0
1226.647949 100.0
1226.989502 96.0
1227.317261 136.0
1227.610107 164.0
1227.951782 88.0
1228.977295 144.0
1229.570435 176.0
1229.675049 148.0
1229.793701 92.0
1230.028809 196.0
1230.219482 180.0
1230.296265 136.0
1230.67334 168.0
1230.826904 128.0
1230.896729 164.0
1230.980469 188.0
1231.036377 144.0
1231.169067 68.0
1231.231934 76.0
1231.37854 216.0
1231.685913 192.0
1231.804688 132.0
1231.951294 64.0
1232.02124 116.0
1232.25354 172.0
1232.594116 100.0
1232.738525 208.0
1232.803223 184.0
1232.938599 68.0
1232.99939 176.0
1234.033936 132.0
1234.278687 148.0
1234.811279 116.0
1234.887085 132.0
1235.229736 168.0
1235.278809 104.0
1236.293213 80.0
1236.724121 156.0
1236.9021 156.0
1237.035156 188.0
1237.109375 216.0
1237.34314 148.0
1237.483154 96.0
1237.644165 136.0
1237.931274 128.0
1238.477539 136.0
1238.827759 188.0
1239.41626 80.0
1239.640503 200.0
1239.738647 272.0
1240.257202 164.0
1240.488525 104.0
1240.551636 132.0
1240.628784 240.0
1240.726929 104.0
1240.888184 148.0
1241.126587 124.0
1241.182617 144.0
1241.371948 96.0
1242.052246 104.0
1242.290771 136.0
1242.473145 132.0
1242.592407 48.0
1242.697632 220.0
1242.809937 140.0
1244.178467 120.0
1244.318848 56.0
1244.410156 152.0
1244.648926 84.0
1244.697998 124.0
1245.436279 172.0
1245.63208 240.0
1245.779541 32.0
1246.397827 124.0
1246.496216 124.0
1246.952637 168.0
1247.114624 284.0
1247.304443 260.0
1247.873901 160.0
1247.993408 192.0
1248.049561 136.0
1248.506714 112.0
1249.015137 220.0
1249.160767 200.0
1249.252197 152.0
1249.983887 156.0
1250.145752 80.0
1250.708862 172.0
1250.94812 172.0
1251.713135 164.0
1251.807129 160.0
1251.933838 152.0
1251.983154 148.0
1252.039429 184.0
1252.236694 88.0
1252.370483 156.0
1252.828369 116.0
1253.673828 164.0
1253.793579 116.0
1253.969849 224.0
1254.667603 236.0
1255.000488 156.0
1255.05542 68.0
1255.647705 136.0
1255.809937 132.0
1256.042725 92.0
1256.498535 180.0
1257.002197 180.0
1257.129272 100.0
1257.228027 188.0
1257.432617 172.0
1257.510254 136.0
1257.566772 144.0
1257.665527 172.0
1258.597412 132.0
1258.696289 152.0
1258.823364 104.0
1259.056396 132.0
1259.197632 148.0
1259.24707 132.0
1259.557861 184.0
1259.847534 160.0
1260.115967 156.0
1260.334961 160.0
1260.483398 136.0
1260.681274 112.0
1260.930054 128.0
1261.098145 156.0
1261.253662 80.0
1261.635376 96.0
1261.691895 108.0
1262.158569 112.0
1262.335327 180.0
1263.028442 124.0
1263.21936 100.0
1263.36084 84.0
1263.431641 176.0
1263.57312 160.0
1263.665161 128.0
1263.72168 140.0
1263.797485 284.0
1263.884399 100.0
1263.985596 204.0
1264.570923 68.0
1264.787598 200.0
1264.995605 160.0
1265.214966 116.0
1265.462769 220.0
1265.788452 236.0
1265.972656 40.0
1266.404663 152.0
1266.645386 104.0
1266.702148 128.0
1267.438843 168.0
1267.527954 156.0
1267.71521 112.0
1268.04834 104.0
1268.133423 216.0
1268.260986 136.0
1268.426636 32.0
1268.643677 204.0
1268.856445 176.0
1268.906006 156.0
1269.338501 128.0
1269.643433 160.0
1270.026367 36.0
1270.111572 72.0
1270.274658 140.0
1270.664917 216.0
1271.069336 216.0
1271.530518 172.0
1271.5802 136.0
1271.920898 196.0
1272.148071 48.0
1272.505371 156.0
1272.602417 112.0
1272.850952 140.0
1273.078125 136.0
1273.13501 48.0
1273.29834 216.0
1273.90918 148.0
1274.463257 144.0
1274.534302 136.0
1274.719116 140.0
1274.804321 128.0
1274.960693 124.0
1275.060181 84.0
1275.124146 160.0
1275.32312 176.0
1275.415527 204.0
1275.664307 188.0
1275.890991 144.0
1276.19043 232.0
1276.453491 116.0
1276.835327 192.0
1276.972656 48.0
1277.470581 212.0
1278.039673 148.0
1278.345703 152.0
1278.516479 232.0
1278.597778 188.0
1278.694336 136.0
1279.050171 128.0
1279.527222 156.0
1279.890259 108.0
1279.940063 116.0
1280.118164 72.0
1280.769165 216.0
1281.222168 108.0
1281.364624 152.0
1281.906128 156.0
1281.998779 120.0
1282.33374 160.0
1282.506836 196.0
1282.761353 184.0
1283.231812 140.0
1283.417236 32.0
1283.509888 240.0
1283.730957 136.0
1283.9021 168.0
1284.401367 184.0
1284.651001 160.0
1284.85791 76.0
1285.100464 180.0
1285.450073 160.0
1285.642822 232.0
1286.114868 280.0
1286.236206 164.0
1286.651855 228.0
1286.991821 212.0
1287.119507 168.0
1287.284668 140.0
1287.577393 136.0
1287.641724 132.0
1287.697876 148.0
1288.249512 124.0
1288.713135 144.0
1288.813232 104.0
1288.913208 120.0
1289.120483 128.0
1289.695923 148.0
1289.978149 104.0
1290.028198 196.0
1290.72168 164.0
1290.871826 168.0
1291.129272 204.0
1291.200806 96.0
1291.315186 124.0
1291.365234 72.0
1292.117676 200.0
1292.552734 124.0
1292.796021 180.0
1292.89624 56.0
1293.075195 156.0
1293.221313 180.0
1293.424561 184.0
1293.608276 160.0
1293.977051 140.0
1294.17041 48.0
1294.27063 120.0
1294.814819 204.0
1295.373535 112.0
1295.703125 200.0
1295.839233 104.0
1295.950562 236.0
1296.641724 216.0
1296.891357 164.0
1296.964233 140.0
1297.164917 204.0
1297.236816 148.0
1297.695435 84.0
1297.967896 200.0
1298.025269 184.0
1298.140015 132.0
1298.254761 132.0
1298.620483 44.0
1298.950439 116.0
1299.165649 216.0
1299.230225 160.0
1299.2948 136.0
1299.495605 124.0
1299.904663 48.0
1300.076904 148.0
1300.346802 192.0
1300.493164 108.0
1300.68689 156.0
1300.801758 136.0
1301.411987 168.0
1301.613037 216.0
1301.763794 40.0
1302.022339 144.0
1302.101318 184.0
1302.683105 92.0
1302.756958 176.0
1302.93457 132.0
1303.344116 112.0
1303.516479 168.0
1303.688965 100.0
1303.854248 108.0
1303.954956 188.0
1304.075195 208.0
1304.368774 272.0
1304.458008 144.0
1304.5802 328.0
1304.680908 172.0
1304.76001 136.0
1304.932495 136.0
1305.252075 152.0
1305.49292 152.0
1305.593994 176.0
1306.05542 260.0
1306.356445 184.0
1306.895996 136.0
1307.752319 188.0
1307.809937 228.0
1308.407349 120.0
1308.968994 320.0
1309.237793 332.0
1309.410889 160.0
1309.46582 172.0
1309.66748 168.0
1309.818848 156.0
1310.013306 140.0
1310.193359 136.0
1310.445557 140.0
1310.798584 112.0
1310.949951 148.0
1311.418335 104.0
1311.612915 204.0
1311.677856 380.0
1311.814819 188.0
1312.51416 64.0
1312.665527 176.0
1313.096558 196.0
1313.63916 180.0
1314.035889 220.0
1314.562622 152.0
1314.692505 168.0
1315.086548 152.0
1315.269897 172.0
1315.529785 144.0
1315.616455 144.0
1315.784424 136.0
1316.369019 184.0
1316.425049 108.0
1316.779663 184.0
1317.046143 144.0
1317.241211 168.0
1317.703491 68.0
1317.775757 116.0
1318.300171 216.0
1318.494385 188.0
1318.751343 80.0
1318.914917 296.0
1319.053955 136.0
1319.145508 184.0
1320.118164 168.0
1320.189941 180.0
1320.730347 188.0
1320.869873 148.0
1321.050659 100.0
1321.144653 152.0
1321.323853 188.0
1321.629395 156.0
1321.723511 116.0
1321.868164 72.0
1322.584717 220.0
1323.055176 208.0
1323.837402 164.0
1323.960327 180.0
1324.018188 124.0
1324.113159 172.0
1324.25 168.0
1324.425659 160.0
1324.515503 144.0
1324.61377 176.0
1324.756958 212.0
1325.025024 156.0
1325.09021 180.0
1325.198975 72.0
1325.376831 188.0
1325.445312 148.0
1325.505371 204.0
1326.249634 56.0
1326.401855 148.0
1326.604858 144.0
1326.778809 184.0
1327.387817 144.0
1327.473511 204.0
1327.612671 164.0
1327.786743 168.0
1328.163818 144.0
1328.2146 156.0
1328.294434 108.0
1328.432251 180.0
1328.533813 100.0
1328.925537 108.0
1328.976318 140.0
1329.295654 120.0
1329.493896 160.0
1329.694702 152.0
1329.941528 224.0
1330.609375 132.0
1330.769043 160.0
1330.965088 120.0
1331.306396 56.0
1331.357178 196.0
1331.480713 172.0
1331.538818 172.0
1331.662231 152.0
1331.756714 200.0
1331.912842 124.0
1332.061768 136.0
1332.241211 168.0
1332.345093 192.0
1332.592041 120.0
1332.802734 148.0
1332.897217 184.0
1333.740234 156.0
1334.110962 84.0
1334.823486 136.0
1335.455688 124.0
1335.546753 200.0
1335.623413 208.0
1335.754395 128.0
1335.8125 156.0
1335.979858 108.0
1336.161743 164.0
1336.265137 96.0
1336.372681 96.0
1336.831177 156.0
1337.005737 128.0
1337.063965 116.0
1337.733643 112.0
1337.784546 72.0
1338.053955 176.0
1338.126709 136.0
1338.388794 188.0
1338.527222 204.0
1338.687378 144.0
1338.75293 228.0
1339.466675 112.0
1339.561401 88.0
1339.685181 156.0
1339.86731 88.0
1339.995728 160.0
1340.632324 108.0
1340.697998 252.0
1340.749023 208.0
1340.938477 40.0
1341.193604 124.0
1341.434082 152.0
1341.492432 208.0
1341.733032 128.0
1341.937134 300.0
1342.061035 152.0
1342.491211 232.0
1342.600708 180.0
1342.892334 196.0
1343.31543 164.0
1343.58374 168.0
1343.716675 108.0
1343.950073 156.0
1344.03772 132.0
1344.212769 212.0
1344.453613 196.0
1344.636108 160.0
1344.743652 152.0
1344.920654 116.0
1345.604126 128.0
1345.767456 144.0
1345.877075 180.0
1346.337036 116.0
1346.702271 132.0
1346.841064 260.0
1346.928711 132.0
1347.010864 300.0
1347.089355 180.0
1347.301147 172.0
1347.381592 216.0
1347.586182 128.0
1347.724976 100.0
1348.002563 116.0
1348.477661 112.0
1348.572632 128.0
1349.12085 208.0
1349.187378 200.0
1349.496582 180.0
1349.566772 316.0
1349.866577 96.0
1349.925049 192.0
1350.071411 132.0
1350.2323 176.0
1350.415039 176.0
1350.678345 104.0
1350.824707 128.0
1351.029541 128.0
1351.224243 116.0
1351.341553 160.0
1351.439209 132.0
1351.951416 272.0
1352.024658 160.0
1352.421143 156.0
1352.800415 120.0
1352.89563 172.0
1353.598511 168.0
1353.715576 160.0
1353.854736 204.0
1353.926636 152.0
1354.230225 136.0
1354.418701 120.0
1354.469971 140.0
1354.535889 60.0
1354.646484 128.0
1354.784912 152.0
1355.478027 160.0
1355.500854 160.0
1355.876709 136.0
1356.075684 136.0
1356.499634 132.0
1356.587646 136.0
1357.196167 40.0
1357.291504 116.0
1357.50415 172.0
1357.665405 184.0
1358.237549 152.0
1358.508911 128.0
1358.662964 232.0
1358.773071 108.0
1358.875732 144.0
1359.161255 196.0
1359.263062 76.0
1359.447998 148.0
1359.719604 140.0
1360.018799 188.0
1360.41687 96.0
1360.490234 160.0
1360.960083 164.0
1361.062988 44.0
1361.415405 220.0
1361.853149 216.0
1362.113159 160.0
1362.411255 88.0
1362.649414 140.0
1362.705688 188.0
1362.872314 188.0
1363.420898 164.0
1364.251465 144.0
1364.334961 228.0
1365.295532 204.0
1365.47937 112.0
1365.758911 108.0
1365.832397 160.0
1365.935425 144.0
1366.442993 168.0
1366.546021 124.0
1366.700562 376.0
1366.818237 176.0
1366.906494 120.0
1367.156738 152.0
1367.223022 176.0
1367.583618 120.0
1367.671875 172.0
1367.995728 76.0
1368.084106 108.0
1368.157715 148.0
1368.393311 136.0
1368.658325 180.0
1368.879272 160.0
1369.166504 204.0
1369.269531 100.0
1369.497925 204.0
1370.094604 136.0
1370.264038 176.0
1370.617676 308.0
1370.749634 216.0
1371.310303 172.0
1371.413574 144.0
1371.494629 164.0
1371.929565 136.0
1372.497192 48.0
1372.570923 192.0
1372.663818 188.0
1372.867554 148.0
1373.017578 128.0
1373.24939 120.0
1373.596069 128.0
1373.761597 188.0
1373.891113 112.0
1374.386108 176.0
1374.532959 248.0
1374.7323 144.0
1374.835571 160.0
1374.938843 208.0
1375.031738 228.0
1375.285767 204.0
1375.44812 124.0
1375.603149 224.0
1376.090332 124.0
1376.149414 200.0
1376.341431 96.0
1376.629395 188.0
1376.710571 120.0
1376.769653 76.0
1377.234985 184.0
1377.375366 160.0
1377.599609 208.0
1377.811157 180.0
1377.966309 176.0
1378.091919 236.0
1378.374268 188.0
1378.550049 112.0
1378.66687 188.0
1378.679199 152.0
1378.92688 112.0
1378.986084 244.0
1379.144165 200.0
1379.296509 136.0
1379.392578 128.0
1379.562622 96.0
1379.680908 152.0
1379.806519 184.0
1380.782593 284.0
1381.071045 180.0
1381.130127 136.0
1381.196777 136.0
1381.366943 140.0
1381.426025 80.0
1381.5 76.0
1381.7146 172.0
1382.284302 228.0
1382.365723 72.0
1382.661743 188.0
1382.757935 120.0
1383.564697 116.0
1383.683105 196.0
1384.238403 296.0
1384.519897 156.0
1384.608765 168.0
1384.793823 220.0
1384.84375 136.0
1385.119751 120.0
1385.349365 88.0
1385.453125 156.0
1385.811646 220.0
1385.94165 60.0
1386.075439 212.0
1386.24585 320.0
1386.364502 96.0
1386.445923 156.0
1386.525146 128.0
1386.601562 192.0
1386.690552 56.0
1387.164917 200.0
1387.439209 136.0
1387.706055 104.0
1387.869263 152.0
1388.299316 152.0
1388.568604 220.0
1389.003906 116.0
1390.213135 48.0
1390.376465 140.0
1390.554565 164.0
1390.834595 176.0
1390.925659 132.0
1391.074097 196.0
1391.163208 308.0
1391.356201 128.0
1391.50647 196.0
1391.675415 180.0
1391.898193 300.0
1391.957642 212.0
1392.046753 80.0
1392.106079 120.0
1392.224976 176.0
1392.373413 124.0
1392.521973 172.0
1392.715088 132.0
1392.833984 208.0
1392.937988 164.0
1392.98999 188.0
1393.086548 136.0
1393.145996 168.0
1393.212769 156.0
1393.547119 208.0
1393.836914 168.0
1393.940918 196.0
1394.122437 132.0
1394.3125 48.0
1394.475952 40.0
1394.869873 212.0
1395.085449 76.0
1395.167236 128.0
1395.219238 236.0
1395.4646 172.0
1395.678223 208.0
1395.814087 148.0
1395.890869 72.0
1396.066895 136.0
1396.141235 160.0
1396.208008 148.0
1396.409058 92.0
1396.765991 188.0
1397.085938 168.0
1397.547119 188.0
1397.822388 148.0
1398.469849 92.0
1398.596436 132.0
1398.730347 224.0
1398.834595 100.0
1398.894165 120.0
1399.072876 152.0
1399.273804 156.0
1399.471191 196.0
1399.54187 120.0
1399.847168 132.0
1399.921631 148.0
1400.00647 152.0
1400.182251 92.0
1400.532349 124.0
1400.778076 124.0
1401.221924 152.0
1401.560303 136.0
1401.674194 200.0
1401.731689 236.0
1401.985107 84.0
1402.082031 140.0
1402.417358 168.0
1402.506836 192.0
1402.611084 56.0
1402.778198 180.0
1402.839478 228.0
1403.662354 176.0
1404.378296 216.0
1404.490112 252.0
1404.654175 132.0
1405.09436 220.0
1405.221191 168.0
1405.541992 148.0
1405.72229 148.0
1405.825562 148.0
1405.922607 124.0
1406.236084 244.0
1406.4375 172.0
1406.661499 144.0
1406.728638 140.0
1406.885376 228.0
1407.131836 128.0
1407.617065 144.0
1408.162231 208.0
1408.423706 144.0
1408.535645 140.0
1408.714966 168.0
1409.02124 120.0
1409.118408 172.0
1409.245361 204.0
1409.379883 56.0
1409.835693 172.0
1410.087402 192.0
1410.313965 156.0
1410.650391 168.0
1410.740112 160.0
1410.814819 140.0
1411.077515 136.0
1411.373535 148.0
1411.629761 168.0
1412.183228 112.0
1412.490234 172.0
1412.654419 156.0
1413.01355 168.0
1413.140625 204.0
1413.41748 240.0
1413.627075 192.0
1414.405396 136.0
1414.862061 132.0
1415.019165 168.0
1415.213867 192.0
1415.423584 140.0
1415.9552 152.0
1416.125732 224.0
1416.337158 108.0
1416.539429 168.0
1416.674316 168.0
1416.787354 128.0
1416.891479 120.0
1417.17627 184.0
1417.715698 156.0
1418.157837 172.0
1418.675049 120.0
1418.757568 140.0
1418.825073 144.0
1418.944946 524.0
1418.997437 256.0
1419.174194 76.0
1419.394775 164.0
1419.664795 132.0
1419.807251 160.0
1419.931152 200.0
1420.21228 136.0
1420.264771 144.0
1420.671143 200.0
1420.894897 160.0
1421.097412 160.0
1421.337524 160.0
1421.515259 200.0
1421.615234 108.0
1421.877808 116.0
1422.057983 156.0
1422.193115 116.0
1422.658447 128.0
1423.10144 100.0
1423.296631 56.0
1423.611938 156.0
1423.679565 108.0
1423.822266 320.0
1423.999268 208.0
1424.197632 172.0
1424.378052 140.0
1424.656006 252.0
1425.003906 168.0
1425.106689 196.0
1425.241943 340.0
1425.299561 168.0
1425.614136 156.0
1425.767944 180.0
1425.865723 172.0
1426.000977 180.0
1426.113647 172.0
1426.196411 124.0
1426.249023 164.0
1426.482056 104.0
1426.579712 136.0
1426.797729 196.0
1427.263916 140.0
1427.659058 88.0
1427.918091 132.0
1427.978271 120.0
1428.16626 136.0
1428.301636 136.0
1428.677856 76.0
1428.801392 188.0
1429.183838 140.0
1429.430176 156.0
1429.632446 136.0
1429.745361 316.0
1430.197754 124.0
1430.348389 156.0
1430.401001 232.0
1430.616333 160.0
1430.777466 136.0
1430.858887 228.0
1431.092896 180.0
1431.17395 156.0
1431.28186 128.0
1431.492676 144.0
1431.583008 192.0
1431.869263 196.0
1432.676636 208.0
1432.91626 156.0
1433.142212 308.0
1433.226562 132.0
1433.36084 84.0
1433.466309 232.0
1433.624512 180.0
1433.853516 152.0
1434.378174 124.0
1434.649536 160.0
1434.814697 188.0
1434.875732 144.0
1434.970215 308.0
1435.080322 184.0
1435.187012 136.0
1435.267822 216.0
1435.44873 136.0
1435.592041 184.0
1435.690063 140.0
1436.218018 88.0
1436.828979 212.0
1436.896851 156.0
1437.070435 200.0
1437.191162 144.0
1437.387329 108.0
1437.750854 160.0
1437.983521 64.0
1438.32312 120.0
1438.594849 160.0
1439.229004 76.0
1439.817993 92.0
1440.22583 240.0
1440.278809 216.0
1440.331665 148.0
1440.444946 184.0
1440.505371 48.0
1440.573364 120.0
1440.928345 160.0
1441.109741 128.0
1441.260864 124.0
1441.381714 156.0
1441.691528 152.0
1441.948486 112.0
1442.189453 168.0
1442.356689 140.0
1442.447388 116.0
1442.651489 172.0
1442.842163 204.0
1442.961426 108.0
1443.059692 168.0
1443.384766 148.0
1443.543823 168.0
1444.026855 164.0
1444.436035 84.0
1444.602417 172.0
1444.768799 180.0
1444.942871 164.0
1445.078979 120.0
1445.147095 132.0
1445.374146 188.0
1445.555664 140.0
1446.675903 128.0
1446.789429 132.0
1446.963501 116.0
1447.062012 112.0
1447.289062 204.0
1447.413696 200.0
1447.73584 120.0
1448.296265 148.0
1448.4021 152.0
1448.66748 76.0
1448.81897 344.0
1449.031128 116.0
1449.138062 156.0
1449.478149 132.0
1449.789185 164.0
1450.119385 180.0
1450.311768 116.0
1450.432983 144.0
1450.578735 320.0
1450.743774 168.0
1451.659912 172.0
1451.774902 236.0
1452.199585 148.0
1452.362793 192.0
1452.571289 84.0
1452.815796 140.0
1452.912598 76.0
1452.973389 120.0
1453.260498 180.0
1453.383057 212.0
1453.443726 120.0
1453.724487 120.0
1454.028076 116.0
1454.255737 168.0
1454.422729 156.0
1455.106567 208.0
1455.538696 148.0
1455.758911 240.0
1455.834839 152.0
1455.941162 40.0
1456.077881 164.0
1456.2677 380.0
1456.320923 176.0
1456.799438 80.0
1457.072876 156.0
1457.126099 104.0
1457.247681 172.0
1457.338867 196.0
1457.779541 184.0
1458.585083 128.0
1459.033569 144.0
1459.25415 100.0
1459.307373 188.0
1459.421387 104.0
1459.512573 132.0
1459.588623 152.0
1459.717896 108.0
1459.832031 124.0
1459.915649 164.0
1460.234985 76.0
1460.394775 124.0
1460.592529 264.0
1460.752197 156.0
1460.868164 180.0
1460.942383 152.0
1461.003296 184.0
1461.140259 40.0
1461.20105 164.0
1461.261963 56.0
1461.406494 160.0
1461.611938 152.0
1461.741333 140.0
1461.939087 44.0
1462.060913 252.0
1462.175049 116.0
1462.441406 136.0
1462.875244 64.0
1463.065552 228.0
1463.164551 168.0
1463.233032 148.0
1463.316772 192.0
1463.43103 196.0
1463.560425 88.0
1463.994751 144.0
1464.13916 160.0
1464.359985 196.0
1464.474243 148.0
1464.587646 140.0
1464.710449 176.0
1464.763672 40.0
1464.817017 96.0
1464.88562 156.0
1464.946533 116.0
1465.026978 164.0
1465.335083 116.0
1465.393555 300.0
1465.533203 276.0
1465.594116 132.0
1466.020874 124.0
1466.112305 304.0
1466.399902 108.0
1466.432007 80.0
1466.699097 144.0
1466.927734 88.0
1467.179321 96.0
1467.644409 76.0
1467.957031 188.0
1468.09436 152.0
1468.239258 148.0
1468.391724 172.0
1468.582397 120.0
1468.649292 160.0
1469.124023 124.0
1469.185059 188.0
1469.259399 224.0
1469.337524 112.0
1469.833496 100.0
1470.382935 148.0
1471.092773 104.0
1471.161499 204.0
1471.237793 64.0
1471.436279 112.0
1471.840942 152.0
1472.023315 200.0
1472.505371 160.0
1472.574097 196.0
1472.769287 188.0
1472.928345 128.0
1473.078125 132.0
1473.52124 128.0
1473.643555 108.0
1473.964355 172.0
1474.187744 228.0
1474.392334 108.0
1474.598633 44.0
1474.713379 180.0
1474.805054 124.0
1474.94165 160.0
1475.046021 176.0
1475.156616 168.0
1475.431885 160.0
1475.867676 164.0
1475.974731 128.0
1476.64563 156.0
1477.060669 148.0
1477.311157 304.0
1477.38562 244.0
1477.450806 128.0
1477.60376 204.0
1477.703247 140.0
1478.068359 168.0
1478.124023 192.0
1478.368896 84.0
1478.491333 148.0
1478.774536 100.0
1478.881714 168.0
1479.601196 128.0
1479.677734 100.0
1479.838501 188.0
1480.083618 248.0
1480.665039 192.0
1480.940796 208.0
1481.040894 168.0
1481.216431 116.0
1481.435669 152.0
1481.681152 156.0
1482.006104 144.0
1482.335571 152.0
1482.723755 228.0
1483.040649 368.0
1483.370239 156.0
1483.531128 188.0
1483.587891 132.0
1483.75354 124.0
1484.021851 48.0
1484.24585 184.0
1484.320801 240.0
1484.830566 136.0
1484.957397 112.0
1485.010986 188.0
1485.070312 180.0
1485.156738 140.0
1485.2948 164.0
1485.51123 92.0
1485.593994 44.0
1485.655396 300.0
1485.793457 144.0
1486.207764 88.0
1486.322876 68.0
1486.499268 96.0
1486.790894 180.0
1486.898315 160.0
1487.213013 52.0
1487.274414 180.0
1487.506836 176.0
1487.619873 192.0
1487.713745 168.0
1488.057373 196.0
1488.218506 176.0
1488.410645 200.0
1488.484863 232.0
1488.61792 132.0
1488.763794 164.0
1488.988159 132.0
1489.270752 172.0
1489.335205 160.0
1489.698364 100.0
1489.746948 176.0
1489.977417 140.0
1490.31543 108.0
1490.522949 116.0
1490.592041 144.0
1490.668945 160.0
1490.753418 168.0
1491.021851 152.0
1491.314453 228.0
1491.555664 172.0
1491.69873 184.0
1491.767944 148.0
1491.915771 88.0
1491.999146 172.0
1492.046875 140.0
1492.144653 128.0
1492.344604 132.0
1492.462891 176.0
1492.698242 196.0
1492.898193 164.0
1494.310547 176.0
1494.705811 216.0
1494.952148 120.0
1495.121338 176.0
1495.206055 68.0
1495.530884 80.0
1495.952637 152.0
1496.086426 216.0
1496.168213 120.0
1496.222046 180.0
1496.422241 128.0
1496.611572 184.0
1496.830322 212.0
1496.917603 220.0
1497.500244 172.0
1497.577148 152.0
1497.835205 140.0
1497.954712 164.0
1498.732788 168.0
1498.786743 44.0
1498.97937 188.0
1499.233765 196.0
1499.314209 192.0
1500.259521 224.0
1500.536377 168.0
1500.590332 180.0
1500.821655 184.0
1501.484741 164.0
1501.554199 140.0
1502.194336 48.0
1502.695801 124.0
1503.134277 372.0
1503.181519 156.0
1503.398193 148.0
1503.876465 48.0
1504.069458 216.0
