>compound MLS000877004-01!7-hydroxy-3-(4-hydroxyphenyl)-5-methoxychromen-4-one
>formula C16H12O5
>ionization [M+H]+
>parentmass 285.076782
#inchi InChI=1S/C16H12O5/c1-20-13-6-11(18)7-14-15(13)16(19)12(8-21-14)9-2-4-10(17)5-3-9/h2-8,17-18H,1H3
#inchikey YSINCDVRUMTOPK
#Ion_Source LC-ESI
#Instrument qTof
#Compound_Source NIH Natural Product Library
#PI Dorrestein
#Data_Collector VVP/LMS
#Scan -1
#Precursor_MZ 285.076
#ExactMass 284.068
#Charge 1
#CAS_Number N/A
#Pubmed_ID N/A
#Smiles COc1cc(O)cc2occ(c3ccc(O)cc3)c(=O)c12
#INCHI_AUX N/A
#Library_Class 1
#SpectrumID CCMSLIB00000080182
#IonMode Positive
#UpdateWorkflowName UPDATE-SINGLE-ANNOTATED-GOLD
#LibraryQualityString Gold
#TaskID b1d8e8f6646f4e71acdff9ca3d919d08
##Scan# 1655
#SpectrumFile p2-C05_GC5_01_18005.mzXML
#LibraryName NIH_Natural_Products_Library.mgf
#MQScore -1
#Organism NIH_Natural_Products_Library
#TIC_Query 0
#RT_Query -1
#MZErrorPPM -1
#SharedPeaks 0
#MassDiff 0
#LibMZ -1
#SpecMZ 285.076
#SpecCharge 0
#internalFilename spec-00000.mgf

>collision 10
95.008766 132.0
95.08638 204.0
95.397156 88.0
95.971481 128.0
96.002678 148.0
96.0214 340.0
96.561218 68.0
96.600342 148.0
96.720024 120.0
96.749062 196.0
96.801926 180.0
97.028381 184.0
97.266579 108.0
97.284248 212.0
97.899658 136.0
97.986328 156.0
98.485405 152.0
98.690926 180.0
98.950111 140.0
99.388138 156.0
99.67804 116.0
99.93454 120.0
100.196884 52.0
100.285019 68.0
100.364288 152.0
100.432564 56.0
100.949829 252.0
101.693085 216.0
102.465256 196.0
103.013977 188.0
103.321259 152.0
103.341492 116.0
103.639122 176.0
104.095512 100.0
104.203163 132.0
104.272255 200.0
104.413887 60.0
104.457283 172.0
104.807449 156.0
104.888969 248.0
104.923622 164.0
104.946053 148.0
105.070457 160.0
105.209236 172.0
105.386917 136.0
105.572929 168.0
105.892189 184.0
106.335037 48.0
106.88372 32.0
106.953697 52.0
107.013397 184.0
107.054749 328.0
107.380196 100.0
108.31443 120.0
108.49057 36.0
108.523743 188.0
108.845352 84.0
109.028152 176.0
109.117538 116.0
109.394226 216.0
109.667091 236.0
109.869362 184.0
110.080162 160.0
110.195045 100.0
110.335068 192.0
111.008934 172.0
111.168701 144.0
111.261055 84.0
111.349243 148.0
111.645569 132.0
111.736015 144.0
111.938072 152.0
112.247833 160.0
112.357506 172.0
112.570686 196.0
112.650948 224.0
112.665733 204.0
112.849602 212.0
112.896118 132.0
113.105576 184.0
113.429665 204.0
114.447281 68.0
114.583588 156.0
114.814049 148.0
114.839386 172.0
115.056099 220.0
115.257812 88.0
115.700539 152.0
115.741219 152.0
116.062622 204.0
116.214905 108.0
117.032623 224.0
117.075485 284.0
117.130722 28.0
117.510139 100.0
117.693604 132.0
118.041969 12220.0
118.102043 32.0
118.125832 100.0
118.323586 180.0
118.366066 68.0
118.492348 212.0
118.589203 76.0
118.604378 92.0
118.847267 84.0
119.045975 904.0
119.305519 192.0
119.322914 156.0
119.364227 56.0
119.577415 64.0
119.605713 112.0
119.681908 156.0
119.777733 40.0
119.814766 88.0
120.02182 168.0
120.050163 148.0
120.471413 184.0
120.825562 88.0
121.027145 208.0
121.058273 212.0
121.147377 100.0
121.180237 72.0
121.41259 156.0
121.61882 200.0
121.704437 180.0
121.968063 164.0
122.119774 164.0
122.284782 200.0
123.044159 340.0
123.135811 160.0
123.237427 60.0
123.290459 176.0
123.974274 160.0
124.015694 7376.0
124.082886 104.0
124.169365 52.0
124.535568 128.0
124.584435 88.0
124.824478 48.0
125.020248 548.0
125.590584 76.0
125.820419 108.0
126.05941 68.0
126.466438 128.0
127.058022 156.0
127.630745 200.0
128.064743 100.0
128.159683 72.0
129.073837 164.0
129.182404 168.0
129.880081 172.0
130.948334 156.0
131.100967 176.0
132.258896 184.0
132.306961 136.0
132.850098 176.0
133.026794 96.0
133.065811 176.0
133.134705 88.0
133.808411 84.0
134.033859 164.0
134.47229 208.0
134.601578 156.0
135.003647 152.0
135.041992 200.0
135.914001 140.0
136.043976 236.0
136.157745 272.0
136.718018 160.0
136.771545 200.0
136.873993 104.0
137.025513 1532.0
137.633148 88.0
138.022003 152.0
138.089813 248.0
139.055649 392.0
139.079742 152.0
139.745956 100.0
139.858917 168.0
139.898926 124.0
140.054352 192.0
140.226349 172.0
140.304123 36.0
141.069427 172.0
141.113907 200.0
142.075439 64.0
142.795166 108.0
143.002151 116.0
143.044998 160.0
143.225967 176.0
143.998749 140.0
144.056076 232.0
144.161194 88.0
145.06337 216.0
145.461716 124.0
145.543335 148.0
147.038239 172.0
147.07869 148.0
148.041519 56.0
148.058472 160.0
148.545639 56.0
148.815018 72.0
149.025024 176.0
149.678192 72.0
150.302185 176.0
150.653763 140.0
150.817474 244.0
151.054657 132.0
151.358139 188.0
151.453644 216.0
151.924286 224.0
151.970901 64.0
152.011566 9864.0
152.054779 44.0
152.540665 64.0
152.567703 76.0
152.675888 76.0
152.793961 52.0
152.857925 76.0
152.876648 172.0
152.951447 180.0
152.988373 116.0
153.019318 10924.0
153.073502 384.0
153.210007 44.0
153.384964 104.0
153.449066 80.0
153.467865 80.0
153.509888 84.0
153.547699 52.0
153.722855 108.0
153.746948 68.0
154.022003 920.0
154.164871 108.0
154.239029 44.0
154.565735 76.0
154.825394 84.0
154.934372 92.0
155.022934 344.0
155.055359 208.0
155.492279 184.0
156.257629 196.0
157.063583 384.0
157.926468 180.0
158.035553 168.0
158.079132 164.0
158.690247 128.0
158.963654 96.0
159.045334 176.0
159.079102 80.0
159.797852 120.0
160.051224 72.0
160.515701 144.0
160.566132 176.0
160.982529 156.0
161.060822 164.0
161.870102 68.0
161.991669 44.0
162.037277 140.0
162.143707 128.0
162.207062 84.0
163.034393 192.0
163.466782 200.0
164.284637 168.0
164.590897 156.0
164.685394 140.0
164.721146 104.0
165.069077 180.0
165.616989 68.0
165.970047 32.0
166.134201 112.0
167.031281 416.0
167.656342 48.0
168.061325 388.0
168.277985 140.0
168.5802 140.0
168.728745 204.0
169.059082 352.0
169.167313 124.0
169.592117 140.0
170.021286 1096.0
170.269272 32.0
170.388763 60.0
171.045502 180.0
171.072708 100.0
171.200287 56.0
171.917191 152.0
171.979813 64.0
172.052841 324.0
173.056854 360.0
174.142502 136.0
174.229187 136.0
174.610321 200.0
175.081406 136.0
175.162827 244.0
177.17334 132.0
177.576248 120.0
177.618698 164.0
178.123032 152.0
179.200439 140.0
180.243698 88.0
180.267746 64.0
180.494965 96.0
180.583206 88.0
180.936432 140.0
181.06488 152.0
181.091736 160.0
181.314102 152.0
181.917603 108.0
183.0522 168.0
183.08194 164.0
183.939194 84.0
184.04982 172.0
184.093079 172.0
184.80127 168.0
184.947403 152.0
184.974472 100.0
185.031326 148.0
185.062149 628.0
185.193802 152.0
185.234436 160.0
185.302155 260.0
185.399704 204.0
186.037094 180.0
187.040146 132.0
187.072815 180.0
187.230743 148.0
188.898392 152.0
189.048874 144.0
189.073502 208.0
190.158798 220.0
190.735596 136.0
190.754837 148.0
191.010559 156.0
191.792557 124.0
192.471222 180.0
192.703232 124.0
193.131714 120.0
193.372421 164.0
193.729614 208.0
194.195282 184.0
194.311783 172.0
194.381149 124.0
194.686508 136.0
195.045074 176.0
195.45929 160.0
195.573395 248.0
196.048309 376.0
196.409286 144.0
197.064728 284.0
197.098846 144.0
197.764435 52.0
198.058426 124.0
198.271362 124.0
199.041397 212.0
199.436096 152.0
199.551346 132.0
200.047409 140.0
201.052704 132.0
202.059494 72.0
202.324646 208.0
203.067047 148.0
204.046707 172.0
204.6698 168.0
204.857773 200.0
205.051529 96.0
205.955963 184.0
206.087372 156.0
206.644913 116.0
207.945862 156.0
208.597885 148.0
208.945847 172.0
209.230759 248.0
210.040512 156.0
210.519608 220.0
210.814255 164.0
210.883621 180.0
211.07341 380.0
211.389709 164.0
211.615479 152.0
212.054413 124.0
212.978439 152.0
213.057175 1588.0
214.05957 556.0
214.0896 204.0
215.063187 552.0
215.705795 136.0
216.042084 160.0
216.071335 124.0
216.440125 92.0
217.040787 168.0
218.32402 172.0
218.415207 172.0
218.942032 128.0
219.074387 124.0
219.207153 92.0
219.277878 108.0
219.431168 216.0
219.947418 136.0
220.836777 164.0
221.046814 228.0
222.128204 100.0
223.038483 236.0
223.816254 188.0
224.051987 320.0
224.394272 116.0
224.835739 56.0
224.916321 188.0
225.052689 208.0
225.767807 200.0
226.043015 188.0
226.06221 152.0
226.839676 160.0
227.040558 168.0
227.061554 176.0
228.789291 224.0
228.997055 84.0
229.05127 180.0
229.084091 660.0
229.907532 56.0
230.188263 152.0
230.31813 96.0
231.067719 112.0
231.258469 136.0
231.602386 204.0
233.06282 96.0
234.328537 140.0
235.444946 104.0
235.50296 96.0
236.756897 64.0
237.461777 172.0
238.14621 168.0
238.613281 156.0
239.074661 128.0
239.333237 148.0
240.239334 188.0
240.507782 164.0
241.049744 892.0
241.091507 160.0
241.561462 56.0
242.057907 1276.0
242.183624 64.0
243.059021 176.0
243.380661 152.0
243.545258 112.0
243.796906 60.0
244.042465 120.0
244.31926 88.0
244.453049 124.0
244.748764 144.0
245.138123 124.0
245.240967 120.0
245.683762 132.0
245.908417 96.0
246.036407 84.0
247.681244 132.0
249.007965 196.0
249.102188 180.0
249.419556 112.0
249.74971 108.0
251.151337 168.0
251.826782 136.0
252.039764 264.0
252.756195 208.0
253.045273 168.0
253.424286 156.0
254.845703 104.0
254.909256 152.0
255.201691 96.0
255.522919 144.0
256.0354 176.0
256.924683 132.0
257.075562 180.0
257.326813 164.0
257.48645 160.0
257.588654 136.0
257.668518 104.0
258.291901 84.0
259.15625 132.0
259.986755 232.0
260.388062 80.0
263.260712 148.0
264.062164 168.0
264.618744 136.0
265.159698 124.0
265.331482 148.0
265.522797 112.0
265.649292 124.0
266.756622 124.0
266.821655 44.0
267.072021 124.0
267.231415 116.0
267.276978 136.0
267.612244 68.0
267.954193 64.0
268.068726 164.0
268.408478 228.0
268.516327 124.0
268.557251 52.0
268.739044 244.0
268.971649 128.0
269.003387 160.0
269.045837 14188.0
269.121826 48.0
269.15448 152.0
269.213257 80.0
269.274628 60.0
269.348969 144.0
269.389618 52.0
269.443085 76.0
269.507233 64.0
269.572571 52.0
269.595459 72.0
269.624878 44.0
269.68042 172.0
269.732147 68.0
269.807922 148.0
269.932159 108.0
269.999054 380.0
270.053467 16880.0
270.128387 52.0
270.154572 52.0
270.200348 60.0
270.230316 52.0
270.245819 76.0
270.253906 120.0
270.324005 56.0
270.47525 60.0
270.524353 100.0
270.566132 68.0
270.578979 52.0
270.675934 132.0
270.714233 84.0
270.845245 32.0
270.90094 52.0
270.995941 184.0
271.058533 2428.0
271.195831 44.0
271.218781 76.0
271.30072 64.0
271.36261 220.0
271.448273 64.0
271.48645 68.0
271.495361 44.0
271.50824 84.0
271.515778 68.0
271.687683 28.0
271.72049 40.0
271.746735 104.0
271.775665 156.0
271.832062 80.0
271.942108 112.0
272.059296 308.0
272.094635 168.0
272.21283 128.0
272.278503 64.0
272.373749 40.0
272.465729 72.0
272.488739 32.0
272.544586 156.0
272.620178 88.0
272.725342 128.0
272.807526 96.0
272.842773 176.0
272.936218 108.0
273.041901 108.0
273.077148 128.0
273.142914 64.0
273.261353 100.0
273.37323 48.0
273.458801 116.0
273.867065 48.0
274.046509 168.0
274.562469 68.0
274.644928 68.0
274.691101 52.0
274.958344 80.0
275.116791 56.0
275.58905 92.0
276.131195 72.0
276.167572 28.0
278.593964 200.0
280.408783 192.0
281.575073 124.0
282.467499 112.0
282.594604 128.0
283.691833 140.0
284.03064 168.0
284.2901 136.0
284.337097 136.0
285.022125 156.0
285.076782 7320.0
285.14151 152.0
285.368317 56.0
285.445679 72.0
285.721466 64.0
285.872864 60.0
286.081238 1624.0
286.118591 32.0
286.142151 92.0
286.169067 48.0
286.23642 56.0
286.667603 52.0
286.866455 112.0
286.963776 128.0
287.056305 736.0
287.15979 48.0
287.412811 48.0
287.690735 136.0
287.770569 68.0
287.983307 60.0
288.062683 176.0
288.101532 120.0
288.14209 84.0
288.605103 104.0
289.217438 48.0
289.830383 76.0
289.921875 36.0
290.094727 68.0
291.612 84.0
292.755066 48.0
295.205231 80.0
303.264771 92.0
313.790558 76.0
326.352142 96.0
329.408203 80.0
330.908997 52.0
332.090332 64.0
334.674103 116.0
338.9953 104.0
354.002502 48.0
376.402252 116.0
402.689789 44.0
409.499969 112.0
431.293488 52.0
437.969635 60.0
441.680298 112.0
464.247284 84.0
484.537811 20.0
485.256561 56.0
497.405945 48.0
521.650635 72.0
525.843323 20.0
562.164734 92.0
572.375244 64.0
600.208435 28.0
646.436768 32.0
722.047607 60.0
758.04425 68.0
766.484436 140.0
786.789673 72.0
806.252319 88.0
823.929199 116.0
845.242798 80.0
848.271729 208.0
880.322815 56.0
947.922913 180.0
957.826416 196.0
973.461121 52.0
973.55426 76.0
976.885681 128.0
996.09491 136.0
1051.505615 168.0
1053.41687 184.0
1059.685547 208.0
1064.660645 152.0
1064.829468 44.0
1070.930054 236.0
1075.95752 208.0
1101.766846 144.0
1111.260498 184.0
1115.91626 180.0
1133.979492 148.0
1134.401855 80.0
1137.809692 56.0
1140.160522 224.0
1143.35498 156.0
1166.425171 164.0
1172.319092 228.0
1173.096069 188.0
1183.363892 176.0
1199.893799 140.0
1211.434448 76.0
1211.614624 68.0
1211.663086 88.0
1215.573608 168.0
1218.468872 144.0
1225.948608 168.0
1229.205078 76.0
1229.951782 244.0
1243.845947 204.0
1246.718384 188.0
1255.373535 40.0
1264.100952 184.0
1264.964355 80.0
1265.502441 76.0
1270.158325 68.0
1271.683716 52.0
1273.77124 176.0
1274.48877 176.0
1285.482666 116.0
1293.709106 196.0
1293.895142 208.0
1298.947266 180.0
1299.600098 104.0
1299.930176 80.0
1304.224731 140.0
1304.541016 116.0
1314.458252 52.0
1316.486694 136.0
1316.573364 72.0
1318.364868 120.0
1320.663818 164.0
1323.087891 200.0
1325.673584 148.0
1328.675415 196.0
1328.842163 52.0
1334.427246 188.0
1335.787109 176.0
1335.888916 252.0
1340.25708 148.0
1341.845947 180.0
1347.166016 160.0
1348.079224 52.0
1349.153687 188.0
1351.06958 36.0
1354.488159 212.0
1362.226807 136.0
1366.600952 68.0
1374.248535 176.0
1375.215332 108.0
1376.086304 184.0
1382.02124 92.0
1382.901733 184.0
1384.626831 172.0
1386.730835 152.0
1392.911377 204.0
1402.591919 80.0
1411.782349 64.0
1413.098877 44.0
1416.145386 152.0
1417.771118 152.0
1419.795288 200.0
1423.299561 160.0
1425.575562 160.0
1429.974854 48.0
1430.178101 144.0
1432.226074 152.0
1433.054688 212.0
1436.688477 60.0
1438.85437 192.0
1439.919067 140.0
1446.466675 268.0
1450.852661 152.0
1451.671509 108.0
1451.762451 176.0
1456.171631 60.0
1462.307007 240.0
1462.679932 176.0
1466.168213 164.0
1468.539185 68.0
1469.1875 160.0
1469.431641 128.0
1472.553711 164.0
1480.560791 272.0
1482.759399 104.0
1485.665405 112.0
1489.54187 220.0
1492.393066 188.0
1493.769531 148.0
1494.52356 136.0
