>compound MLS000563094-01!(3S,5R,8R,9S,10S,13S,14S)-3-hydroxy-10,13-dimethyl-1,2,3,4,5,6,7,8,9,11,12,14,15,16-tetradecahydrocyclopenta[a]phenanthren-17-one
>formula C19H30O2
>ionization [M+H]+
>parentmass 291.232
#inchi InChI=1S/C19H30O2/c1-18-9-7-13(20)11-12(18)3-4-14-15-5-6-17(21)19(15,2)10-8-16(14)18/h12-16,20H,3-11H2,1-2H3/t12-,13+,14+,15+,16+,18+,19+/m1/s1
#inchikey QGXBDMJGAMFCBF
#Ion_Source LC-ESI
#Instrument qTof
#Compound_Source NIH Natural Product Library
#PI Dorrestein
#Data_Collector VVP/LMS
#Scan -1
#Precursor_MZ 291.232
#ExactMass 290.225
#Charge 1
#CAS_Number N/A
#Pubmed_ID N/A
#Smiles C[C@@]12CC[C@H]3[C@@H](CC[C@@H]4C[C@@H](O)CC[C@@]43C)[C@@H]2CCC1=O
#INCHI_AUX N/A
#Library_Class 3
#SpectrumID CCMSLIB00000079743
#IonMode Positive
#UpdateWorkflowName UPDATE-SINGLE-ANNOTATED-BRONZE
#LibraryQualityString Bronze
#TaskID b1d8e8f6646f4e71acdff9ca3d919d08
##Scan# 2292
#SpectrumFile p1-E10_GE10_01_17930.mzXML
#LibraryName NIH_Natural_Products_Library.mgf
#MQScore -1
#Organism NIH_Natural_Products_Library
#TIC_Query 0
#RT_Query -1
#MZErrorPPM -1
#SharedPeaks 0
#MassDiff 0
#LibMZ -1
#SpecMZ 291.232
#SpecCharge 0
#internalFilename spec-00000.mgf

>collision 10
95.084282 148.0
95.238693 148.0
96.861557 40.0
97.894623 176.0
99.297752 140.0
99.420753 220.0
100.100616 188.0
101.162781 84.0
101.798347 144.0
102.05555 156.0
102.591072 80.0
102.645515 184.0
103.051476 156.0
103.095673 176.0
105.070297 1456.0
105.132545 128.0
106.067215 136.0
106.88665 152.0
107.085068 504.0
107.2285 36.0
107.48008 196.0
107.593597 56.0
108.095947 160.0
109.099693 176.0
109.474213 124.0
111.541313 120.0
115.053757 156.0
115.962738 216.0
117.0672 160.0
118.596573 148.0
119.086098 332.0
120.097137 172.0
121.099197 704.0
121.801933 196.0
123.121223 88.0
124.028336 180.0
124.858704 184.0
125.879349 100.0
128.541626 148.0
129.068436 288.0
130.074753 228.0
131.019806 100.0
131.087387 628.0
131.758972 56.0
132.083694 176.0
133.020782 136.0
133.100403 856.0
133.392899 76.0
134.083405 132.0
134.106461 456.0
134.99527 212.0
135.116364 860.0
135.256714 36.0
136.12146 140.0
137.107803 88.0
137.124115 76.0
137.952744 232.0
139.107605 176.0
140.238998 96.0
140.781616 180.0
140.961151 224.0
140.989502 176.0
141.072235 268.0
141.114792 128.0
141.775192 92.0
142.081177 392.0
142.620102 236.0
143.083939 736.0
144.087265 180.0
145.081177 76.0
145.101013 1144.0
145.131516 160.0
145.261032 72.0
145.923843 112.0
145.993576 28.0
146.099564 176.0
146.520691 84.0
147.116928 1904.0
148.119476 156.0
149.134918 320.0
150.032349 68.0
151.035965 44.0
151.221924 32.0
153.27002 152.0
154.242371 212.0
154.331375 204.0
155.083939 188.0
156.091858 320.0
156.188843 152.0
156.935944 152.0
157.101059 376.0
157.330139 32.0
157.562393 56.0
158.104797 156.0
158.122498 252.0
158.390411 128.0
158.417953 212.0
159.11412 1348.0
159.210541 32.0
160.120148 292.0
160.209091 128.0
161.130188 452.0
161.205704 44.0
161.377594 152.0
162.05336 180.0
164.533066 140.0
171.113846 328.0
172.118164 196.0
172.213089 160.0
173.13237 296.0
173.47168 28.0
174.138321 176.0
177.131866 112.0
179.13475 180.0
183.117737 184.0
184.13179 172.0
185.13266 160.0
186.14389 180.0
187.147232 208.0
191.259125 108.0
193.124329 76.0
193.204544 80.0
193.240509 116.0
197.136093 160.0
199.144241 608.0
200.143066 180.0
203.171814 132.0
203.180023 80.0
203.191467 172.0
205.160767 168.0
206.725967 128.0
211.150543 116.0
213.16008 404.0
214.215622 136.0
215.11377 136.0
215.175308 1376.0
216.179108 252.0
219.196335 76.0
220.613007 120.0
221.411896 108.0
227.177902 148.0
229.190826 244.0
231.468338 152.0
240.184814 228.0
245.990601 144.0
254.544998 160.0
255.212585 1292.0
255.403076 116.0
256.209717 372.0
257.069305 128.0
257.221039 212.0
257.787811 72.0
262.364777 140.0
265.044098 116.0
269.129425 52.0
273.225708 140.0
281.048767 88.0
286.025452 164.0
308.02948 72.0
311.128601 96.0
324.070709 184.0
334.249573 68.0
335.53891 44.0
341.03717 136.0
342.08548 128.0
345.077393 44.0
378.100861 116.0
387.07785 152.0
397.055969 128.0
413.098145 116.0
415.119171 152.0
416.092957 112.0
430.101685 176.0
431.105286 124.0
432.114197 152.0
471.274384 52.0
519.555237 68.0
522.492676 48.0
659.439575 20.0
692.502319 192.0
814.184021 56.0
831.20697 92.0
895.589844 216.0
921.656372 48.0
932.284973 140.0
970.330505 124.0
986.422974 172.0
986.598022 196.0
999.58728 152.0
1034.719727 164.0
1045.123535 40.0
1062.380127 80.0
1067.491577 184.0
1086.347534 136.0
1104.581177 156.0
1110.389893 136.0
1139.010498 232.0
1143.266357 56.0
1177.742188 228.0
1180.140869 52.0
1183.164795 172.0
1196.20105 200.0
1197.130493 132.0
1205.581055 164.0
1218.628784 140.0
1219.41394 180.0
1235.85022 104.0
1243.256836 60.0
1244.773193 152.0
1275.307007 152.0
1294.004028 76.0
1301.855469 200.0
1305.218506 132.0
1314.748779 156.0
1322.655518 184.0
1332.154785 192.0
1340.150146 124.0
1389.670654 184.0
1391.125122 220.0
1399.91333 196.0
1411.479492 180.0
1417.520264 172.0
1423.46875 180.0
1435.244629 188.0
1438.149048 204.0
1448.924683 160.0
1457.361328 172.0
1459.854492 84.0
1464.778809 140.0
1471.909546 188.0
1472.749634 176.0
1475.26355 72.0
1478.812744 156.0
1497.985718 204.0
1498.301514 208.0
1503.854126 252.0
