>compound Theophylline
>formula C7H8N4O2 
>ionization [M+H]+
>parentmass 181.072296
#inchi InChI=1S/C7H8N4O2/c1-10-5-4(8-3-9-5)6(12)11(2)7(10)13/h3H,1-2H3,(H,8,9)
#inchikey ZFXYFBGIUFBOJW
#Ion_Source LC-ESI
#Instrument qTof
#Compound_Source Commercial
#PI Dorrestein
#Data_Collector Garg_Neha
#Scan -1
#Precursor_MZ 181.073
#ExactMass 180.065
#Charge 1
#CAS_Number N/A
#Pubmed_ID N/A
#Smiles N/A
#INCHI_AUX N/A
#Library_Class 1
#SpectrumID CCMSLIB00000077071
#IonMode Positive
#UpdateWorkflowName UPDATE-SINGLE-ANNOTATED-GOLD
#LibraryQualityString Gold
#TaskID 48f7f52fc6d249b5abbcc6e7b3df5969
##Scan# 968
#SpectrumFile NCP003017_G2_H11_2_BB1_01_15712.mzXML
#LibraryName NIH_Clinical_Collection_2.mgf
#MQScore -1
#Organism NIHcollection2_04212014_2_mgf
#TIC_Query 0
#RT_Query -1
#MZErrorPPM -1
#SharedPeaks 0
#MassDiff 0
#LibMZ -1
#SpecMZ 181.073
#SpecCharge 0
#internalFilename spec-00000.mgf

>collision 10
49.460232 172.0
60.991642 156.0
69.885178 204.0
78.420227 144.0
80.09465 160.0
90.380104 176.0
92.634285 140.0
96.053963 484.0
97.969872 264.0
101.005211 156.0
105.93586 140.0
105.954292 240.0
120.986084 148.0
122.05677 312.0
124.051689 1064.0
125.053612 356.0
134.958267 220.0
137.350296 224.0
138.509674 148.0
140.951736 140.0
141.955887 444.0
156.961029 148.0
159.934784 164.0
159.968033 268.0
163.93132 160.0
166.078857 152.0
176.282867 160.0
179.98848 140.0
180.969757 172.0
181.072296 7668.0
181.097748 1364.0
181.131973 116.0
181.607559 148.0
181.967148 152.0
182.072083 1048.0
183.093811 184.0
1044.236206 160.0
1975.0625 180.0
1982.393066 180.0
