>compound Venlafaxine
>formula C17H27NO2 
>ionization [M+H]+
>parentmass 278.212
#inchi InChI=1S/C17H27NO2/c1-18(2)13-16(17(19)11-5-4-6-12-17)14-7-9-15(20-3)10-8-14/h7-10,16,19H,4-6,11-13H2,1-3H3
#inchikey PNVNVHUZROJLTJ
#Ion_Source LC-ESI
#Instrument qTof
#Compound_Source Isolated
#PI Sirenas
#Data_Collector Ed Esquenazi 
#Scan -1
#Precursor_MZ 278.212
#ExactMass 0.0
#Charge 1
#CAS_Number N/A
#Pubmed_ID N/A
#Smiles N/A
#INCHI_AUX N/A
#Library_Class 3
#SpectrumID CCMSLIB00000004420
#IonMode Positive
#UpdateWorkflowName UPDATE-SINGLE-ANNOTATED-BRONZE
#LibraryQualityString Bronze
#TaskID d19310cd93df49b68e9fcbec27720eb5
##Scan# 3
#SpectrumFile Venlafaxine.mgf
#LibraryName fda_library.mgf
#MQScore -1
#Organism fda_library
#TIC_Query 0
#RT_Query -1
#MZErrorPPM -1
#SharedPeaks 0
#MassDiff 0
#LibMZ -1
#SpecMZ 278.212
#SpecCharge 0
#internalFilename spec-00000.mgf

>collision 10
101.040871 8.046935
102.04612 7.361111
102.644821 1.242647
103.053299 294.419189
103.195732 1.866228
103.485435 3.455623
104.448151 6.598659
104.487999 1.644444
104.510681 4.448889
104.553368 3.575758
104.588951 2.173354
104.667229 3.171296
104.699677 2.840909
104.750397 3.174603
105.069817 434.996002
105.11261 3.294047
105.198296 4.723215
105.265976 6.607684
105.287437 1.446759
105.344139 6.90535
105.353111 2.08642
105.390587 2.446759
105.469612 1.798203
105.53746 2.358539
106.041061 109.006599
106.068176 1.049603
106.131561 4.333333
106.149429 3.792929
106.2929 3.224673
106.350624 9.411426
106.371895 3.89438
106.732178 3.597222
106.813843 1.351608
107.047958 447.740204
107.085365 246.0392
107.117874 3.635191
107.173454 2.121212
107.184258 3.052632
107.229301 1.513889
107.239349 3.142241
107.388092 2.975309
107.418098 4.35745
107.447342 1.53125
107.46653 1.213384
107.562767 1.337302
107.899078 1.654412
108.057632 2.375
108.133934 2.347222
108.528275 2.938889
108.854744 4.707846
109.062424 14.06018
109.100517 10.08736
109.145111 4.5291
109.232506 3.238049
109.712975 3.465608
110.093857 15.2363
110.131378 1.008333
110.472176 3.798401
114.043587 18.465719
114.46212 4.547365
114.586952 2.738095
114.650566 0.938889
115.053291 577.253479
115.085991 3.013889
115.117249 2.967107
115.146233 0.889815
115.183456 2.011973
115.198387 1.787037
115.23851 1.894324
115.265442 2.131536
115.280548 4.609427
115.349968 2.337963
115.428062 0.8
115.661858 2.806624
115.729393 1.163462
116.239143 1.823148
116.306274 3.9872
116.453308 2.457071
116.505211 2.960526
116.65921 1.564815
116.820839 2.572222
117.069534 591.421875
117.100883 7.310715
117.117683 4.481647
117.131607 2.115741
117.197159 4.111312
117.326538 2.830409
117.34803 1.163462
117.403152 1.186728
117.419197 1.001263
117.762756 1.446759
118.040031 21.33757
118.117897 3.444717
118.438423 1.015873
118.92868 1.274573
118.992905 2.782828
119.048332 105.907204
119.084549 286.735809
119.156143 1.351608
119.289093 4.920139
119.452087 1.53125
119.651512 5.620807
119.665611 3.025206
119.671982 1.049603
119.745483 4.645161
119.901619 0.666667
120.054848 42.44986
120.270012 10.30867
120.336418 2.205
120.356476 19.08287
120.385254 6.610142
120.398041 16.38343
120.408005 0.71627
120.423737 6.013158
120.449593 18.455059
120.46772 15.34641
120.478027 2.4
120.49276 4.681836
120.53022 33.02177
120.540283 1.947917
120.580643 1.223485
120.592178 8.674508
120.628632 13.01175
120.641769 3.667023
120.649742 2.472222
120.681442 9.89372
120.733498 2.339181
120.767189 4.365741
120.798508 14.72011
120.92244 5.580555
120.933449 22.96912
121.038261 22.860029
121.064537 12832.740234
121.110207 15.10075
121.119904 0.8
121.150513 3.011905
121.164848 7.752854
121.174225 6.290277
121.185303 8.854923
121.217369 11.19152
121.224449 4.966085
121.234192 9.043091
121.2425 3.902988
121.257706 0.911111
121.268112 5.579861
121.27533 5.652622
121.302414 26.57349
121.308815 9.631173
121.325485 14.48345
121.355972 17.16489
121.3778 38.015072
121.403587 11.36649
121.416931 3.46627
121.429604 16.580891
121.444931 20.8929
121.457016 13.50434
121.470123 15.24256
121.476196 14.01172
121.505966 19.7866
121.549698 12.96008
121.560562 9.889079
121.567825 13.08097
121.587326 19.953751
121.609932 12.91058
121.63311 10.45138
121.646019 11.90784
121.653938 5.716667
121.679245 8.295201
121.748596 3.338164
121.782913 10.82758
121.836906 4.333586
121.903053 8.907802
122.014038 9.430801
122.171211 3.898504
122.198425 5.226224
122.240433 7.258965
122.275055 8.890909
122.283264 3.013889
122.366142 4.532895
122.391472 2.444444
122.569115 10.65799
122.598404 2.578947
122.659981 3.384259
122.691055 5.573529
122.714973 3.485269
122.895187 6.056336
122.976295 2.777778
123.082565 8.517531
123.103531 2.457603
123.53524 3.055556
123.543953 2.280172
123.81118 0.667929
123.985161 3.080128
124.039398 1.353758
124.16729 0.77904
124.423271 1.445
124.512543 1.797009
124.865265 1.240079
125.977692 1.186728
126.153687 1.712037
127.054634 127.147903
127.091713 1.009615
127.377876 2.818182
127.53904 2.502315
127.60994 0.784722
127.689026 5.029612
128.018982 6.779589
128.060791 201.130905
128.109512 1.222884
128.644806 3.697917
129.069458 279.177002
129.168945 0.861111
129.624619 1.449074
129.752792 1.134259
129.872284 6.351776
130.414688 2.410494
131.049088 156.800293
131.086807 72.375549
131.293518 4.051426
131.446136 2.080026
131.564316 8.882984
131.653946 1.493827
131.709549 3.029589
131.965393 8.456168
132.056259 734.835571
132.108231 1.91585
132.173477 10.59882
132.226105 0.893519
132.273453 1.041667
132.337357 1.937802
132.362198 2.493889
132.377396 4.006808
132.385086 2.796053
132.597626 1.556481
132.614822 5.107988
132.686066 2.571429
133.412094 1.55607
133.508545 3.298442
134.095657 11.03403
134.371948 2.451389
134.462921 2.888889
135.079453 560.502808
135.122742 2.138333
135.168564 9.632935
135.350433 4.942811
135.36084 3.456418
135.444977 3.571429
135.505829 2.073068
136.049545 4.671297
136.8992 5.456818
137.123688 24.15497
137.591354 1.793651
138.236664 3.111532
140.714096 5.415
141.068848 348.735809
141.118805 1.223039
141.172562 2.973348
141.180801 4.07298
141.238678 1.787879
141.272247 2.382716
141.308975 3.112434
141.383408 1.026709
141.469345 4.174242
141.624985 4.000262
142.220245 1.778704
142.519119 2.925439
142.988892 2.656362
143.045349 60.63369
143.084671 93.313004
143.216888 2.544444
143.305374 11.77707
143.313614 3.93962
143.730225 1.349206
144.056625 299.452698
144.094009 1.238095
144.110031 3.026163
144.152664 3.581349
144.163223 9.607223
144.175262 1.631173
144.229813 3.238461
144.269272 1.519444
144.281372 6.689815
144.310974 10.46661
144.56517 0.916667
145.064651 167.836899
145.080872 13.35176
145.097412 12.11418
145.264359 2.211111
145.328003 16.89212
145.427902 3.14693
145.499146 3.284722
145.819153 3.021242
146.072052 115.080902
146.097198 28.4958
146.13002 0.888889
146.218689 2.20202
146.230957 1.337302
146.240051 4.617317
146.268219 3.552203
146.282715 2.177778
146.344574 1.222222
146.376724 3.643462
146.406006 6.765456
146.425537 2.163461
146.485687 6.723958
147.079803 2929.391113
147.13121 23.797359
147.14949 1.57209
147.158813 1.543651
147.175156 5.843835
147.204361 1.668981
147.212189 6.515168
147.225281 6.783333
147.251572 15.32165
147.273056 6.764957
147.297455 2.222222
147.309235 5.413462
147.33989 2.115741
147.356476 2.430556
147.401459 6.427288
147.411255 2.8125
147.440826 0.672222
147.453018 2.116667
147.483841 6.565657
147.51297 17.005911
147.567581 4.001263
147.656357 7.463327
147.693558 4.450143
147.708511 6.457744
147.914627 7.232639
147.944046 3.224748
148.041534 4.059755
148.304031 2.119445
148.500687 6.295859
148.560287 8.160569
148.715012 2.902778
148.76001 0.888889
148.876312 3.686111
149.099121 19.35104
149.203125 2.587963
149.233093 1.675214
149.284103 2.351191
151.212753 1.889815
152.14003 31.52886
153.066132 10.94659
153.444244 1.778226
155.084488 70.393692
155.311539 0.666667
156.439911 2.839744
156.50174 2.808183
157.062973 20.967501
157.096603 33.403111
157.142166 1.578283
157.185089 3.450397
157.355392 1.507936
157.391052 2.242845
157.449081 5.254185
157.548157 3.862237
158.071899 609.630127
158.129288 2.449445
158.155563 1.946759
158.225555 3.118056
158.257095 1.43254
158.299957 4.241546
158.34404 9.681452
158.400635 1.223485
158.422668 2.063131
158.463318 7.925926
158.492264 8.601587
158.566971 4.337366
159.079636 951.017029
159.138702 2.537879
159.150238 2.116111
159.197845 6.596545
159.207291 3.605556
159.283356 2.373457
159.431244 2.67864
159.585022 2.126736
159.619659 2.783333
159.85321 1.785714
159.935211 1.395833
161.095261 95.48288
161.131638 1.667222
161.294876 1.378704
161.369858 3.469136
162.089783 356.052704
162.144165 0.555556
162.272659 3.492064
162.369492 6.457819
163.09787 174.688004
163.48082 8.475252
163.564819 3.803498
163.803818 6.124354
163.889786 2.011201
164.045486 5.259568
164.152649 2.578947
165.066193 29.694441
168.0923 13.79133
168.798294 1.448413
170.408722 4.584795
171.080429 87.10257
171.143082 3.0625
172.024017 4.355556
172.085983 110.895103
172.12793 9.260869
172.141647 1.755117
172.156265 13.98179
172.192551 2.222222
172.227371 1.449074
172.43866 3.430556
172.570679 1.267593
173.064529 1.580556
173.095581 685.797974
173.177521 8.019401
173.293961 9.865775
173.307114 5.797514
173.370239 3.187331
173.381516 1.556481
173.472092 2.670977
173.650421 5.236111
173.728775 3.342949
173.79454 0.573413
173.826233 5.469864
174.358932 4.328947
174.444839 2.565476
174.982849 2.002137
176.058655 5.884804
177.114594 64.083931
177.27272 2.955556
177.843491 5.136579
178.122879 56.558071
183.116379 4.168907
184.086105 10.6734
184.122955 6.787113
185.093796 101.147102
186.204819 3.679094
186.261826 4.707491
186.679993 2.302249
187.111267 26.1639
187.510071 4.535207
197.192459 5.854656
198.100769 26.76255
198.17569 2.763889
199.382004 5.007086
199.484573 1.934259
201.989059 0.888889
215.142426 22.39677
215.712646 8.463761
270.307678 1.933889
415.244141 3.571429
563.752075 6.48538
729.890503 4.039783
819.3573 1.784357
823.145569 3.921032
1051.534302 1.285714
1080.804199 2.041667
1131.420044 1.444444
1202.610962 1.813596
1431.083618 2.113095
1439.386597 2.454545
1551.759399 4.130435
