>compound Nimodipine
>formula C21H26N2O7 
>ionization [M+H]+
>parentmass 419.182
#inchi InChI=1S/C21H26N2O7/c1-12(2)30-21(25)18-14(4)22-13(3)17(20(24)29-10-9-28-5)19(18)15-7-6-8-16(11-15)23(26)27/h6-8,11-12,19,22H,9-10H2,1-5H3
#inchikey UIAGMCDKSXEBJQ
#Ion_Source LC-ESI
#Instrument qTof
#Compound_Source Isolated
#PI Sirenas
#Data_Collector Ed Esquenazi 
#Scan -1
#Precursor_MZ 419.182
#ExactMass 0.0
#Charge 1
#CAS_Number N/A
#Pubmed_ID N/A
#Smiles N/A
#INCHI_AUX N/A
#Library_Class 3
#SpectrumID CCMSLIB00000005361
#IonMode Positive
#UpdateWorkflowName UPDATE-SINGLE-ANNOTATED-BRONZE
#LibraryQualityString Bronze
#TaskID d19310cd93df49b68e9fcbec27720eb5
##Scan# 3
#SpectrumFile Nimodipine.mgf
#LibraryName fda_library.mgf
#MQScore -1
#Organism fda_library
#TIC_Query 0
#RT_Query -1
#MZErrorPPM -1
#SharedPeaks 0
#MassDiff 0
#LibMZ -1
#SpecMZ 419.182
#SpecCharge 0
#internalFilename spec-00000.mgf

>collision 10
100.880417 16.3787
101.03788 25.642731
102.045151 15.9
103.051071 19.01667
104.027222 71.707077
104.045769 11.40119
105.057266 42.118629
106.029678 36.644901
107.049614 30.16017
107.070595 57.896629
107.989197 5.418182
108.505814 1.936111
109.494843 5.406818
110.019783 12.33158
110.057747 31.424999
110.207687 2.1
111.043556 334.030212
111.081055 7.306035
111.271446 5.473485
113.02243 18.54571
114.048058 17.407721
115.052704 80.277206
115.434151 3.803571
116.059196 7.25
118.040123 99.322563
120.039268 11.84167
120.080086 37.164539
121.027641 61.587021
122.006348 6.252083
122.06105 35.000809
123.066162 17.171749
124.035866 14.03125
126.05481 395.116913
127.331512 2.001667
127.598587 3.429762
128.034073 88.237312
128.103485 1.9125
128.188828 2.808333
129.033188 185.585907
129.350876 3.689286
130.041077 84.58136
130.067123 68.528954
132.020309 16.206671
132.078476 51.006519
132.117828 4.011765
134.05986 90.683907
137.042953 4.205
138.053055 10.40093
139.053284 108.3414
139.45874 3.8
139.779358 9.204787
140.063538 150.814896
140.116852 1.4
141.069992 96.104492
141.706757 1.81
142.051453 1.808333
142.07135 59.4258
142.079239 159.832993
144.042007 32.755131
144.049759 3.555769
144.083328 57.36108
144.281815 2.618182
144.397278 3.081667
144.444473 3.944047
144.850677 12.65799
145.085953 74.111313
145.286453 1.807143
145.695587 1.7
146.022217 51.098991
146.034836 50.904732
146.058487 14.09534
146.296295 4.205
147.234436 4.491667
148.041321 96.405128
148.096832 2.605556
149.024506 13.73611
149.280365 9.87
150.018463 373.510193
150.054169 301.055511
150.16153 4.042241
150.20842 4.601
150.225479 3.016667
150.38884 11.38347
150.417313 4.401667
150.433746 5.446154
150.449066 19.620449
150.679184 4.849138
150.86586 15.41261
150.908356 4.321
150.952866 29.15769
151.062637 338.743713
151.17128 13.80714
151.276093 2.420455
151.421753 2.807143
151.443161 6.211764
151.468506 2.225
151.5466 9.64
151.987366 10.20962
152.070755 196.908203
152.203323 6.490909
152.38707 3.738889
152.781845 13.28929
153.070145 64.12426
153.452408 8.022298
154.038651 41.02264
154.063583 112.061203
154.081528 81.085274
154.24762 9.969615
155.050491 19.222269
155.833832 21.75392
156.302155 7.147449
157.054169 44.088928
157.063629 32.065441
157.090622 35.551682
157.222183 4.090909
157.312836 2.818182
157.325928 3.0
157.370102 6.578948
157.829544 2.001471
158.071976 45.320492
158.098587 53.703831
158.365997 2.448077
158.392136 1.405
158.444977 7.514286
158.628952 2.45
159.063904 37.240459
159.10144 27.86594
159.800934 9.034782
161.076248 41.133438
161.131882 2.404545
161.43576 32.13596
162.048935 32.57729
162.286972 12.87412
163.05867 29.357361
163.928741 5.4
164.060104 57.482059
164.367249 1.44
164.979111 4.408333
165.050934 29.700809
165.070251 146.224396
165.161804 6.2375
165.322998 9.075
165.488632 4.473529
165.524734 3.783696
166.061783 83.985977
166.073608 94.460503
166.13298 1.066667
167.046478 13.667
167.072662 249.052902
167.12616 3.606818
167.1371 10.50756
167.175644 10.9813
167.198135 1.4
167.225189 3.201923
167.245621 13.04144
167.283997 14.442
167.323456 26.756941
167.347397 11.73913
167.390793 2.216667
167.414124 11.61184
167.481628 5.209
167.535202 1.632143
167.873672 7.263043
168.017838 1.225
168.056274 233.244293
168.08017 5155.063965
168.134521 52.825562
168.154388 7.783696
168.191086 17.025
168.205261 18.342211
168.225342 1.617308
168.248123 6.813158
168.266586 8.472727
168.29657 24.65213
168.337036 8.330302
168.35173 22.00099
168.362991 3.425
168.375305 5.159211
168.397537 13.25633
168.414886 4.40625
168.433014 7.560555
168.446838 10.26483
168.471466 9.774261
168.487244 6.886429
168.50975 3.096428
168.521194 16.66696
168.572525 7.225
168.595398 4.805556
168.604874 6.784091
168.613602 2.217308
168.681381 1.817308
168.698257 11.93245
168.735596 3.018182
168.7612 23.84012
168.839554 5.114189
168.938675 19.65921
168.966171 10.73514
169.004593 2.925
169.061432 34.91901
169.183075 19.06509
169.235748 3.025
169.513763 6.443086
169.536407 5.878261
169.785645 3.266667
170.036819 23.679371
170.065674 62.335819
170.184784 6.360556
170.343658 4.20577
170.49353 2.008333
171.065872 123.102303
171.104492 638.991394
171.144363 2.208333
171.157379 1.607143
171.25354 9.477632
171.289398 12.22837
171.348892 5.522923
171.404877 15.24849
171.421463 4.404546
171.590363 9.857142
171.631683 2.906579
171.968857 3.01
172.072006 93.755371
172.269714 2.2
172.47525 6.602273
172.639496 5.411842
173.504822 5.4
173.724792 3.657143
173.853195 1.4
174.055038 165.814606
174.073837 18.239281
174.31221 2.816667
174.368317 8.579256
174.463791 9.484483
175.094498 8.229082
175.444153 4.813334
176.033737 850.786377
176.091049 3.49
176.125626 1.289286
176.257629 6.387903
176.29747 5.478125
176.357498 2.001316
176.417572 6.145454
176.459885 4.266667
176.486893 3.4
176.56958 1.616667
176.727661 4.004167
178.022781 3.432692
178.0495 186.073395
178.088867 15.13065
178.27536 2.6
178.296341 9.77358
178.415588 4.711538
178.503036 2.609783
178.675339 4.813235
179.074097 42.087601
179.095016 74.67617
179.175583 12.17069
180.062073 26.473471
180.078735 254.889801
180.124191 1.203571
180.207474 16.0
180.229263 3.95
180.313263 6.79
180.401077 10.06436
180.462158 5.265385
180.502579 3.015385
180.718918 9.694231
180.773773 3.44537
180.975327 8.008333
181.087875 771.650818
181.126343 6.12
181.143127 7.853333
181.175949 7.005556
181.206573 13.05074
181.307404 3.504167
181.419189 5.417308
181.443604 13.82553
181.542877 8.628261
181.763229 1.489286
181.832413 3.207759
181.991943 5.236363
182.039886 7.958721
182.061752 33.793381
182.096039 1996.416016
182.155441 10.02851
182.170746 6.007143
182.212784 4.504167
182.242126 16.814541
182.262146 4.417308
182.28508 10.37258
182.306534 2.236765
182.330109 4.156482
182.353653 10.5125
182.363419 13.01176
182.395782 13.40029
182.414993 5.0
182.451492 25.4821
182.466614 6.20625
182.51796 6.21875
182.593262 2.433333
182.609482 5.473809
182.634705 12.48167
182.677795 8.009523
182.821671 4.936111
182.851669 6.577778
182.861221 12.07551
183.072693 262.071198
183.103607 4113.096191
183.162445 25.07826
183.202393 29.36587
183.235687 20.27454
183.290588 17.23678
183.327255 5.893889
183.33667 6.235
183.383789 11.60812
183.400497 11.3879
183.42627 11.78
183.461945 8.675
183.484283 18.14356
183.508652 3.675
183.551102 13.4955
183.60643 7.134091
183.618622 5.628572
183.717926 2.4125
183.755341 20.044519
184.016418 6.228571
184.04921 100.049202
184.15506 8.951049
184.254456 3.881667
184.303589 5.444444
184.321564 11.92482
184.337494 3.4
184.374451 3.811764
184.398071 5.893889
184.417557 1.911364
184.596466 4.849
184.650101 12.77052
184.790695 5.877778
184.856583 3.62
184.870773 2.40625
185.026901 3.400862
185.070465 14.1225
185.611282 8.571428
186.051697 142.440903
186.067001 20.571751
186.18335 11.2125
186.254562 2.201667
186.440292 9.257143
186.473022 5.602083
186.648834 3.811764
187.097809 95.649857
187.166763 9.247059
188.071472 142.505203
189.039291 51.22961
189.068863 221.209396
189.181122 6.615
189.272049 3.214286
189.631714 8.057142
191.0802 162.423706
191.100143 6.968421
191.119202 2.615
192.024734 9.16875
192.051575 5.472222
192.066788 38.466419
193.533249 4.34569
194.05896 99.818649
194.073074 42.26038
194.095978 159.505295
194.121231 9.553572
194.29213 2.064286
194.326019 2.064286
194.94751 11.16568
195.066666 39.65395
195.144516 6.625
195.221497 6.678226
195.251038 1.911364
195.355469 6.600581
195.608734 14.26994
195.912979 8.568182
195.992966 3.025
196.058365 190.652405
196.073624 163.122604
196.178085 5.600676
196.347519 10.18077
196.455933 1.633333
196.656494 15.15783
196.746887 3.938462
197.041489 5.654348
197.080994 342.468994
197.112976 42.86887
197.256424 5.835
197.471466 5.635
197.539917 4.207258
197.813828 3.249
197.892456 5.175
198.05365 4.416892
198.090286 633.887085
198.146683 3.405
198.416687 4.325
198.46022 3.800807
198.48967 6.627273
198.606369 5.272059
198.818146 6.251923
198.843781 6.892568
198.963455 6.12
198.999985 8.073529
199.066208 123.429298
199.097778 353.362305
199.144547 25.119671
199.512421 4.429762
199.997955 9.403814
200.0336 501.861603
200.118973 4.445
200.253082 1.202273
200.364609 7.232142
200.728577 10.30313
200.913315 6.553723
201.07637 28.02508
202.085739 57.863781
202.415161 3.407759
202.948746 9.838236
204.063904 24.665001
204.588852 10.80476
206.118378 4.559211
206.969299 10.0
206.989319 5.208333
207.014343 6.200714
207.067352 179.757599
207.274704 5.2225
207.460068 34.21455
207.757584 11.53602
207.795929 3.803125
207.8349 7.45584
207.858643 7.975
207.8862 4.606818
207.911285 6.233333
207.926331 11.92958
207.996567 6.800532
208.075134 943.68927
208.122375 5.85
208.137817 8.704167
208.182251 3.889286
208.220886 6.447093
208.235031 74.693893
208.283081 36.392139
208.33287 10.347
208.382309 3.9
208.558884 9.829348
208.594055 3.200926
208.609207 6.988235
208.704697 11.86163
208.825073 18.91354
208.885254 10.62778
208.945923 7.00625
208.991898 13.05606
209.025848 2.601923
209.083023 2845.575928
209.144119 13.09008
209.170227 3.401923
209.182724 4.628572
209.198669 33.10918
209.248306 28.557831
209.293045 9.006666
209.30455 10.20238
209.348694 15.44333
209.370544 21.047701
209.409805 12.30439
209.451599 19.13221
209.473419 13.30208
209.492157 13.71057
209.627853 10.7375
209.670349 11.04028
209.775528 9.846312
209.809631 9.034359
209.861282 53.5994
209.937759 5.420161
210.010239 5.178333
210.032928 9.061364
210.055313 80.135353
210.091171 5330.604004
210.142899 25.768999
210.171112 38.185989
210.280548 20.690929
210.327087 42.71637
210.408875 43.253639
210.437073 5.952381
210.470139 41.748428
210.495087 55.90118
210.513779 8.496154
210.536926 7.15
210.572754 12.32675
210.620819 9.979596
210.666443 28.92951
210.709076 23.321621
210.891785 10.80625
210.947098 5.852083
211.097794 2325.0
211.131042 18.395309
211.224915 6.04
211.295883 1.402273
211.392868 15.21634
211.422409 2.85625
211.543732 3.003572
211.595993 9.811572
211.753448 6.003572
211.817566 7.600862
211.938202 3.617308
211.985275 8.579256
212.013092 24.875999
212.071442 1566.790039
212.186829 3.405
212.201218 20.401899
212.227371 8.22402
212.261108 7.029808
212.293259 31.92359
212.339432 13.40733
212.440781 19.44982
212.462555 23.60417
212.490982 7.423684
212.544571 10.16011
212.564148 5.104167
212.646698 11.77778
212.728638 5.004167
212.810715 6.291667
212.827393 19.61993
212.870682 15.89265
212.973816 10.1225
213.720001 7.213298
213.995911 2.755769
214.047302 224.402206
214.086029 292.858185
214.119507 19.169189
214.132156 4.809091
214.180618 1.875
214.249252 4.6
214.269623 12.67298
214.324722 3.225
214.391937 5.201316
214.417465 1.875
214.448883 2.714286
214.463196 1.403571
214.509003 5.8775
214.643448 11.02402
214.81485 2.8
215.093826 302.873199
215.258682 8.01
215.570587 2.803571
215.774506 11.27605
215.835007 9.589173
215.886948 6.065789
216.062881 59.45031
216.239792 4.809091
217.062317 825.28833
217.12059 4.207258
217.151352 2.632895
217.21907 7.291129
217.295517 7.169318
217.308838 10.98351
217.424667 9.381819
217.479568 2.804167
217.505219 6.65
217.534119 5.568182
217.566803 4.64537
217.59758 8.200423
217.628876 5.028571
217.717407 8.65
217.828308 4.131522
218.035706 15.40128
218.166565 2.816667
218.247757 2.825
218.321808 7.018939
218.39505 6.273485
218.84639 10.62424
219.660324 2.064286
220.043396 18.408331
220.806427 1.2
221.029175 10.60862
221.068695 9.784091
221.731979 13.26722
221.820816 3.912037
221.851883 8.0225
221.907654 6.506579
222.052353 41.875
222.078186 111.532303
222.305527 4.825
222.385941 12.65601
222.712891 4.601
223.086441 984.635376
223.149216 3.401
223.227951 11.05523
223.244049 1.5125
223.281479 6.30625
223.407562 9.388461
223.440338 3.8
223.960663 3.2375
224.064407 76.518784
224.320038 2.005556
224.471161 2.4
224.648529 5.406428
224.757919 9.600397
224.82312 3.45
224.841385 2.605556
224.862244 5.000806
224.954895 11.38526
225.026596 2.0
225.043732 8.464474
225.107208 22.127701
225.140717 25.854071
225.175217 1.875
225.257843 24.811581
225.314377 5.744048
225.366272 40.931
225.506561 49.934891
225.525696 17.047371
225.626648 14.43414
225.729065 4.044565
225.798477 12.06604
225.827789 15.93956
225.959091 6.656818
225.974808 5.442241
226.085373 7249.077148
226.147873 59.692131
226.183121 12.20833
226.195038 20.00701
226.210526 41.32169
226.226212 11.41226
226.252609 13.655
226.269363 6.489286
226.298416 11.20802
226.311829 19.79014
226.325684 45.382912
226.341339 7.935
226.394943 34.125309
226.414627 20.926331
226.434128 17.81513
226.455902 16.528259
226.471985 9.036364
226.484879 19.469891
226.529205 18.20068
226.576599 10.2987
226.607971 11.60409
226.729813 7.048215
226.761414 20.16222
226.997757 11.8963
227.016525 11.08654
227.058258 19.24543
227.169205 1.69
227.23288 15.35461
227.445862 18.4289
227.460098 16.52667
227.515213 17.754681
227.635132 10.09359
227.649017 6.904166
227.691101 15.39379
227.814102 5.421552
227.828171 6.11413
227.903397 14.02088
228.063797 292.67691
228.292191 3.400862
228.348267 12.80726
228.392075 3.214286
228.428955 2.264286
228.593002 5.157143
228.676071 2.217308
228.88031 4.248077
228.965256 2.094231
229.045792 16.86944
229.095673 175.115601
229.157684 3.575
229.297546 11.62227
229.371017 2.618182
229.581818 7.710294
229.981125 1.625
230.079956 77.138138
230.647629 9.834783
231.024277 16.7787
231.070923 42.251308
231.111267 33.52594
232.057358 44.146389
232.866379 1.669444
233.860703 8.424242
234.009689 9.645149
234.03363 1.8
234.842178 7.2225
234.927231 20.82004
235.067749 398.762207
235.134567 2.735
235.203293 4.275
235.251236 6.473529
235.349716 14.95925
235.571564 3.6125
235.7845 1.44
235.811554 12.21875
236.069855 686.343628
236.14859 1.2125
236.290283 5.525
236.312851 18.45363
236.410416 6.891666
236.564117 3.801667
236.604141 4.489
236.646667 2.75625
236.961899 6.6
237.077148 826.616211
237.149368 2.201923
237.272858 8.118877
237.345276 6.029762
237.38768 6.498099
237.428024 4.049
237.470917 7.985185
237.497726 3.608333
237.558014 5.07
237.593475 16.266569
237.71759 7.2875
237.906052 1.89
238.048813 46.38583
238.075653 444.929291
238.126312 4.525
238.146957 2.015
238.243729 13.11413
238.464951 5.338462
238.495972 8.430769
238.632187 15.96719
238.645813 5.15
238.675964 20.96036
238.690109 5.734091
238.767975 3.089286
238.786224 6.708333
238.840057 4.088044
238.947433 6.681756
239.033203 12.4133
239.055038 314.381989
239.080215 576.904419
239.254105 9.686623
239.302536 7.147449
239.355713 5.858333
239.388596 5.642241
239.425293 17.905899
239.659164 33.51413
239.738647 5.447059
239.792786 6.225
239.948761 3.642241
240.032745 8.144048
240.064697 1153.21106
240.088043 1296.067017
240.131912 9.098001
240.226196 7.037627
240.277664 6.627273
240.292282 17.29442
240.348419 2.88
240.509399 4.013236
240.57515 6.904166
240.590469 1.608333
240.666107 24.144991
240.841324 21.259899
240.8909 4.72
240.916855 22.457371
240.95842 11.73812
240.984543 2.20119
241.119583 4.815385
241.595612 3.159211
241.636703 3.933333
241.723541 12.85
241.752029 3.675
241.784058 6.770454
242.042526 128.663193
242.080887 1610.149048
242.152023 17.07811
242.208862 4.232692
242.244614 24.838449
242.287933 12.56049
242.387833 2.919118
242.471344 2.015
242.488083 13.40992
242.504486 2.804545
242.604721 2.175
242.694641 4.628572
242.825073 3.2
242.840363 9.002941
242.89534 2.75625
243.410049 4.820161
243.62178 2.801087
243.654877 8.405952
243.773285 6.581451
243.930252 1.289286
244.05687 29.338869
244.953781 5.570455
245.048279 18.45405
245.084106 13.87161
245.749649 2.828572
248.060303 14.08182
248.632004 6.602778
249.065353 88.481239
249.194595 1.75
249.725021 9.210526
251.101105 6.40051
251.123169 3.045
251.145218 3.601087
251.415268 1.84
251.509247 3.413235
251.542145 26.32641
251.596313 16.674999
251.625092 2.415
251.66925 3.696154
251.704224 3.464286
251.750092 12.9001
251.772125 15.41231
251.814117 3.025
251.845901 21.879801
251.956314 3.203571
252.022583 6.000806
252.069351 59.641739
252.18277 7.926755
252.2659 11.95244
252.37616 4.206429
252.496933 6.481667
252.511978 14.18846
252.604919 8.645
252.618729 39.249168
252.655746 87.852562
252.691284 5.61
252.707321 17.753189
252.747971 20.768921
252.801315 30.414249
252.826569 60.254082
252.883621 16.82637
252.901474 6.319681
252.970673 17.451611
253.013962 15.43104
253.030212 55.512611
253.07312 6260.0
253.140579 61.591381
253.188995 19.124689
253.226562 27.431959
253.252579 52.87722
253.289398 27.72953
253.333832 5.888043
253.348953 3.95
253.392807 19.78409
253.442474 13.842
253.468781 68.796837
253.492325 22.40802
253.523117 43.449371
253.565628 26.604839
253.587814 19.215691
253.601578 23.601789
253.633011 40.499439
253.671005 13.23645
253.690948 80.918701
253.711609 19.456329
253.757401 79.741791
253.7798 76.385841
253.846817 32.429039
253.885239 17.173771
253.930206 8.386905
253.994614 23.606091
254.031738 99.836533
254.052338 84.011917
254.080734 11888.700195
254.217056 13.47574
254.247482 87.240173
254.292053 58.234241
254.30307 31.33493
254.329285 71.004044
254.358398 32.975719
254.38768 137.379303
254.408524 4.002941
254.422028 45.94239
254.453217 20.772671
254.504364 18.53183
254.575943 13.68875
254.59021 15.57895
254.615692 28.576969
254.664749 27.43948
254.712692 15.11035
254.737595 21.14521
254.8078 26.794649
254.843964 24.29756
254.86264 37.271439
254.925537 45.372051
254.962387 31.067181
254.98056 13.21364
255.088852 29461.660156
255.180435 9.000609
255.22612 16.785259
255.36058 38.25848
255.40976 90.083199
255.440445 29.326071
255.483749 12.46719
255.509979 79.257111
255.535522 48.440559
255.556503 46.89748
255.58252 54.148998
255.615372 53.8736
255.656662 51.806198
255.681793 54.062649
255.704529 78.553673
255.725571 14.49376
255.793732 28.20454
255.814117 42.450851
255.849716 36.68198
255.92424 26.83905
255.946579 38.057331
256.02005 13.71357
256.056122 163.078598
256.198425 5.852083
256.215942 25.354019
256.26944 18.64603
256.313171 65.273232
256.363831 24.52557
256.466644 9.186429
256.638397 11.84736
256.746948 5.691129
256.791687 26.73185
257.020142 18.168659
257.162506 23.884951
257.251221 8.445477
257.30127 2.133333
257.361542 17.600439
257.559753 16.05188
257.610809 6.824651
257.676697 10.70143
257.877228 2.401471
258.036133 67.211647
258.060913 73.160172
258.38028 7.906132
258.514465 2.402273
258.612396 5.2
258.693542 10.04167
258.777954 8.744102
258.956573 4.009783
259.065979 67.901016
259.836243 7.007692
259.858521 4.288043
259.925995 3.44537
260.082855 3.607143
260.380493 1.8
260.790375 2.617308
261.430878 12.90784
261.476288 1.401923
262.136047 1.289286
263.336884 3.2
264.370117 3.44537
265.06012 154.240204
265.139954 1.225
265.306549 1.5125
265.332581 2.816667
265.445557 2.864286
265.502625 2.015
266.067047 486.809814
266.136719 1.289286
266.16626 4.239516
266.21167 4.2
266.446106 5.656034
266.582367 1.736111
267.074921 1063.807007
267.117798 2.675
267.139801 2.76
267.296936 3.822727
267.359497 2.803846
267.406189 4.719118
267.420593 2.911364
267.490326 2.005556
267.678131 18.23237
267.786682 12.71912
267.854218 17.645269
267.880463 3.425
268.053925 7.298684
268.088959 69.402138
268.419891 16.35511
268.487091 8.810526
268.660858 1.325
269.098755 52.09964
269.10965 2.05
269.223114 4.15
269.27243 13.7025
269.511169 2.225
269.56076 2.355769
269.639648 5.280972
269.811981 18.099739
270.076172 689.963074
270.352661 18.016979
270.428589 3.803846
270.536743 2.494231
270.564453 10.00044
270.591705 7.735811
270.669434 4.769
270.687561 2.911364
270.892181 4.609524
271.241577 7.052083
271.327515 3.461538
271.620422 15.66759
272.061523 3.803571
272.089355 23.767441
272.257843 1.656818
273.020996 26.892309
273.088013 277.149414
273.175232 8.686765
273.405914 5.485714
273.837524 2.236765
274.378906 8.640333
275.071014 3.125
278.572693 7.35
279.491272 5.175
281.051575 7.413333
281.226349 16.57798
281.285065 1.815
281.30365 6.000758
281.320374 7.127273
281.361053 13.24143
281.379852 7.718519
281.442627 10.60992
281.536041 51.63028
281.576874 8.318519
281.594879 24.451851
281.61145 13.44167
281.670288 6.834322
281.816254 10.54756
281.9198 3.111364
282.09668 5.661364
282.143219 13.69643
282.24176 9.519736
282.278687 8.655001
282.336273 10.15349
282.421844 35.06918
282.459625 10.56444
282.500336 4.297581
282.557312 15.55833
282.575989 5.613334
282.634369 36.159641
282.660217 31.193371
282.700958 9.51368
282.731689 9.897058
282.808624 6.288889
283.002075 6.169
283.070648 4394.086914
283.13974 80.770683
283.171753 19.156851
283.19632 8.978571
283.226929 15.02949
283.267181 20.99736
283.325409 45.388409
283.355011 30.91511
283.389526 7.8625
283.441956 48.463848
283.473022 11.10058
283.5047 15.9127
283.561127 13.89935
283.609619 4.008333
283.697571 46.971901
283.717865 11.06667
283.75058 16.271151
283.84314 45.97995
283.910095 12.05
284.045868 33.25745
284.079346 7162.798828
284.213989 55.457272
284.255798 65.062477
284.295715 22.19339
284.380951 10.845
284.403076 21.729759
284.468597 42.542461
284.486908 11.61739
284.516785 31.50668
284.598785 7.744118
284.667572 7.202941
284.736938 11.71667
284.791718 46.822788
284.902588 33.3022
284.998779 12.01405
285.191956 24.888809
285.342987 3.869828
285.361053 10.80227
285.440063 15.29654
285.501709 13.60125
285.566345 6.272
285.58316 1.816667
286.025238 8.792308
286.055328 63.504349
286.507751 8.434782
286.916077 2.184091
288.41684 9.377941
289.542725 3.288889
293.112793 23.69231
293.154022 1.289286
294.117676 13.99739
297.099854 5.829762
297.125641 45.457481
297.161804 3.977941
297.667999 4.804167
298.109711 25.908369
298.370392 3.38
298.523712 4.525
299.066986 795.988708
299.11322 123.539703
299.16687 15.84318
299.185699 18.899469
299.212708 12.69387
299.241638 39.911201
299.278961 40.074341
299.301971 6.2
299.321472 52.085201
299.343872 35.784889
299.373688 3.081667
299.413116 39.738491
299.449036 33.75753
299.478302 19.822321
299.507996 118.0392
299.547089 90.165123
299.587189 44.44511
299.645935 7.353125
299.71106 64.059891
299.789673 3.809783
299.839783 53.930111
299.871124 29.827379
299.898743 2.4125
300.03067 7.402631
300.124329 11.80833
300.144806 6.960714
300.292236 7.511111
300.398376 3.649
300.415985 53.24316
300.469452 87.529457
300.673462 8.536112
300.808899 9.013865
301.004486 25.889071
301.02475 51.29763
301.082092 23726.650391
301.154297 18.52873
301.17804 20.46818
301.251251 14.47513
301.299042 7.555769
301.358032 9.634783
301.375397 60.637711
301.425598 53.692139
301.441803 62.45546
301.574371 25.800421
301.603271 56.150452
301.617737 60.009628
301.647247 49.430092
301.671783 29.834339
301.743774 16.71176
301.761078 19.448669
301.776794 38.935181
301.811127 7.404166
301.828033 29.20524
301.855743 13.14819
301.911682 40.916229
302.018158 38.389042
302.052185 27.877081
302.159149 35.79908
302.21524 13.97794
302.29425 10.20333
302.33847 34.164261
302.486176 7.067857
302.802399 9.396795
302.948242 8.023113
303.002716 7.992308
303.069458 14.86531
303.105682 5.9
303.226868 6.602778
303.31778 6.008333
303.536194 15.12347
303.663177 3.657143
303.687531 4.669444
304.129852 2.075
304.184509 6.257143
304.342529 7.400676
304.384827 11.01225
304.560974 5.416667
304.69754 15.123
304.791809 10.17175
304.871002 3.969
304.919373 3.432143
305.277679 1.216667
305.302551 12.48125
305.541077 1.666667
306.009186 2.578572
306.239044 3.44537
306.658966 2.7
307.268799 7.316667
307.62085 1.736111
311.111786 9.742857
311.913483 2.25
312.118195 23.401159
312.310516 3.980263
312.794403 7.283334
313.128601 50.251289
314.173676 2.005556
314.926392 2.0
317.075867 8.592391
319.094849 19.856501
319.859833 4.20061
325.44635 2.20625
327.097412 39.78059
327.522675 16.79842
327.545685 4.829762
327.848511 7.602778
336.8992 5.07
337.146423 2.269444
341.203369 9.056148
342.118286 39.812859
343.128265 149.485107
343.259521 5.45
343.304962 6.978704
343.443207 6.962
344.06369 4.481667
344.311951 4.472222
344.358307 3.2
344.930054 2.736111
345.10675 303.811615
345.92984 3.853333
356.791382 9.177941
357.115662 5.852083
357.15509 3.6
357.201141 3.4
357.257446 5.232692
359.063354 13.30227
359.122772 381.760712
359.275757 3.688889
359.494141 14.03333
359.525909 2.064286
359.556 28.910219
359.710602 7.645
359.84256 1.607143
359.961365 5.202632
361.791992 5.24
362.334808 2.410714
384.550812 13.44802
414.285309 10.73571
437.025452 27.504141
448.747192 3.2
479.280518 7.623113
531.265869 7.2225
738.829285 1.402273
988.607239 3.622368
1691.543091 2.281667
