>compound Apixaban
>formula C25H25N5O4
>ionization [M+H]+
>parentmass 460.1979307320906
#inchi InChI=1S/C25H25N5O4/c1-34-19-11-9-18(10-12-19)30-23-20(22(27-30)24(26)32)13-15-29(25(23)33)17-7-5-16(6-8-17)28-14-3-2-4-21(28)31/h5-12H,2-4,13-15H2,1H3,(H2,26,32)
#inchikey QNZCBYKSOIHPEH
#Ion_Source LC-ESI
#Instrument qTof
#Compound_Source Commercial
#PI Dorrestein
#Data_Collector Garg_Neha
#Scan -1
#Precursor_MZ 460.198
#ExactMass 459.191
#Charge 1
#CAS_Number 503612-47-3, 898235-61-5 (H2O)
#Pubmed_ID N/A
#Smiles N1=C(C2=C(N1C3=CC=C(C=C3)OC)C(N(CC2)C4=CC=C(C=C4)N5C(CCCC5)=O)=O)C(N)=O
#INCHI_AUX N/A
#Library_Class 1
#SpectrumID CCMSLIB00000078193
#IonMode Positive
#UpdateWorkflowName UPDATE-SINGLE-ANNOTATED-GOLD
#LibraryQualityString Gold
#TaskID 77f51c88eb8b467eb4a01dd2d0cb90d2
##Scan# 1167
#SpectrumFile Plate3_21_40_GG10_01_16499.mzXML
#LibraryName FDALibrary_2_04302014.mgf
#MQScore -1
#Organism FDALibrary_2_04302014
#TIC_Query 0
#RT_Query -1
#MZErrorPPM -1
#SharedPeaks 0
#MassDiff 0
#LibMZ -1
#SpecMZ 460.198
#SpecCharge 0
#internalFilename spec-00000.mgf

>collision 10
44.976006 164.0
45.124287 148.0
46.524097 188.0
47.00864 140.0
47.386028 180.0
47.806198 180.0
48.729874 200.0
48.803539 224.0
49.780277 264.0
50.048851 216.0
50.424091 168.0
50.558445 176.0
50.795059 172.0
51.209446 192.0
52.765663 156.0
53.059559 148.0
53.705212 140.0
53.750435 144.0
53.789841 272.0
53.893532 196.0
53.966614 180.0
54.807655 180.0
55.53648 220.0
57.077717 192.0
58.504482 160.0
58.743843 164.0
60.818043 188.0
60.85685 168.0
61.159996 272.0
61.607529 168.0
63.410313 216.0
63.491665 192.0
63.573391 124.0
63.706028 152.0
63.729774 232.0
64.339767 140.0
65.22403 160.0
66.310295 168.0
67.075851 276.0
67.668861 152.0
68.368126 188.0
68.84951 220.0
69.16861 184.0
69.297783 192.0
70.313805 172.0
71.641808 144.0
72.214035 184.0
73.841713 208.0
75.035141 172.0
75.639778 184.0
75.934326 196.0
76.102654 160.0
76.81794 200.0
77.209183 176.0
77.903282 144.0
80.052284 188.0
80.408829 140.0
80.635651 168.0
82.517746 148.0
82.88517 268.0
83.102753 160.0
83.744461 176.0
83.802757 176.0
84.141991 148.0
84.879349 256.0
85.575729 192.0
85.625443 212.0
85.660439 168.0
86.709938 144.0
87.762718 120.0
88.488899 244.0
88.713715 164.0
89.100304 148.0
89.465149 164.0
91.403259 188.0
91.441315 160.0
91.464157 184.0
94.870125 172.0
95.085426 180.0
95.43898 212.0
95.730858 140.0
96.021233 184.0
96.885201 172.0
97.028267 236.0
97.198906 208.0
99.247719 176.0
99.28801 164.0
100.274117 188.0
100.910896 180.0
101.660034 168.0
101.760399 232.0
102.281067 184.0
103.782097 164.0
104.348564 192.0
105.948616 144.0
106.872513 180.0
107.051643 160.0
107.550514 208.0
107.806618 156.0
108.057793 136.0
108.251373 144.0
108.863121 148.0
108.939964 180.0
108.968727 128.0
109.293404 220.0
110.97271 196.0
113.085617 164.0
113.710854 208.0
114.23568 144.0
114.999245 116.0
115.965256 220.0
116.051003 220.0
117.112602 168.0
117.203079 152.0
118.06871 152.0
119.104721 144.0
120.356956 152.0
121.07859 248.0
121.400742 156.0
122.059517 432.0
122.398384 164.0
122.563583 180.0
122.587822 240.0
122.649536 164.0
122.722282 180.0
123.362526 144.0
125.059433 176.0
125.197464 148.0
126.250809 204.0
126.463348 172.0
126.537216 240.0
126.575279 200.0
126.617828 140.0
126.992111 208.0
127.05941 272.0
128.348175 168.0
129.006638 248.0
129.054901 176.0
130.999878 204.0
131.043167 168.0
131.636215 180.0
131.770981 252.0
132.070267 152.0
132.193985 148.0
133.832916 188.0
134.059692 432.0
135.056961 336.0
135.966568 164.0
136.159256 160.0
136.177841 168.0
136.326523 184.0
137.357941 212.0
138.742325 148.0
139.197495 176.0
140.044022 232.0
141.056396 572.0
141.072937 188.0
141.565063 172.0
142.064972 188.0
142.799149 184.0
143.06076 196.0
143.106125 208.0
143.780716 196.0
143.866653 164.0
144.045746 192.0
144.06926 152.0
144.084259 224.0
145.06543 136.0
145.31456 156.0
145.420151 180.0
145.830856 144.0
145.876526 168.0
145.958267 164.0
146.094406 324.0
146.731155 208.0
147.068375 420.0
148.077103 148.0
148.569153 156.0
149.076614 164.0
149.92836 176.0
150.279495 196.0
150.328293 160.0
152.068344 156.0
152.847366 140.0
152.985199 156.0
153.002426 220.0
154.070282 288.0
155.060989 188.0
155.985855 212.0
156.067932 856.0
156.164886 224.0
156.363922 148.0
156.47345 176.0
157.054337 160.0
157.076523 192.0
157.158859 228.0
157.221237 152.0
157.615799 144.0
157.893265 216.0
158.063354 168.0
159.070831 180.0
159.349655 152.0
159.578369 168.0
159.677002 160.0
159.872665 172.0
160.043839 144.0
161.029846 260.0
161.047531 216.0
161.51767 200.0
162.097427 188.0
162.333176 144.0
162.536118 212.0
164.403915 164.0
164.613251 148.0
164.748611 144.0
165.454453 160.0
165.554306 220.0
165.777176 168.0
165.830994 208.0
167.062622 480.0
167.230774 164.0
167.35434 140.0
167.457352 172.0
168.070892 584.0
168.360016 180.0
169.006256 164.0
169.074417 124.0
170.063187 160.0
170.388168 200.0
170.738678 180.0
171.059082 392.0
171.092957 240.0
172.076813 1852.0
172.557281 164.0
172.710846 212.0
173.076187 284.0
173.108643 180.0
173.506912 180.0
174.065414 116.0
174.095047 192.0
175.13089 152.0
175.774139 156.0
176.307571 168.0
176.423874 160.0
177.46434 152.0
177.563278 192.0
177.774689 208.0
178.013611 156.0
178.143753 144.0
178.781876 140.0
180.055191 160.0
180.20311 140.0
181.179626 172.0
181.32164 180.0
182.82019 152.0
183.059784 168.0
183.957611 144.0
184.064316 2668.0
184.330322 180.0
184.381668 152.0
184.819733 164.0
185.025436 228.0
185.071381 3984.0
185.105194 340.0
185.749725 208.0
185.865646 184.0
186.028488 204.0
186.071396 520.0
186.851929 156.0
187.082214 188.0
188.09317 172.0
189.073074 160.0
189.104721 196.0
189.735947 168.0
190.092499 204.0
190.251694 196.0
190.638977 192.0
190.834137 236.0
191.127121 192.0
191.899658 156.0
192.611649 144.0
192.780182 284.0
195.094711 152.0
195.417175 156.0
196.160751 212.0
197.06958 392.0
197.130219 156.0
197.543015 228.0
197.607361 184.0
197.736084 160.0
197.996445 228.0
198.052673 348.0
198.869705 144.0
198.926392 124.0
199.042435 260.0
199.087204 43556.0
199.364853 176.0
199.398544 152.0
199.426117 272.0
200.031097 116.0
200.089478 4888.0
200.196167 132.0
200.353104 144.0
201.073639 208.0
201.096085 440.0
201.719528 96.0
202.109695 508.0
202.380951 280.0
202.485168 164.0
203.11908 336.0
204.877411 188.0
205.561707 148.0
207.128433 172.0
207.690247 196.0
208.307388 196.0
208.968613 144.0
209.011765 196.0
209.088562 128.0
209.475281 172.0
210.077179 136.0
210.490494 164.0
210.608902 140.0
211.64711 148.0
212.090042 160.0
213.067657 168.0
214.070969 192.0
215.017929 216.0
215.077072 180.0
215.120773 320.0
215.363739 164.0
216.086349 288.0
216.12558 340.0
216.656677 144.0
217.040619 148.0
217.09639 312.0
219.755447 176.0
219.973831 152.0
221.076279 164.0
221.419693 200.0
221.769302 184.0
222.108353 160.0
222.338745 160.0
222.481216 152.0
224.102097 160.0
224.426971 176.0
224.952469 172.0
225.067474 420.0
225.501648 164.0
225.66008 188.0
226.047791 264.0
226.096649 624.0
226.956543 168.0
227.081635 1544.0
227.117584 860.0
227.181473 204.0
227.448532 140.0
227.932068 140.0
228.085648 448.0
228.109283 140.0
229.097473 388.0
229.23053 164.0
230.070496 168.0
230.451035 176.0
231.546066 140.0
232.816772 180.0
234.094009 148.0
234.416916 208.0
234.55101 184.0
234.700394 196.0
235.090851 208.0
235.530487 224.0
236.03476 172.0
236.115997 324.0
237.146027 156.0
238.095093 352.0
238.662552 176.0
238.819382 200.0
239.003967 180.0
239.106003 168.0
239.136292 160.0
239.884781 176.0
239.940277 168.0
239.980362 196.0
240.112686 628.0
240.712067 172.0
241.005081 160.0
241.06102 6784.0
241.117767 360.0
241.270874 156.0
242.063293 1184.0
242.131088 216.0
242.459473 140.0
243.073914 572.0
243.11055 520.0
243.185211 168.0
243.511215 156.0
243.747696 164.0
243.880951 164.0
244.0737 144.0
244.102463 176.0
244.261246 184.0
244.37648 232.0
246.190872 152.0
247.546738 184.0
248.267502 168.0
248.371002 180.0
249.087082 124.0
251.217804 200.0
251.511261 164.0
251.74173 152.0
252.035507 216.0
252.187195 156.0
252.53183 188.0
252.921005 160.0
254.075089 188.0
254.130707 1580.0
254.318817 164.0
255.134567 932.0
256.108917 164.0
256.19812 160.0
256.262451 184.0
257.141937 164.0
257.526947 200.0
258.44577 156.0
258.973969 168.0
259.150177 188.0
259.999908 156.0
260.227844 152.0
261.648895 188.0
262.480164 140.0
263.972748 136.0
264.117584 480.0
265.121216 148.0
266.127747 516.0
266.337952 136.0
266.458069 176.0
266.516541 140.0
266.825317 184.0
267.126892 152.0
268.202301 176.0
269.834351 156.0
271.340546 148.0
272.105896 128.0
273.113831 192.0
273.301331 160.0
273.791809 156.0
274.787292 148.0
275.01828 144.0
275.29892 160.0
275.434326 168.0
275.996155 160.0
276.072205 140.0
276.151581 180.0
276.899567 236.0
277.028748 172.0
277.171204 156.0
278.285675 160.0
278.863678 200.0
278.976715 188.0
279.11264 144.0
279.575409 172.0
279.638641 184.0
279.933777 176.0
280.109283 172.0
280.457977 204.0
281.008209 168.0
281.722656 140.0
281.762756 152.0
282.124756 7956.0
282.722412 180.0
283.126709 2088.0
283.66568 152.0
284.12854 164.0
284.666748 152.0
284.770844 240.0
284.818695 128.0
285.117188 136.0
285.390472 144.0
286.806458 140.0
287.028961 244.0
287.207703 184.0
288.355682 140.0
288.960968 164.0
289.119537 180.0
289.279236 164.0
289.658325 156.0
290.36145 188.0
290.465088 160.0
290.784027 148.0
291.259369 164.0
291.915314 164.0
294.77533 156.0
295.125183 184.0
295.500214 160.0
295.59259 144.0
295.880096 160.0
296.103943 200.0
296.198578 144.0
296.325317 164.0
298.0065 152.0
298.068359 168.0
300.068115 264.0
300.12674 140.0
301.103333 152.0
301.486786 140.0
301.680359 156.0
302.022675 140.0
302.091858 172.0
302.707947 164.0
304.372375 192.0
304.598114 156.0
304.688446 176.0
304.928192 188.0
305.108948 148.0
305.54715 336.0
305.766357 200.0
306.08316 176.0
306.386169 160.0
306.427979 176.0
306.506073 252.0
306.644012 160.0
306.854248 168.0
307.184479 220.0
307.47757 180.0
308.092102 168.0
308.455536 172.0
309.196198 196.0
309.242554 184.0
309.701202 160.0
309.743256 152.0
310.570465 216.0
311.174042 164.0
311.830933 164.0
312.3302 148.0
313.13974 152.0
313.206818 100.0
315.231781 192.0
315.553406 168.0
315.815094 140.0
316.101654 160.0
316.126434 152.0
317.110962 160.0
317.143494 160.0
317.646362 224.0
317.820221 236.0
318.48407 152.0
319.431488 128.0
319.959839 224.0
320.950317 168.0
322.742767 176.0
323.000244 140.0
325.620331 172.0
326.119751 152.0
326.505371 184.0
327.137695 144.0
327.649078 160.0
327.760773 176.0
328.474609 220.0
329.120605 216.0
329.272278 176.0
329.53598 144.0
330.486877 152.0
331.113129 180.0
331.14212 192.0
331.250763 196.0
331.547882 204.0
331.83786 200.0
333.602234 152.0
334.042267 324.0
335.710358 208.0
335.983917 148.0
336.140808 232.0
337.444794 152.0
337.715393 188.0
338.813568 148.0
339.315643 160.0
339.803436 252.0
340.135712 140.0
340.934387 156.0
342.148193 156.0
342.191589 164.0
342.321259 160.0
344.132202 308.0
345.088654 160.0
345.177399 156.0
345.488068 144.0
345.858124 208.0
346.139496 160.0
346.646973 156.0
346.910126 140.0
347.106934 148.0
347.154816 144.0
349.565704 164.0
349.852295 148.0
351.238525 152.0
351.746002 144.0
352.059631 192.0
352.283722 192.0
352.489227 184.0
353.90686 172.0
354.187744 144.0
354.581146 172.0
354.764801 152.0
355.076019 164.0
355.162292 176.0
355.458679 148.0
355.743927 176.0
356.16449 264.0
356.348572 160.0
356.480072 192.0
357.277161 144.0
357.595795 144.0
357.766418 144.0
357.909485 168.0
358.143799 288.0
358.595093 176.0
359.454102 128.0
359.930542 160.0
360.145813 236.0
360.281799 184.0
361.114288 152.0
361.34198 184.0
361.836151 224.0
361.998962 172.0
362.105011 148.0
363.090363 144.0
363.128296 140.0
363.585846 220.0
364.145447 180.0
364.472168 208.0
364.563354 184.0
365.168457 200.0
367.426697 180.0
367.690002 188.0
368.637085 184.0
369.769073 160.0
370.21698 180.0
370.364655 96.0
370.695831 176.0
371.146149 176.0
371.177124 184.0
371.723511 172.0
372.118866 156.0
372.162842 172.0
372.890991 112.0
373.174622 132.0
373.217316 140.0
373.748535 168.0
374.170563 728.0
374.490021 144.0
374.843475 124.0
375.019379 196.0
375.146576 224.0
375.187805 172.0
375.242279 176.0
375.536041 192.0
377.9776 176.0
378.027893 160.0
378.120758 172.0
380.159241 228.0
380.201935 184.0
380.295074 208.0
380.609528 212.0
381.143799 168.0
381.769531 232.0
381.814178 176.0
382.33548 172.0
382.37442 144.0
382.740326 140.0
383.157074 236.0
383.963959 180.0
384.065369 144.0
384.674072 168.0
385.421417 116.0
385.799133 148.0
386.26059 144.0
387.174164 516.0
387.227356 152.0
387.658295 152.0
388.011047 164.0
388.136536 192.0
388.1875 172.0
389.150055 128.0
389.445374 152.0
389.694763 164.0
390.115295 160.0
390.151794 248.0
390.201782 328.0
390.685516 140.0
391.063263 168.0
391.177399 228.0
391.299438 172.0
391.716888 168.0
391.917816 144.0
392.477509 232.0
393.12442 244.0
393.846924 212.0
394.985321 212.0
395.052551 260.0
395.16333 188.0
395.377014 160.0
395.998596 188.0
396.454193 196.0
397.160889 144.0
397.592346 172.0
397.691589 172.0
397.993286 144.0
398.179932 196.0
399.138123 136.0
400.149475 292.0
400.244598 144.0
400.681946 208.0
400.980804 148.0
401.155792 400.0
401.423309 180.0
402.1651 264.0
402.302582 184.0
403.166077 232.0
403.903473 208.0
404.343597 164.0
404.45166 172.0
405.016235 224.0
405.917969 180.0
406.985321 144.0
407.04718 104.0
407.254364 156.0
407.619965 160.0
408.138489 164.0
408.20282 156.0
409.120178 140.0
410.131256 172.0
410.201965 144.0
410.490051 176.0
411.13147 180.0
411.742126 104.0
412.184235 148.0
412.638123 144.0
414.005798 196.0
414.0625 160.0
414.297424 172.0
414.678314 160.0
415.171265 604.0
416.17865 508.0
416.406677 168.0
416.479797 224.0
417.190033 528.0
418.197418 180.0
418.443939 200.0
418.521301 160.0
418.814972 140.0
419.064423 160.0
419.199158 196.0
419.653992 176.0
420.046539 172.0
420.192352 176.0
420.629028 228.0
420.682098 224.0
420.88623 180.0
421.200684 140.0
421.539795 140.0
421.842224 168.0
421.985321 152.0
422.18158 176.0
422.349274 152.0
422.602905 212.0
423.694427 212.0
424.4133 260.0
425.150635 128.0
426.108398 188.0
426.145386 180.0
426.178253 168.0
426.317963 184.0
426.453583 144.0
426.519348 172.0
426.564575 196.0
427.064148 172.0
427.57016 156.0
427.938629 212.0
428.171173 160.0
428.732819 140.0
429.525238 192.0
430.379517 144.0
430.457764 148.0
430.920593 184.0
430.990814 224.0
431.078674 216.0
431.416534 204.0
431.542053 188.0
432.040985 156.0
432.558258 196.0
432.723846 176.0
433.436951 120.0
433.552277 204.0
433.888031 200.0
434.49353 212.0
434.667786 164.0
436.345795 164.0
438.447876 252.0
439.055023 164.0
439.955261 176.0
439.991211 216.0
440.936096 196.0
441.191315 128.0
441.315643 168.0
441.470337 148.0
441.71463 176.0
441.775177 136.0
441.972321 160.0
442.060181 152.0
442.193512 172.0
442.401886 268.0
442.502594 172.0
442.569946 148.0
442.738556 160.0
442.784424 188.0
442.824036 96.0
443.093994 200.0
443.171997 42380.0
443.265106 128.0
443.334351 156.0
443.376709 284.0
443.490601 164.0
443.583466 120.0
443.61673 224.0
443.818359 104.0
443.854584 228.0
444.028198 108.0
444.068329 260.0
444.17392 13156.0
444.297455 108.0
444.366852 216.0
444.700439 200.0
444.886536 108.0
445.000183 148.0
445.099945 196.0
445.173279 2544.0
445.633972 140.0
445.95636 172.0
446.187531 288.0
446.230042 136.0
446.352417 140.0
446.512848 136.0
446.622772 124.0
446.757874 120.0
446.853027 256.0
446.922241 148.0
448.65451 168.0
448.779388 200.0
449.032166 176.0
449.270203 168.0
449.725952 148.0
450.364594 256.0
450.798645 124.0
453.041107 164.0
453.13855 152.0
453.808197 140.0
453.99054 152.0
454.104065 156.0
454.822113 212.0
455.055603 180.0
455.098053 232.0
455.308685 132.0
455.373291 176.0
455.518494 156.0
455.848755 120.0
456.126129 164.0
456.172913 168.0
456.368469 232.0
456.553253 184.0
457.205658 140.0
457.305603 136.0
457.471313 108.0
457.880554 164.0
457.991913 132.0
458.050812 180.0
458.153625 140.0
458.240723 220.0
458.319458 184.0
458.478577 124.0
458.541687 100.0
458.690552 180.0
458.822479 136.0
458.989716 344.0
459.109375 200.0
459.147797 184.0
459.191223 344.0
459.309082 140.0
459.348969 284.0
459.359436 184.0
459.440033 256.0
459.470398 184.0
459.510773 128.0
459.581848 180.0
459.659668 184.0
459.698212 180.0
459.784912 508.0
459.823517 168.0
459.876709 128.0
459.951935 124.0
460.022339 192.0
460.108002 264.0
460.200287 157076.0
460.326843 232.0
460.470276 268.0
460.633698 152.0
460.693146 252.0
460.777405 420.0
460.833344 268.0
460.904633 648.0
460.950684 260.0
461.000183 248.0
461.031158 200.0
461.099213 296.0
461.190247 75468.0
461.30426 348.0
461.318359 236.0
461.373047 316.0
461.428589 248.0
461.486877 172.0
461.550201 248.0
461.643982 100.0
461.697174 196.0
461.84549 200.0
461.890839 180.0
461.957123 116.0
462.006378 216.0
462.067657 320.0
462.129669 100.0
462.188385 19100.0
462.297852 160.0
462.36087 124.0
462.44342 180.0
462.623138 140.0
462.669403 120.0
462.882935 120.0
462.952301 112.0
462.978973 96.0
463.059143 224.0
463.117676 136.0
463.190186 3540.0
463.283203 172.0
463.35611 224.0
463.466644 156.0
463.534637 128.0
463.57959 128.0
463.616241 124.0
463.687927 300.0
463.842346 132.0
463.892609 224.0
463.983124 136.0
464.10141 208.0
464.190552 540.0
464.326294 136.0
464.444427 140.0
464.718903 136.0
464.797791 180.0
464.903229 224.0
465.08252 132.0
465.11618 296.0
465.189056 100.0
465.280884 148.0
465.312317 100.0
465.364349 100.0
465.50116 144.0
465.549927 224.0
465.841553 144.0
465.898651 152.0
466.033295 104.0
466.167297 100.0
466.300781 116.0
466.87326 168.0
469.090729 116.0
471.833679 164.0
472.043549 180.0
472.101746 152.0
473.654205 264.0
476.670776 176.0
477.425507 124.0
477.707703 96.0
478.209229 5344.0
478.427917 176.0
478.527161 96.0
479.1073 140.0
479.210327 1708.0
479.284119 144.0
480.222076 616.0
481.19632 168.0
481.241425 168.0
481.732971 100.0
482.218506 180.0
482.86557 168.0
483.352264 108.0
502.22049 144.0
550.593872 176.0
622.204468 148.0
662.934326 148.0
766.545593 164.0
828.714111 144.0
837.497742 148.0
900.034912 148.0
1043.02478 144.0
1224.903442 144.0
1402.798584 140.0
1511.035522 276.0
1577.900391 160.0
1592.727173 216.0
1626.808716 156.0
1627.53125 140.0
1633.213013 200.0
1657.140625 156.0
1715.057617 148.0
1810.512085 212.0
1820.043457 244.0
1824.410522 208.0
1826.808594 152.0
1836.109863 160.0
1847.478638 164.0
1857.981689 208.0
1862.840576 244.0
1876.800049 172.0
1895.765259 144.0
1944.183228 160.0
1958.2323 140.0
1960.566895 252.0
1974.268066 140.0
1975.966431 192.0
1992.172241 212.0
