>compound MLS001165779-01!ARIPIPRAZOLE
>formula C23H27Cl2N3O2
>ionization [M+H]+
>parentmass 448.1553089160906
#inchi InChI=1S/C23H27Cl2N3O2/c24-19-4-3-5-21(23(19)25)28-13-11-27(12-14-28)10-1-2-15-30-18-8-6-17-7-9-22(29)26-20(17)16-18/h3-6,8,16H,1-2,7,9-15H2,(H,26,29)
#inchikey CEUORZQYGODEFX
#Ion_Source LC-ESI
#Instrument qTof
#Compound_Source NIH Pharmacologically Active Library
#PI Dorrestein
#Data_Collector VP/LMS
#Scan -1
#Precursor_MZ 448.151
#ExactMass 447.148
#Charge 1
#CAS_Number N/A
#Pubmed_ID N/A
#Smiles Clc1cccc(N2CCN(CCCCOc3ccc4CCC(=O)Nc4c3)CC2)c1Cl
#INCHI_AUX N/A
#Library_Class 1
#SpectrumID CCMSLIB00000085956
#IonMode Positive
#UpdateWorkflowName UPDATE-SINGLE-ANNOTATED-GOLD
#LibraryQualityString Gold
#TaskID d252d724072548979f1f6f1ced849daf
##Scan# 1773
#SpectrumFile p4-H07_GH7_01_18415.mzXML
#LibraryName Pharm_Active_Library.mgf
#MQScore -1
#Organism Pharm_Active_Library
#TIC_Query 0
#RT_Query -1
#MZErrorPPM -1
#SharedPeaks 0
#MassDiff 0
#LibMZ -1
#SpecMZ 448.151
#SpecCharge 0
#internalFilename spec-00000.mgf

>collision 10
44.8927 164.0
44.926044 144.0
45.035507 192.0
45.086277 184.0
45.257507 120.0
45.429058 164.0
45.484077 120.0
45.50153 168.0
45.53376 136.0
45.587891 452.0
45.617065 212.0
45.643955 404.0
45.691032 72.0
46.056362 148.0
46.164486 56.0
46.277195 136.0
46.305237 204.0
46.362137 192.0
46.394669 88.0
46.415009 180.0
46.431282 216.0
46.516762 164.0
46.531696 148.0
46.547066 128.0
46.628143 168.0
46.662128 136.0
46.705647 156.0
46.754627 136.0
46.773155 228.0
46.800911 172.0
46.847218 124.0
46.869019 200.0
47.012203 184.0
47.04496 160.0
47.165173 188.0
47.269115 240.0
47.334824 176.0
47.399208 104.0
47.418392 144.0
47.430729 84.0
47.445808 140.0
47.638962 172.0
47.760281 176.0
47.775414 116.0
47.913086 96.0
47.944778 176.0
47.954426 84.0
47.975105 68.0
48.092358 204.0
48.125488 108.0
48.161396 124.0
48.27058 220.0
48.417271 108.0
48.454674 92.0
48.465759 72.0
48.486546 152.0
48.565575 204.0
48.583607 120.0
48.603031 148.0
48.630787 188.0
48.718273 184.0
48.773857 164.0
48.811394 128.0
48.829704 200.0
48.943588 176.0
48.954731 192.0
48.97562 144.0
49.050865 224.0
49.12896 72.0
49.138725 204.0
49.297909 112.0
49.457676 208.0
49.469952 112.0
49.502155 128.0
49.544174 176.0
49.560986 60.0
49.629669 176.0
49.642292 140.0
49.715881 236.0
49.921753 152.0
49.96817 144.0
50.039951 160.0
50.07938 120.0
50.09206 160.0
50.190716 196.0
50.246147 200.0
50.41658 196.0
50.478783 256.0
50.508484 252.0
50.519802 124.0
50.532269 148.0
50.620296 32.0
50.630207 184.0
50.64579 120.0
50.72514 172.0
50.754913 72.0
50.771931 180.0
50.817326 108.0
50.84145 144.0
50.864159 72.0
50.920956 152.0
51.048862 168.0
51.068771 228.0
51.094379 60.0
51.139915 84.0
51.226776 128.0
51.272373 144.0
51.362198 204.0
51.406429 152.0
51.464954 96.0
51.493515 168.0
51.503513 128.0
51.517799 164.0
51.55352 128.0
51.765244 248.0
51.877003 140.0
51.892773 64.0
51.91753 60.0
51.954445 176.0
52.039841 184.0
52.063534 76.0
52.119556 84.0
52.236012 196.0
52.251194 208.0
52.277142 252.0
52.336758 228.0
52.408714 184.0
52.431835 116.0
52.554409 180.0
52.577499 60.0
52.590488 188.0
52.614384 116.0
52.675686 148.0
52.753719 156.0
52.867985 148.0
52.915756 156.0
53.007008 132.0
53.085289 128.0
53.101242 152.0
53.204269 148.0
53.226048 160.0
53.279789 140.0
53.305943 180.0
53.351002 176.0
53.465912 128.0
53.563469 156.0
53.575123 120.0
53.605721 232.0
53.700485 168.0
53.887341 144.0
53.995514 208.0
54.010139 172.0
54.036114 212.0
54.05257 36.0
54.149685 380.0
54.174091 128.0
54.270824 320.0
54.331783 220.0
54.379383 132.0
54.396996 40.0
54.434597 184.0
54.468952 144.0
54.543892 164.0
54.599766 116.0
54.798492 164.0
54.848598 176.0
54.866287 128.0
55.121639 96.0
55.250275 128.0
55.438324 184.0
55.522827 132.0
55.536022 116.0
55.597008 144.0
55.760376 176.0
55.830254 156.0
55.889755 172.0
56.075909 168.0
56.10125 236.0
56.153439 196.0
56.234009 188.0
56.253414 132.0
56.284767 32.0
56.305676 144.0
56.365429 136.0
56.377384 144.0
56.39872 180.0
56.471577 76.0
56.559856 116.0
56.637722 176.0
56.681168 148.0
56.735126 112.0
56.79211 172.0
56.843121 224.0
57.032356 216.0
57.075954 260.0
57.176746 144.0
57.209938 196.0
57.360504 140.0
57.392166 108.0
57.460037 56.0
57.540031 124.0
57.552109 216.0
57.579292 72.0
57.604969 160.0
57.636696 164.0
57.666924 48.0
57.680527 152.0
57.741009 156.0
57.75462 40.0
57.795467 172.0
57.809086 164.0
57.837318 288.0
57.852982 32.0
57.984764 88.0
58.051472 44.0
58.098492 160.0
58.11063 148.0
58.157673 180.0
58.169815 156.0
58.252048 212.0
58.274609 40.0
58.329319 200.0
58.470776 208.0
58.513397 128.0
58.54842 116.0
58.577362 168.0
58.702339 172.0
58.821346 136.0
59.009258 172.0
59.023018 232.0
59.125515 144.0
59.140034 144.0
59.240356 164.0
59.26368 160.0
59.27866 140.0
59.297867 160.0
59.312378 132.0
59.323109 140.0
59.362972 176.0
59.389046 148.0
59.404762 196.0
59.432003 156.0
59.447346 204.0
59.461159 184.0
59.544067 176.0
59.580933 132.0
59.630104 56.0
59.65316 128.0
59.714668 104.0
59.726974 112.0
59.75005 156.0
59.766975 140.0
59.843933 172.0
59.874733 148.0
59.902458 228.0
59.936352 112.0
59.959587 104.0
60.03347 172.0
60.055195 140.0
60.067402 180.0
60.089001 180.0
60.163082 128.0
60.469147 116.0
60.503201 304.0
60.532337 176.0
60.599224 124.0
60.647266 168.0
60.699978 176.0
60.7341 128.0
60.794609 308.0
60.83807 144.0
60.886204 144.0
60.918823 176.0
60.932804 136.0
60.954559 44.0
61.055607 164.0
61.097607 40.0
61.120945 192.0
61.133392 244.0
61.153625 192.0
61.176975 240.0
61.251724 120.0
61.266705 136.0
61.312489 92.0
61.34568 136.0
61.511826 160.0
61.548046 240.0
61.560539 60.0
61.604275 144.0
61.646461 44.0
61.71524 200.0
61.744953 116.0
61.765285 112.0
61.787186 140.0
61.815353 152.0
61.831001 164.0
61.898319 136.0
61.989174 108.0
62.05344 164.0
62.102055 140.0
62.172657 168.0
62.186783 104.0
62.226028 176.0
62.269997 76.0
62.307697 176.0
62.328125 88.0
62.502666 172.0
62.543587 100.0
62.557755 132.0
62.589241 120.0
62.622314 92.0
62.69006 164.0
62.720005 100.0
62.786228 120.0
62.847748 220.0
62.86195 152.0
62.890358 112.0
62.910881 136.0
62.953514 252.0
63.019012 180.0
63.094139 244.0
63.119438 228.0
63.136833 100.0
63.177959 128.0
63.234928 336.0
63.252338 132.0
63.279251 188.0
63.333096 184.0
63.380676 120.0
63.41106 272.0
63.429752 136.0
63.456703 72.0
63.482075 128.0
63.602654 88.0
63.680458 144.0
63.740829 188.0
63.813946 116.0
63.840977 52.0
63.869606 184.0
63.93166 112.0
63.965084 84.0
64.161034 232.0
64.279922 132.0
64.333328 224.0
64.365265 116.0
64.398796 80.0
64.417969 148.0
64.449921 120.0
64.51545 160.0
64.544228 160.0
64.691429 228.0
64.79232 196.0
64.85482 120.0
64.87886 108.0
64.894897 160.0
64.96386 160.0
65.114746 136.0
65.224007 152.0
65.37841 116.0
65.412209 184.0
65.450851 148.0
65.541054 168.0
65.579735 92.0
65.591019 144.0
65.616806 100.0
65.70874 72.0
65.729713 192.0
65.905006 172.0
65.987656 104.0
65.999474 108.0
66.018883 200.0
66.052849 168.0
66.066452 204.0
66.08358 128.0
66.141846 228.0
66.18232 144.0
66.219566 256.0
66.230904 188.0
66.271408 140.0
66.28437 220.0
66.302193 152.0
66.435158 192.0
66.44976 104.0
66.488533 156.0
66.524414 164.0
66.55526 160.0
66.566628 188.0
66.618675 180.0
66.667389 152.0
66.802299 160.0
66.872269 136.0
66.914597 68.0
66.942276 184.0
66.974846 120.0
66.992767 108.0
67.012321 148.0
67.067726 196.0
67.1623 152.0
67.191666 176.0
67.440384 208.0
67.559258 148.0
67.608345 160.0
67.68528 212.0
67.8311 136.0
67.862076 192.0
67.891762 164.0
68.021385 100.0
68.044365 176.0
68.105125 192.0
68.151131 148.0
68.179062 100.0
68.372398 160.0
68.404404 156.0
68.455444 172.0
68.482895 220.0
68.605385 128.0
68.61692 148.0
68.65815 204.0
68.682884 124.0
68.699387 164.0
68.782867 136.0
68.866104 116.0
68.879318 92.0
68.935493 136.0
68.988388 192.0
69.079338 164.0
69.113708 160.0
69.155457 200.0
69.215057 224.0
69.311134 240.0
69.437126 72.0
69.456055 184.0
69.6064 144.0
69.71936 160.0
69.74762 88.0
69.814125 184.0
69.849052 72.0
69.895638 276.0
69.973869 152.0
70.090462 156.0
70.163795 96.0
70.203819 192.0
70.300575 156.0
70.333908 136.0
70.551987 164.0
70.694969 196.0
70.740158 180.0
70.862419 184.0
70.895821 184.0
70.913483 40.0
70.942863 228.0
70.96801 156.0
70.993164 148.0
71.01329 176.0
71.11396 48.0
71.218063 128.0
71.335693 184.0
71.428177 172.0
71.483704 152.0
71.672791 164.0
71.721176 60.0
71.744774 44.0
71.962105 152.0
72.01815 96.0
72.065453 148.0
72.142601 232.0
72.291794 164.0
72.298615 140.0
72.342819 184.0
72.378372 132.0
72.429176 204.0
72.639374 140.0
72.669914 120.0
72.690277 172.0
72.72422 132.0
72.795525 108.0
72.936539 132.0
72.963737 144.0
73.024956 216.0
73.14917 100.0
73.190033 172.0
73.20649 284.0
73.249641 112.0
73.322914 64.0
73.399628 64.0
73.41156 200.0
73.445671 116.0
73.631714 116.0
73.712013 132.0
73.723976 80.0
73.855621 176.0
73.969429 204.0
74.177544 196.0
74.292442 136.0
74.469246 248.0
74.534531 176.0
74.56031 176.0
74.739159 164.0
74.823494 272.0
75.021614 200.0
75.062996 204.0
75.116463 92.0
75.140617 124.0
75.168221 132.0
75.561127 132.0
75.59333 88.0
75.621017 168.0
75.639763 200.0
75.662567 164.0
75.687614 136.0
75.723175 80.0
75.892998 168.0
75.931152 176.0
75.990135 96.0
76.042191 168.0
76.113373 120.0
76.141258 200.0
76.186317 136.0
76.262779 164.0
76.281898 176.0
76.368843 172.0
76.405373 80.0
76.468811 228.0
76.677017 152.0
76.699677 60.0
76.818253 208.0
76.9282 64.0
76.975334 124.0
77.013763 208.0
77.02948 156.0
77.125587 152.0
77.15181 156.0
77.171043 36.0
77.366997 212.0
77.423027 144.0
77.488869 132.0
77.503044 236.0
77.522881 180.0
77.556183 156.0
77.602203 60.0
77.619301 156.0
77.657883 148.0
77.735077 236.0
77.829865 108.0
77.842155 116.0
77.870255 64.0
77.902328 140.0
77.915619 204.0
77.945801 124.0
78.07589 128.0
78.144951 160.0
78.221931 148.0
78.234253 144.0
78.295883 144.0
78.319191 188.0
78.394539 188.0
78.434578 224.0
78.461517 160.0
78.478416 164.0
78.551788 148.0
78.583214 68.0
78.642464 160.0
78.677689 108.0
78.745621 104.0
78.757988 188.0
78.780952 164.0
78.830421 168.0
78.942307 260.0
79.00901 216.0
79.044395 208.0
79.132896 224.0
79.240936 56.0
79.409348 64.0
79.501602 188.0
79.567276 200.0
79.803581 36.0
79.828476 160.0
79.878281 156.0
79.908524 156.0
79.945168 212.0
79.986824 128.0
80.134644 84.0
80.209488 140.0
80.275459 192.0
80.344704 204.0
80.409264 176.0
80.480667 240.0
80.514595 236.0
80.582474 228.0
80.605705 92.0
80.618217 136.0
80.637871 208.0
80.709381 120.0
80.727264 100.0
80.79702 132.0
80.85965 132.0
81.10862 164.0
81.149857 40.0
81.1642 208.0
81.25029 44.0
81.296944 208.0
81.314896 184.0
81.356178 156.0
81.372337 116.0
81.469322 196.0
81.483688 136.0
81.499863 164.0
81.541626 168.0
81.57605 224.0
81.681442 116.0
81.749817 136.0
81.809212 180.0
81.856026 188.0
81.888443 132.0
81.998344 140.0
82.039803 104.0
82.075867 184.0
82.108322 400.0
82.266304 196.0
82.28878 148.0
82.335724 112.0
82.371849 136.0
82.439384 180.0
82.452103 116.0
82.491119 176.0
82.556213 140.0
82.568871 180.0
82.612282 208.0
82.643036 56.0
82.679039 192.0
82.746208 164.0
82.853065 180.0
82.904144 188.0
83.018005 160.0
83.032516 236.0
83.103462 148.0
83.125038 172.0
83.206718 208.0
83.233955 160.0
83.253929 196.0
83.295708 132.0
83.421089 52.0
83.45018 192.0
83.548393 100.0
83.612083 252.0
83.866669 180.0
83.899887 204.0
83.980347 160.0
84.073166 128.0
84.169922 136.0
84.266724 288.0
84.339828 56.0
84.385529 120.0
84.43856 188.0
84.60508 156.0
84.720451 176.0
84.768089 220.0
84.823013 140.0
84.863411 160.0
85.034012 164.0
85.142334 316.0
85.578156 196.0
85.673004 152.0
85.742287 120.0
85.793427 180.0
85.874855 80.0
85.926506 152.0
85.943947 204.0
85.978172 160.0
86.004013 116.0
86.055702 208.0
86.205322 112.0
86.258926 256.0
86.380257 240.0
86.474174 204.0
86.488297 52.0
86.51236 116.0
86.551247 52.0
86.599396 80.0
86.65078 168.0
86.669792 180.0
86.756905 180.0
86.86702 92.0
86.92012 128.0
86.953522 156.0
87.021156 232.0
87.064056 164.0
87.129128 148.0
87.206123 64.0
87.304657 156.0
87.375992 156.0
87.557762 140.0
87.606194 164.0
87.641594 220.0
87.73851 116.0
87.795235 172.0
87.811241 80.0
87.933739 244.0
88.038933 136.0
88.078156 104.0
88.141914 184.0
88.188393 176.0
88.317413 224.0
88.336121 116.0
88.371666 124.0
88.384758 148.0
88.404068 176.0
88.440903 188.0
88.498039 224.0
88.562614 68.0
88.596336 100.0
88.615067 124.0
88.73127 188.0
88.7668 160.0
88.791275 128.0
88.856934 88.0
88.918854 140.0
88.941383 160.0
89.020233 188.0
89.048409 212.0
89.070946 216.0
89.304024 104.0
89.428207 184.0
89.48468 152.0
89.575081 84.0
89.740929 108.0
89.940903 148.0
89.959778 156.0
89.974884 140.0
90.169449 152.0
90.216698 176.0
90.239388 228.0
90.477776 148.0
90.699417 108.0
90.763878 156.0
90.786636 148.0
90.921333 92.0
90.938416 36.0
91.054657 468.0
91.090324 36.0
91.11692 168.0
91.164482 124.0
91.223511 184.0
91.278481 156.0
91.394516 164.0
91.407837 148.0
91.468735 156.0
91.51062 148.0
91.622993 56.0
91.785004 180.0
92.054314 248.0
92.101318 124.0
92.132378 180.0
92.183968 44.0
92.216713 176.0
92.31778 172.0
92.455528 176.0
92.484238 212.0
92.585709 152.0
92.666161 128.0
92.710236 44.0
92.786407 184.0
92.828148 152.0
92.850189 152.0
92.967216 60.0
93.003685 92.0
93.062233 128.0
93.130409 204.0
93.143852 180.0
93.166573 204.0
93.216866 144.0
93.274521 60.0
93.301247 200.0
93.33989 200.0
93.393745 112.0
93.45723 120.0
93.528435 236.0
93.586189 192.0
93.680565 172.0
93.734512 60.0
93.753777 144.0
93.892586 220.0
93.928818 256.0
93.97554 168.0
94.004478 216.0
94.065422 672.0
94.081688 112.0
94.106789 200.0
94.13768 124.0
94.247787 188.0
94.319298 168.0
94.371696 228.0
94.386963 136.0
94.417908 112.0
94.437248 36.0
94.472069 184.0
94.504478 228.0
94.528679 184.0
94.624954 188.0
94.67337 180.0
94.741158 120.0
94.969902 84.0
94.98542 120.0
95.017914 144.0
95.060814 184.0
95.084373 176.0
95.327133 188.0
95.412659 136.0
95.498222 100.0
95.634422 132.0
95.675301 44.0
95.716187 196.0
95.7369 208.0
95.831108 96.0
95.877876 184.0
96.022522 232.0
96.044144 144.0
96.0811 344.0
96.137253 228.0
96.211426 176.0
96.35009 124.0
96.391121 236.0
96.453667 52.0
96.533829 188.0
96.646973 128.0
96.823463 68.0
96.964531 152.0
97.083679 232.0
97.11158 64.0
97.311745 132.0
97.325485 160.0
97.351013 256.0
97.42762 168.0
97.508339 148.0
97.533737 192.0
97.563225 144.0
97.608444 172.0
97.647774 128.0
97.702858 152.0
97.779594 176.0
97.838646 184.0
97.852432 180.0
97.905594 140.0
97.937111 160.0
98.019859 144.0
98.071098 188.0
98.097229 20280.0
98.140099 64.0
98.177956 160.0
98.208595 164.0
98.224724 44.0
98.258438 72.0
98.272247 76.0
98.325996 220.0
98.505211 160.0
98.530891 188.0
98.588196 128.0
98.607956 88.0
98.645515 56.0
98.659355 164.0
98.679123 104.0
98.697243 148.0
98.730537 232.0
98.756248 136.0
98.841316 104.0
98.876938 164.0
98.896736 112.0
98.922462 192.0
98.964043 164.0
98.983841 100.0
99.025429 168.0
99.083435 200.0
99.102158 908.0
99.146286 136.0
99.207733 56.0
99.233421 96.0
99.29895 60.0
99.33709 104.0
99.396156 64.0
99.485474 100.0
99.525177 192.0
99.592705 196.0
99.662231 84.0
99.682106 108.0
99.698006 148.0
99.859047 168.0
99.927483 388.0
99.968468 72.0
99.982399 208.0
100.056046 196.0
100.107819 196.0
100.129723 160.0
100.167572 108.0
100.227341 180.0
100.287819 208.0
100.311043 84.0
100.34494 88.0
100.400772 180.0
100.428696 160.0
100.522461 144.0
100.798035 260.0
100.836006 200.0
100.909973 128.0
100.927963 196.0
101.003967 92.0
101.035973 80.0
101.173759 132.0
101.271973 192.0
101.316254 104.0
101.468575 112.0
101.494637 156.0
101.648666 188.0
101.793625 212.0
101.845848 168.0
101.879997 240.0
102.03492 228.0
102.062897 132.0
102.304329 140.0
102.338554 172.0
102.403 216.0
102.444038 96.0
102.509773 212.0
102.598465 152.0
102.731796 180.0
102.942978 156.0
102.969749 128.0
103.036407 92.0
103.054382 516.0
103.077423 256.0
103.13868 132.0
103.244614 160.0
103.313385 144.0
103.552238 172.0
103.570473 176.0
103.612679 292.0
103.683937 168.0
104.052322 180.0
104.162781 188.0
104.229828 80.0
104.26844 160.0
104.422958 168.0
104.457535 164.0
104.534851 132.0
104.553169 108.0
104.632553 184.0
104.648842 208.0
104.70179 144.0
104.716042 212.0
104.748634 196.0
104.805679 140.0
104.864777 152.0
104.903511 104.0
104.938171 140.0
104.966713 228.0
105.051651 232.0
105.068466 560.0
105.152359 84.0
105.248314 184.0
105.298325 116.0
105.319786 148.0
105.399467 104.0
105.415817 164.0
105.560951 136.0
105.618217 152.0
105.68573 236.0
105.704147 104.0
105.765549 200.0
105.8843 68.0
105.910927 144.0
105.996979 164.0
106.047691 172.0
106.06646 704.0
106.124062 72.0
106.401047 200.0
106.590012 76.0
106.622894 224.0
106.659889 156.0
106.712433 236.0
106.779144 64.0
106.803825 60.0
106.927063 112.0
106.986977 144.0
107.046066 160.0
107.075516 200.0
107.157921 144.0
107.458939 124.0
107.573814 248.0
107.619934 188.0
107.809982 144.0
107.834778 164.0
107.865784 144.0
107.960167 240.0
108.044006 224.0
108.082947 180.0
108.103638 160.0
108.16375 176.0
108.217484 84.0
108.23819 176.0
108.267181 140.0
108.374901 196.0
108.410133 204.0
108.459869 180.0
108.482674 184.0
108.588425 140.0
108.663101 120.0
108.847839 152.0
108.872757 156.0
108.962074 112.0
109.04866 272.0
109.078453 180.0
109.269783 144.0
109.369675 184.0
109.409225 148.0
109.434212 228.0
109.461281 172.0
109.486267 148.0
109.527924 116.0
109.6717 180.0
109.748833 104.0
109.765518 172.0
109.840599 156.0
109.903191 88.0
109.974144 136.0
110.061234 560.0
110.096771 604.0
110.272827 108.0
110.452644 68.0
110.55098 108.0
110.626335 164.0
110.691238 112.0
110.772919 72.0
110.830589 152.0
110.869301 80.0
110.965332 196.0
110.992989 180.0
111.024445 212.0
111.045067 200.0
111.085945 248.0
111.104149 164.0
111.120934 144.0
111.150307 176.0
111.175491 392.0
111.213272 128.0
111.299347 108.0
111.341347 120.0
111.395958 180.0
111.589302 132.0
111.648186 140.0
111.675522 40.0
111.768089 104.0
111.824913 76.0
111.871223 164.0
111.885956 184.0
111.951843 192.0
112.114601 240.0
112.201279 216.0
112.277885 164.0
112.3004 232.0
112.415016 184.0
112.453209 168.0
112.769821 156.0
112.799416 124.0
112.837471 188.0
113.121414 168.0
113.144241 148.0
113.580795 152.0
113.627464 184.0
113.652924 104.0
113.778152 156.0
113.867332 132.0
113.926147 192.0
113.94381 140.0
113.971428 120.0
114.109245 148.0
114.386154 64.0
114.442696 344.0
114.484093 148.0
114.627144 160.0
114.650261 120.0
114.677971 204.0
114.701416 88.0
114.735527 196.0
114.869881 408.0
114.989372 192.0
115.059814 136.0
115.089706 152.0
115.110077 156.0
115.190086 60.0
115.208458 220.0
115.288368 188.0
115.438011 244.0
115.538261 244.0
115.580818 148.0
115.671227 136.0
115.688347 108.0
115.741943 124.0
115.799698 140.0
115.81469 96.0
115.875923 168.0
115.926102 60.0
116.053528 200.0
116.129776 160.0
116.170532 128.0
116.241333 140.0
116.391594 116.0
116.413071 96.0
116.461426 148.0
116.849419 180.0
116.905365 192.0
117.002228 136.0
117.057663 2256.0
117.206841 140.0
117.226234 80.0
117.269341 96.0
117.338318 136.0
117.372818 184.0
117.389397 88.0
117.403008 180.0
117.476349 60.0
117.495377 156.0
117.523811 144.0
117.560493 64.0
117.693726 156.0
117.715927 236.0
117.778557 168.0
117.832565 40.0
117.94278 132.0
118.065186 6128.0
118.113602 128.0
118.187164 132.0
118.21096 80.0
118.25425 144.0
118.313072 92.0
118.540123 56.0
118.618149 44.0
118.657173 132.0
118.685127 172.0
118.709213 148.0
118.794273 200.0
118.83477 176.0
118.85672 84.0
118.915314 236.0
118.934845 48.0
118.956558 200.0
118.995636 104.0
119.067024 560.0
119.135712 192.0
119.221542 156.0
119.375893 208.0
119.458542 132.0
119.517288 152.0
119.569511 180.0
119.615219 160.0
119.674004 192.0
119.754578 48.0
119.867867 44.0
119.913635 104.0
120.044388 940.0
120.08078 1868.0
120.126999 216.0
120.149139 144.0
120.249519 160.0
120.535606 60.0
120.631775 116.0
120.708298 200.0
120.745476 200.0
120.800156 200.0
120.91613 104.0
121.047478 176.0
121.065002 128.0
121.087814 252.0
121.41346 196.0
121.474869 216.0
121.545082 192.0
121.606529 144.0
121.725357 288.0
121.744843 108.0
121.824799 180.0
121.931587 176.0
121.966751 168.0
122.026108 152.0
122.059906 2356.0
122.098679 216.0
122.195465 120.0
122.243874 40.0
122.29702 240.0
122.364937 36.0
122.406769 132.0
122.505882 40.0
122.585205 204.0
122.609444 160.0
122.666756 152.0
122.708641 60.0
122.843231 144.0
122.951286 192.0
122.984398 196.0
123.065376 388.0
123.108032 172.0
123.123497 60.0
123.203011 136.0
123.242783 120.0
123.287186 168.0
123.335602 172.0
123.384239 104.0
123.492592 156.0
123.570015 140.0
123.719627 180.0
123.80687 160.0
123.974808 164.0
124.043259 240.0
124.061172 224.0
124.114426 152.0
124.133797 252.0
124.225792 156.0
124.274597 132.0
124.323418 120.0
124.381126 132.0
124.427742 108.0
124.501022 136.0
124.645416 168.0
124.794342 44.0
124.950035 200.0
125.020668 204.0
125.079109 168.0
125.261703 40.0
125.426605 140.0
125.541008 204.0
125.615639 212.0
125.727707 36.0
125.843788 140.0
125.91301 148.0
125.942047 136.0
125.977791 52.0
126.020447 168.0
126.055992 192.0
126.107391 136.0
126.158142 188.0
126.190102 176.0
126.266136 116.0
126.514511 68.0
126.539139 152.0
126.653351 152.0
126.707115 160.0
126.729523 100.0
126.81916 72.0
126.848297 164.0
126.877441 172.0
127.025269 144.0
127.050133 208.0
127.37339 168.0
127.402321 164.0
127.436295 156.0
127.485733 224.0
127.53743 168.0
127.588242 132.0
127.613861 132.0
127.674576 156.0
127.856804 156.0
127.971611 128.0
128.021622 172.0
128.047729 312.0
128.338882 132.0
128.451645 168.0
128.490005 144.0
128.521591 216.0
128.580261 72.0
128.686356 80.0
128.729385 144.0
128.864792 164.0
128.977783 112.0
129.027512 136.0
129.077255 176.0
129.224289 108.0
129.570694 152.0
129.817764 192.0
129.858582 56.0
129.9879 184.0
130.035553 104.0
130.066544 460.0
130.239914 100.0
130.271713 128.0
130.317154 152.0
130.443481 148.0
130.492157 84.0
130.564926 116.0
130.676392 160.0
130.781067 192.0
130.851639 156.0
131.013733 252.0
131.049042 388.0
131.067184 148.0
131.179703 120.0
131.22583 136.0
131.302826 244.0
131.326843 212.0
131.384567 120.0
131.419174 144.0
131.439713 172.0
131.492203 124.0
131.540131 76.0
131.872955 136.0
131.942566 200.0
132.045044 152.0
132.065689 132.0
132.090851 228.0
132.111435 176.0
132.175507 68.0
132.197266 236.0
132.232712 92.0
132.463974 80.0
132.496048 136.0
132.518967 112.0
132.739014 112.0
132.927109 52.0
132.96843 160.0
132.991531 180.0
133.025803 128.0
133.062546 376.0
133.103867 68.0
133.14061 80.0
133.16629 176.0
133.216415 168.0
133.354279 136.0
133.549728 156.0
133.621033 116.0
133.653244 40.0
133.715378 108.0
133.772934 204.0
133.807465 176.0
133.832779 128.0
133.848907 124.0
133.874237 144.0
133.89035 208.0
133.994019 260.0
134.059937 2036.0
134.095276 156.0
134.12767 72.0
134.162033 252.0
134.185303 88.0
134.21759 172.0
134.291382 176.0
134.33522 120.0
134.605255 216.0
134.690704 176.0
134.875565 224.0
135.022644 124.0
135.039734 160.0
135.066803 456.0
135.141525 160.0
135.215576 236.0
135.25029 40.0
135.310486 152.0
135.42627 40.0
135.474915 56.0
135.641769 36.0
135.88063 136.0
135.994339 132.0
136.040939 500.0
136.075623 348.0
136.101135 156.0
136.15686 144.0
136.229736 160.0
136.312515 100.0
136.465927 184.0
136.498474 232.0
136.558945 148.0
136.591507 176.0
136.714828 180.0
136.803268 136.0
136.894073 196.0
136.95697 148.0
137.031509 124.0
137.080444 136.0
137.162018 112.0
137.215637 184.0
137.33223 172.0
137.350891 200.0
137.406708 156.0
137.427887 112.0
137.504898 116.0
137.573883 272.0
137.646912 240.0
137.721222 116.0
137.745392 180.0
137.866882 192.0
137.960388 156.0
138.000137 112.0
138.04689 184.0
138.088989 136.0
138.1194 112.0
138.145126 160.0
138.180222 100.0
138.393219 60.0
138.482208 132.0
138.599335 132.0
138.622772 104.0
138.671997 184.0
138.84549 104.0
138.922897 252.0
138.953384 112.0
138.983887 168.0
139.014404 152.0
139.049606 108.0
139.068375 188.0
139.19751 124.0
139.225677 176.0
139.277359 148.0
139.394821 52.0
139.448883 184.0
139.467682 128.0
139.604797 164.0
139.778122 152.0
139.954666 176.0
140.011185 144.0
140.081848 176.0
140.128967 96.0
140.249146 200.0
140.28923 168.0
140.334015 156.0
140.36232 180.0
140.39975 160.0
140.466095 112.0
140.607666 80.0
140.744583 208.0
140.928818 276.0
141.046982 112.0
141.165207 252.0
141.314224 68.0
141.489365 176.0
141.522507 132.0
141.574615 104.0
141.648666 276.0
141.742798 112.0
141.811523 152.0
141.866043 196.0
142.013062 148.0
142.029678 112.0
142.447449 84.0
142.466461 220.0
142.580521 44.0
142.75882 144.0
142.915817 184.0
142.941986 116.0
143.062988 100.0
143.073868 108.0
143.080643 144.0
143.130035 112.0
143.225311 68.0
143.24437 56.0
143.33252 152.0
143.606674 156.0
143.625763 160.0
143.735504 168.0
143.881104 124.0
143.90976 212.0
143.960617 172.0
144.041107 84.0
144.078644 180.0
144.16774 108.0
144.186859 192.0
144.253784 160.0
144.334534 160.0
144.524033 164.0
144.561935 208.0
144.624557 160.0
144.684402 144.0
144.717911 148.0
144.765808 180.0
144.825684 140.0
144.931091 108.0
145.072495 136.0
145.089279 164.0
145.333923 112.0
145.350723 192.0
145.429916 152.0
145.50914 156.0
145.533142 148.0
145.589767 152.0
145.665237 124.0
145.754135 136.0
145.831039 56.0
145.956055 92.0
145.993805 276.0
146.060013 12640.0
146.13504 68.0
146.172546 108.0
146.213455 136.0
146.251968 216.0
146.410873 40.0
146.574677 140.0
146.613235 92.0
146.659027 48.0
146.736176 76.0
146.762695 224.0
146.827805 36.0
146.861572 80.0
146.959061 188.0
146.999084 124.0
147.018402 64.0
147.063599 2660.0
147.095291 112.0
147.099182 60.0
147.262238 192.0
147.283981 140.0
147.309128 128.0
147.48938 140.0
147.605423 184.0
147.621902 176.0
147.675552 60.0
147.726349 200.0
147.832916 192.0
147.854599 88.0
147.919952 64.0
148.009521 116.0
148.0289 112.0
148.076523 15988.0
148.12944 200.0
148.148392 232.0
148.171814 196.0
148.217422 164.0
148.271164 84.0
148.313797 88.0
148.332703 72.0
148.353577 100.0
148.429062 116.0
148.467529 76.0
148.53717 112.0
148.647049 44.0
148.68103 72.0
148.77327 84.0
148.829102 216.0
148.882523 152.0
149.0784 844.0
149.120621 216.0
149.169968 120.0
149.20961 116.0
149.244217 176.0
149.298615 192.0
149.348297 184.0
149.448929 168.0
149.473251 40.0
149.53653 120.0
149.685043 64.0
149.734756 116.0
149.77272 68.0
149.933517 96.0
149.97496 308.0
150.019089 188.0
150.052567 136.0
150.079041 148.0
150.116364 116.0
150.165146 52.0
150.188004 128.0
150.206604 52.0
150.22612 116.0
150.260269 76.0
150.277359 148.0
150.309082 64.0
150.484818 136.0
150.736404 112.0
150.880142 204.0
150.931961 60.0
150.966919 204.0
151.005157 164.0
151.032898 176.0
151.365082 192.0
151.419403 224.0
151.553696 208.0
151.590454 172.0
151.663971 136.0
151.685944 200.0
151.830704 180.0
152.026855 4012.0
152.080963 160.0
152.157059 140.0
152.56015 52.0
152.658325 136.0
152.709961 104.0
152.739487 172.0
152.778839 48.0
152.798523 196.0
152.834335 180.0
152.862503 200.0
153.03418 9676.0
153.076981 92.0
153.120987 44.0
153.180115 84.0
153.278656 152.0
153.298172 152.0
153.399429 56.0
153.50679 228.0
153.562164 180.0
153.592819 208.0
153.608948 116.0
153.756271 208.0
153.808914 88.0
153.85582 84.0
153.914017 128.0
153.939774 56.0
154.030289 932.0
154.084641 148.0
154.122559 220.0
154.159637 48.0
154.194229 56.0
154.218948 192.0
154.248611 84.0
154.301117 116.0
154.322205 120.0
154.363541 140.0
154.382126 36.0
154.443954 32.0
154.565186 176.0
154.599823 156.0
154.619629 44.0
154.669128 220.0
154.984116 156.0
155.032379 2052.0
155.102158 168.0
155.152588 204.0
155.19252 136.0
155.226578 216.0
155.279633 132.0
155.554077 76.0
155.59877 168.0
155.632538 84.0
155.685669 156.0
155.705536 108.0
155.78006 64.0
155.857071 168.0
155.906784 40.0
155.986313 56.0
156.033295 156.0
156.080795 316.0
156.232513 252.0
156.407379 192.0
156.47554 148.0
156.516251 136.0
156.623337 140.0
156.847595 228.0
156.987976 200.0
157.2966 64.0
157.349197 172.0
157.521347 164.0
157.651276 132.0
157.983826 112.0
158.060181 456.0
158.098389 208.0
158.153992 116.0
158.221573 316.0
158.281662 92.0
158.366821 140.0
158.404388 212.0
158.652481 156.0
158.775345 116.0
158.933395 152.0
158.953461 108.0
158.976379 184.0
159.013702 168.0
159.047302 188.0
159.065399 220.0
159.097443 148.0
159.294922 84.0
159.423065 160.0
159.586456 64.0
159.72226 164.0
159.77388 124.0
159.97319 432.0
160.049438 168.0
160.080109 152.0
160.137573 108.0
160.172836 168.0
160.190475 48.0
160.233307 220.0
160.26857 284.0
160.311417 180.0
160.334091 204.0
160.434921 192.0
160.470215 132.0
160.631622 168.0
160.727097 152.0
160.7603 132.0
160.861267 140.0
160.980194 184.0
161.0513 184.0
161.07019 184.0
161.166855 140.0
161.303329 88.0
161.351364 80.0
161.379181 176.0
161.677673 176.0
161.847275 144.0
161.885254 152.0
161.963165 268.0
161.99025 132.0
162.054871 904.0
162.089676 352.0
162.127197 216.0
162.229843 172.0
162.267883 208.0
162.442871 240.0
162.531662 80.0
162.678879 228.0
162.914017 152.0
162.974945 348.0
163.059448 380.0
163.099213 612.0
163.125977 148.0
163.189529 172.0
163.301422 200.0
163.329407 84.0
163.349762 216.0
163.370102 156.0
163.405731 148.0
163.466797 124.0
163.507507 172.0
163.708633 292.0
163.7341 164.0
163.904297 168.0
163.969391 416.0
163.992844 332.0
164.026138 324.0
164.071045 25868.0
164.10762 904.0
164.225418 52.0
164.292328 164.0
164.336105 236.0
164.361221 40.0
164.395462 88.0
164.480652 160.0
164.505554 116.0
164.532791 236.0
164.659897 96.0
164.680328 96.0
164.706467 224.0
164.791672 72.0
164.836182 116.0
164.864288 48.0
164.897507 140.0
164.984421 60.0
165.026917 196.0
165.073624 1984.0
165.141068 140.0
165.258087 208.0
165.278549 104.0
165.424438 76.0
165.586624 188.0
165.77533 44.0
165.811218 48.0
165.935867 128.0
166.041702 792.0
166.078888 140.0
166.264877 144.0
166.417831 160.0
166.45256 168.0
166.50293 92.0
166.547592 200.0
166.691467 84.0
166.722305 40.0
166.812271 76.0
167.005112 116.0
167.028275 188.0
167.054062 352.0
167.180069 100.0
167.226395 124.0
167.277878 52.0
167.324219 244.0
167.406616 44.0
167.543121 68.0
167.602386 52.0
167.641037 104.0
167.682281 144.0
167.808594 52.0
167.843719 192.0
167.873047 136.0
167.978912 176.0
168.036331 148.0
168.100067 92.0
168.180069 124.0
168.24202 116.0
168.363388 108.0
168.40213 164.0
168.528717 72.0
168.611404 232.0
168.864777 160.0
169.08728 184.0
169.322891 168.0
169.532791 176.0
169.558655 124.0
169.693451 72.0
170.009918 144.0
170.038025 168.0
170.073959 220.0
170.095566 88.0
170.160461 60.0
170.183838 68.0
170.28511 112.0
170.324066 116.0
170.412399 148.0
170.485153 120.0
170.651764 128.0
170.743423 232.0
170.786758 208.0
170.804962 44.0
170.823166 192.0
170.847061 176.0
170.888214 84.0
170.930145 140.0
171.088608 136.0
171.153702 32.0
171.732254 188.0
171.826172 88.0
171.886185 168.0
171.972229 3552.0
172.024506 128.0
172.066284 160.0
172.10022 172.0
172.1185 36.0
172.179199 172.0
172.335297 164.0
172.431641 192.0
172.45813 172.0
172.476425 48.0
172.520859 160.0
172.607147 108.0
172.651596 60.0
172.772781 148.0
172.824249 144.0
172.974686 396.0
173.044113 88.0
173.072525 168.0
173.106964 204.0
173.124542 204.0
173.251022 216.0
173.332245 196.0
173.363693 124.0
173.403 88.0
173.507858 104.0
173.633713 172.0
173.736023 128.0
173.757004 188.0
173.858566 164.0
173.930206 160.0
173.969543 1984.0
174.066147 3360.0
174.093109 176.0
174.121887 68.0
174.148148 76.0
174.172592 116.0
174.220367 228.0
174.371857 136.0
174.395126 60.0
174.418793 112.0
174.442444 108.0
174.552872 64.0
174.587051 136.0
174.671661 216.0
174.752777 40.0
174.805405 220.0
174.963699 156.0
174.995453 280.0
175.072739 832.0
175.131866 144.0
175.212219 48.0
175.27063 148.0
175.297852 208.0
175.318924 56.0
175.421722 152.0
175.485001 128.0
175.590225 124.0
175.636612 208.0
175.672256 96.0
175.695999 124.0
175.801147 116.0
175.830566 160.0
175.864883 120.0
175.905304 152.0
175.945465 172.0
175.983185 772.0
176.071136 65436.0
176.102875 892.0
176.140945 80.0
176.182205 120.0
176.217041 148.0
176.247498 104.0
176.283752 76.0
176.323563 168.0
176.366821 136.0
176.386566 104.0
176.418091 84.0
176.45134 104.0
176.472107 156.0
176.508896 256.0
176.527618 132.0
176.567688 124.0
176.590607 72.0
176.628876 64.0
176.673492 68.0
176.71666 128.0
176.743927 96.0
176.906372 172.0
176.924911 168.0
176.991394 264.0
177.030823 136.0
177.074402 4948.0
177.113312 168.0
177.144714 64.0
177.164307 80.0
177.19458 152.0
177.314285 76.0
177.349518 116.0
177.375259 80.0
177.440598 296.0
177.506027 232.0
177.566162 76.0
177.621857 48.0
177.664307 92.0
177.704102 144.0
177.761154 72.0
177.789017 172.0
177.818207 72.0
177.857666 124.0
177.959717 144.0
177.990768 104.0
178.042175 192.0
178.075317 772.0
178.147583 100.0
178.171387 56.0
178.211243 100.0
178.267044 68.0
178.301468 152.0
178.36702 200.0
178.405258 136.0
178.475983 152.0
178.514053 144.0
178.563141 140.0
178.649918 96.0
178.668533 48.0
178.70845 152.0
178.771484 232.0
178.857483 184.0
178.90274 48.0
179.037888 196.0
179.177048 84.0
179.21022 80.0
179.443573 48.0
179.483566 164.0
179.603577 112.0
179.659592 28.0
179.815201 64.0
180.047989 128.0
180.137451 96.0
180.182861 48.0
180.244324 64.0
180.29776 88.0
180.324493 124.0
180.516983 112.0
180.551743 88.0
180.610596 48.0
180.685486 52.0
181.032166 148.0
181.059204 324.0
181.162033 196.0
181.392487 168.0
181.577499 88.0
181.596283 52.0
181.649933 40.0
181.934387 156.0
182.028366 80.0
182.063553 160.0
182.503983 44.0
182.528183 164.0
182.568512 132.0
182.673416 56.0
183.067917 264.0
183.263016 156.0
183.300751 32.0
183.424728 148.0
183.540649 76.0
183.610764 172.0
183.637741 152.0
183.662018 52.0
184.007431 92.0
184.069534 168.0
184.336975 76.0
184.593781 72.0
184.899475 60.0
184.972565 244.0
184.996933 132.0
185.037537 84.0
185.237946 80.0
185.30838 144.0
185.414062 116.0
185.568573 64.0
185.61467 160.0
185.644501 108.0
185.704163 108.0
185.73671 188.0
185.8181 92.0
185.907639 116.0
185.9823 168.0
186.092224 132.0
186.421204 184.0
186.456238 96.0
186.475266 152.0
186.540497 36.0
186.681885 140.0
186.752594 152.0
186.880463 128.0
186.923996 112.0
186.996368 296.0
187.014359 216.0
187.225616 176.0
187.287079 132.0
187.514969 208.0
187.768524 136.0
187.817612 148.0
187.91037 116.0
187.954025 180.0
188.00354 15584.0
188.085022 116.0
188.121979 304.0
188.172806 176.0
188.207047 208.0
188.295273 260.0
188.328049 60.0
188.437317 184.0
188.456436 44.0
188.614944 168.0
189.007187 2028.0
189.071716 84.0
189.209885 76.0
189.320847 48.0
189.485199 56.0
189.58815 140.0
189.655106 236.0
189.688553 220.0
189.751053 120.0
189.833313 72.0
189.91011 132.0
190.000122 8980.0
190.086121 636.0
190.116547 196.0
190.195465 108.0
190.25415 200.0
190.346466 48.0
190.374924 156.0
190.465103 164.0
190.632156 84.0
190.651398 140.0
190.673386 84.0
190.709122 160.0
190.769592 92.0
190.835571 32.0
190.902451 152.0
191.004654 556.0
191.091583 232.0
191.220703 52.0
191.263077 180.0
191.314789 180.0
191.573166 120.0
191.702225 188.0
191.774323 176.0
191.996384 604.0
192.042526 204.0
192.09581 132.0
192.182465 84.0
192.234894 52.0
192.276291 148.0
192.38118 52.0
192.411545 76.0
192.432098 72.0
192.480576 68.0
192.522003 104.0
192.596573 92.0
192.720886 192.0
192.781677 128.0
192.972412 224.0
193.05159 164.0
193.448273 276.0
193.517487 172.0
193.655945 40.0
193.858185 148.0
193.949646 140.0
194.061142 552.0
194.083984 136.0
194.390625 128.0
194.526627 144.0
194.554398 56.0
194.593262 104.0
194.632126 152.0
194.701553 168.0
194.823776 64.0
194.890457 72.0
194.971039 76.0
195.009949 108.0
195.070511 560.0
195.187881 136.0
195.254623 288.0
195.482742 160.0
195.596863 204.0
195.646973 152.0
195.978394 176.0
196.050858 168.0
196.072693 220.0
196.167923 72.0
196.371475 220.0
196.435623 44.0
196.843109 64.0
196.928635 148.0
197.013489 172.0
197.06105 180.0
197.100113 136.0
197.396408 192.0
197.550247 160.0
197.768509 160.0
198.034515 156.0
198.070923 148.0
198.269852 160.0
198.892517 156.0
198.97673 148.0
199.119949 160.0
199.204208 184.0
199.235107 184.0
199.336258 76.0
199.367172 52.0
199.493668 40.0
199.653931 156.0
199.743942 132.0
199.786133 172.0
199.821381 160.0
199.853653 148.0
199.890244 128.0
200.002289 5680.0
200.104813 104.0
200.122406 176.0
200.143585 100.0
200.291443 152.0
200.450623 104.0
200.498535 28.0
200.58873 104.0
200.633835 48.0
200.653564 32.0
200.746307 144.0
200.901184 100.0
201.005783 768.0
201.0513 132.0
201.095673 304.0
201.212189 36.0
201.34491 56.0
201.700912 128.0
201.794922 144.0
201.93158 180.0
201.949738 228.0
201.999146 4512.0
202.092346 176.0
202.123047 196.0
202.187408 60.0
202.276245 52.0
202.385559 64.0
202.529999 164.0
202.558319 124.0
202.578156 148.0
202.714157 92.0
202.824692 204.0
202.858704 212.0
202.87854 124.0
203.004303 884.0
203.05719 120.0
203.207535 132.0
203.42038 144.0
203.451614 48.0
203.559509 40.0
203.590744 40.0
203.631439 232.0
203.877686 124.0
203.900421 148.0
203.977158 204.0
204.01503 396.0
204.330673 196.0
204.486313 116.0
204.526154 228.0
204.65712 68.0
204.702682 148.0
204.799515 128.0
204.944794 88.0
205.021744 168.0
205.056885 132.0
205.098694 124.0
205.121506 120.0
205.244095 92.0
205.36673 164.0
205.541672 124.0
205.574997 148.0
205.723419 192.0
205.80336 156.0
205.94043 176.0
206.014709 124.0
206.074707 64.0
206.146133 124.0
206.351944 132.0
206.6866 148.0
206.967117 100.0
207.02153 128.0
207.06842 568.0
207.23349 216.0
207.38913 144.0
207.715134 172.0
207.924591 204.0
208.074142 736.0
208.111191 156.0
208.200195 184.0
208.407028 124.0
208.547852 124.0
208.611084 92.0
208.680084 92.0
208.933182 104.0
209.07077 296.0
209.200821 148.0
209.22673 132.0
209.411026 56.0
209.566589 144.0
209.756805 116.0
209.99324 56.0
210.069687 80.0
210.090317 160.0
210.287537 140.0
210.359695 148.0
210.472305 88.0
211.096466 148.0
211.275803 92.0
211.307632 156.0
211.475464 228.0
211.495728 124.0
211.559418 136.0
211.623108 72.0
211.744736 224.0
212.008377 96.0
212.173599 148.0
212.333084 196.0
212.359177 132.0
212.521637 124.0
212.629013 180.0
212.687057 200.0
213.001862 272.0
213.084915 188.0
213.436615 124.0
213.622757 192.0
213.675125 128.0
213.87883 128.0
214.015427 336.0
214.257401 220.0
214.519684 156.0
214.647964 48.0
214.741287 80.0
214.846298 140.0
215.015335 516.0
215.079758 144.0
215.109756 148.0
215.441864 84.0
215.471085 180.0
215.567505 188.0
215.614258 164.0
215.710724 96.0
215.909546 112.0
215.976822 124.0
216.03334 1244.0
216.074585 256.0
216.099487 516.0
216.166992 224.0
216.263565 196.0
216.436295 160.0
216.544647 188.0
216.65303 164.0
216.676468 200.0
216.770233 116.0
216.79953 88.0
217.014404 448.0
217.038193 268.0
217.06044 156.0
217.116165 304.0
217.154282 80.0
217.418335 148.0
217.471161 88.0
217.503448 144.0
217.55629 112.0
217.615005 196.0
217.644379 112.0
217.683838 76.0
217.717789 128.0
217.905792 204.0
217.967484 84.0
218.032608 1452.0
218.081146 244.0
218.117645 14428.0
218.235962 108.0
218.408493 176.0
218.452606 104.0
218.558533 172.0
218.764557 96.0
218.808716 80.0
218.85582 64.0
218.897934 160.0
218.908829 92.0
218.918915 160.0
218.979507 44.0
219.008423 152.0
219.041718 220.0
219.120575 1536.0
219.15332 80.0
219.268234 140.0
219.427429 120.0
219.751862 76.0
219.911697 220.0
220.030655 164.0
220.114685 492.0
220.15921 220.0
220.312805 40.0
220.42804 60.0
220.493057 172.0
220.55217 140.0
220.608337 168.0
220.652679 140.0
220.685211 156.0
220.717728 112.0
220.738434 120.0
220.768005 200.0
220.806442 124.0
220.86264 112.0
220.94548 108.0
221.081589 152.0
221.336166 144.0
221.51683 48.0
221.558304 156.0
221.617569 136.0
221.804276 192.0
221.955475 68.0
222.00885 56.0
222.240234 108.0
222.442047 140.0
222.807327 172.0
222.86972 208.0
222.94104 164.0
223.003448 184.0
223.065872 120.0
223.101547 84.0
223.19371 136.0
223.503067 176.0
223.696518 176.0
223.898987 168.0
223.952606 188.0
224.053879 152.0
224.098572 156.0
224.247574 72.0
224.301224 180.0
224.548706 160.0
224.632233 264.0
224.847061 132.0
224.894821 92.0
224.933624 280.0
225.041092 148.0
225.184448 132.0
225.516098 152.0
225.605774 80.0
225.7164 156.0
225.922775 124.0
225.94371 84.0
226.006546 140.0
226.156174 164.0
226.530487 36.0
226.578415 116.0
226.79718 72.0
227.016663 156.0
227.109009 52.0
227.333206 188.0
227.523132 36.0
227.59819 96.0
227.640228 124.0
227.904572 144.0
228.021393 5336.0
228.151031 48.0
228.611237 124.0
228.653366 96.0
228.676437 36.0
228.770752 124.0
228.96347 120.0
229.023849 972.0
229.297882 92.0
229.457657 100.0
229.692886 44.0
229.777344 144.0
229.796997 80.0
229.867874 140.0
229.946335 140.0
230.018723 3004.0
230.084686 120.0
230.233154 216.0
230.281479 48.0
230.381165 164.0
230.405319 160.0
230.544327 112.0
230.628952 80.0
230.764984 56.0
230.822433 64.0
230.864777 48.0
230.940384 160.0
231.03009 372.0
231.042618 1076.0
231.134003 40.0
231.636581 136.0
231.860809 104.0
231.885056 108.0
232.016922 460.0
232.051773 500.0
232.139709 100.0
232.185196 44.0
232.21553 44.0
232.603912 120.0
232.676773 204.0
232.776978 156.0
232.855942 116.0
232.944031 164.0
232.989594 56.0
233.042175 456.0
233.123291 124.0
233.157654 156.0
233.223587 144.0
233.260056 196.0
233.61586 72.0
233.70105 120.0
233.996277 64.0
234.03891 128.0
234.142441 60.0
234.383102 44.0
234.535492 148.0
234.559875 96.0
234.593414 152.0
234.617798 176.0
234.66658 44.0
235.035645 428.0
235.310349 168.0
235.429443 60.0
235.47525 100.0
235.728821 188.0
236.141541 76.0
236.315918 168.0
236.358749 116.0
236.643417 160.0
236.937439 188.0
237.004852 208.0
237.075333 152.0
237.22551 156.0
237.42482 72.0
237.578186 88.0
237.713196 80.0
237.912704 140.0
238.01709 124.0
238.161438 164.0
238.342697 108.0
238.367279 132.0
239.36087 120.0
239.622681 132.0
239.810654 80.0
240.011047 104.0
240.078888 260.0
240.155991 188.0
240.199173 192.0
240.220764 148.0
240.248535 136.0
241.025787 956.0
241.242935 36.0
241.431549 40.0
241.465576 244.0
241.688309 76.0
241.781143 88.0
242.041 224.0
242.100021 108.0
242.189835 28.0
242.273483 100.0
242.335449 160.0
242.416 204.0
242.462494 128.0
242.592682 100.0
242.713593 36.0
242.741501 220.0
242.77562 148.0
242.899673 80.0
242.994247 132.0
243.043945 11760.0
243.128769 216.0
243.216187 48.0
243.272064 164.0
243.360733 100.0
243.393143 108.0
243.511154 104.0
243.678909 84.0
243.8405 60.0
243.9897 96.0
244.011475 180.0
244.046219 1488.0
244.082977 176.0
244.107864 160.0
244.428268 92.0
244.615005 88.0
244.742661 80.0
244.895248 164.0
244.932632 68.0
245.042038 5924.0
245.126236 172.0
245.205826 180.0
245.275391 68.0
245.35022 44.0
245.496765 92.0
245.587204 36.0
245.66832 136.0
245.696396 128.0
245.777512 108.0
245.824326 84.0
245.899216 100.0
245.958527 96.0
245.98349 136.0
246.040726 828.0
246.1521 168.0
246.270767 64.0
246.40979 224.0
246.505081 72.0
246.636353 240.0
246.676987 60.0
246.745773 52.0
247.002197 224.0
247.039841 548.0
247.099289 112.0
247.12735 108.0
247.502945 164.0
247.556183 100.0
247.687729 100.0
247.806778 128.0
248.032425 96.0
248.373688 220.0
248.430679 156.0
248.706818 124.0
248.904602 132.0
249.116058 384.0
249.240707 36.0
249.328705 116.0
249.407272 48.0
249.451279 48.0
249.816071 152.0
249.89473 176.0
249.998566 176.0
250.099274 132.0
250.303925 176.0
250.918335 104.0
251.012924 172.0
251.123749 200.0
251.423035 160.0
251.542984 148.0
251.675583 120.0
251.710312 76.0
252.130157 204.0
252.405502 116.0
252.566788 96.0
252.715485 48.0
252.997162 188.0
253.028824 224.0
253.129959 208.0
253.180817 184.0
253.288498 164.0
253.503952 236.0
253.681442 236.0
253.839981 124.0
253.912918 104.0
253.970001 212.0
254.03595 188.0
254.074692 148.0
254.296814 108.0
254.627014 148.0
254.970139 64.0
255.05278 128.0
255.19902 240.0
255.281693 156.0
255.405731 144.0
255.590256 80.0
255.708008 184.0
255.743011 72.0
256.034515 172.0
256.150604 100.0
257.068848 136.0
257.311432 148.0
257.589264 92.0
257.688293 68.0
257.78418 168.0
257.851288 160.0
258.063171 128.0
258.123016 80.0
258.263733 148.0
259.048004 112.0
259.099243 64.0
259.201782 84.0
259.256256 176.0
259.666626 56.0
259.746826 136.0
260.05484 104.0
260.568665 152.0
260.783966 200.0
261.025085 96.0
261.158234 788.0
261.575256 180.0
261.749115 132.0
261.874695 88.0
262.161438 368.0
263.158203 168.0
263.561951 48.0
263.600708 136.0
263.684753 132.0
263.914276 196.0
264.082428 148.0
264.943481 184.0
265.312958 132.0
265.462097 112.0
265.595062 192.0
266.627563 160.0
267.128296 72.0
267.219391 104.0
267.559601 212.0
267.704407 124.0
267.831421 40.0
268.255035 168.0
268.365875 160.0
268.587646 192.0
268.643097 168.0
268.923737 132.0
269.0 188.0
269.266571 232.0
269.289429 88.0
270.005188 48.0
270.774292 236.0
270.918427 132.0
271.551086 84.0
271.659332 220.0
271.957947 124.0
272.00061 184.0
272.706818 148.0
272.815277 52.0
273.08493 208.0
273.130981 168.0
273.986877 208.0
274.02829 220.0
274.306549 120.0
274.477997 84.0
274.557129 108.0
274.606628 120.0
275.149414 196.0
275.158386 96.0
275.172424 216.0
275.359131 140.0
275.739075 192.0
275.917572 116.0
277.172028 96.0
277.364258 128.0
277.496857 168.0
277.526703 212.0
277.940002 252.0
278.077393 144.0
278.13382 156.0
278.210175 108.0
278.911102 160.0
279.30014 140.0
279.323425 72.0
279.562988 136.0
279.6828 132.0
279.964355 140.0
280.335571 80.0
280.692261 112.0
280.720612 152.0
281.226074 260.0
281.726959 120.0
281.780396 120.0
281.820496 176.0
281.867279 164.0
281.954163 84.0
282.010986 112.0
282.064453 120.0
282.154724 128.0
282.221588 232.0
282.275116 132.0
282.582825 52.0
282.780273 128.0
283.075043 296.0
283.22226 68.0
283.271881 172.0
283.560669 124.0
283.617645 84.0
283.657867 100.0
283.862366 48.0
283.989838 124.0
284.02002 156.0
284.087463 204.0
284.157562 164.0
284.191101 156.0
284.225403 128.0
284.271637 76.0
284.44281 136.0
284.496521 164.0
284.562561 108.0
284.600616 52.0
284.653595 164.0
284.690033 108.0
284.722229 284.0
284.768524 116.0
284.809784 56.0
284.83905 76.0
284.870728 156.0
284.911346 60.0
284.945007 164.0
284.985779 236.0
285.022369 540.0
285.092621 84056.0
285.181244 48.0
285.211212 148.0
285.235565 56.0
285.267578 164.0
285.346497 48.0
285.384064 88.0
285.436707 68.0
285.504272 48.0
285.536133 112.0
285.575806 324.0
285.597046 64.0
285.646088 212.0
285.683716 144.0
285.720123 96.0
285.783752 152.0
285.830261 132.0
285.85257 88.0
285.875671 88.0
285.911621 112.0
285.976318 72.0
286.006012 156.0
286.042267 108.0
286.094696 13600.0
286.14856 220.0
286.209259 80.0
286.243378 248.0
286.329102 88.0
286.375732 196.0
286.444763 140.0
286.474854 164.0
286.539368 152.0
286.578369 68.0
286.625549 52.0
286.662628 92.0
286.700653 184.0
286.757568 68.0
286.844635 96.0
286.886383 368.0
286.92923 120.0
286.972626 132.0
287.003326 128.0
287.040375 292.0
287.089508 44632.0
287.167908 128.0
287.213837 188.0
287.255707 260.0
287.294891 176.0
287.32724 96.0
287.345428 96.0
287.376923 72.0
287.416382 84.0
287.44751 124.0
287.490906 164.0
287.576294 48.0
287.621429 112.0
287.667725 80.0
287.723633 128.0
287.773529 104.0
287.847351 132.0
287.881897 84.0
287.892822 108.0
287.899872 132.0
287.921448 96.0
287.94577 116.0
287.997925 104.0
288.092133 5444.0
288.153656 108.0
288.168396 32.0
288.175842 188.0
288.213318 244.0
288.24527 44.0
288.304413 136.0
288.356903 116.0
288.396576 52.0
288.428314 180.0
288.513489 68.0
288.566376 52.0
288.693176 72.0
288.784027 100.0
288.896149 140.0
289.0047 88.0
289.086792 3100.0
289.146515 72.0
289.172302 228.0
289.347931 80.0
289.412262 120.0
289.452911 84.0
289.476624 76.0
289.503693 56.0
289.606781 148.0
289.662903 52.0
289.710327 56.0
289.758362 44.0
289.815338 176.0
289.86618 36.0
289.964447 28.0
290.034088 52.0
290.067291 204.0
290.107025 64.0
290.130554 112.0
290.196533 104.0
290.258728 120.0
290.293304 92.0
290.43576 100.0
290.503601 96.0
290.564667 56.0
290.673248 124.0
290.700378 72.0
290.751282 36.0
290.88028 72.0
290.931183 48.0
290.988892 64.0
291.264984 68.0
291.304749 60.0
291.455688 108.0
291.832214 40.0
291.889343 120.0
292.028778 44.0
292.205658 72.0
292.229492 32.0
292.365601 84.0
292.692383 56.0
292.937622 124.0
294.151611 68.0
294.419922 76.0
294.756134 84.0
294.978302 48.0
295.354431 136.0
295.398895 48.0
295.91568 88.0
295.987579 80.0
296.768829 40.0
296.909424 56.0
297.499603 56.0
297.770874 48.0
298.355042 168.0
298.449066 80.0
298.603943 136.0
298.795258 100.0
299.607758 76.0
299.84552 76.0
300.735382 72.0
301.163513 104.0
301.733704 76.0
301.906616 128.0
302.082031 128.0
302.314819 104.0
302.938049 96.0
303.177155 76.0
303.704132 68.0
304.096222 36.0
304.304504 48.0
305.687958 108.0
308.198608 180.0
308.485199 136.0
308.873352 60.0
309.899139 176.0
310.530121 64.0
314.795624 96.0
315.862976 156.0
318.784485 184.0
320.389221 48.0
320.456909 72.0
321.37326 52.0
322.966583 132.0
323.221924 140.0
324.872314 116.0
325.27063 48.0
325.425018 200.0
328.974884 48.0
329.711731 160.0
329.885223 80.0
330.355347 96.0
331.072021 140.0
331.22052 108.0
332.264587 148.0
334.768982 208.0
335.756622 168.0
337.231628 40.0
337.509491 124.0
339.112946 148.0
339.855499 176.0
342.066193 68.0
342.504395 236.0
343.647247 112.0
344.333862 116.0
346.027496 96.0
348.43454 120.0
353.460724 44.0
353.513092 160.0
353.62912 80.0
354.910339 100.0
357.554993 220.0
358.262329 112.0
358.462585 32.0
358.843292 172.0
359.427917 196.0
360.322784 60.0
362.771362 96.0
363.017822 120.0
363.533752 152.0
363.765289 172.0
363.845001 164.0
365.719116 120.0
367.407227 96.0
368.590881 124.0
370.097961 100.0
370.607391 144.0
371.519897 48.0
375.68631 44.0
376.014282 44.0
378.310333 32.0
380.054413 128.0
380.823059 200.0
381.425354 92.0
381.919189 76.0
382.028107 68.0
383.223328 156.0
383.336334 64.0
386.131592 132.0
387.42334 200.0
388.807495 188.0
389.058716 48.0
390.803741 80.0
391.05954 152.0
391.291809 40.0
392.872192 96.0
394.384613 104.0
396.946106 72.0
400.176605 36.0
400.220398 92.0
405.032837 136.0
405.377411 92.0
406.620636 128.0
406.993988 148.0
407.684906 204.0
408.75058 196.0
409.600098 148.0
409.765259 52.0
409.829742 120.0
410.418213 136.0
410.494843 92.0
412.170074 148.0
413.180878 60.0
413.621979 36.0
415.67276 68.0
417.854736 184.0
418.974365 148.0
419.086823 132.0
419.997559 128.0
420.462677 40.0
421.103699 112.0
421.455017 76.0
423.993103 72.0
426.734314 48.0
427.087982 96.0
428.153961 40.0
429.064636 156.0
429.188324 124.0
429.415131 108.0
431.678314 116.0
432.907379 108.0
433.015076 164.0
433.218018 104.0
433.363037 100.0
433.96405 156.0
434.08844 52.0
434.163086 116.0
436.734009 148.0
440.026154 304.0
440.815613 132.0
441.622498 132.0
442.183167 160.0
442.622742 68.0
442.735809 72.0
444.132507 164.0
444.882629 72.0
445.105164 88.0
445.268341 144.0
445.80249 80.0
445.903351 60.0
446.046265 72.0
446.126343 748.0
446.171295 124.0
446.243866 88.0
446.298523 144.0
446.369995 100.0
446.933655 124.0
447.076721 120.0
447.135498 232.0
447.279663 160.0
447.459778 124.0
447.514526 68.0
447.661896 128.0
447.697784 192.0
447.823303 260.0
447.9104 120.0
447.946259 164.0
448.039276 168.0
448.153198 15360.0
448.263031 160.0
448.335419 96.0
448.382294 76.0
448.441315 64.0
448.51297 64.0
448.615204 76.0
448.723755 84.0
448.816498 64.0
448.875549 88.0
448.930359 120.0
448.9599 40.0
449.010498 40.0
449.04953 92.0
449.082184 116.0
449.158142 4636.0
449.22818 112.0
449.512512 60.0
449.593445 136.0
449.644501 180.0
449.731995 60.0
449.769958 128.0
449.816071 52.0
449.888184 56.0
450.002167 68.0
450.152527 9852.0
450.233887 160.0
450.319275 84.0
450.359009 32.0
450.650146 96.0
450.75824 92.0
450.920959 72.0
451.011841 72.0
451.067444 76.0
451.154724 2244.0
451.227417 76.0
451.270203 268.0
451.350037 84.0
451.443085 60.0
451.536133 72.0
451.65033 100.0
451.778748 100.0
451.811066 40.0
451.915619 164.0
452.022614 84.0
452.060699 68.0
452.146332 672.0
452.217438 128.0
452.479767 64.0
452.687256 48.0
453.500671 100.0
453.678711 96.0
453.738068 112.0
454.090027 100.0
454.123962 72.0
454.164062 140.0
454.217285 92.0
454.93869 92.0
455.066071 88.0
455.524719 68.0
456.145142 116.0
456.587341 56.0
456.676666 40.0
457.025513 88.0
458.25177 140.0
461.803528 124.0
462.231354 68.0
462.316956 92.0
462.466736 104.0
467.002045 64.0
468.009064 72.0
468.10379 88.0
470.494995 76.0
471.996094 56.0
477.408051 60.0
477.460236 84.0
479.079468 92.0
480.605438 96.0
480.66217 148.0
487.634186 84.0
489.125305 96.0
490.235199 104.0
492.419037 104.0
498.155273 68.0
505.776154 60.0
506.335846 72.0
510.53656 88.0
512.490234 56.0
513.78418 48.0
513.883484 76.0
518.563904 80.0
521.482361 136.0
523.575256 92.0
525.708801 60.0
531.525085 48.0
532.461609 108.0
535.230042 40.0
537.594849 48.0
537.627136 108.0
555.593262 52.0
562.015564 128.0
563.450867 64.0
564.367798 84.0
566.895569 76.0
569.837524 64.0
571.863342 60.0
577.05835 56.0
580.266235 88.0
583.901367 96.0
602.164185 96.0
605.240173 48.0
605.881836 36.0
609.792786 80.0
612.622131 88.0
616.614075 72.0
617.741455 100.0
629.496277 76.0
647.875671 28.0
652.92627 100.0
665.605164 48.0
668.108276 80.0
668.478699 116.0
672.230286 28.0
681.416138 104.0
692.197754 120.0
701.223389 76.0
701.850708 72.0
710.790283 60.0
723.555969 48.0
725.366699 56.0
727.018677 92.0
730.990051 44.0
732.993225 40.0
735.67926 36.0
736.067993 168.0
738.645996 52.0
751.500061 92.0
751.734741 164.0
754.318176 64.0
758.357788 68.0
765.670715 96.0
766.287659 92.0
768.813171 88.0
780.485107 48.0
799.719177 188.0
799.882385 120.0
804.668701 232.0
805.024414 76.0
810.955444 152.0
818.321594 140.0
833.916138 136.0
836.458557 72.0
837.483521 84.0
842.040039 96.0
848.196533 100.0
858.114441 136.0
858.161133 100.0
858.557617 76.0
861.82666 140.0
864.844299 216.0
866.853149 100.0
872.570251 100.0
874.546814 108.0
877.36261 108.0
889.537476 64.0
897.796082 60.0
897.879578 52.0
899.120544 184.0
900.284729 48.0
901.521362 76.0
902.447876 28.0
904.721375 176.0
905.338135 180.0
907.52533 100.0
908.790955 120.0
909.198975 64.0
909.355042 88.0
918.320007 72.0
921.362427 116.0
923.435852 120.0
930.447021 128.0
932.457642 68.0
936.832703 136.0
937.173889 184.0
943.515381 56.0
948.124573 44.0
948.314575 116.0
949.718689 200.0
951.326416 136.0
951.430786 252.0
951.522888 76.0
954.595154 140.0
955.253296 168.0
955.523987 152.0
955.856262 52.0
956.170105 236.0
958.769104 132.0
963.180664 176.0
966.475891 72.0
967.503296 140.0
969.2995 156.0
969.937866 108.0
974.915588 80.0
975.015076 56.0
977.602173 116.0
978.156128 80.0
986.177734 200.0
987.390686 132.0
989.374329 168.0
992.663818 140.0
993.253357 172.0
995.782898 184.0
998.045288 168.0
1002.224792 172.0
1003.32782 164.0
1004.261108 164.0
1007.120422 156.0
1009.806641 212.0
1014.080444 148.0
1014.929932 244.0
1020.803711 216.0
1021.94873 72.0
1023.425415 140.0
1024.820312 116.0
1025.247314 160.0
1026.700806 32.0
1030.582031 48.0
1030.812134 152.0
1031.636597 204.0
1032.480591 192.0
1033.165039 108.0
1036.225342 180.0
1037.295654 264.0
1039.13623 52.0
1040.374878 144.0
1041.228882 116.0
1041.678467 172.0
1044.590576 152.0
1046.038452 68.0
1046.688721 160.0
1047.261841 188.0
1047.750732 180.0
1047.957642 160.0
1048.531128 124.0
1050.188232 160.0
1051.504395 160.0
1053.951904 100.0
1054.242676 212.0
1055.328735 96.0
1055.555054 136.0
1055.761963 216.0
1056.111206 72.0
1057.165771 200.0
1064.569092 200.0
1067.278931 212.0
1073.054199 152.0
1074.92627 160.0
1078.479126 184.0
1079.132935 164.0
1082.240845 60.0
1085.825439 196.0
1088.240356 216.0
1092.650513 180.0
1093.071655 200.0
1093.953613 100.0
1096.562012 176.0
1101.477783 144.0
1101.689209 136.0
1106.583252 188.0
1109.5448 40.0
1112.968506 160.0
1118.539795 124.0
1119.085693 144.0
1119.218872 184.0
1119.292114 104.0
1119.864868 48.0
1120.551025 136.0
1121.317383 208.0
1122.197266 252.0
1122.27063 240.0
1123.311035 192.0
1124.805786 124.0
1126.642334 132.0
1127.410645 108.0
1130.848389 52.0
1131.323608 208.0
1133.018066 80.0
1134.479004 216.0
1136.008057 100.0
1138.73999 184.0
1139.526001 184.0
1142.995483 172.0
1143.06958 148.0
1143.399292 128.0
1144.550415 124.0
1147.353394 144.0
1147.5354 184.0
1147.8927 168.0
1149.167603 176.0
1149.383545 156.0
1149.511719 208.0
1149.93689 176.0
1150.949585 160.0
1152.084229 224.0
1152.685547 64.0
1155.911133 216.0
1155.978882 168.0
1157.217529 120.0
1158.782104 184.0
1159.290405 68.0
1159.554688 60.0
1162.504761 144.0
1165.934326 88.0
1166.287842 120.0
1167.348389 180.0
1167.613647 144.0
1168.497925 188.0
1168.57959 164.0
1169.838623 32.0
1173.804077 180.0
1174.479248 136.0
1174.949951 200.0
1175.516235 128.0
1175.871094 172.0
1177.441406 172.0
1179.641602 168.0
1181.932861 140.0
1182.028687 160.0
1183.342896 148.0
1184.465942 144.0
1185.644531 144.0
1187.838623 152.0
1188.106201 148.0
1189.210938 244.0
1189.355103 168.0
1191.497681 36.0
1194.453735 112.0
1195.678467 68.0
1195.981323 176.0
1196.64917 180.0
1196.848755 72.0
1196.972778 92.0
1199.949341 120.0
1200.06665 168.0
1202.025513 172.0
1203.820435 156.0
1204.082886 128.0
1204.994629 168.0
1206.280151 188.0
1206.826294 124.0
1206.992188 112.0
1207.178955 200.0
1209.219849 172.0
1210.978516 208.0
1211.650391 172.0
1212.0177 192.0
1214.74231 180.0
1215.908081 212.0
1216.053833 88.0
1218.671875 120.0
1220.527832 168.0
1220.945068 104.0
1221.744995 132.0
1222.77478 252.0
1223.470947 184.0
1225.107544 60.0
1225.218994 64.0
1225.358276 60.0
1226.396606 236.0
1226.954346 132.0
1227.379639 64.0
1227.74231 160.0
1228.565308 104.0
1228.788574 144.0
1230.477661 136.0
1230.804932 176.0
1232.845581 80.0
1234.103882 136.0
1235.845459 176.0
1240.229492 180.0
1240.334595 180.0
1241.999634 268.0
1242.129761 196.0
1243.098022 196.0
1244.691528 176.0
1245.091797 148.0
1248.015137 64.0
1248.345581 136.0
1250.343628 176.0
1251.519165 200.0
1251.962891 148.0
1252.3573 192.0
1252.420654 224.0
1253.230835 108.0
1254.3302 140.0
1255.021118 152.0
1255.17627 144.0
1256.396484 164.0
1256.544678 112.0
1257.589111 64.0
1259.509644 152.0
1260.406982 164.0
1260.852173 152.0
1263.553345 156.0
1263.652344 176.0
1264.268066 208.0
1265.202393 236.0
1265.301514 136.0
1267.341309 160.0
1267.702759 144.0
1268.15625 160.0
1269.666504 108.0
1271.056885 152.0
1272.654053 144.0
1277.686157 80.0
1279.201904 204.0
1279.330078 136.0
1279.650513 188.0
1280.120361 160.0
1281.438232 220.0
1281.67334 88.0
1283.248535 172.0
1284.639282 140.0
1290.28833 144.0
1291.754395 224.0
1292.004761 204.0
1294.366699 224.0
1294.724854 172.0
1294.85376 144.0
1295.19751 132.0
1297.870728 172.0
1298.006958 228.0
1299.068481 116.0
1299.183228 36.0
1301.120972 136.0
1302.284302 180.0
1307.264893 148.0
1307.381836 64.0
1307.791992 168.0
1311.710571 140.0
1314.646118 120.0
1316.714844 156.0
1317.714966 184.0
1317.917236 72.0
1318.329224 192.0
1318.885742 144.0
1320.98999 156.0
1321.141846 44.0
1325.420898 48.0
1325.551392 220.0
1325.978882 192.0
1326.544312 120.0
1327.080811 132.0
1327.305542 192.0
1327.63916 140.0
1328.589355 128.0
1330.149658 204.0
1331.630859 184.0
1331.877808 116.0
1332.89502 196.0
1337.141968 284.0
1337.724365 116.0
1339.989258 116.0
1340.390015 148.0
1341.344849 192.0
1342.686401 32.0
1342.78125 260.0
1342.9198 104.0
1344.247559 120.0
1345.335205 128.0
1346.079834 128.0
1346.737183 128.0
1347.190063 144.0
1348.61499 164.0
1352.806519 148.0
1353.644897 180.0
1355.318604 184.0
1356.374023 212.0
1358.317261 208.0
1358.419922 216.0
1358.940796 172.0
1359.256348 180.0
1359.447144 104.0
1361.113525 116.0
1361.495361 208.0
1361.546753 192.0
1362.597168 132.0
1363.04541 108.0
1364.35376 200.0
1365.640625 152.0
1366.199707 156.0
1367.744995 48.0
1368.120483 144.0
1368.643188 48.0
1369.033447 180.0
1370.160522 132.0
1371.494263 168.0
1371.641724 188.0
1371.811279 212.0
1372.187256 108.0
1372.909912 216.0
1373.935181 144.0
1374.141846 176.0
1374.208252 188.0
1374.532837 136.0
1376.932129 96.0
1377.619141 60.0
1378.151001 184.0
1379.547852 140.0
1380.398193 204.0
1380.878906 192.0
1382.077393 104.0
1382.247559 132.0
1385.009033 160.0
1385.579468 88.0
1386.876343 176.0
1387.306274 120.0
1387.899414 108.0
1389.212158 108.0
1390.354858 148.0
1391.327271 164.0
1392.864502 128.0
1393.622314 160.0
1393.770874 188.0
1394.714722 104.0
1397.793701 128.0
1398.664551 128.0
1399.066528 148.0
1399.900391 152.0
1400.570801 120.0
1401.77771 208.0
1401.852295 212.0
1403.156616 112.0
1404.588501 228.0
1405.259521 148.0
1405.856934 232.0
1406.222656 40.0
1407.342407 148.0
1408.141479 160.0
1408.320679 196.0
1410.667114 220.0
1410.764282 40.0
1412.955566 172.0
1414.242676 124.0
1414.72168 100.0
1416.316772 156.0
1416.683838 96.0
1417.642944 148.0
1418.062622 240.0
1418.160034 176.0
1418.864624 120.0
1420.484497 144.0
1422.210449 232.0
1422.277954 180.0
1422.886108 188.0
1423.223877 148.0
1423.974854 152.0
1424.117554 148.0
1424.898926 56.0
1425.282104 132.0
1426.266602 148.0
1427.770386 116.0
1428.244141 180.0
1428.966431 160.0
1429.039062 164.0
1429.432861 128.0
1430.192993 68.0
1431.721436 188.0
1431.841919 124.0
1431.932373 116.0
1432.195923 152.0
1432.504761 164.0
1432.602783 184.0
1433.258179 104.0
1433.356201 160.0
1435.57251 60.0
1435.670532 160.0
1435.957153 184.0
1436.032471 68.0
1436.304077 196.0
1437.118896 136.0
1437.81311 128.0
1438.00708 204.0
1438.175415 80.0
1439.126587 188.0
1440.750488 188.0
1440.841064 144.0
1441.581543 100.0
1442.133301 164.0
1442.458374 156.0
1443.085815 160.0
1444.530396 168.0
1445.884766 60.0
1446.740112 200.0
1448.580322 140.0
1452.605591 32.0
1452.833252 184.0
1452.95459 168.0
1455.234131 264.0
1456.46936 136.0
1457.517822 148.0
1458.809937 148.0
1458.977173 188.0
1460.376343 172.0
1460.429565 176.0
1460.962036 96.0
1462.90271 172.0
1463.808716 132.0
1463.907715 160.0
1464.006714 200.0
1464.867432 88.0
1466.886841 156.0
1466.947754 188.0
1468.213501 184.0
1469.426392 128.0
1469.617188 100.0
1469.945312 168.0
1470.92981 80.0
1472.472168 164.0
1473.480591 72.0
1473.625732 176.0
1473.938965 176.0
1474.42041 220.0
1476.018188 140.0
1476.660522 152.0
1477.348999 192.0
1478.109741 100.0
1479.729126 200.0
1480.081421 156.0
1480.364746 80.0
1483.444824 84.0
1484.027466 204.0
1484.311279 216.0
1484.61792 124.0
1485.906616 112.0
1486.535889 160.0
1487.625732 188.0
1487.878296 180.0
1490.874756 164.0
1491.00354 180.0
1491.697266 64.0
1493.258179 196.0
1494.463257 148.0
1495.012329 84.0
1495.066162 184.0
1495.135376 132.0
1497.06189 172.0
1497.699341 108.0
1497.814819 160.0
1498.161499 208.0
1498.377197 156.0
1498.700806 112.0
1499.425171 48.0
1499.841431 152.0
1500.103516 156.0
1501.028687 248.0
1501.314087 104.0
1501.599365 80.0
1503.335327 100.0
1504.585693 144.0
1505.203491 136.0
