>compound Erythrinine
>formula C19H23NO4
>ionization [M+H]+
>parentmass 330.16998466809054
#inchi InChI=1S/C19H23NO4/c1-22-16-8-12-4-6-20-7-5-13-9-15(21)18(24-3)11-19(13,20)14(12)10-17(16)23-2/h8-10,18H,4-7,11H2,1-3H3
#inchikey GFSAAWPDCQHEAN
#Ion_Source DI-ESI
#Instrument Ion Trap
#Compound_Source Isolated
#PI Norberto Lopes
#Data_Collector Denise Silva
#Scan -1
#Precursor_MZ 314.1
#ExactMass 329.163
#Charge 1
#CAS_Number  
#Pubmed_ID  
#Smiles COC1CC23C4=CC(OC)=C(OC)C=C4CCN2CCC3=CC1=O
#INCHI_AUX  
#Library_Class 3
#SpectrumID CCMSLIB00000081234
#IonMode Positive
#UpdateWorkflowName UPDATE-SINGLE-ANNOTATED-BRONZE
#LibraryQualityString Bronze
#TaskID 9013731ef46f4325af2824f7a842f031
##Scan# 1
#SpectrumFile gnps_Erythrinine_pos_MplusH.mgf
#LibraryName gnps_library.mgf
#MQScore -1
#Organism gnps_library
#TIC_Query 0
#RT_Query -1
#MZErrorPPM -1
#SharedPeaks 0
#MassDiff 0
#LibMZ -1
#SpecMZ 314.1
#SpecCharge 0
#internalFilename spec-00000.mgf

>collision 10
134.996994 288867.0
145.983994 267872.0
160.016006 286876.0
195.074997 246874.0
206.018997 702512.0
207.037003 1420908.0
217.033997 1734739.0
223.028 995254.0
234.054001 6531760.0
234.057999 6531760.0
237.070007 3153039.0
237.070999 3316177.0
247.044006 1974336.0
249.074997 327623.0
253.119995 396742.0
262.067993 552690.0
264.075989 15079813.0
264.075989 15079813.0
265.859009 196674.0
281.07901 506835.0
282.084015 66100892.0
282.087006 66100892.0
296.067993 534058.0
314.122986 19794562.0
314.127991 19794562.0
