>compound MLS001076858-01!
>formula C21H21N3O2S
>ionization [M+H]+
>parentmass 380.143
#inchi InChI=1S/C21H21N3O2S/c25-19(10-9-15-5-2-1-3-6-15)22-21(27)23-12-16-11-17(14-23)18-7-4-8-20(26)24(18)13-16/h1-10,16-17H,11-14H2,(H,22,25,27)/b10-9+/t16-,17-/m1/s1
#inchikey BYHZMBFSYXBJLB
#Ion_Source LC-ESI
#Instrument qTof
#Compound_Source NIH Natural Product Library
#PI Dorrestein
#Data_Collector VVP/LMS
#Scan -1
#Precursor_MZ 380.143
#ExactMass 379.135
#Charge 1
#CAS_Number N/A
#Pubmed_ID N/A
#Smiles O=C(NC(=S)N1C[C@H]2C[C@H](C1)c3cccc(=O)n3C2)/C=C/c4ccccc4
#INCHI_AUX N/A
#Library_Class 1
#SpectrumID CCMSLIB00000079651
#IonMode Positive
#UpdateWorkflowName UPDATE-SINGLE-ANNOTATED-GOLD
#LibraryQualityString Gold
#TaskID b1d8e8f6646f4e71acdff9ca3d919d08
##Scan# 1817
#SpectrumFile p1-D09_GD9_01_17917.mzXML
#LibraryName NIH_Natural_Products_Library.mgf
#MQScore -1
#Organism NIH_Natural_Products_Library
#TIC_Query 0
#RT_Query -1
#MZErrorPPM -1
#SharedPeaks 0
#MassDiff 0
#LibMZ -1
#SpecMZ 380.143
#SpecCharge 0
#internalFilename spec-00000.mgf

>collision 10
96.109032 148.0
96.314011 176.0
97.014542 184.0
97.20282 112.0
97.717606 132.0
99.927567 188.0
100.427559 124.0
100.465462 176.0
101.058815 96.0
101.852669 200.0
102.792854 216.0
103.055855 2964.0
103.670471 112.0
104.05648 176.0
105.226501 80.0
105.349037 196.0
106.876411 124.0
107.310997 164.0
107.327492 176.0
108.048897 208.0
108.586853 128.0
109.88694 144.0
110.039299 116.0
110.185493 56.0
111.366928 68.0
111.9916 128.0
112.02243 148.0
113.045067 252.0
114.226799 196.0
114.477943 232.0
115.579384 44.0
115.658562 188.0
116.262947 128.0
117.774323 116.0
118.066093 108.0
119.156372 180.0
119.558632 232.0
119.665291 44.0
119.756752 216.0
120.583641 96.0
121.801849 204.0
122.120552 160.0
122.710701 128.0
123.695969 128.0
128.016251 144.0
129.085861 68.0
129.66539 64.0
129.830887 176.0
130.06575 212.0
131.049118 5616.0
131.115326 124.0
131.197388 84.0
131.320511 36.0
131.423172 40.0
131.77478 48.0
131.923325 120.0
132.051773 692.0
132.083389 216.0
132.257278 72.0
132.387787 116.0
132.426712 160.0
132.665009 192.0
132.75444 72.0
132.967789 124.0
133.050415 552.0
133.40419 52.0
133.788361 44.0
134.056641 208.0
134.334503 56.0
134.844788 236.0
135.062119 156.0
136.019089 176.0
137.27774 80.0
138.214417 40.0
138.642944 256.0
138.724976 88.0
140.623169 188.0
142.038071 168.0
145.702408 144.0
146.026901 152.0
146.060043 540.0
146.09906 208.0
147.062027 276.0
147.403427 240.0
148.075699 1960.0
148.390945 32.0
148.643204 56.0
148.67717 128.0
148.86409 56.0
149.077835 684.0
149.102158 32.0
149.199387 92.0
149.703506 104.0
150.45401 68.0
150.493073 184.0
153.097168 232.0
155.967117 240.0
156.081467 360.0
156.180939 88.0
156.240646 136.0
157.679367 72.0
157.714355 180.0
157.791855 156.0
158.057816 696.0
158.653046 60.0
159.068176 264.0
159.19751 72.0
160.032318 120.0
160.075684 1816.0
160.251434 84.0
160.352234 88.0
161.080154 440.0
161.197632 60.0
161.347076 132.0
161.99205 96.0
162.088333 204.0
163.088211 136.0
163.357742 132.0
164.088623 36.0
164.226318 160.0
164.734268 128.0
165.358154 56.0
166.655701 164.0
168.368683 52.0
169.377365 116.0
172.078964 460.0
173.080673 124.0
174.090759 1080.0
175.092621 280.0
177.651901 252.0
178.293274 180.0
179.15535 184.0
180.846939 216.0
181.563599 20.0
183.421448 104.0
183.904251 196.0
186.067093 160.0
186.896042 92.0
187.083481 128.0
187.173676 20.0
188.096512 232.0
189.100967 176.0
190.120468 104.0
190.521332 120.0
191.046402 104.0
191.117126 5836.0
191.167465 116.0
191.203384 72.0
191.687912 20.0
192.043533 144.0
192.12088 988.0
192.87738 176.0
192.932663 192.0
192.951447 96.0
193.119232 216.0
193.145599 76.0
193.267319 64.0
193.494263 160.0
193.721344 44.0
193.768448 56.0
196.492996 116.0
196.802795 252.0
197.006668 108.0
197.537796 52.0
199.089462 196.0
200.085876 128.0
201.772949 132.0
203.072678 96.0
204.0495 128.0
205.082809 112.0
206.050156 96.0
206.07692 176.0
216.110794 124.0
217.090881 548.0
217.31044 76.0
217.416077 72.0
217.512924 144.0
218.106262 168.0
218.776947 64.0
219.100876 108.0
224.101929 208.0
231.059952 380.0
231.258133 44.0
232.209473 92.0
232.552307 80.0
232.980453 92.0
233.019943 132.0
233.074112 4172.0
233.168839 56.0
233.196182 128.0
233.235703 44.0
233.530624 72.0
233.591461 40.0
233.880524 80.0
234.078644 1524.0
234.568909 160.0
234.944 60.0
235.073441 1084.0
235.099091 120.0
235.386551 64.0
235.560623 60.0
235.759216 52.0
235.94873 88.0
236.067978 196.0
236.101608 176.0
236.909653 160.0
237.716003 56.0
245.287262 164.0
250.097198 1304.0
251.101013 136.0
252.116898 164.0
256.159027 148.0
265.09314 136.0
266.102966 112.0
276.078461 240.0
278.081818 196.0
302.069183 176.0
305.559082 164.0
322.808289 120.0
367.125671 96.0
369.05014 80.0
378.577637 136.0
380.146637 80.0
399.35202 76.0
403.343201 92.0
436.091064 112.0
491.945496 176.0
519.218933 36.0
633.985229 108.0
873.059448 120.0
917.788269 128.0
959.363831 140.0
974.793579 208.0
1002.742432 192.0
1028.014648 164.0
1047.015747 104.0
1068.193481 172.0
1069.579468 76.0
1086.897949 20.0
1088.998535 120.0
1130.153442 252.0
1138.075806 148.0
1152.671997 64.0
1153.246338 176.0
1154.40918 112.0
1155.356079 148.0
1162.225952 176.0
1178.143555 168.0
1193.461182 152.0
1200.857056 160.0
1208.386475 112.0
1210.331299 144.0
1243.338867 148.0
1245.585571 136.0
1263.321045 108.0
1285.616821 124.0
1286.787476 196.0
1299.347656 204.0
1302.865356 204.0
1315.915039 144.0
1317.915649 124.0
1321.849121 200.0
1324.462646 100.0
1324.911743 184.0
1329.196655 176.0
1335.247803 236.0
1340.380005 104.0
1357.426147 144.0
1375.620605 156.0
1376.905273 84.0
1390.839233 156.0
1394.225952 180.0
1396.039795 148.0
1404.761353 96.0
1412.844116 180.0
1417.044067 152.0
1419.982422 200.0
1421.888062 148.0
1423.329346 200.0
1430.328491 132.0
1438.235352 100.0
1440.228638 156.0
1441.565796 176.0
1456.756592 52.0
1474.662598 200.0
1494.023926 184.0
1496.586792 120.0
