>compound MLS000069633-01!Acyclovir59277-89-3
>formula C8H11N5O3
>ionization [M+H]+
>parentmass 226.094
#inchi InChI=1S/C8H11N5O3/c9-8-11-6-5(7(15)12-8)10-3-13(6)4-16-2-1-14/h3,14H,1-2,4H2,(H3,9,11,12,15)
#inchikey MKUXAQIIEYXACX
#Ion_Source LC-ESI
#Instrument qTof
#Compound_Source NIH Pharmacologically Active Library
#PI Dorrestein
#Data_Collector VP/LMS
#Scan -1
#Precursor_MZ 226.094
#ExactMass 225.086
#Charge 1
#CAS_Number N/A
#Pubmed_ID N/A
#Smiles Nc1nc(O)c2ncn(COCCO)c2n1
#INCHI_AUX N/A
#Library_Class 1
#SpectrumID CCMSLIB00000085123
#IonMode Positive
#UpdateWorkflowName UPDATE-SINGLE-ANNOTATED-GOLD
#LibraryQualityString Gold
#TaskID d252d724072548979f1f6f1ced849daf
##Scan# 257
#SpectrumFile p3-F03_GF3_01_18284.mzXML
#LibraryName Pharm_Active_Library.mgf
#MQScore -1
#Organism Pharm_Active_Library
#TIC_Query 0
#RT_Query -1
#MZErrorPPM -1
#SharedPeaks 0
#MassDiff 0
#LibMZ -1
#SpecMZ 226.094
#SpecCharge 0
#internalFilename spec-00000.mgf

>collision 10
59.158974 116.0
68.203827 144.0
68.304138 96.0
69.999016 136.0
73.53299 116.0
76.747154 224.0
77.490028 172.0
80.044319 192.0
97.572189 208.0
104.953789 164.0
107.0028 216.0
109.048752 160.0
110.025749 240.0
110.182396 52.0
118.121857 88.0
122.049988 108.0
125.047699 156.0
126.966934 112.0
134.035446 164.0
134.489792 164.0
135.029449 1600.0
136.031479 144.0
146.994507 48.0
148.046112 76.0
152.053757 1076.0
153.037323 188.0
153.069977 212.0
156.96524 164.0
186.120483 168.0
209.925659 112.0
245.461761 92.0
1187.275513 112.0
1192.294189 148.0
1202.673828 216.0
1218.379883 204.0
1282.130371 52.0
1450.706543 236.0
1463.242188 132.0
1473.233154 220.0
1474.440552 224.0
