>compound Glipizide
>formula C21H27N5O4S 
>ionization [M+H]+
>parentmass 446.185
#inchi InChI=1S/C21H27N5O4S/c1-15-13-24-19(14-23-15)20(27)22-12-11-16-7-9-18(10-8-16)31(29,30)26-21(28)25-17-5-3-2-4-6-17/h7-10,13-14,17H,2-6,11-12H2,1H3,(H,22,27)(H2,25,26,28)
#inchikey ZJJXGWJIGJFDTL
#Ion_Source LC-ESI
#Instrument qTof
#Compound_Source Isolated
#PI Sirenas
#Data_Collector Ed Esquenazi 
#Scan -1
#Precursor_MZ 446.185
#ExactMass 0.0
#Charge 1
#CAS_Number N/A
#Pubmed_ID N/A
#Smiles N/A
#INCHI_AUX N/A
#Library_Class 3
#SpectrumID CCMSLIB00000006566
#IonMode Positive
#UpdateWorkflowName UPDATE-SINGLE-ANNOTATED-BRONZE
#LibraryQualityString Bronze
#TaskID d19310cd93df49b68e9fcbec27720eb5
##Scan# 14
#SpectrumFile Glipizide.mgf
#LibraryName fda_library.mgf
#MQScore -1
#Organism fda_library
#TIC_Query 0
#RT_Query -1
#MZErrorPPM -1
#SharedPeaks 0
#MassDiff 0
#LibMZ -1
#SpecMZ 446.185
#SpecCharge 0
#internalFilename spec-00000.mgf

>collision 10
100.112015 181.6185
103.053146 93.4104
120.056824 58.591839
121.04937 16.42857
121.10997 10.0498
139.04541 11.79594
166.117401 31.449011
167.016281 204.898605
202.051407 61.149391
203.106216 58.264648
240.986496 15.13611
285.921417 10.77083
286.065796 221.291794
298.860504 16.186729
303.096252 21.86722
304.072388 320.47049
304.360687 20.15362
304.557648 18.787041
319.246796 10.70525
320.877258 17.036039
321.067902 25.294941
321.099731 627.110596
321.157745 17.05192
321.351715 10.15686
322.347656 31.42857
337.985352 54.98687
347.083771 359.446198
359.772491 23.67063
381.776794 26.18561
405.104156 21.71859
997.266602 10.29643
