>compound FAMOTIDINE
>formula C8H15N7O2S3
>ionization [M+H]+
>parentmass 338.053345
#inchi InChI=1S/C8H15N7O2S3/c9-6(15-20(12,16)17)1-2-18-3-5-4-19-8(13-5)14-7(10)11/h4H,1-3H2,(H2,9,15)(H2,12,16,17)(H4,10,11,13,14)
#inchikey XUFQPHANEAPEMJ
#Ion_Source LC-ESI
#Instrument qTof
#Compound_Source Commercial
#PI Dorrestein
#Data_Collector Garg_Neha
#Scan -1
#Precursor_MZ 338.052
#ExactMass 337.045
#Charge 1
#CAS_Number N/A
#Pubmed_ID N/A
#Smiles NC(=N)Nc1nc(CSCCC(=N)NS(=O)(=O)N)cs1
#INCHI_AUX N/A
#Library_Class 1
#SpectrumID CCMSLIB00000079201
#IonMode Positive
#UpdateWorkflowName UPDATE-SINGLE-ANNOTATED-GOLD
#LibraryQualityString Gold
#TaskID 278b19f5865741e282cec7349aa7e7a1
##Scan# 946
#SpectrumFile NCP003592_G2_H11_BE3_01_15737.mzXML
#LibraryName NIHcollectionI_05062014.mgf
#MQScore -1
#Organism NIHcollectionI_05062014
#TIC_Query 0
#RT_Query -1
#MZErrorPPM -1
#SharedPeaks 0
#MassDiff 0
#LibMZ -1
#SpecMZ 338.052
#SpecCharge 0
#internalFilename spec-00000.mgf

>collision 10
50.86977 164.0
53.031521 152.0
57.465824 168.0
73.569496 140.0
79.500648 140.0
82.345512 240.0
82.359962 176.0
92.54982 168.0
99.938904 176.0
113.016541 620.0
114.022247 176.0
115.561897 164.0
118.182571 176.0
128.02507 168.0
129.715088 204.0
130.860077 152.0
133.016907 212.0
136.427856 252.0
138.010437 788.0
138.104446 140.0
139.041611 152.0
140.476883 152.0
147.005051 668.0
148.005829 168.0
150.810791 156.0
152.305435 152.0
155.039093 5696.0
156.038544 484.0
156.086685 140.0
156.970657 148.0
157.034866 332.0
157.054825 360.0
162.146942 184.0
168.095474 156.0
172.000824 164.0
174.005417 200.0
187.752106 164.0
187.989441 144.0
189.026794 18048.0
189.083817 132.0
189.918213 172.0
189.973083 200.0
190.026535 1400.0
190.799683 148.0
191.022217 704.0
191.253571 156.0
191.438034 176.0
191.611557 140.0
192.022278 140.0
193.37883 152.0
197.233902 188.0
200.036148 248.0
227.020645 144.0
235.916611 156.0
237.607086 176.0
242.051285 852.0
246.90625 148.0
249.131683 160.0
258.824432 172.0
258.981354 156.0
259.079559 15300.0
259.380524 112.0
260.080933 1588.0
261.075348 1620.0
261.879944 104.0
262.076355 176.0
267.112396 140.0
289.909851 140.0
313.499725 140.0
321.016846 112.0
323.025848 144.0
337.100281 152.0
337.266144 168.0
338.053345 2156.0
339.050964 256.0
340.036926 172.0
341.103882 176.0
342.049255 176.0
1076.384399 140.0
1284.127686 180.0
1504.672119 188.0
1512.804932 156.0
1701.13562 164.0
1770.429077 184.0
1813.91333 144.0
1846.344482 148.0
1979.093628 140.0
