>compound Terazosin
>formula C19H25N5O4 
>ionization [M+H]+
>parentmass 388.198669
#inchi InChI=1S/C19H25N5O4/c1-26-15-10-12-13(11-16(15)27-2)21-19(22-17(12)20)24-7-5-23(6-8-24)18(25)14-4-3-9-28-14/h10-11,14H,3-9H2,1-2H3,(H2,20,21,22)
#inchikey VCKUSRYTPJJLNI
#Ion_Source LC-ESI
#Instrument qTof
#Compound_Source Commercial
#PI Dorrestein
#Data_Collector Garg_Neha
#Scan -1
#Precursor_MZ 388.2
#ExactMass 387.191
#Charge 1
#CAS_Number N/A
#Pubmed_ID N/A
#Smiles N/A
#INCHI_AUX N/A
#Library_Class 1
#SpectrumID CCMSLIB00000077132
#IonMode Positive
#UpdateWorkflowName UPDATE-SINGLE-ANNOTATED-GOLD
#LibraryQualityString Gold
#TaskID 48f7f52fc6d249b5abbcc6e7b3df5969
##Scan# 1066
#SpectrumFile NCP003195_A2A7B2B6C2C6D2D6_BB6_01_15710.mzXML
#LibraryName NIH_Clinical_Collection_2.mgf
#MQScore -1
#Organism NIHcollection2_04212014_2_mgf
#TIC_Query 0
#RT_Query -1
#MZErrorPPM -1
#SharedPeaks 0
#MassDiff 0
#LibMZ -1
#SpecMZ 388.2
#SpecCharge 0
#internalFilename spec-00000.mgf

>collision 10
107.971916 212.0
116.070419 160.0
121.043449 220.0
142.088745 180.0
158.118225 152.0
165.067856 184.0
175.072662 140.0
185.041351 160.0
194.119644 156.0
203.08902 156.0
221.102173 428.0
222.106812 144.0
229.101898 176.0
231.069763 144.0
232.103104 140.0
233.10054 180.0
245.1091 232.0
247.119843 1404.0
248.119507 196.0
258.104889 176.0
272.045074 148.0
273.136719 232.0
274.122711 156.0
282.996002 176.0
287.186584 156.0
288.140839 328.0
290.160889 1584.0
291.16272 280.0
300.153351 164.0
313.124603 144.0
317.155945 188.0
319.46048 200.0
327.003357 176.0
347.028748 232.0
360.199554 168.0
363.02829 148.0
368.085571 196.0
369.056091 140.0
372.169128 124.0
386.254211 772.0
386.756927 676.0
386.994751 200.0
387.257843 128.0
387.450348 120.0
388.198669 6632.0
388.247711 416.0
388.34552 132.0
389.200958 1700.0
389.259491 216.0
389.770233 184.0
390.205719 520.0
390.251282 172.0
390.282745 144.0
390.310272 160.0
390.758636 192.0
391.206207 172.0
417.311066 176.0
447.321289 140.0
488.345612 152.0
500.983337 164.0
501.223938 148.0
591.415527 352.0
592.440796 144.0
603.429932 156.0
613.397705 148.0
614.394531 212.0
749.50415 244.0
751.513916 132.0
