>compound Posaconazole
>formula C37H42F2N8O4 
>ionization [M+H]+
>parentmass 701.33783
#inchi InChI=1S/C37H42F2N8O4/c1-3-35(26(2)48)47-36(49)46(25-42-47)31-7-5-29(6-8-31)43-14-16-44(17-15-43)30-9-11-32(12-10-30)50-20-27-19-37(51-21-27,22-45-24-40-23-41-45)33-13-4-28(38)18-34(33)39/h4-13,18,23-27,35,48H,3,14-17,19-22H2,1-2H3/t26-,27+,35-,37-/m0/s1
#inchikey RAGOYPUPXAKGKH
#Ion_Source LC-ESI
#Instrument qTof
#Compound_Source Isolated
#PI Sirenas
#Data_Collector Ed Esquenazi 
#Scan -1
#Precursor_MZ 701.34
#ExactMass 0.0
#Charge 1
#CAS_Number N/A
#Pubmed_ID N/A
#Smiles N/A
#INCHI_AUX N/A
#Library_Class 3
#SpectrumID CCMSLIB00000004733
#IonMode Positive
#UpdateWorkflowName UPDATE-SINGLE-ANNOTATED-BRONZE
#LibraryQualityString Bronze
#TaskID d19310cd93df49b68e9fcbec27720eb5
##Scan# 3
#SpectrumFile Posaconazole.mgf
#LibraryName fda_library.mgf
#MQScore -1
#Organism fda_library
#TIC_Query 0
#RT_Query -1
#MZErrorPPM -1
#SharedPeaks 0
#MassDiff 0
#LibMZ -1
#SpecMZ 701.34
#SpecCharge 0
#internalFilename spec-00000.mgf

>collision 10
105.067909 31.333731
106.068871 25.37306
108.054817 32.840519
115.03476 14.67302
118.065758 54.188461
118.682541 5.35307
119.073997 533.914795
119.396126 13.67857
120.040611 55.15601
120.321472 12.90705
121.050636 125.6698
121.082352 4.055556
121.762665 10.20833
122.059113 177.662506
122.194916 17.01708
126.371796 5.522727
126.559456 37.34407
126.586945 10.46377
126.904182 13.07716
127.034958 2424.103027
127.08683 189.095993
127.135513 9.698232
127.149742 19.610121
127.186569 6.480072
127.225685 5.001984
127.26107 11.7787
127.323967 20.713181
127.376022 3.125
127.419716 7.382936
127.484863 14.01603
128.05957 71.746078
129.519852 16.799999
131.082657 36.497749
131.399887 1.777778
132.080917 146.7099
132.29921 8.779761
132.81076 16.001129
133.053131 49.11153
134.062668 59.51804
134.286682 6.371212
134.359604 4.791667
135.06691 724.316284
135.094116 55.099609
135.698654 19.26235
136.167313 4.008333
138.099472 30.98333
139.032715 65.299477
141.016174 295.951599
141.04422 24.33333
141.052567 101.7687
141.115402 1.666667
141.148468 5.480072
141.255951 10.05128
141.277771 2.893518
141.389618 5.347222
142.775375 11.41667
143.029083 176.686707
143.089386 3.0
144.079102 86.982674
144.08696 14.46759
145.064987 70.235207
145.092819 230.917099
145.412521 11.15705
146.059204 832.545593
146.095169 245.593597
146.131546 1.708333
146.185394 17.340691
146.261169 7.354167
146.273865 11.06586
146.303238 7.428572
146.381866 12.815
146.505295 2.680556
146.921906 4.4
147.0802 113.746696
147.217819 13.37281
147.304337 4.75
147.695724 19.259609
148.074173 1536.644043
148.14122 5.029167
148.164825 13.42937
148.198715 21.86833
148.21199 15.03354
148.223038 25.66671
148.404678 20.45343
148.639771 15.31127
148.894073 13.70127
150.090866 277.970215
150.174561 2.336539
150.609802 8.507184
151.032578 8.711957
152.630417 28.36474
153.049332 305.141296
155.02739 254.7798
155.082642 1.6875
156.077713 42.82843
157.086121 109.971603
157.689667 54.015331
158.055481 13.39919
159.880432 6.728535
160.084793 710.67688
160.126419 2.782408
160.426376 14.4
160.439575 9.001437
161.069962 41.831139
161.556625 4.898148
162.052444 57.052292
162.668137 10.74074
163.067612 37.707661
163.081604 20.63456
163.392181 8.342054
164.043686 109.567299
164.078888 151.9254
164.117828 4.025
164.413132 4.669445
164.789261 4.583333
165.659012 10.33333
166.052292 87.000366
166.066452 9.698232
166.125015 2.666667
166.250595 5.008333
167.066681 57.74123
167.226151 3.703704
168.027405 25.05208
169.088882 48.746269
170.018494 12.32018
170.057526 72.634399
170.097641 287.070587
170.262344 12.87083
170.454193 5.787037
170.639206 2.666667
170.657379 2.683333
170.848892 9.556818
171.063492 256.504303
172.076309 574.868103
172.112015 232.363098
172.137573 4.013889
172.160416 15.72794
173.085129 285.950409
173.178513 8.818182
174.064468 20.00144
174.091278 840.449585
174.119659 9.03858
174.266571 5.333333
174.407822 6.857143
174.417999 2.027778
174.442108 6.333333
174.867645 9.261905
175.105057 37.469891
175.532013 6.98077
175.820801 3.640152
176.109329 72.629219
178.166779 9.967105
179.067764 424.265503
179.527344 7.520833
180.260147 14.97364
181.042084 41.768761
181.056229 97.681549
181.081894 576.343628
181.115845 2.008333
181.143768 2.695513
181.319885 6.177083
181.341019 11.7963
181.384399 5.136111
181.518585 6.173611
182.09639 13.09722
183.609421 9.482142
184.0737 137.884796
184.10936 14.46833
184.16629 3.053571
184.412582 5.522727
184.601578 9.75
185.081406 83.747253
185.116653 17.377451
185.391769 3.0
186.092392 419.339813
186.119141 62.206619
186.150421 5.378623
186.213852 5.761364
186.292831 15.71605
186.444824 13.76344
187.058945 24.176889
187.56337 18.406401
188.106674 214.355606
188.149292 4.336538
188.990082 13.66764
189.079041 265.834991
189.114441 89.855713
190.121063 133.9552
191.064743 612.12793
191.812698 5.334877
193.078583 22.91667
194.98642 6.403736
195.060226 233.294601
195.09819 1.694445
195.414139 11.0346
197.056488 25.363741
197.081604 408.538696
197.116562 170.770798
197.181122 2.4
197.657608 6.674242
198.366074 3.708333
199.097473 243.508896
199.157089 3.0
199.220016 6.027778
199.379532 5.964285
199.428818 7.653986
199.467636 10.51096
199.512543 4.560185
199.535248 12.00556
199.569702 3.0
199.820419 12.66752
200.068069 30.89389
200.107941 227.721802
200.126785 30.518681
200.39621 8.024224
200.586823 3.266667
200.684769 18.546881
201.056671 6.686274
201.080215 37.615528
201.108505 92.113892
201.343689 3.703704
201.802246 10.38021
201.837036 16.56818
201.9505 17.00926
202.090363 75.151237
202.118805 34.0
203.091019 1162.343994
203.153641 2.00463
203.181305 7.428572
203.269302 3.640152
203.29747 10.01894
203.312637 13.15648
203.347076 11.33333
203.431412 6.0625
203.446304 19.696301
203.589386 10.04762
203.790451 6.720238
203.838058 48.245041
203.869461 4.844298
207.235458 8.45
207.861465 4.340278
208.003082 13.63636
208.88092 19.521799
209.076096 1345.255981
209.137375 1.720238
209.152481 14.75833
209.167587 2.0
209.204391 12.60417
209.269089 8.481482
209.323593 5.422101
209.358078 6.6875
209.486816 8.506945
209.726471 4.003788
210.120071 2.816667
210.270905 3.727941
210.46283 13.04688
210.681564 4.761905
211.883224 5.422101
212.106186 14.69345
213.118729 57.303028
214.119904 121.271698
215.09259 203.276703
215.396866 6.344048
216.100616 274.037689
216.137329 41.590401
216.178711 4.0
216.272156 7.935
218.081497 45.844589
218.545135 7.481667
219.82576 4.844298
223.085617 20.627451
224.063522 73.305077
224.335022 6.037281
225.114243 119.2892
225.629227 14.31373
225.651154 4.335526
227.090347 21.02206
228.077103 3.333333
228.755325 11.67222
229.106812 308.914886
229.450424 11.13636
229.571655 3.345238
230.151657 2.008333
232.116089 31.704399
234.080734 47.55843
236.118958 51.06282
238.24263 9.75
241.109909 30.646509
241.804276 7.300438
242.099182 107.043404
242.123123 58.838379
243.122833 101.333504
244.117828 150.374496
244.160034 3.002451
244.257996 4.844298
244.290527 11.33402
245.143082 19.59572
248.101898 43.160629
250.099716 27.23144
253.394012 6.481482
253.566025 3.041667
254.132401 80.290733
254.347916 6.335318
255.091995 10.36687
255.126709 111.069199
255.709061 4.763889
257.137939 149.7892
257.174225 4.009259
257.421692 16.07626
257.56369 14.07419
257.592804 10.3373
257.737335 7.120098
258.066437 48.068329
258.102234 24.535709
258.643585 9.091216
260.093719 48.100052
261.12677 52.481201
264.093811 11.34259
266.814117 6.049603
269.565735 4.680556
270.070221 16.818939
270.127716 58.544498
271.152924 1272.436035
271.37381 4.054824
271.47699 3.668651
271.576843 17.619049
271.677643 8.334596
271.729248 7.088889
271.835266 23.506651
271.975891 13.64477
272.088837 56.252991
273.19928 6.444445
274.823273 12.01708
275.262482 3.185606
276.134796 33.945839
276.472626 10.46558
276.527161 4.362179
276.695374 7.347222
276.764862 11.04167
277.092041 6.875
278.110535 2723.053955
278.178528 8.909483
278.240112 21.2803
278.28775 1.741667
278.312317 4.025
278.346985 8.336538
278.41272 17.84058
278.46283 4.025
278.526978 12.82315
278.567322 5.694445
278.724152 16.366791
278.78421 29.359119
278.812469 48.680561
278.950684 14.68883
279.043671 16.418171
279.130981 18.352989
279.189026 20.02206
279.204437 4.013889
279.366364 14.06519
279.706543 3.080128
279.886932 13.12
280.026642 4.061275
280.335266 7.058333
280.498383 14.83627
281.101044 26.408541
282.425232 3.053571
283.153534 463.168396
283.489471 6.068182
283.565796 2.083333
283.97699 9.259408
285.09433 73.668671
285.17038 92.261307
285.866699 3.358333
289.163055 99.329437
292.171814 22.173519
293.1315 41.259289
293.370728 10.70833
293.850586 8.676282
294.303986 7.004167
295.074554 22.39715
295.132324 117.359001
296.103302 126.1371
296.131622 63.83239
296.168396 4.157052
296.41452 11.35088
297.171051 384.59549
297.387177 9.094697
297.457825 10.7815
297.505615 4.008333
297.811584 5.727941
297.854126 18.67778
298.159485 26.72464
298.52652 1.694445
299.338593 8.702381
299.471008 3.402778
299.495361 8.022223
300.116089 9.866667
300.266205 5.088768
301.161346 38.328121
302.088837 22.54427
302.171936 64.036247
303.815247 9.388888
304.149139 37.032551
306.147369 58.158161
308.118256 88.81485
308.164124 23.334591
308.196228 2.720238
309.42569 4.694444
310.069153 4.225
310.130341 26.172029
310.164581 68.882149
310.383362 5.136111
310.507874 9.531863
310.709412 8.132576
310.865479 7.351191
311.103516 37.11153
312.180359 78.933357
312.652679 7.454545
312.70459 5.510417
312.757507 22.014151
312.874298 7.938889
313.124603 34.994148
313.725433 4.083333
313.881592 5.875
314.135193 184.705704
314.191528 8.844298
314.439392 13.76872
314.490417 13.7219
314.828522 3.080128
314.876678 6.166667
314.896057 9.561992
315.043671 33.11594
315.182251 24.89547
316.116669 113.714104
316.183319 33.36805
316.422729 6.449713
318.102051 5.522727
318.567841 5.939394
319.132812 11.32003
320.103058 3.678571
320.513977 4.333333
321.074768 8.341311
322.073395 39.71468
322.143188 70.785217
322.169189 119.235497
322.329041 5.358334
323.166931 152.490097
324.117432 300.5112
324.537506 3.028846
324.606476 24.286551
326.134583 404.541595
326.251831 14.22222
326.333008 11.26667
326.363831 2.0
326.458099 7.843137
326.80899 3.852273
326.867126 8.789634
326.921509 3.266667
328.112885 72.914879
328.155396 23.10317
330.076385 9.429762
330.127991 306.381195
330.657806 12.08681
332.135651 107.131104
333.161591 15.25
334.128662 9.223765
335.135284 88.108711
336.043182 8.75
336.142639 115.998703
336.189758 40.599998
336.299011 5.727941
336.492462 2.741667
337.151062 320.013489
337.301544 14.71605
338.159607 667.246399
338.228607 3.002778
338.282227 10.64651
338.365143 4.013889
338.409332 25.053631
338.452576 8.668011
338.593414 7.67803
338.715027 8.004386
338.759796 8.17385
338.855927 6.805555
339.168884 59.130489
339.297943 6.675
339.818451 3.75
340.867615 3.408334
341.130707 20.559521
341.96347 17.135071
342.097534 21.388161
342.128723 206.207001
342.174774 19.41667
342.242432 11.04167
342.297516 30.16964
342.309998 7.333333
342.364716 4.458333
342.392639 8.482142
342.554749 16.625
342.572937 28.69602
343.139038 167.561798
343.340576 5.133333
344.144653 2862.334961
344.214996 4.625
344.250092 14.04748
344.297729 21.323271
344.344116 29.041349
344.40506 20.66721
344.445587 14.15821
344.475464 26.84919
344.52771 36.30489
344.560394 61.548279
344.582642 9.458334
344.637512 12.43622
344.68399 9.208333
344.703339 8.525
345.167297 7.716667
345.277496 24.925619
345.440735 11.74359
346.166504 27.17193
346.531464 4.823718
347.147125 70.681763
347.187286 2.341667
347.238647 14.00439
348.185791 6.696428
348.991211 18.700001
349.153687 12.79839
350.077393 6.75
350.122955 16.700821
350.160889 502.790192
350.240143 8.086538
350.460114 12.48611
351.047913 4.333333
351.393463 7.125
351.715881 8.881667
352.180634 42.767448
352.50296 13.35376
352.542145 5.415
353.125519 29.455641
353.147766 66.060608
354.177063 12.3343
355.04071 6.932018
356.150055 104.495499
357.043915 9.142858
358.166443 81.956558
359.221741 19.02899
360.863892 15.44231
361.163147 74.229362
362.169037 68.125771
363.213074 36.015961
363.256897 2.020833
363.92572 5.413462
364.175232 72.84655
364.391235 16.755119
367.128326 69.358231
367.745819 7.486111
367.805878 12.5744
367.939331 5.734848
368.241821 20.16667
368.354156 7.736111
368.401489 11.78241
368.455292 32.039219
368.79361 8.291667
368.834076 6.0625
370.086121 4.518939
370.162781 2011.483032
370.212982 2.013889
370.23996 8.008334
370.278931 16.86779
370.372559 27.765409
370.435699 27.386709
370.494781 9.053572
370.525482 35.095901
370.573608 5.844298
370.619995 17.33452
370.673126 5.672619
370.76413 1.791667
370.845154 22.635981
370.898834 22.255051
370.99585 32.66235
371.464478 13.34167
371.571747 15.45276
372.378571 5.041667
372.444885 11.85965
373.963806 12.6
374.1521 75.703133
374.925476 2.733333
375.172455 42.66774
375.626465 5.76923
376.105652 23.430559
376.182007 66.825142
376.958435 5.054487
378.188416 71.441551
378.446716 5.791667
379.019196 7.347222
379.167511 37.613651
380.734283 5.690476
381.150208 35.354481
382.38205 33.391129
385.186646 12.05235
386.158936 18.48188
388.17511 50.708328
388.235168 3.083333
389.222473 104.535202
389.404022 6.75
390.186401 99.437187
390.22937 146.6315
391.563873 3.926282
392.208435 137.036407
394.12088 3.722222
394.15451 29.299629
395.167938 196.7229
395.322662 12.28409
395.586304 8.601191
398.164459 11.64031
399.166992 233.726196
399.450562 3.675
399.764954 3.444444
400.210327 33.240589
401.182892 6.755556
402.183502 34.027779
402.229767 103.814201
402.619568 10.88021
402.860138 23.775459
402.982635 3.010417
403.289978 7.429762
403.381348 6.069445
403.526886 5.391026
403.814148 4.025
403.835449 31.88945
403.902191 61.077991
403.953979 2.003788
404.002167 8.783334
404.209534 190.335205
404.464539 7.116379
405.05249 3.047619
405.151031 84.02478
405.213806 1032.449951
405.289398 72.147476
405.346588 20.22386
405.504181 21.89015
405.540527 13.23148
405.595612 64.42955
405.698761 36.953529
405.745789 3.683333
405.865753 15.70249
405.945404 15.54573
406.068054 4.337963
406.125732 13.29825
406.222717 1062.630005
406.420105 16.627029
406.45462 27.73979
406.525818 17.002689
406.62323 14.21212
407.146454 9.260417
407.506287 17.597219
407.678802 9.666667
407.850922 4.669117
408.265533 2.003788
409.137482 16.00915
409.186951 22.335711
409.876831 6.435897
411.16217 9.185606
412.168488 157.701096
412.212982 27.11525
412.253815 2.722222
412.939209 21.013889
413.178497 436.563385
413.512085 4.673611
415.78064 12.64405
415.914124 17.10688
416.569702 16.905609
417.461884 19.478411
418.223633 721.8172
418.286804 11.00278
418.585236 14.36694
418.649658 7.088768
418.685242 14.28833
419.00058 8.680555
419.152069 13.51042
419.314636 27.0744
419.540222 10.7815
420.239746 176.844894
420.355042 31.465071
420.495483 4.844298
420.791473 7.125
421.034943 10.98732
421.183594 278.707611
421.318115 5.222222
421.880005 12.34259
422.016418 19.662979
422.210663 51.175701
422.452637 28.9394
422.488068 9.00119
422.645721 7.958333
423.222443 1017.958984
423.27951 4.482143
423.310791 2.333333
423.325104 2.016667
423.361481 41.003151
423.575653 12.35459
424.320618 6.366936
424.585815 11.3555
424.736359 18.345591
424.806549 12.44079
424.856628 19.1766
425.175385 480.736908
425.447144 8.45
425.624786 24.696911
425.85556 20.48485
426.401398 6.71627
426.674377 7.361111
428.240814 66.694443
429.201538 16.760099
430.211243 18.911619
430.535034 8.336111
430.593597 27.0
431.532135 7.680555
432.20697 49.95591
432.240021 11.82372
435.63208 24.190399
436.228729 38.926048
436.957916 29.317551
437.667969 18.765869
437.798126 21.39558
438.175995 33.067219
439.190216 209.491196
439.232452 97.693283
439.277008 23.674419
439.430084 9.667857
439.641571 13.08232
439.67807 4.416667
439.802094 7.2
440.002594 13.30069
440.057495 4.342593
442.228546 50.572689
442.263062 16.946699
443.017181 11.49359
443.22641 64.806923
443.35498 6.068182
444.205811 46.1008
444.238342 188.455307
444.57666 3.1875
444.659821 7.00119
444.902527 3.125
444.997314 6.033602
445.040985 14.73684
445.768219 1.671296
446.166534 14.29876
446.252991 54.707661
447.181793 9.8
449.191101 26.81918
449.820984 2.083333
454.625854 2.683333
454.913483 43.387249
455.169495 22.165079
455.220367 18.33333
455.256561 6.33477
455.524567 14.38782
456.196167 12.79704
456.245819 105.698196
457.463806 8.66793
458.031189 24.981741
458.210999 15.6413
458.279724 7.446428
458.886108 9.096429
459.214081 15.70588
459.28186 16.14286
460.271332 57.866531
462.216125 126.108902
462.246246 71.795853
462.440369 7.033333
463.098846 6.666667
465.114899 2.678571
469.240753 70.190857
469.642517 11.67465
469.996948 5.33477
470.721252 11.07018
470.842041 4.734848
473.20993 42.320648
474.161774 4.335784
474.198486 32.333721
475.247894 19.060511
476.202515 16.410521
485.210693 69.453438
487.184509 13.06667
488.213593 31.722281
496.346039 5.088768
497.206726 2.003788
498.206604 86.478668
499.186401 33.744049
500.042542 6.98077
500.229004 19.4
501.203033 45.866669
501.236542 16.97543
502.208069 62.365452
503.209686 279.03479
503.439697 4.416667
504.04718 5.963235
504.223663 60.222698
504.283081 6.00119
504.375275 7.5
504.916077 12.67
508.023956 16.8179
508.086975 4.022059
508.188934 8.721847
510.207275 24.66135
513.201416 45.827332
516.221741 288.674011
516.385498 4.166667
524.082886 68.012833
524.224731 21.08654
526.203125 3.727941
527.20459 49.26767
528.217346 501.371887
528.341431 6.747549
528.60791 9.38313
528.975891 5.358974
529.039917 10.03571
531.215088 31.466551
531.353271 4.259615
533.099854 7.382936
540.495728 9.007978
541.128784 17.26844
541.701477 10.14982
542.234192 137.428894
542.503357 7.102273
542.639465 2.14881
542.726257 6.333333
542.924805 3.708333
543.0401 32.835529
543.143982 14.44444
543.257202 4.66821
543.963806 25.024019
544.215027 364.175995
544.286133 16.442209
544.904785 10.65878
545.66272 7.533333
545.84198 3.760417
546.085327 119.993698
546.178528 29.054489
546.231445 4236.787109
546.336853 32.601921
546.389099 49.60136
546.431274 15.44907
546.464844 42.15313
546.524597 92.191406
546.554138 18.015169
546.59491 4.763889
546.656372 101.255203
546.716736 17.44537
546.764954 32.8293
546.80835 62.967232
547.121765 12.11574
547.181213 22.26667
547.496094 18.42663
547.747314 34.53421
548.47522 20.04891
548.670898 6.705246
548.850342 22.353609
549.057861 14.12775
549.812866 7.347222
550.172607 3.555556
551.545776 3.444444
552.7276 5.564815
554.222229 33.347221
554.261658 12.0
555.224243 31.791611
557.248108 39.367989
558.240051 254.006195
558.747559 6.8
564.262939 9.0
564.817566 2.816667
566.276001 149.906998
566.372192 4.35307
566.498169 27.06229
566.537781 2.683333
566.651855 9.053572
567.254883 43.41296
568.593994 6.061274
568.908447 5.366667
569.293335 59.503948
569.481262 5.025641
569.900391 26.51557
569.962769 6.340278
570.195374 4.0
570.818542 5.001984
572.252747 398.818512
572.604675 8.636111
572.998657 4.337963
573.490784 22.45365
573.573059 3.926282
574.239746 10.07407
578.271545 354.076294
578.490906 17.160721
579.185608 5.408333
579.551636 5.518939
579.982422 3.083333
580.179199 12.81517
580.802429 10.42222
580.903198 7.67803
581.045837 2.347222
581.22937 58.637081
583.274292 45.710281
584.208008 35.334259
584.284485 604.874084
584.522705 3.66886
584.669861 2.166667
584.93512 3.125
585.523987 4.763889
587.057617 4.898148
587.301025 12.70525
589.260986 8.966954
593.617981 10.37255
593.879089 13.38081
594.218201 7.486111
595.261292 60.694069
595.329651 2.683333
595.975159 3.125
596.23291 36.543041
596.279907 1115.588013
596.416687 23.699409
596.467651 28.130171
596.561707 14.16667
596.614502 16.178671
596.663086 10.33452
596.790527 14.97222
597.042542 16.48765
597.13739 39.219582
597.190063 11.69231
597.2547 411.753387
597.979553 3.518939
598.364014 12.7998
598.533936 9.240196
598.687256 2.005952
598.772339 14.12354
598.900085 6.088768
599.23053 916.076172
599.479126 4.50463
599.583496 10.37255
599.683594 6.755556
599.719421 18.20833
599.843628 50.09676
600.187744 22.885599
600.272278 32.862431
600.314209 20.00952
600.437744 4.666667
600.491821 11.37157
601.064514 3.342592
602.288696 109.550598
602.745911 7.2
603.326782 4.694444
606.243958 8.711957
608.464722 2.005952
608.499084 4.0
609.250793 25.72575
609.863159 8.36218
610.053345 3.375
610.096619 9.228832
610.134277 13.92391
610.182251 9.150001
610.249878 45.493851
610.306946 44.956161
610.390076 32.80077
610.468262 40.265362
610.532959 28.2906
610.575195 28.174999
610.723694 6.444445
610.837158 6.075
610.913818 27.24078
610.94751 3.125
611.162354 16.29657
611.195923 44.819031
611.277405 116.146896
611.368591 18.089149
611.611511 8.815
611.944275 6.347222
611.979614 8.776316
612.151672 16.028971
612.479126 49.589779
612.564941 6.805555
612.599426 8.240196
612.809814 15.5627
612.94397 22.63452
613.021362 3.358333
613.251953 89.818642
613.307373 37.682468
613.348572 3.333333
614.024109 91.823013
614.19928 14.96667
614.294434 10018.969727
614.40979 18.792549
614.454895 36.192291
614.559204 118.331596
614.62207 146.379303
614.664185 139.996307
614.744751 60.800812
614.803955 36.82122
614.845764 82.323677
614.928101 168.368607
615.052246 82.902031
615.140442 47.079708
615.267822 3728.343018
615.378601 138.810806
615.491028 57.98661
615.526794 92.187813
615.745605 97.487556
615.780762 9.022223
615.846313 104.549797
616.67041 31.336769
616.787109 25.448721
616.864563 27.84705
616.990051 17.57143
617.586365 4.336538
617.690125 25.52174
618.26178 6.695513
618.403442 7.967105
618.96405 10.11111
619.117554 3.375
620.24408 5.231482
620.711731 8.022223
621.104675 5.136111
621.543579 5.083333
623.266907 64.504028
626.228088 2.816667
627.264954 72.983543
627.315979 5.480072
627.830139 15.79839
628.065491 5.015
629.155579 6.219203
629.825317 23.566669
630.076599 18.628269
630.284546 37.421791
632.302063 1921.149048
632.471375 8.701437
632.511841 9.74359
632.558411 36.2188
632.651001 7.378623
632.762085 36.258171
632.863647 28.877911
632.913147 6.916667
632.963928 29.283251
633.085876 10.34722
633.125244 53.099602
633.219971 7.333333
633.396118 48.778461
633.438843 11.67029
633.495117 7.761905
633.824158 6.033602
634.143005 20.737419
635.621765 4.157052
635.699829 11.02671
635.88623 8.023076
635.961731 3.027778
636.243774 7.880051
637.27533 1.708333
638.310913 19.24107
639.556274 6.69697
640.307739 20.013889
640.859009 6.791667
641.278442 273.679199
641.329102 32.344528
641.889832 3.695513
641.95752 6.518939
642.013245 8.010135
642.048828 9.708333
649.111023 5.088768
652.852295 2.166667
653.305786 22.78676
653.425903 8.4375
654.334106 32.333839
656.314026 103.439903
656.643677 6.884804
660.317261 34.15432
660.931824 17.414539
660.985535 11.1131
661.035583 22.000561
661.104797 7.160257
661.283447 9.560484
662.214539 5.415
663.314148 24.240391
663.425842 22.6688
665.31488 1318.619995
665.429749 16.16284
665.492676 29.44227
665.599915 13.66865
665.666382 19.125
665.732605 36.574471
665.805298 28.46084
665.900146 27.4312
665.984192 48.133541
666.353027 4.854167
666.518616 3.010417
666.785095 10.89583
667.111511 11.66667
667.201416 15.54355
669.674988 12.44983
670.530334 15.2663
672.23407 9.534524
672.83374 3.666667
678.612427 50.542271
678.680603 15.09894
678.729004 2.25
678.793945 44.098309
678.822815 26.098619
678.880493 61.546928
678.951965 64.680923
679.036072 32.133339
679.079468 20.33279
679.140808 121.913597
679.206421 5.394608
679.224915 5.35
679.272522 7.111111
679.414734 1.666667
679.478394 2.333333
679.73938 49.05579
679.929321 3.708333
680.095154 12.82498
680.32312 23.35417
680.461426 39.418739
680.539734 3.666667
681.020813 23.13921
681.063049 8.280303
681.184265 6.468334
681.3125 82.70903
681.402222 18.457701
681.595337 13.4
682.154358 24.14817
682.728699 6.333333
682.791992 2.027778
682.901428 17.33333
683.083252 10.74167
683.238892 34.226849
683.327393 19258.089844
683.437134 58.048229
683.536133 170.358002
683.57489 215.400497
683.617126 141.922607
683.703613 118.244904
683.759521 113.7724
683.816895 96.063698
683.880859 103.058296
683.936646 62.490829
683.998291 99.221733
684.154114 78.645287
684.237183 119.789001
684.476135 67.600441
684.705994 121.383797
684.790222 51.048771
684.85199 84.335289
684.911621 67.745667
685.099487 44.125751
685.391052 6.680556
686.060974 19.06176
686.141663 8.740741
686.207581 10.11607
686.310303 5.25
686.67041 22.338329
686.781433 14.10206
686.85968 33.663891
686.94397 19.285311
687.381653 10.90705
687.500671 8.388441
687.619751 15.61162
688.075073 3.335526
688.222107 16.32222
688.32135 4.668651
688.66864 15.37346
689.727661 2.666667
690.424988 9.0
693.295532 2.367424
693.453247 29.844339
696.532715 30.582979
696.661499 24.924419
696.732605 9.481837
696.777222 66.158508
696.870422 122.970703
696.941467 67.167717
697.115051 122.310997
697.217834 70.049812
697.320129 26.191231
697.386841 5.801667
697.559326 57.706501
697.691772 5.59375
697.844604 43.14109
697.982605 10.59038
698.323425 26.983141
698.435059 20.752781
698.600708 41.04615
698.653137 24.24675
699.002625 13.24405
699.307129 55.550251
699.356995 11.09643
699.571777 23.06818
700.477112 10.45581
700.836243 2.683333
700.891541 6.674242
701.243347 52.042751
701.33783 19415.470703
701.454285 301.835602
701.526001 29.731211
701.584595 31.49781
701.647522 232.259201
701.714661 27.487341
701.76001 85.063133
701.804993 201.295395
701.860291 169.242096
701.907654 145.833405
701.97168 67.240067
702.02063 40.956669
702.086548 121.160301
702.238098 181.522995
702.276245 116.042297
702.556335 145.947098
702.679443 14.62963
703.150452 81.335823
703.40918 3.402778
703.495117 22.773439
703.547424 28.799601
703.966431 14.70833
704.202148 22.720341
704.381592 46.082569
704.60791 7.401515
704.718018 26.74423
705.062988 5.002778
705.43634 21.30658
705.53186 1.6875
706.299011 2.041667
707.011108 6.668011
707.307434 7.291667
707.362671 3.080128
707.917908 8.144493
708.140076 5.721491
710.261658 7.789216
712.064636 12.04167
716.693665 7.468334
723.921143 5.414216
729.104065 5.813406
729.691345 12.45833
729.889709 6.633772
731.049927 6.201666
731.877869 7.002193
737.819092 7.344697
743.993103 1.777778
1046.432251 7.560484
1272.600952 7.335145
1384.65979 9.335318
1403.65271 8.815476
