>compound MLS002154033-01!Roxithromycin80214-83-1
>formula C41H76N2O15
>ionization [M+Na]+
>parentmass 859.512878
#inchi InChI=1S/C41H76N2O15/c1-15-29-41(10,49)34(45)24(4)31(42-53-21-52-17-16-50-13)22(2)19-39(8,48)36(58-38-32(44)28(43(11)12)18-23(3)54-38)25(5)33(26(6)37(47)56-29)57-30-20-40(9,51-14)35(46)27(7)55-30/h22-30,32-36,38,44-46,48-49H,15-21H2,1-14H3/t22?,23?,24?,25?,26?,27?,28?,29?,30?,32?,33?,34?,35?,36?,38-,39+,40+,41+/m0/s1
#inchikey RXZBMPWDPOLZGW
#Ion_Source LC-ESI
#Instrument qTof
#Compound_Source NIH Pharmacologically Active Library
#PI Dorrestein
#Data_Collector VP/LMS
#Scan -1
#Precursor_MZ 859.525
#ExactMass 836.525
#Charge 1
#CAS_Number N/A
#Pubmed_ID N/A
#Smiles CCC1OC(=O)C(C)C(OC2C[C@@](C)(OC)C(O)C(C)O2)C(C)C(O[C@@H]3OC(C)CC(C3O)N(C)C)[C@](C)(O)CC(C)C(=NOCOCCOC)C(C)C(O)[C@]1(C)O
#INCHI_AUX N/A
#Library_Class 1
#SpectrumID CCMSLIB00000085633
#IonMode Positive
#UpdateWorkflowName UPDATE-SINGLE-ANNOTATED-GOLD
#LibraryQualityString Gold
#TaskID d252d724072548979f1f6f1ced849daf
##Scan# 1818
#SpectrumFile p4-D07_GD7_01_18367.mzXML
#LibraryName Pharm_Active_Library.mgf
#MQScore -1
#Organism Pharm_Active_Library
#TIC_Query 0
#RT_Query -1
#MZErrorPPM -1
#SharedPeaks 0
#MassDiff 0
#LibMZ -1
#SpecMZ 859.525
#SpecCharge 0
#internalFilename spec-00000.mgf

>collision 10
47.062176 152.0
48.734364 104.0
49.680958 124.0
50.638077 272.0
52.167755 208.0
52.874535 168.0
53.122303 52.0
53.961163 220.0
56.295933 84.0
58.794552 164.0
61.064026 160.0
61.406673 88.0
61.512775 148.0
62.145039 92.0
64.322746 72.0
65.189224 128.0
69.018661 60.0
70.955086 164.0
71.376518 100.0
71.676147 144.0
73.020309 128.0
73.946739 132.0
74.478264 160.0
76.082512 72.0
78.141335 100.0
84.095322 124.0
84.442467 152.0
86.588486 60.0
87.762932 128.0
90.407875 60.0
92.911652 200.0
94.189888 56.0
94.748955 228.0
98.092758 48.0
98.920448 76.0
100.077888 192.0
100.320946 168.0
100.418655 216.0
103.878448 164.0
106.074677 148.0
108.053749 180.0
108.099266 72.0
108.986763 256.0
109.02832 148.0
111.870911 84.0
113.803276 144.0
114.869507 108.0
115.283707 136.0
116.07193 436.0
116.105484 176.0
116.305313 88.0
117.810524 56.0
119.13633 124.0
120.079109 232.0
123.036819 112.0
124.418274 204.0
125.020638 352.0
125.642303 120.0
133.937912 180.0
134.046204 160.0
134.064636 128.0
134.31134 48.0
136.309326 176.0
136.469711 132.0
136.879227 96.0
137.05394 188.0
138.088577 236.0
138.270584 92.0
138.912582 148.0
139.140228 124.0
140.083252 196.0
141.263565 68.0
142.867218 96.0
143.469727 124.0
143.49118 108.0
144.152359 84.0
147.058319 124.0
148.316055 116.0
149.506149 136.0
149.769104 140.0
150.449448 132.0
152.041946 160.0
153.05571 152.0
153.454865 44.0
155.547791 112.0
156.400391 40.0
156.943481 136.0
157.320206 96.0
158.116135 364.0
159.756058 44.0
161.147705 212.0
164.901077 80.0
165.087585 184.0
165.159317 72.0
167.075546 204.0
174.088577 160.0
176.103622 452.0
177.084579 184.0
179.095215 172.0
180.103012 144.0
181.087921 244.0
181.120758 136.0
182.090836 160.0
182.125748 180.0
182.30307 152.0
182.636444 112.0
183.048203 176.0
184.835175 176.0
185.333405 104.0
186.291107 184.0
188.435165 164.0
189.121552 176.0
189.337845 52.0
189.866776 108.0
190.069778 180.0
191.554398 36.0
192.095871 112.0
192.130554 200.0
193.082993 212.0
193.141602 120.0
194.10994 168.0
195.015976 188.0
195.096588 188.0
196.051285 128.0
196.097748 548.0
197.074066 152.0
197.108902 120.0
197.234665 136.0
197.366074 216.0
197.477936 56.0
198.026505 224.0
198.109177 352.0
198.292679 80.0
199.078201 144.0
199.097855 440.0
199.196167 72.0
199.510895 64.0
200.10318 208.0
202.187729 44.0
203.176636 32.0
206.155426 24.0
207.138275 416.0
207.942017 196.0
208.134354 172.0
209.071487 40.0
209.264343 20.0
209.319046 40.0
209.491867 168.0
210.094162 168.0
210.102066 156.0
210.371414 140.0
211.093582 812.0
212.098755 144.0
212.878784 176.0
212.977539 152.0
213.215775 36.0
216.044144 120.0
216.141266 184.0
217.268707 76.0
218.1409 156.0
219.134888 160.0
219.639725 88.0
221.268005 84.0
222.12149 196.0
222.293564 140.0
223.086044 176.0
224.587357 136.0
225.492035 88.0
228.168869 192.0
229.252457 156.0
233.846802 92.0
234.142075 128.0
234.40715 156.0
234.89801 152.0
235.147293 208.0
235.325272 76.0
235.404663 32.0
236.110596 124.0
236.15036 140.0
236.284958 112.0
236.382858 124.0
236.584869 80.0
237.157684 132.0
237.942993 92.0
238.144638 316.0
238.271606 132.0
238.32692 100.0
238.606598 100.0
239.088806 600.0
239.130615 264.0
239.446655 128.0
239.674622 184.0
239.853363 64.0
240.095444 140.0
241.098389 164.0
244.1633 160.0
246.182281 244.0
246.914032 200.0
247.167908 128.0
249.699036 124.0
250.114349 200.0
251.122696 176.0
251.848572 192.0
251.876999 76.0
252.822357 148.0
253.140137 220.0
253.747284 188.0
254.12471 148.0
254.150085 128.0
254.664368 140.0
255.106049 152.0
255.29364 208.0
255.853638 68.0
256.38559 48.0
257.020172 100.0
257.86322 88.0
259.140045 108.0
259.172089 180.0
259.906342 128.0
260.587036 156.0
261.645172 36.0
261.670929 120.0
262.631226 56.0
263.024872 48.0
263.099121 96.0
264.12674 136.0
264.162323 208.0
264.191254 148.0
264.424408 172.0
264.761108 72.0
266.561554 104.0
267.125336 108.0
267.156555 88.0
268.126099 152.0
268.16272 120.0
268.785583 128.0
269.144653 204.0
269.340607 136.0
269.847137 108.0
271.025421 80.0
271.113922 112.0
272.166199 96.0
273.129822 152.0
273.154327 172.0
274.157043 144.0
274.569122 108.0
274.773651 96.0
275.995697 40.0
276.121368 168.0
277.091248 84.0
277.177399 224.0
278.131226 272.0
278.182434 136.0
278.710388 140.0
279.135498 140.0
280.02774 64.0
280.687592 216.0
280.777649 156.0
281.11792 204.0
282.07312 264.0
282.149658 184.0
282.374054 152.0
283.117035 180.0
284.182983 136.0
284.814117 104.0
285.109772 52.0
285.758759 96.0
288.155914 88.0
289.150085 112.0
289.197449 204.0
289.323364 168.0
289.539429 204.0
290.067963 112.0
290.161194 152.0
291.157257 860.0
292.156342 148.0
292.329956 136.0
293.17337 160.0
294.037323 160.0
294.130585 964.0
294.197754 240.0
294.505096 164.0
294.928772 84.0
295.136963 232.0
295.434845 164.0
296.146851 472.0
296.486023 28.0
296.667694 244.0
297.161469 512.0
297.216461 56.0
297.247345 52.0
297.786316 56.0
298.167664 252.0
298.428925 140.0
298.917358 64.0
299.147949 104.0
299.185822 140.0
299.261566 112.0
300.212616 116.0
300.288483 36.0
300.464417 152.0
301.213531 76.0
301.337891 96.0
303.189148 136.0
303.230743 52.0
303.490723 172.0
304.011047 120.0
306.161133 528.0
306.431183 152.0
306.71344 128.0
307.141266 184.0
307.164978 224.0
307.568024 136.0
307.655304 108.0
307.683228 176.0
308.168213 144.0
308.686005 140.0
309.164093 2560.0
309.851562 44.0
309.897125 64.0
310.086334 152.0
310.174957 284.0
310.521088 60.0
311.128143 124.0
311.181549 172.0
312.403809 72.0
313.164154 144.0
317.206421 120.0
317.834167 48.0
318.176422 316.0
320.155426 120.0
321.185364 144.0
321.196472 140.0
322.152832 164.0
322.528046 44.0
323.196808 128.0
323.483124 144.0
324.163696 188.0
324.389404 164.0
324.479034 92.0
324.956055 84.0
325.158783 224.0
325.198578 532.0
325.358002 64.0
326.168243 120.0
326.203491 164.0
326.543793 224.0
327.778595 180.0
329.300995 156.0
330.464996 168.0
332.312836 84.0
333.180542 172.0
333.222473 136.0
333.402191 200.0
334.165375 284.0
335.695648 108.0
335.918121 180.0
336.201416 252.0
337.171082 464.0
338.026245 152.0
338.149597 124.0
339.155182 172.0
339.212891 240.0
339.24588 100.0
340.18866 92.0
340.342865 180.0
340.696167 100.0
340.875488 112.0
340.963684 148.0
341.217316 144.0
342.203308 132.0
344.504639 52.0
344.633942 120.0
344.674591 108.0
347.755768 140.0
348.185425 304.0
348.914734 160.0
349.00769 64.0
349.189911 112.0
349.223389 80.0
350.204834 156.0
351.175751 816.0
351.604126 100.0
351.966217 176.0
352.123077 52.0
352.159912 148.0
352.205231 140.0
352.496643 64.0
352.877899 84.0
354.228363 416.0
355.220795 180.0
355.71759 156.0
355.815216 104.0
356.202789 192.0
356.254608 140.0
356.957458 68.0
357.194397 112.0
357.235779 68.0
358.233337 132.0
359.949402 196.0
360.202454 132.0
360.633209 212.0
361.306305 160.0
362.187866 332.0
363.363495 164.0
364.137878 28.0
364.168243 104.0
364.216492 144.0
364.250946 140.0
365.190674 256.0
366.267853 152.0
366.587891 144.0
366.656494 44.0
367.1521 52.0
368.190155 136.0
369.175446 204.0
369.189514 168.0
369.94519 100.0
370.167236 120.0
372.088226 120.0
373.479309 100.0
374.487762 76.0
374.768982 112.0
375.135101 132.0
375.205902 176.0
376.25 92.0
376.740448 92.0
376.813873 132.0
377.231232 140.0
377.52121 172.0
379.21225 156.0
379.244965 188.0
379.686035 100.0
380.205139 196.0
380.764954 80.0
381.196869 200.0
381.639313 56.0
382.212494 176.0
382.491302 92.0
382.978027 160.0
383.235138 168.0
383.277985 164.0
384.196899 128.0
384.393219 184.0
384.943604 100.0
386.862335 92.0
386.94165 116.0
387.10611 60.0
387.207916 168.0
388.219025 132.0
388.250397 148.0
388.575958 196.0
389.172546 56.0
390.418213 160.0
390.929626 148.0
391.254486 3684.0
391.323242 188.0
391.37442 108.0
391.441376 40.0
391.764343 68.0
391.85495 64.0
392.17807 124.0
392.2565 584.0
392.536835 108.0
393.212921 128.0
393.248077 340.0
393.294312 136.0
393.84317 88.0
394.230347 124.0
394.740295 136.0
396.181 104.0
396.228516 168.0
396.366547 168.0
396.513824 88.0
396.83493 84.0
397.183411 188.0
398.174988 148.0
398.331085 72.0
399.36853 184.0
399.814117 204.0
401.379669 76.0
401.467407 124.0
401.854309 164.0
402.584808 144.0
402.964264 112.0
403.216003 116.0
403.303925 100.0
403.499817 256.0
403.627777 72.0
404.230865 272.0
404.27301 620.0
404.315826 192.0
405.223999 180.0
405.256836 156.0
405.44519 76.0
405.886139 136.0
406.207001 132.0
406.25589 256.0
406.299255 120.0
407.242401 172.0
408.226929 112.0
408.236389 144.0
408.263641 188.0
409.213043 132.0
409.265625 864.0
409.333832 100.0
409.881683 56.0
409.922638 120.0
409.966309 52.0
410.266815 288.0
411.184235 176.0
411.238037 124.0
412.221283 100.0
412.998352 120.0
413.220825 124.0
414.038513 60.0
414.873199 84.0
415.923828 108.0
416.069977 232.0
416.447632 48.0
417.073334 116.0
417.976196 60.0
418.122711 96.0
418.309937 60.0
419.282043 244.0
420.219116 160.0
420.231567 76.0
420.243256 124.0
420.282928 104.0
420.547729 128.0
421.218079 292.0
421.245331 232.0
421.302155 620.0
421.961151 144.0
422.055176 132.0
422.132874 120.0
422.261749 584.0
422.279572 236.0
422.287048 308.0
422.293976 512.0
422.341522 216.0
422.492798 80.0
422.631927 32.0
422.67691 104.0
423.200836 152.0
423.238892 404.0
423.622681 124.0
424.246094 356.0
424.684326 96.0
425.23822 128.0
425.734985 32.0
425.7966 68.0
425.886963 44.0
425.973206 48.0
426.223145 180.0
427.224792 148.0
427.889618 176.0
428.256317 180.0
428.981323 112.0
429.740173 168.0
430.256073 248.0
431.078003 32.0
431.313599 192.0
431.71051 40.0
432.177917 240.0
433.519562 132.0
435.249054 196.0
435.319946 140.0
436.113464 144.0
436.22583 132.0
436.32962 72.0
436.500092 64.0
437.490326 160.0
438.257355 316.0
438.469177 152.0
439.01947 52.0
439.090363 80.0
439.233337 172.0
439.247986 168.0
439.424072 96.0
439.728699 108.0
440.259033 148.0
440.371674 84.0
440.530396 48.0
440.634857 76.0
440.810333 52.0
441.280487 112.0
442.223877 92.0
442.349457 116.0
443.036255 168.0
443.790619 112.0
445.582794 156.0
445.692017 136.0
446.045044 92.0
446.768341 68.0
447.22702 88.0
447.293396 292.0
447.667908 168.0
448.153503 76.0
448.191406 100.0
448.270935 120.0
449.232788 80.0
449.273285 144.0
450.288025 148.0
450.78653 144.0
451.221863 168.0
451.281067 160.0
451.323364 68.0
451.830902 200.0
451.928192 120.0
452.228485 300.0
452.613892 100.0
452.652008 68.0
453.256744 5992.0
453.410309 144.0
453.774841 28.0
453.863892 56.0
453.96991 192.0
454.253632 1840.0
454.415283 104.0
454.640167 160.0
454.746277 68.0
454.886353 52.0
455.083221 136.0
455.153809 44.0
455.222961 888.0
455.260162 440.0
455.659271 80.0
455.727234 100.0
456.135223 52.0
456.230316 528.0
456.526367 104.0
456.866638 112.0
457.249603 116.0
457.636963 228.0
458.22049 172.0
458.29718 72.0
458.433533 132.0
458.561371 80.0
459.158264 100.0
460.037231 216.0
460.301941 104.0
460.331848 88.0
461.288879 144.0
461.686523 116.0
462.478027 76.0
463.293427 132.0
463.900146 160.0
464.231293 292.0
464.258728 152.0
464.830841 52.0
465.178497 76.0
465.223267 120.0
465.298431 200.0
466.011658 84.0
466.205811 172.0
466.271484 2356.0
466.441406 92.0
466.71225 44.0
466.944458 136.0
467.047699 80.0
467.279388 776.0
468.277893 324.0
468.317444 84.0
468.378235 176.0
468.485443 84.0
468.761169 36.0
468.937866 44.0
469.269806 92.0
469.821838 100.0
469.955597 108.0
470.25766 116.0
470.309448 148.0
470.361267 56.0
471.134247 100.0
471.285461 44.0
472.651825 136.0
477.093079 124.0
477.252686 116.0
478.285004 120.0
478.332886 156.0
478.563629 48.0
479.256165 92.0
479.569916 120.0
480.023346 68.0
480.25119 184.0
480.638397 128.0
481.306213 104.0
482.294922 308.0
482.888184 76.0
482.918793 76.0
483.264893 420.0
484.267029 116.0
485.068726 72.0
485.235321 128.0
486.880798 124.0
487.175079 80.0
487.232208 132.0
488.480682 104.0
489.629486 108.0
490.166931 140.0
490.26532 220.0
491.269165 164.0
491.308868 124.0
491.988495 128.0
492.244598 160.0
492.504211 76.0
492.721619 108.0
493.270325 360.0
493.321075 124.0
493.495056 152.0
494.189453 60.0
494.280792 212.0
494.410706 120.0
494.654144 52.0
494.9552 44.0
495.24469 196.0
495.468994 72.0
495.748138 96.0
495.788025 148.0
495.920959 68.0
496.147034 40.0
496.285889 164.0
496.980865 80.0
497.247101 144.0
497.287659 116.0
498.197327 148.0
498.268494 516.0
498.309052 136.0
498.872803 100.0
499.263611 144.0
499.30661 148.0
500.339569 152.0
500.514526 168.0
501.258423 116.0
502.703217 224.0
503.359436 100.0
503.488922 80.0
505.60199 148.0
506.241333 120.0
506.260376 56.0
506.269043 160.0
506.310913 116.0
507.296753 264.0
507.363892 56.0
507.996216 52.0
508.27887 96.0
508.328217 144.0
509.070099 76.0
509.256683 168.0
509.29248 376.0
510.273132 68.0
511.292877 136.0
512.319275 784.0
512.996826 64.0
513.323181 404.0
513.43866 128.0
513.700256 104.0
514.322998 152.0
515.104187 108.0
516.003479 152.0
516.324524 140.0
516.718079 156.0
517.365234 152.0
518.130615 184.0
518.334473 116.0
518.370728 180.0
519.06427 112.0
519.141357 136.0
519.322815 148.0
519.386292 204.0
520.275696 116.0
520.348389 144.0
521.303345 160.0
521.338562 160.0
521.42041 56.0
521.847656 116.0
521.979553 108.0
522.170532 52.0
522.303101 244.0
522.36615 108.0
523.030457 104.0
523.294495 224.0
523.708923 112.0
523.786377 92.0
524.255615 140.0
525.149231 104.0
526.281799 108.0
526.349426 132.0
526.404236 156.0
527.752197 84.0
530.627563 76.0
530.980652 124.0
531.590759 96.0
532.325256 152.0
532.632996 76.0
533.307373 156.0
533.316406 120.0
534.370667 64.0
535.259033 132.0
535.30957 152.0
535.973022 60.0
536.359558 120.0
536.756592 64.0
536.844238 124.0
537.259338 184.0
537.310242 124.0
537.725403 140.0
537.970032 64.0
538.071594 44.0
538.295654 1640.0
538.424561 64.0
538.457947 112.0
538.66272 92.0
538.907593 52.0
538.995361 52.0
539.02771 84.0
539.210815 136.0
539.302368 720.0
539.388184 140.0
539.439026 84.0
539.748779 120.0
539.850525 56.0
540.259888 128.0
540.309326 284.0
540.343323 384.0
540.794312 72.0
540.862244 72.0
541.359131 228.0
542.160583 96.0
542.285706 108.0
543.22699 88.0
543.51001 52.0
543.582764 148.0
543.737427 48.0
544.322144 92.0
544.693848 144.0
544.865784 156.0
545.265381 144.0
545.906921 84.0
546.302246 88.0
547.279602 92.0
547.479858 40.0
548.448914 220.0
548.612122 136.0
548.877869 124.0
549.367554 160.0
550.352295 124.0
551.207092 96.0
551.308167 140.0
552.313477 436.0
553.312866 280.0
556.410828 56.0
556.542297 136.0
557.602295 144.0
559.151306 60.0
559.236023 116.0
559.414856 100.0
560.40387 52.0
560.484009 104.0
561.322998 76.0
561.371704 148.0
562.31781 144.0
562.329407 244.0
562.343384 344.0
562.417542 68.0
562.540283 180.0
563.021912 144.0
563.338379 104.0
563.39032 148.0
564.325378 108.0
564.406494 120.0
564.973999 56.0
567.345276 140.0
567.384583 112.0
567.541016 108.0
568.271484 104.0
569.568176 84.0
569.914307 108.0
570.128113 60.0
570.318237 128.0
571.021912 124.0
571.069458 44.0
571.316833 84.0
571.987793 76.0
572.135376 32.0
572.5401 108.0
573.402405 132.0
573.998291 112.0
574.899902 136.0
575.912048 144.0
576.086182 140.0
576.370667 92.0
576.437561 88.0
577.341064 148.0
577.522827 80.0
577.714172 84.0
577.905518 112.0
578.353149 216.0
578.48938 76.0
578.594727 60.0
579.08313 132.0
579.150208 176.0
579.358276 1956.0
579.686768 40.0
579.854492 160.0
579.940796 116.0
580.190063 56.0
580.346985 1492.0
580.597595 40.0
580.947754 152.0
581.019714 60.0
581.335999 840.0
581.720398 124.0
581.792358 80.0
581.921997 32.0
582.19281 80.0
582.34967 228.0
582.384155 300.0
583.243103 100.0
583.348999 116.0
583.584412 192.0
583.733459 64.0
584.450195 40.0
585.022949 72.0
586.525879 76.0
586.607788 28.0
587.321472 120.0
587.625366 120.0
588.146606 116.0
588.774231 152.0
589.252441 144.0
589.730835 96.0
590.489929 120.0
591.273682 104.0
592.159668 52.0
592.266235 76.0
592.334717 144.0
592.993042 160.0
593.128723 160.0
593.419617 68.0
593.511719 72.0
593.948181 28.0
595.347656 264.0
595.797729 228.0
596.026062 44.0
596.343994 576.0
596.3974 256.0
596.655029 160.0
596.77948 40.0
596.847534 96.0
596.935059 72.0
597.112488 124.0
597.280396 116.0
597.367126 6352.0
597.47052 132.0
597.708496 84.0
597.857788 148.0
598.100647 112.0
598.170837 80.0
598.292542 104.0
598.375427 2016.0
598.501892 48.0
598.74054 36.0
598.857422 48.0
598.891541 64.0
599.091248 48.0
599.276367 60.0
599.368713 308.0
599.448853 80.0
599.515137 108.0
599.788086 56.0
600.046814 112.0
600.367493 128.0
600.504211 96.0
600.94873 32.0
601.041443 64.0
601.180176 68.0
601.373291 172.0
601.427002 152.0
602.217957 36.0
602.344971 104.0
602.397583 172.0
602.559937 60.0
602.728394 100.0
603.161011 100.0
603.860168 96.0
605.680969 140.0
606.185608 116.0
607.367188 88.0
607.592834 56.0
609.271851 172.0
609.763184 72.0
609.861511 136.0
610.269531 100.0
610.362976 160.0
611.120422 236.0
611.35083 2008.0
611.809448 48.0
611.937439 48.0
612.265564 184.0
612.351318 796.0
612.55304 88.0
612.924561 116.0
613.228088 64.0
613.347656 304.0
613.48938 60.0
613.795044 48.0
614.214233 76.0
614.84082 52.0
614.974121 224.0
615.246826 80.0
615.358765 176.0
615.749268 116.0
616.050537 96.0
616.430969 64.0
616.524902 100.0
617.671326 128.0
618.127136 56.0
618.300293 88.0
618.716125 72.0
619.087463 144.0
619.657104 64.0
620.172485 112.0
621.410767 116.0
621.953125 32.0
622.370178 88.0
622.782349 60.0
623.398376 96.0
624.320618 136.0
624.367615 340.0
624.482178 80.0
624.730896 56.0
624.890137 96.0
625.373779 228.0
625.65155 64.0
625.945312 72.0
626.354248 112.0
626.538025 128.0
626.712402 220.0
627.220764 140.0
627.350342 112.0
627.385254 148.0
628.103333 148.0
628.38269 184.0
628.462524 88.0
629.545715 140.0
630.344971 144.0
630.674866 100.0
631.359802 136.0
634.800171 176.0
635.359436 184.0
637.179321 100.0
637.249695 88.0
637.365234 100.0
637.480835 36.0
638.305237 116.0
639.135193 148.0
639.172302 172.0
639.395081 296.0
639.430969 168.0
640.350464 148.0
640.430298 76.0
640.706055 132.0
641.325867 48.0
641.421631 148.0
642.082153 100.0
642.358643 156.0
643.360779 172.0
644.356323 136.0
644.402222 188.0
644.788208 64.0
646.366028 104.0
646.573486 56.0
649.101379 168.0
649.253479 32.0
649.669434 72.0
650.598083 108.0
650.669189 132.0
651.375061 184.0
651.45636 172.0
652.388489 132.0
653.347473 172.0
653.403442 56.0
653.652771 96.0
654.314453 68.0
656.365967 388.0
656.423889 112.0
657.362488 292.0
657.490051 72.0
657.786072 36.0
658.357483 140.0
659.343933 44.0
660.550598 52.0
662.449768 152.0
663.582336 40.0
664.377258 144.0
664.864746 76.0
665.420105 124.0
666.122681 236.0
666.343567 64.0
666.405212 120.0
666.451477 116.0
667.001343 92.0
667.068176 104.0
667.370056 144.0
667.382263 232.0
667.782898 140.0
668.398682 120.0
669.366516 268.0
669.380005 192.0
670.372498 32.0
671.640747 84.0
671.867737 132.0
672.512756 112.0
672.714111 44.0
672.776062 140.0
673.01355 76.0
673.343994 68.0
673.72345 132.0
673.772766 84.0
676.694885 44.0
676.922668 88.0
678.378601 96.0
679.404663 172.0
680.38623 104.0
681.102905 76.0
681.440552 112.0
681.601624 108.0
681.874023 112.0
682.532043 60.0
683.398743 568.0
683.530762 96.0
684.404053 312.0
685.410583 108.0
685.447021 128.0
685.645081 124.0
685.74408 80.0
687.726074 84.0
687.903564 100.0
688.315979 140.0
689.146484 120.0
690.035034 92.0
690.495178 112.0
692.892578 176.0
693.432312 92.0
693.610535 152.0
695.147217 100.0
695.424927 332.0
696.365234 112.0
696.414185 260.0
696.570068 136.0
697.423828 128.0
697.752502 196.0
698.304626 80.0
698.388123 136.0
698.395752 120.0
698.417603 164.0
698.630737 148.0
699.446411 208.0
699.82019 96.0
701.413208 988.0
701.504395 128.0
702.228455 72.0
702.421631 1348.0
702.497437 140.0
702.629333 148.0
703.003967 64.0
703.125366 144.0
703.28894 128.0
703.395813 176.0
703.700745 108.0
704.401001 152.0
704.957886 52.0
705.491699 104.0
706.14209 144.0
706.475342 120.0
706.866882 60.0
707.221436 32.0
707.263794 180.0
707.35907 116.0
707.443787 108.0
707.533752 80.0
707.713745 132.0
708.100342 32.0
708.720154 112.0
709.175903 68.0
709.886292 172.0
710.399963 292.0
710.429382 644.0
711.396667 204.0
712.393982 92.0
712.434021 92.0
713.438416 88.0
714.108398 76.0
715.140564 96.0
715.364136 96.0
715.625 92.0
716.061707 96.0
717.639038 128.0
718.36969 140.0
719.442322 192.0
720.08844 116.0
720.433594 120.0
721.77179 60.0
722.563354 32.0
723.432617 132.0
724.436707 112.0
725.412415 208.0
725.466003 112.0
725.530334 80.0
725.878845 52.0
726.443542 140.0
727.379517 108.0
727.708557 200.0
728.41748 108.0
729.083679 32.0
730.029846 116.0
730.546204 104.0
731.116577 96.0
731.278015 184.0
735.239319 136.0
735.422791 56.0
735.482178 140.0
735.654907 104.0
735.806091 112.0
737.460693 184.0
737.85907 112.0
738.449951 184.0
738.70813 44.0
739.000244 144.0
739.457397 240.0
740.467285 100.0
741.108887 172.0
742.803406 108.0
742.84137 76.0
743.036682 148.0
743.541321 124.0
744.295837 64.0
744.545654 112.0
744.643433 132.0
745.420288 112.0
746.007263 60.0
746.453125 136.0
747.709778 40.0
748.292236 100.0
749.223511 36.0
749.588562 140.0
750.019104 108.0
750.482483 132.0
750.771484 112.0
751.900818 120.0
752.14093 148.0
752.921753 104.0
753.189331 92.0
753.249451 140.0
753.35321 164.0
753.439453 644.0
753.779419 68.0
754.154663 112.0
754.315002 48.0
754.458008 488.0
754.866394 56.0
755.047668 276.0
755.140625 144.0
755.228149 192.0
755.266418 60.0
755.346375 156.0
755.464233 6880.0
755.661926 148.0
755.775208 80.0
755.829956 108.0
755.873718 84.0
755.933899 48.0
756.045532 100.0
756.128601 112.0
756.178345 60.0
756.19574 52.0
756.295105 200.0
756.467834 3268.0
756.678345 112.0
756.754944 32.0
756.798767 100.0
756.869934 68.0
757.266296 116.0
757.472534 880.0
757.740845 52.0
757.853455 92.0
757.992859 84.0
758.173706 68.0
758.217529 72.0
758.261414 60.0
758.47699 356.0
758.645081 48.0
758.858887 72.0
759.204346 60.0
759.242737 88.0
759.424622 48.0
759.511475 140.0
759.961365 40.0
760.104004 148.0
760.213745 40.0
760.405823 164.0
760.768127 140.0
761.163391 104.0
761.234802 56.0
762.036743 120.0
762.080688 56.0
762.778687 108.0
762.976562 124.0
763.097534 104.0
765.001038 72.0
766.647888 64.0
769.698425 108.0
770.582214 48.0
770.841858 84.0
770.913696 44.0
771.449829 92.0
771.886658 140.0
774.709351 112.0
775.706787 64.0
775.75116 112.0
777.059998 88.0
779.125244 96.0
780.464722 168.0
781.098694 48.0
781.849854 92.0
782.06134 172.0
782.957703 124.0
784.774353 112.0
787.436157 124.0
789.308289 140.0
789.828369 88.0
790.790771 132.0
793.238525 164.0
794.203003 152.0
794.966003 48.0
795.605896 152.0
796.167358 52.0
796.81897 176.0
796.970642 140.0
797.459534 100.0
798.49408 32.0
800.063965 104.0
800.390503 72.0
800.942444 92.0
804.020874 92.0
806.172546 88.0
807.201355 108.0
809.02887 144.0
810.518433 140.0
810.796143 104.0
811.998047 100.0
814.046753 100.0
814.188721 124.0
814.415894 144.0
815.597778 116.0
817.315247 40.0
817.455444 116.0
817.975464 40.0
818.613098 96.0
819.040283 148.0
821.907898 116.0
822.02771 100.0
824.31189 92.0
826.009888 120.0
826.227295 104.0
827.177246 112.0
827.663879 100.0
829.443848 144.0
829.514404 72.0
830.133606 84.0
830.655518 108.0
832.0271 48.0
832.980347 112.0
834.813843 92.0
836.942932 88.0
837.248108 108.0
839.195801 28.0
839.501404 56.0
839.945496 160.0
840.072388 56.0
840.130127 48.0
841.116882 128.0
841.4953 248.0
841.547913 192.0
842.537476 184.0
843.063293 68.0
843.2771 104.0
843.467834 220.0
843.606567 80.0
843.930359 112.0
844.126953 72.0
844.387146 80.0
844.942505 128.0
845.116028 156.0
845.307007 76.0
845.376465 124.0
845.660034 140.0
845.793152 76.0
845.973816 132.0
846.37207 92.0
846.482117 84.0
846.783264 88.0
846.835388 84.0
847.605896 40.0
847.733337 88.0
847.793396 108.0
847.889832 36.0
848.301392 108.0
848.770996 144.0
848.832825 132.0
849.664185 40.0
849.71637 56.0
849.797607 112.0
849.942688 96.0
850.56366 56.0
850.610107 80.0
850.853943 84.0
850.972595 76.0
851.045532 96.0
851.341675 48.0
851.393921 48.0
852.344299 80.0
852.410522 56.0
852.561646 76.0
852.643005 60.0
853.14624 76.0
853.253357 76.0
853.349609 148.0
853.462646 116.0
853.53241 64.0
853.893005 80.0
853.951111 48.0
854.17218 72.0
854.329224 48.0
854.893616 72.0
855.254456 168.0
855.446533 88.0
855.557129 92.0
855.702698 48.0
855.868469 92.0
856.203491 128.0
856.258911 148.0
856.393127 192.0
856.53656 88.0
856.815125 92.0
856.919983 56.0
857.013184 32.0
857.125122 228.0
857.213074 120.0
857.2948 180.0
857.443604 112.0
857.477112 244.0
857.549316 44.0
857.625122 124.0
857.794128 92.0
857.845276 88.0
857.881409 136.0
857.934021 100.0
858.024841 88.0
858.079407 180.0
858.17865 132.0
858.218384 156.0
858.290527 168.0
858.336365 76.0
858.433533 168.0
858.484619 140.0
858.505859 60.0
858.526367 144.0
858.591675 128.0
858.709595 96.0
858.863098 124.0
858.917725 64.0
858.98645 144.0
859.05957 68.0
859.112061 180.0
859.181702 124.0
859.189026 184.0
859.347412 248.0
859.39209 276.0
859.512878 36232.0
859.701843 192.0
859.827026 148.0
859.897339 220.0
859.952209 164.0
860.040894 180.0
860.094177 360.0
860.228699 184.0
860.296326 168.0
860.367615 252.0
860.513672 16372.0
860.665955 320.0
860.710815 168.0
860.807251 192.0
860.932922 196.0
861.011475 52.0
861.078003 76.0
861.256104 80.0
861.35614 112.0
861.520935 4944.0
861.724365 52.0
861.79303 184.0
861.861938 100.0
861.908691 204.0
861.965637 48.0
862.019714 164.0
862.059143 64.0
862.110413 132.0
862.171631 28.0
862.216553 76.0
862.278198 76.0
862.323608 104.0
862.393738 60.0
862.5224 1120.0
862.633057 72.0
862.693665 88.0
862.740173 148.0
862.788086 52.0
862.872375 172.0
862.937622 100.0
862.983276 52.0
863.089417 48.0
863.147888 40.0
863.222046 152.0
863.270691 48.0
863.345764 76.0
863.426331 52.0
863.529114 324.0
863.69989 52.0
863.756104 56.0
863.898132 96.0
863.951782 116.0
864.034912 160.0
864.118835 60.0
864.211609 108.0
864.265137 164.0
864.316772 48.0
864.336487 40.0
864.389099 132.0
864.44873 104.0
864.550781 244.0
864.64978 168.0
864.67041 124.0
864.68689 140.0
864.804993 112.0
864.859253 208.0
864.955078 120.0
865.219666 80.0
865.312805 60.0
865.412354 128.0
865.482605 28.0
865.552856 48.0
865.637939 88.0
865.703613 192.0
865.757812 108.0
865.966431 76.0
866.19458 100.0
866.331848 88.0
866.393555 64.0
866.443115 44.0
866.572021 96.0
866.67749 36.0
866.790466 56.0
866.867676 44.0
867.040833 48.0
867.134583 32.0
867.234192 44.0
867.316284 60.0
867.439392 100.0
867.521423 56.0
867.996338 64.0
868.326294 60.0
868.471375 56.0
868.571106 40.0
868.694275 100.0
868.829224 48.0
868.928955 60.0
868.999329 64.0
869.509888 64.0
869.589539 48.0
869.932495 36.0
870.455017 32.0
870.960083 36.0
871.882507 76.0
872.517334 64.0
872.770203 48.0
872.840759 56.0
872.987732 48.0
873.228882 48.0
874.464417 64.0
876.013 68.0
876.425415 92.0
876.944031 28.0
877.816528 108.0
877.99939 88.0
878.541992 52.0
879.397644 56.0
880.230042 40.0
881.878296 64.0
882.108826 36.0
882.297974 80.0
882.64093 64.0
882.942505 76.0
884.054688 132.0
884.972229 40.0
886.559753 72.0
886.74939 40.0
889.507507 120.0
892.531494 68.0
906.433716 108.0
910.92749 96.0
916.149109 100.0
918.518188 232.0
935.662109 100.0
939.20874 36.0
957.639893 36.0
958.372925 44.0
979.480286 68.0
981.599304 64.0
984.975708 112.0
990.862427 56.0
995.020569 112.0
1015.307434 132.0
1021.767456 100.0
1029.064941 36.0
1031.000488 56.0
1033.935913 64.0
1035.06897 136.0
1053.088867 60.0
1063.915771 44.0
1069.024536 84.0
1070.997314 116.0
1081.810791 100.0
1084.03772 136.0
1093.277466 76.0
1093.725098 104.0
1108.757568 40.0
1108.876953 68.0
1111.947632 192.0
1113.355103 48.0
1124.780396 80.0
1125.020752 92.0
1144.921753 168.0
1147.886841 44.0
1148.999756 88.0
1156.886475 80.0
1157.103149 52.0
1158.904663 124.0
1160.490723 88.0
1171.071533 28.0
1175.88501 88.0
1176.936401 56.0
1178.377563 200.0
1179.751221 92.0
1181.830322 128.0
1186.213501 84.0
1194.639404 92.0
1200.10083 144.0
1200.921509 100.0
1201.018066 84.0
1207.870239 84.0
1213.604492 104.0
1216.955688 68.0
1217.504272 184.0
1227.058105 96.0
1227.811157 72.0
1229.597168 168.0
1231.168091 196.0
1231.489258 64.0
1246.221558 200.0
1257.77124 140.0
1267.353882 40.0
1278.054199 36.0
1282.711914 84.0
1283.845581 92.0
1285.21521 120.0
1288.020874 72.0
1299.060059 132.0
1303.697266 60.0
1307.681641 248.0
1311.059326 52.0
1316.780396 136.0
1320.451904 56.0
1324.997803 88.0
1325.787598 60.0
1338.318237 96.0
1355.967407 196.0
1356.781006 40.0
1357.154907 48.0
1362.924194 60.0
1367.145142 140.0
1368.963501 28.0
1369.90625 96.0
1370.421875 72.0
1378.294922 100.0
1385.093872 128.0
1387.769165 116.0
1390.565796 72.0
1397.372681 116.0
1398.273071 44.0
1401.303833 120.0
1404.449707 104.0
1443.473633 76.0
1443.647583 124.0
1448.105225 60.0
1454.588135 104.0
1488.5177 40.0
