>compound Toltrazuril
>formula C18H14F3N3O4S
>ionization [M+H]+
>parentmass 426.072937
#inchi InChI=1S/C18H14F3N3O4S/c1-10-9-11(24-16(26)22-15(25)23(2)17(24)27)3-8-14(10)28-12-4-6-13(7-5-12)29-18(19,20)21/h3-9H,1-2H3,(H,22,25,26)
#inchikey OCINXEZVIIVXFU
#Ion_Source LC-ESI
#Instrument qTof
#Compound_Source Commercial
#PI Dorrestein
#Data_Collector Garg_Neha
#Scan -1
#Precursor_MZ 426.073
#ExactMass 425.066
#Charge 1
#CAS_Number 69004-03-1
#Pubmed_ID N/A
#Smiles C1=C(C=CC(=C1)SC(F)(F)F)OC2=C(C)C=C(C=C2)N3C(N(C(NC3=O)=O)C)=O
#INCHI_AUX N/A
#Library_Class 1
#SpectrumID CCMSLIB00000078637
#IonMode Positive
#UpdateWorkflowName UPDATE-SINGLE-ANNOTATED-GOLD
#LibraryQualityString Gold
#TaskID 77f51c88eb8b467eb4a01dd2d0cb90d2
##Scan# 2317
#SpectrumFile Plate10_21_40_GC2_01_15744.mzXML
#LibraryName FDALibrary_2_04302014.mgf
#MQScore -1
#Organism FDALibrary_2_04302014
#TIC_Query 0
#RT_Query -1
#MZErrorPPM -1
#SharedPeaks 0
#MassDiff 0
#LibMZ -1
#SpecMZ 426.073
#SpecCharge 0
#internalFilename spec-00000.mgf

>collision 10
48.043224 156.0
50.939922 160.0
53.625126 168.0
53.892181 144.0
62.598991 172.0
78.874565 228.0
85.546654 196.0
89.061256 200.0
90.32795 140.0
96.001785 180.0
101.034431 316.0
102.042145 172.0
109.700027 148.0
113.035347 152.0
115.001678 884.0
119.033592 160.0
119.792641 200.0
121.022209 184.0
122.203041 168.0
123.995377 264.0
127.302391 156.0
132.059586 152.0
133.008179 156.0
133.050964 1236.0
144.99147 324.0
146.404068 140.0
147.035858 192.0
147.93486 140.0
148.038773 1328.0
149.04126 204.0
150.048431 152.0
151.877594 188.0
153.072891 156.0
154.0755 156.0
156.357101 156.0
157.34169 200.0
158.244232 236.0
159.001266 152.0
164.997437 2628.0
165.076416 156.0
166.000854 160.0
166.992615 160.0
169.496292 192.0
171.058716 192.0
174.043976 156.0
175.055176 176.0
177.025146 152.0
178.064728 144.0
180.080902 148.0
181.065521 800.0
181.834564 164.0
182.042007 268.0
182.072342 1212.0
183.076935 132.0
185.042358 156.0
187.045822 144.0
188.759155 200.0
192.203751 180.0
192.932129 116.0
192.993179 10324.0
193.765915 144.0
193.995712 1440.0
194.991318 800.0
195.313278 148.0
196.002579 176.0
196.072479 136.0
197.075836 148.0
199.07402 152.0
207.063339 140.0
208.078339 140.0
213.037018 148.0
214.042892 220.0
215.043808 128.0
216.039673 172.0
216.077698 140.0
217.076508 168.0
217.220215 168.0
219.163498 184.0
221.618851 184.0
222.042755 188.0
224.065765 396.0
225.080215 1136.0
226.082581 208.0
229.04866 384.0
232.069901 204.0
233.075897 192.0
234.07338 200.0
239.041672 132.0
240.428314 160.0
241.324127 160.0
242.041962 152.0
243.021423 152.0
244.028885 152.0
247.054871 260.0
247.785477 144.0
248.066223 600.0
249.077942 156.0
254.057251 744.0
255.043686 164.0
256.046112 520.0
257.044891 256.0
258.045441 192.0
263.038971 196.0
264.035004 188.0
265.099518 156.0
266.026794 152.0
268.081512 136.0
271.069153 160.0
272.007141 144.0
273.061859 148.0
275.335907 208.0
276.079468 160.0
282.066071 208.0
283.038513 792.0
284.046875 348.0
284.086761 168.0
285.034424 352.0
286.029633 224.0
287.029358 148.0
287.269073 140.0
292.412659 164.0
295.193024 152.0
298.047394 488.0
299.0513 328.0
301.04425 112.0
306.04184 1032.0
307.054413 156.0
308.036346 108.0
308.1026 336.0
312.767151 216.0
312.943176 176.0
314.667236 176.0
316.523529 188.0
320.947357 144.0
324.07486 148.0
325.02594 160.0
325.106842 1164.0
326.04599 444.0
326.119995 584.0
327.047638 268.0
329.467957 212.0
332.059662 148.0
335.623444 144.0
338.056244 144.0
343.047668 168.0
344.045135 180.0
346.532684 152.0
350.210358 152.0
352.202118 176.0
354.090424 260.0
356.069489 324.0
357.073853 184.0
358.064423 140.0
359.074463 292.0
361.14798 140.0
366.05307 164.0
367.061096 160.0
367.564606 140.0
369.379333 188.0
373.941498 140.0
374.723206 156.0
377.455933 212.0
382.359375 152.0
383.227722 144.0
386.05722 360.0
387.069489 144.0
397.9263 228.0
399.527924 216.0
401.407837 164.0
406.065643 1824.0
407.069397 404.0
408.066376 152.0
412.525421 140.0
424.309662 204.0
424.779602 136.0
424.914124 140.0
425.062775 620.0
425.112213 144.0
425.299805 224.0
425.712372 196.0
425.906799 128.0
426.012238 124.0
426.072937 35860.0
426.185699 96.0
426.852264 96.0
427.07547 7112.0
427.199646 132.0
427.244812 128.0
427.342499 140.0
427.442047 112.0
427.63855 156.0
428.07309 3228.0
429.068726 476.0
429.654999 172.0
429.859863 208.0
430.075684 144.0
439.570068 144.0
613.344727 144.0
1603.849609 148.0
1772.45105 172.0
1992.153076 140.0
