>compound MLS001076505-01!ELLIPTICINE
>formula C17H14N2
>ionization [M+H]+
>parentmass 247.124557
#inchi InChI=1S/C17H14N2/c1-10-14-9-18-8-7-12(14)11(2)17-16(10)13-5-3-4-6-15(13)19-17/h3-9,19H,1-2H3
#inchikey CTSPAMFJBXKSOY
#Ion_Source LC-ESI
#Instrument qTof
#Compound_Source NIH Pharmacologically Active Library
#PI Dorrestein
#Data_Collector VP/LMS
#Scan -1
#Precursor_MZ 247.126
#ExactMass 246.116
#Charge 1
#CAS_Number N/A
#Pubmed_ID N/A
#Smiles Cc1c2[nH]c3ccccc3c2c(C)c4cnccc14
#INCHI_AUX N/A
#Library_Class 1
#SpectrumID CCMSLIB00000085389
#IonMode Positive
#UpdateWorkflowName UPDATE-SINGLE-ANNOTATED-GOLD
#LibraryQualityString Gold
#TaskID d252d724072548979f1f6f1ced849daf
##Scan# 1586
#SpectrumFile p4-A03_GA3_01_18327.mzXML
#LibraryName Pharm_Active_Library.mgf
#MQScore -1
#Organism Pharm_Active_Library
#TIC_Query 0
#RT_Query -1
#MZErrorPPM -1
#SharedPeaks 0
#MassDiff 0
#LibMZ -1
#SpecMZ 247.126
#SpecCharge 0
#internalFilename spec-00000.mgf

>collision 10
44.894051 324.0
44.906612 156.0
44.929119 180.0
44.948315 212.0
44.961758 164.0
44.979004 216.0
44.987377 160.0
45.015686 280.0
45.043903 132.0
45.1105 268.0
45.139896 140.0
45.143993 144.0
45.148319 96.0
45.153015 100.0
45.205521 192.0
45.224716 136.0
45.239399 104.0
45.261871 148.0
45.286358 112.0
45.301003 120.0
45.320549 176.0
45.325314 140.0
45.329884 72.0
45.336136 216.0
45.360981 152.0
45.374302 328.0
45.377586 192.0
45.406891 140.0
45.418964 236.0
45.431381 248.0
45.451805 200.0
45.466316 164.0
45.475739 172.0
45.484715 192.0
45.508877 164.0
45.520962 160.0
45.534393 160.0
45.575493 188.0
45.592598 148.0
45.645935 120.0
45.676247 168.0
45.690319 236.0
45.720131 104.0
45.74881 168.0
45.760303 112.0
45.779156 120.0
45.821667 236.0
45.846512 120.0
45.874817 116.0
45.886951 204.0
45.90448 92.0
45.915546 484.0
45.931648 184.0
45.946293 164.0
45.955738 156.0
45.985428 112.0
46.001625 128.0
46.013775 128.0
46.024574 112.0
46.046181 128.0
46.078602 116.0
46.093464 116.0
46.103989 356.0
46.11779 40.0
46.129372 120.0
46.143475 220.0
46.189014 148.0
46.20163 104.0
46.223278 252.0
46.245972 156.0
46.267944 120.0
46.284191 108.0
46.313984 144.0
46.331802 104.0
46.343292 316.0
46.377991 252.0
46.399845 344.0
46.422409 88.0
46.444748 280.0
46.498379 92.0
46.513309 72.0
46.528244 128.0
46.563305 156.0
46.621967 172.0
46.632523 172.0
46.636795 132.0
46.639874 160.0
46.654587 132.0
46.668732 160.0
46.692661 152.0
46.710342 144.0
46.72448 204.0
46.737213 160.0
46.76054 148.0
46.783829 124.0
46.798279 224.0
46.817123 232.0
46.835426 188.0
46.876606 340.0
46.919174 172.0
46.951195 96.0
46.974609 176.0
46.989784 132.0
47.007355 128.0
47.042698 180.0
47.060589 256.0
47.073017 120.0
47.082794 216.0
47.110886 92.0
47.154373 196.0
47.191757 96.0
47.212269 204.0
47.221409 164.0
47.233295 96.0
47.253304 148.0
47.27383 100.0
47.288883 188.0
47.299652 344.0
47.315151 168.0
47.357342 192.0
47.38282 120.0
47.395702 308.0
47.405293 156.0
47.418999 116.0
47.452194 176.0
47.4702 184.0
47.488922 100.0
47.536118 220.0
47.54929 80.0
47.568508 140.0
47.585167 176.0
47.609695 308.0
47.655025 172.0
47.68251 152.0
47.695847 228.0
47.723476 40.0
47.73642 168.0
47.753136 152.0
47.766891 216.0
47.781624 156.0
47.798862 132.0
47.802292 80.0
47.806873 140.0
47.877869 152.0
47.893021 128.0
47.921951 132.0
47.972126 196.0
48.002701 184.0
48.023628 148.0
48.044155 232.0
48.069489 136.0
48.095474 140.0
48.116417 168.0
48.155083 148.0
48.164215 176.0
48.192383 124.0
48.210297 220.0
48.224167 204.0
48.242134 124.0
48.254578 180.0
48.283421 168.0
48.30695 184.0
48.356945 124.0
48.368015 148.0
48.386013 180.0
48.40955 92.0
48.42617 100.0
48.44186 220.0
48.456646 108.0
48.507923 132.0
48.517113 164.0
48.562225 196.0
48.577259 148.0
48.589199 184.0
48.613331 100.0
48.637814 156.0
48.66608 80.0
48.693176 164.0
48.73275 168.0
48.766018 156.0
48.78278 156.0
48.793312 196.0
48.837494 184.0
48.857876 160.0
48.87318 188.0
48.892662 48.0
48.948345 108.0
48.96645 156.0
48.986622 164.0
49.007545 96.0
49.036114 172.0
49.059052 140.0
49.077843 184.0
49.093273 144.0
49.112797 164.0
49.122562 216.0
49.134567 132.0
49.153023 296.0
49.181656 172.0
49.19685 104.0
49.223183 168.0
49.234997 144.0
49.253078 232.0
49.255493 140.0
49.304855 236.0
49.316654 240.0
49.333778 144.0
49.390137 108.0
49.403351 40.0
49.417789 236.0
49.435932 244.0
49.453053 192.0
49.47752 132.0
49.490444 220.0
49.508327 156.0
49.552441 156.0
49.563679 280.0
49.591957 156.0
49.608456 144.0
49.632557 360.0
49.647316 204.0
49.680729 160.0
49.72377 300.0
49.760723 208.0
49.776295 180.0
49.796238 180.0
49.825329 168.0
49.8465 60.0
49.863998 100.0
49.868279 156.0
49.872211 188.0
49.913246 148.0
49.942005 208.0
49.966999 216.0
49.976799 120.0
49.986488 356.0
50.001282 272.0
50.057117 168.0
50.081429 216.0
50.096844 40.0
50.117977 136.0
50.139114 176.0
50.174355 156.0
50.198326 84.0
50.21666 124.0
50.238689 168.0
50.270348 164.0
50.307068 192.0
50.329556 152.0
50.349323 144.0
50.369164 88.0
50.397354 64.0
50.431271 164.0
50.465805 140.0
50.493927 152.0
50.509037 184.0
50.548653 104.0
50.563789 236.0
50.584034 276.0
50.603756 188.0
50.620846 68.0
50.636425 184.0
50.671837 136.0
50.702374 124.0
50.722855 40.0
50.772816 152.0
50.828335 228.0
50.839157 160.0
50.853352 136.0
50.871723 144.0
50.887623 84.0
50.895325 120.0
50.900497 152.0
50.91724 188.0
50.939514 280.0
50.957012 212.0
50.987984 196.0
50.991665 156.0
51.010933 136.0
51.02018 180.0
51.056889 92.0
51.076427 68.0
51.104702 208.0
51.12907 204.0
51.215923 192.0
51.240917 132.0
51.293926 140.0
51.304047 156.0
51.334213 124.0
51.352325 184.0
51.381912 200.0
51.391739 196.0
51.404114 116.0
51.415527 112.0
51.436939 240.0
51.48233 148.0
51.498337 144.0
51.541195 80.0
51.598877 164.0
51.607422 188.0
51.632935 92.0
51.658432 172.0
51.683289 232.0
51.714237 176.0
51.734276 224.0
51.7617 104.0
51.790123 192.0
51.817894 176.0
51.864632 124.0
51.880875 232.0
51.896168 172.0
51.950184 416.0
51.977024 184.0
52.066933 36.0
52.101223 156.0
52.121727 112.0
52.15786 140.0
52.190945 244.0
52.200581 156.0
52.214962 156.0
52.23222 48.0
52.24229 212.0
52.25658 180.0
52.276371 168.0
52.294094 112.0
52.31374 160.0
52.3344 112.0
52.344479 160.0
52.383366 44.0
52.417141 272.0
52.428032 192.0
52.439564 164.0
52.45356 148.0
52.471622 228.0
52.492905 136.0
52.505882 144.0
52.528961 100.0
52.555168 120.0
52.565567 228.0
52.577209 200.0
52.597454 124.0
52.616409 208.0
52.629147 124.0
52.653587 116.0
52.657791 156.0
52.680534 160.0
52.692093 136.0
52.726482 80.0
52.774475 104.0
52.790367 240.0
52.801025 232.0
52.805054 272.0
52.823647 188.0
52.833771 104.0
52.853001 176.0
52.872841 168.0
52.884418 140.0
52.899715 148.0
52.942329 160.0
52.962608 28.0
52.974194 56.0
53.000275 128.0
53.011868 180.0
53.029705 348.0
53.0597 204.0
53.069847 128.0
53.087212 156.0
53.123508 152.0
53.156879 132.0
53.177197 164.0
53.222454 160.0
53.258507 108.0
53.275974 156.0
53.292973 160.0
53.307903 160.0
53.32317 168.0
53.337708 132.0
53.347607 428.0
53.373314 164.0
53.393711 156.0
53.420311 192.0
53.438766 264.0
53.504261 304.0
53.5261 192.0
53.559597 80.0
53.575008 200.0
53.599949 220.0
53.612049 184.0
53.651402 80.0
53.673271 116.0
53.696606 92.0
53.708275 160.0
53.724319 72.0
53.734531 120.0
53.776768 160.0
53.791447 136.0
53.838066 140.0
53.852776 72.0
53.878956 52.0
53.900986 148.0
53.919983 104.0
53.945503 212.0
53.963837 208.0
53.974072 164.0
53.986752 204.0
54.017529 208.0
54.033085 180.0
54.07431 192.0
54.091717 136.0
54.104286 120.0
54.122551 160.0
54.152355 92.0
54.173817 180.0
54.203884 144.0
54.227333 156.0
54.250786 200.0
54.264549 248.0
54.285007 164.0
54.315308 48.0
54.349049 164.0
54.368126 36.0
54.381268 176.0
54.399097 144.0
54.410694 260.0
54.420971 92.0
54.440678 204.0
54.478249 100.0
54.50499 416.0
54.528332 140.0
54.545109 120.0
54.561886 188.0
54.634079 184.0
54.657803 192.0
54.680397 192.0
54.697357 204.0
54.722382 180.0
54.749775 168.0
54.782764 36.0
54.809986 136.0
54.841351 200.0
54.854973 200.0
54.895786 164.0
54.90583 180.0
54.96706 252.0
54.993179 212.0
55.00956 136.0
55.011635 180.0
55.031784 212.0
55.05711 184.0
55.068928 160.0
55.095516 120.0
55.111053 124.0
55.137009 148.0
55.159058 132.0
55.203415 296.0
55.225597 548.0
55.253704 104.0
55.277378 128.0
55.30048 288.0
55.341969 204.0
55.385635 132.0
55.428417 140.0
55.446445 340.0
55.484158 132.0
55.518845 204.0
55.533833 152.0
55.558983 132.0
55.589153 192.0
55.640633 176.0
55.694115 328.0
55.725174 156.0
55.735573 108.0
55.799484 160.0
55.827148 164.0
55.860279 204.0
55.896721 264.0
55.915512 160.0
55.93784 132.0
55.958679 200.0
56.006264 164.0
56.039108 160.0
56.064442 120.0
56.080833 332.0
56.122578 144.0
56.147926 148.0
56.158367 208.0
56.182831 108.0
56.20821 292.0
56.260555 164.0
56.283726 152.0
56.312099 212.0
56.335999 168.0
56.368294 208.0
56.386803 148.0
56.412212 100.0
56.426952 172.0
56.454075 124.0
56.464546 136.0
56.495487 140.0
56.510502 72.0
56.545334 152.0
56.555813 80.0
56.566288 40.0
56.581261 160.0
56.59174 100.0
56.602222 180.0
56.618694 128.0
56.648651 164.0
56.684608 172.0
56.695099 168.0
56.72578 204.0
56.766579 352.0
56.790264 152.0
56.816551 160.0
56.837559 236.0
56.872139 184.0
56.924732 268.0
56.954659 136.0
56.969681 48.0
56.981697 88.0
57.001232 92.0
57.017761 128.0
57.031288 140.0
57.050507 112.0
57.059952 120.0
57.072254 128.0
57.105858 128.0
57.120003 92.0
57.132038 216.0
57.157501 204.0
57.186169 148.0
57.216316 136.0
57.242836 196.0
57.248287 120.0
57.261124 188.0
57.271091 160.0
57.291615 132.0
57.3046 200.0
57.315723 96.0
57.338326 184.0
57.355679 148.0
57.358715 76.0
57.365566 188.0
57.380501 184.0
57.425686 200.0
57.436615 204.0
57.451019 288.0
57.463486 116.0
57.478573 200.0
57.501209 128.0
57.514793 196.0
57.532909 112.0
57.615971 188.0
57.634701 272.0
57.677929 112.0
57.696068 188.0
57.727821 96.0
57.746059 208.0
57.806839 136.0
57.818588 92.0
57.82975 160.0
57.87521 288.0
57.900341 180.0
57.916077 216.0
57.942753 92.0
57.962906 400.0
57.997654 176.0
58.007919 176.0
58.022068 192.0
58.056438 128.0
58.076542 220.0
58.100426 144.0
58.13229 188.0
58.169662 256.0
58.186932 172.0
58.202114 168.0
58.215782 188.0
58.227932 120.0
58.249069 292.0
58.276539 292.0
58.290215 168.0
58.329731 40.0
58.356461 296.0
58.394524 204.0
58.434624 176.0
58.476284 168.0
58.513805 148.0
58.532078 96.0
58.580265 252.0
58.606712 192.0
58.631691 164.0
58.635098 152.0
58.660057 196.0
58.671871 140.0
58.683266 176.0
58.705082 248.0
58.731724 152.0
58.758278 140.0
58.784611 168.0
58.804886 164.0
58.814152 184.0
58.827858 168.0
58.847702 92.0
58.867554 96.0
58.879642 336.0
58.897133 196.0
58.908791 196.0
58.922543 128.0
58.945461 164.0
58.980831 196.0
59.000305 216.0
59.024494 336.0
59.050945 184.0
59.070599 160.0
59.113091 308.0
59.125389 152.0
59.135715 168.0
59.170303 76.0
59.197258 152.0
59.233089 240.0
59.261852 212.0
59.275501 188.0
59.294415 176.0
59.307053 120.0
59.326691 148.0
59.357231 140.0
59.372566 132.0
59.413982 168.0
59.430859 320.0
59.446201 148.0
59.463787 184.0
59.475361 40.0
59.49839 184.0
59.527561 148.0
59.555206 52.0
59.604366 160.0
59.625881 200.0
59.644001 152.0
59.684002 188.0
59.728897 124.0
59.739666 136.0
59.756588 56.0
59.770435 192.0
59.793087 100.0
59.825054 148.0
59.844463 204.0
59.875977 272.0
59.896721 152.0
59.913467 156.0
59.925682 272.0
59.951813 224.0
59.967556 164.0
59.978344 172.0
59.989136 292.0
60.030766 104.0
60.056984 120.0
60.073952 172.0
60.091293 116.0
60.142109 164.0
60.175808 128.0
60.19125 160.0
60.205147 112.0
60.230244 304.0
60.249943 192.0
60.263847 92.0
60.278805 88.0
60.308384 112.0
60.318546 152.0
60.345474 128.0
60.389488 232.0
60.420105 116.0
60.437267 100.0
60.450947 96.0
60.463009 136.0
60.491188 144.0
60.533569 192.0
60.571709 180.0
60.601143 152.0
60.613411 196.0
60.630585 128.0
60.666237 160.0
60.677822 236.0
60.68401 112.0
60.687336 288.0
60.707054 208.0
60.743687 224.0
60.791103 144.0
60.805302 348.0
60.854927 160.0
60.889675 124.0
60.90831 212.0
60.94696 164.0
60.980206 272.0
60.986496 164.0
60.993462 160.0
61.031044 300.0
61.04369 152.0
61.04837 172.0
61.066853 80.0
61.10947 408.0
61.121181 156.0
61.145565 156.0
61.158653 168.0
61.181728 204.0
61.219978 144.0
61.244183 180.0
61.254314 156.0
61.265831 140.0
61.286354 212.0
61.301994 104.0
61.333107 144.0
61.364285 200.0
61.388763 324.0
61.403072 128.0
61.432903 172.0
61.450066 156.0
61.481312 160.0
61.520763 160.0
61.555088 140.0
61.580193 204.0
61.623371 168.0
61.634308 156.0
61.645245 164.0
61.658188 128.0
61.66869 208.0
61.67963 188.0
61.723404 160.0
61.73748 80.0
61.758453 292.0
61.776424 160.0
61.787838 120.0
61.802853 212.0
61.849232 196.0
61.880558 164.0
61.929131 184.0
61.967468 172.0
61.986382 140.0
62.008324 216.0
62.023994 124.0
62.086369 128.0
62.126614 100.0
62.163578 152.0
62.180843 156.0
62.2001 208.0
62.218979 228.0
62.23077 116.0
62.253014 140.0
62.260151 124.0
62.290752 124.0
62.311611 232.0
62.345745 220.0
62.363033 156.0
62.391483 132.0
62.424347 280.0
62.447937 140.0
62.469036 116.0
62.482063 144.0
62.504711 148.0
62.520145 116.0
62.573154 216.0
62.616409 192.0
62.633667 180.0
62.646271 172.0
62.657299 92.0
62.684082 120.0
62.710876 128.0
62.73238 168.0
62.736797 108.0
62.768398 156.0
62.804573 188.0
62.836853 180.0
62.849651 184.0
62.862274 156.0
62.873322 132.0
62.900017 140.0
62.910538 264.0
62.93148 180.0
62.947517 184.0
62.960152 256.0
62.979103 176.0
63.005959 208.0
63.020985 188.0
63.035706 116.0
63.056522 124.0
63.094269 164.0
63.116341 180.0
63.132408 192.0
63.14296 136.0
63.162708 152.0
63.185883 104.0
63.22258 80.0
63.252655 172.0
63.272491 188.0
63.315987 124.0
63.339745 180.0
63.357063 176.0
63.373959 268.0
63.395199 104.0
63.418972 100.0
63.461773 72.0
63.483971 152.0
63.495075 212.0
63.545002 84.0
63.561028 188.0
63.590267 192.0
63.610275 172.0
63.642654 140.0
63.692379 204.0
63.714123 116.0
63.732056 200.0
63.753689 188.0
63.774509 132.0
63.793583 40.0
63.807255 72.0
63.880539 240.0
63.894447 292.0
63.920971 180.0
64.010666 188.0
64.032257 160.0
64.056648 204.0
64.088493 224.0
64.127892 176.0
64.144455 96.0
64.162666 176.0
64.210762 232.0
64.255745 120.0
64.267487 164.0
64.294044 344.0
64.30748 148.0
64.340187 148.0
64.362007 128.0
64.421921 164.0
64.446915 192.0
64.475319 236.0
64.488564 180.0
64.514366 116.0
64.545265 124.0
64.556595 172.0
64.577507 140.0
64.60183 144.0
64.607803 120.0
64.612389 212.0
64.635345 128.0
64.650101 140.0
64.697433 176.0
64.710922 148.0
64.741348 148.0
64.791 72.0
64.816803 116.0
64.84388 136.0
64.859909 128.0
64.891968 164.0
64.919136 132.0
64.921768 124.0
64.938477 232.0
64.953903 164.0
64.980186 100.0
65.005287 212.0
65.041168 84.0
65.055527 152.0
65.078407 120.0
65.098961 172.0
65.127731 136.0
65.144562 136.0
65.168839 104.0
65.180885 68.0
65.195427 176.0
65.208206 108.0
65.222672 208.0
65.257996 140.0
65.277336 164.0
65.322784 380.0
65.356155 244.0
65.368439 220.0
65.402824 132.0
65.447899 160.0
65.467224 264.0
65.492996 136.0
65.518272 352.0
65.563881 152.0
65.575165 200.0
65.621231 208.0
65.650146 228.0
65.691261 164.0
65.710434 172.0
65.723526 164.0
65.73735 148.0
65.755806 152.0
65.767105 64.0
65.788895 192.0
65.801003 140.0
65.820374 148.0
65.839752 112.0
65.86721 120.0
65.883682 124.0
65.914062 124.0
65.975113 156.0
65.979309 120.0
65.986542 200.0
65.994225 88.0
65.998146 160.0
66.028847 152.0
66.042923 108.0
66.086937 212.0
66.130768 88.0
66.159683 424.0
66.187798 300.0
66.204773 204.0
66.227921 164.0
66.248924 116.0
66.251465 112.0
66.257668 176.0
66.269028 212.0
66.30407 116.0
66.326759 152.0
66.346214 240.0
66.364899 328.0
66.393234 88.0
66.404587 184.0
66.431915 104.0
66.453255 100.0
66.477592 148.0
66.519791 172.0
66.550636 84.0
66.567001 152.0
66.596107 116.0
66.639565 208.0
66.665321 40.0
66.680595 124.0
66.691971 160.0
66.706604 148.0
66.729362 188.0
66.77327 156.0
66.792496 180.0
66.820442 148.0
66.855003 100.0
66.880653 152.0
66.906693 136.0
66.931122 56.0
66.952713 304.0
66.974174 148.0
66.979622 128.0
66.99617 160.0
67.008179 196.0
67.020706 100.0
67.039467 156.0
67.054924 164.0
67.09568 216.0
67.113609 124.0
67.134811 140.0
67.176735 136.0
67.202698 136.0
67.225288 252.0
67.246765 148.0
67.26207 72.0
67.283295 204.0
67.296356 88.0
67.308769 164.0
67.336975 128.0
67.366714 148.0
67.38945 156.0
67.4254 84.0
67.445015 116.0
67.46627 164.0
67.486588 144.0
67.505424 176.0
67.525131 340.0
67.538216 216.0
67.575432 160.0
67.586548 140.0
67.600388 180.0
67.61348 144.0
67.631485 172.0
67.64949 32.0
67.678223 244.0
67.719582 124.0
67.729393 320.0
67.788704 136.0
67.808372 176.0
67.822716 176.0
67.850258 196.0
67.886658 208.0
67.914948 136.0
67.93071 184.0
67.952675 36.0
67.985497 120.0
68.024887 96.0
68.080711 132.0
68.121773 148.0
68.176239 160.0
68.193375 132.0
68.218063 276.0
68.261475 40.0
68.318085 184.0
68.345367 64.0
68.371696 208.0
68.399673 116.0
68.427994 160.0
68.472122 104.0
68.485046 180.0
68.500023 196.0
68.549774 88.0
68.57634 204.0
68.590202 128.0
68.602295 148.0
68.617126 88.0
68.630264 116.0
68.655052 124.0
68.681442 180.0
68.71595 144.0
68.734238 320.0
68.748306 164.0
68.76889 176.0
68.7854 164.0
68.80851 140.0
68.828323 128.0
68.847504 156.0
68.937347 152.0
68.958832 168.0
68.974083 388.0
69.051414 160.0
69.082077 152.0
69.109314 136.0
69.120895 152.0
69.155655 228.0
69.174545 136.0
69.187103 128.0
69.222557 184.0
69.263275 188.0
69.304695 44.0
69.326035 232.0
69.347176 88.0
69.362877 184.0
69.37928 140.0
69.39415 148.0
69.435654 152.0
69.450516 100.0
69.470062 124.0
69.493202 216.0
69.517914 164.0
69.53289 112.0
69.557983 204.0
69.570808 204.0
69.586655 184.0
69.600624 136.0
69.623505 128.0
69.657059 164.0
69.668846 156.0
69.697731 128.0
69.702988 112.0
69.724854 144.0
69.743454 188.0
69.785423 96.0
69.823372 132.0
69.835922 136.0
69.864204 144.0
69.880836 88.0
69.892487 96.0
69.912453 132.0
69.936424 180.0
69.970108 320.0
70.004311 136.0
70.016068 168.0
70.044334 116.0
70.068977 240.0
70.081406 156.0
70.097298 168.0
70.127296 112.0
70.146637 200.0
70.165085 280.0
70.197319 248.0
70.208992 140.0
70.232346 172.0
70.247353 116.0
70.272377 76.0
70.284241 420.0
70.326988 160.0
70.360046 120.0
70.390892 160.0
70.410927 140.0
70.430283 168.0
70.445854 136.0
70.456993 76.0
70.472733 128.0
70.494461 208.0
70.512032 116.0
70.529556 120.0
70.541946 184.0
70.556969 108.0
70.575119 200.0
70.631889 140.0
70.659996 128.0
70.673378 168.0
70.688042 84.0
70.709633 120.0
70.725838 196.0
70.738647 132.0
70.757126 144.0
70.780502 212.0
70.792229 204.0
70.812325 112.0
70.8274 160.0
70.851913 200.0
70.886032 172.0
70.904472 140.0
70.955238 156.0
70.970818 336.0
71.007523 352.0
71.032837 136.0
71.054359 256.0
71.06881 64.0
71.089737 168.0
71.107399 96.0
71.122208 168.0
71.166153 228.0
71.206619 168.0
71.224174 264.0
71.270866 164.0
71.278099 56.0
71.281403 144.0
71.29985 156.0
71.324379 124.0
71.353874 176.0
71.375954 144.0
71.419884 240.0
71.435356 204.0
71.469772 176.0
71.476151 112.0
71.509087 100.0
71.549927 140.0
71.561272 188.0
71.582916 192.0
71.615273 256.0
71.638893 464.0
71.658958 132.0
71.674553 188.0
71.705109 296.0
71.721313 104.0
71.778633 136.0
71.795464 216.0
71.819107 112.0
71.830917 144.0
71.886597 120.0
71.918098 312.0
71.942291 100.0
71.957603 172.0
71.972649 180.0
72.013214 160.0
72.041931 328.0
72.0625 204.0
72.075722 208.0
72.09938 168.0
72.129799 108.0
72.161919 44.0
72.212654 124.0
72.229568 164.0
72.245941 200.0
72.268105 344.0
72.314056 180.0
72.339554 120.0
72.388657 148.0
72.405594 160.0
72.419144 408.0
72.439468 244.0
72.453018 140.0
72.468269 100.0
72.486343 188.0
72.497734 196.0
72.524193 216.0
72.584076 148.0
72.620834 136.0
72.642891 144.0
72.668457 112.0
72.681908 236.0
72.713104 232.0
72.736351 152.0
72.749794 208.0
72.775261 160.0
72.817719 168.0
72.849991 132.0
72.878876 144.0
72.895866 156.0
72.911163 112.0
72.928154 120.0
72.943321 156.0
72.968956 180.0
72.988594 152.0
73.014862 212.0
73.047081 132.0
73.059944 88.0
73.067131 44.0
73.070374 120.0
73.081207 160.0
73.105026 168.0
73.14077 160.0
73.159584 152.0
73.179108 172.0
73.227608 152.0
73.239532 96.0
73.25827 40.0
73.273598 192.0
73.290634 136.0
73.328125 112.0
73.360512 144.0
73.382675 144.0
73.405273 112.0
73.447258 124.0
73.474777 124.0
73.486717 92.0
73.503922 192.0
73.525963 112.0
73.545731 76.0
73.566933 80.0
73.581841 212.0
73.585236 116.0
73.634933 336.0
73.648247 116.0
73.667458 164.0
73.695282 208.0
73.717468 144.0
73.746986 176.0
73.768639 104.0
73.792564 164.0
73.811249 364.0
73.834595 160.0
73.839798 104.0
73.845665 128.0
73.865318 104.0
73.890671 148.0
73.909546 112.0
73.935059 168.0
73.965797 136.0
74.005409 312.0
74.0457 136.0
74.066254 116.0
74.080917 112.0
74.097084 84.0
74.137695 260.0
74.167351 192.0
74.186203 148.0
74.227348 152.0
74.241074 148.0
74.256218 192.0
74.279335 104.0
74.321159 192.0
74.341415 156.0
74.363884 192.0
74.375809 220.0
74.392059 132.0
74.405792 84.0
74.434425 156.0
74.461555 172.0
74.48822 136.0
74.508835 128.0
74.522583 64.0
74.540329 376.0
74.575859 180.0
74.597488 164.0
74.613838 84.0
74.630814 136.0
74.672142 184.0
74.718582 380.0
74.736725 176.0
74.783066 152.0
74.839058 104.0
74.89476 168.0
74.928619 56.0
74.945152 216.0
74.963081 120.0
74.979263 164.0
75.000999 132.0
75.012619 124.0
75.025734 148.0
75.038567 116.0
75.054443 212.0
75.069962 188.0
75.087204 144.0
75.134544 172.0
75.175087 184.0
75.204163 188.0
75.220062 316.0
75.271858 160.0
75.294312 140.0
75.311897 176.0
75.339218 148.0
75.372047 88.0
75.38414 48.0
75.41877 308.0
75.432533 176.0
75.44957 108.0
75.517265 156.0
75.534561 108.0
75.55265 184.0
75.559273 84.0
75.57103 144.0
75.605499 52.0
75.62973 96.0
75.647034 232.0
75.699989 212.0
75.719757 128.0
75.750015 264.0
75.777817 140.0
75.802917 108.0
75.839745 176.0
75.868774 124.0
75.882484 168.0
75.920486 224.0
75.935448 204.0
75.953751 200.0
75.972412 100.0
75.979492 76.0
76.002327 156.0
76.019943 228.0
76.038986 240.0
76.071747 128.0
76.087242 144.0
76.10994 156.0
76.174477 100.0
76.197472 172.0
76.248177 208.0
76.271881 568.0
76.309128 288.0
76.320526 144.0
76.360184 148.0
76.393234 68.0
76.431511 88.0
76.445427 224.0
76.468636 136.0
76.494858 144.0
76.535942 132.0
76.548134 92.0
76.569031 52.0
76.581741 236.0
76.642197 156.0
76.66671 120.0
76.68576 108.0
76.722115 220.0
76.752007 148.0
76.781654 180.0
76.802429 88.0
76.828751 144.0
76.848618 240.0
76.891563 232.0
76.921333 220.0
76.944229 140.0
76.958389 100.0
76.985741 144.0
77.005051 180.0
77.034744 128.0
77.048721 192.0
77.081917 84.0
77.096931 216.0
77.123131 200.0
77.149704 168.0
77.179802 236.0
77.209534 152.0
77.28273 328.0
77.316658 136.0
77.349503 112.0
77.367012 152.0
77.398521 148.0
77.42392 240.0
77.441223 208.0
77.463326 108.0
77.486099 292.0
77.500114 168.0
77.523056 140.0
77.542366 332.0
77.56321 144.0
77.622818 112.0
77.656136 56.0
77.668411 164.0
77.713654 396.0
77.725105 396.0
77.732422 124.0
77.740494 332.0
77.776764 176.0
77.800529 96.0
77.809937 68.0
77.813507 148.0
77.851921 184.0
77.866753 228.0
77.908905 64.0
77.958107 272.0
78.024895 380.0
78.058464 224.0
78.07972 180.0
78.116341 116.0
78.137451 44.0
78.214073 156.0
78.241348 140.0
78.270218 112.0
78.281685 144.0
78.296791 148.0
78.313301 188.0
78.328232 108.0
78.356308 284.0
78.37735 176.0
78.402634 144.0
78.431122 168.0
78.45015 208.0
78.496773 152.0
78.515656 192.0
78.533806 124.0
78.54792 200.0
78.569046 168.0
78.574615 120.0
78.581551 184.0
78.589348 132.0
78.625771 196.0
78.648499 152.0
78.682373 104.0
78.706757 392.0
78.730606 184.0
78.749138 128.0
78.782875 180.0
78.823334 72.0
78.851608 136.0
78.890495 120.0
78.90477 220.0
78.934235 168.0
78.945053 192.0
78.953712 96.0
78.96048 76.0
78.975121 176.0
78.980515 124.0
78.98642 164.0
78.999084 336.0
79.023895 200.0
79.042664 220.0
79.072685 124.0
79.095695 108.0
79.109856 128.0
79.141724 76.0
79.169159 236.0
79.222679 280.0
79.235512 392.0
79.254181 328.0
79.271034 132.0
79.287682 112.0
79.30825 68.0
79.331291 172.0
79.35257 144.0
79.380936 112.0
79.395126 172.0
79.439468 308.0
79.46608 260.0
79.498909 216.0
79.514893 108.0
79.529015 160.0
79.558258 168.0
79.573868 148.0
79.593735 196.0
79.598213 180.0
79.618736 152.0
79.63446 184.0
79.668472 56.0
79.693344 160.0
79.73864 228.0
79.759102 192.0
79.783989 112.0
79.807098 180.0
79.827682 208.0
79.858673 108.0
79.875549 304.0
79.909096 92.0
79.93811 172.0
79.974319 144.0
79.986778 316.0
80.008141 124.0
80.061012 136.0
80.102524 164.0
80.116776 172.0
80.147194 164.0
80.184387 148.0
80.201355 172.0
80.238029 208.0
80.271843 108.0
80.302162 124.0
80.334267 160.0
80.369171 212.0
80.382439 124.0
80.395851 132.0
80.414558 120.0
80.433838 160.0
80.462151 188.0
80.482315 172.0
80.507401 140.0
80.528831 368.0
80.586838 424.0
80.609222 184.0
80.648537 140.0
80.691444 184.0
80.706795 204.0
80.723625 116.0
80.754028 204.0
80.771591 132.0
80.813065 172.0
80.872757 208.0
80.8936 156.0
80.91687 48.0
80.943237 292.0
80.965706 280.0
80.996765 124.0
81.021416 204.0
81.049408 92.0
81.074455 156.0
81.103172 160.0
81.149185 132.0
81.178139 184.0
81.182022 172.0
81.205376 88.0
81.224236 148.0
81.230865 188.0
81.262779 108.0
81.287903 136.0
81.323792 80.0
81.339951 228.0
81.361488 168.0
81.377258 128.0
81.393806 136.0
81.420319 136.0
81.436905 156.0
81.478226 164.0
81.538841 136.0
81.571899 192.0
81.590759 108.0
81.603424 316.0
81.646866 204.0
81.665222 200.0
81.692154 100.0
81.717339 160.0
81.731735 280.0
81.753326 328.0
81.787521 252.0
81.822754 112.0
81.837898 212.0
81.867508 104.0
81.893761 136.0
81.930733 152.0
81.949577 268.0
81.955643 136.0
81.962784 180.0
81.979843 184.0
81.999016 152.0
82.002876 64.0
82.009941 124.0
82.027092 156.0
82.044624 200.0
82.075775 108.0
82.107201 208.0
82.135605 136.0
82.207939 180.0
82.243713 132.0
82.272186 148.0
82.304604 176.0
82.346466 232.0
82.375366 204.0
82.393433 200.0
82.442215 124.0
82.458481 140.0
82.480644 200.0
82.511856 208.0
82.528229 156.0
82.580269 200.0
82.606537 132.0
82.639885 204.0
82.65741 164.0
82.684555 116.0
82.708084 168.0
82.728882 196.0
82.783081 188.0
82.823967 168.0
82.842079 76.0
82.906326 236.0
82.92421 108.0
82.938118 120.0
82.981628 168.0
82.997948 104.0
83.027847 188.0
83.066864 212.0
83.103149 148.0
83.119049 152.0
83.142372 176.0
83.146431 108.0
83.154686 160.0
83.177559 76.0
83.204788 40.0
83.224754 144.0
83.243935 384.0
83.308418 124.0
83.335556 156.0
83.377846 176.0
83.408241 96.0
83.430275 168.0
83.47683 116.0
83.51088 152.0
83.533714 132.0
83.560417 284.0
83.585762 92.0
83.606041 276.0
83.624695 172.0
83.642479 88.0
83.688644 152.0
83.709846 160.0
83.738884 156.0
83.770363 148.0
83.800377 132.0
83.851746 144.0
83.856308 192.0
83.869049 168.0
83.903397 156.0
83.923454 148.0
83.959923 188.0
83.998459 236.0
84.01535 196.0
84.033943 176.0
84.053139 80.0
84.074905 140.0
84.098831 176.0
84.119675 72.0
84.144218 36.0
84.164757 256.0
84.178909 124.0
84.196907 216.0
84.280251 164.0
84.321678 344.0
84.38224 300.0
84.446136 180.0
84.465851 132.0
84.483322 160.0
84.489967 196.0
84.513412 80.0
84.538086 116.0
84.564659 188.0
84.606758 160.0
84.634827 300.0
84.663834 200.0
84.700989 140.0
84.706642 176.0
84.73233 148.0
84.760605 200.0
84.795425 144.0
84.836441 132.0
84.867706 224.0
84.884949 144.0
84.918266 80.0
84.952606 172.0
84.969627 220.0
85.015442 128.0
85.057289 176.0
85.085899 244.0
85.126724 328.0
85.145721 176.0
85.186256 156.0
85.211876 224.0
85.22863 120.0
85.257095 180.0
85.302025 136.0
85.364143 432.0
85.39212 208.0
85.421555 236.0
85.465851 52.0
85.520912 156.0
85.544693 348.0
85.558342 192.0
85.5905 160.0
85.600517 168.0
85.629593 148.0
85.658195 136.0
85.675041 216.0
85.696617 136.0
85.751144 144.0
85.767258 156.0
85.801262 84.0
85.824089 80.0
85.848854 64.0
85.862411 288.0
85.898651 48.0
85.913406 232.0
85.926933 208.0
85.948463 108.0
85.978798 164.0
86.005676 132.0
86.025131 164.0
86.057365 116.0
86.105766 152.0
86.128532 268.0
86.152458 180.0
86.179359 140.0
86.193176 212.0
86.232086 192.0
86.241096 96.0
86.24453 140.0
86.258224 216.0
86.290161 140.0
86.321571 140.0
86.340988 148.0
86.354698 160.0
86.364983 104.0
86.388809 176.0
86.40612 220.0
86.427032 80.0
86.446953 356.0
86.466728 164.0
86.50106 100.0
86.534386 176.0
86.560303 132.0
86.584381 76.0
86.610306 100.0
86.626518 204.0
86.645393 196.0
86.671448 64.0
86.690483 116.0
86.714745 188.0
86.743721 172.0
86.775238 128.0
86.79007 264.0
86.812325 60.0
86.831284 380.0
86.853127 176.0
86.876503 144.0
86.893776 180.0
86.906364 172.0
86.925385 152.0
86.960388 104.0
86.986732 208.0
87.015213 152.0
87.034996 216.0
87.053566 180.0
87.073997 56.0
87.109291 76.0
87.140869 464.0
87.216843 172.0
87.283989 132.0
87.308365 148.0
87.337791 224.0
87.356522 212.0
87.373268 92.0
87.408524 160.0
87.446953 144.0
87.463898 120.0
87.475189 356.0
87.495354 132.0
87.524025 164.0
87.553818 120.0
87.569954 332.0
87.624603 112.0
87.643059 128.0
87.663322 180.0
87.679665 160.0
87.698318 108.0
87.73851 140.0
87.771851 208.0
87.793846 176.0
87.824867 140.0
87.863243 128.0
87.876305 172.0
87.912651 200.0
87.933838 228.0
87.956551 156.0
87.971481 104.0
87.985298 160.0
87.996811 148.0
88.00882 176.0
88.046165 244.0
88.062973 128.0
88.080017 128.0
88.122757 132.0
88.143753 184.0
88.149666 188.0
88.173309 148.0
88.193069 304.0
88.221809 132.0
88.236763 124.0
88.251427 152.0
88.286682 264.0
88.304306 100.0
88.308868 100.0
88.315872 144.0
88.334007 136.0
88.373299 184.0
88.393875 52.0
88.420036 172.0
88.440399 84.0
88.455383 136.0
88.474602 188.0
88.498695 52.0
88.532402 120.0
88.560188 176.0
88.581192 160.0
88.630707 168.0
88.634308 188.0
88.641869 288.0
88.691658 48.0
88.714149 148.0
88.729149 160.0
88.768661 172.0
88.788734 144.0
88.806862 288.0
88.83284 164.0
88.860435 164.0
88.890411 96.0
88.915558 128.0
88.938408 152.0
88.991814 32.0
89.006836 196.0
89.024429 204.0
89.045723 136.0
89.063782 152.0
89.104507 252.0
89.155235 104.0
89.204109 188.0
89.236069 344.0
89.262611 136.0
89.268883 132.0
89.274284 196.0
89.306786 112.0
89.309914 104.0
89.320885 156.0
89.350792 132.0
89.369606 220.0
89.394852 124.0
89.409119 96.0
89.433586 116.0
89.484833 216.0
89.505127 204.0
89.518311 112.0
89.538834 140.0
89.557556 176.0
89.564117 148.0
89.597939 160.0
89.639954 160.0
89.667831 344.0
89.687416 116.0
89.712158 176.0
89.753853 160.0
89.768936 108.0
89.792976 172.0
89.827408 60.0
89.842499 156.0
89.85759 132.0
89.878342 156.0
89.891098 132.0
89.902283 316.0
89.933075 172.0
90.012367 84.0
90.044128 176.0
90.06292 156.0
90.075264 172.0
90.088463 156.0
90.103027 200.0
90.130623 112.0
90.155113 148.0
90.174995 420.0
90.187668 172.0
90.211426 144.0
90.237595 180.0
90.269356 124.0
90.288269 176.0
90.301506 180.0
90.374397 188.0
90.417091 280.0
90.432053 288.0
90.449089 68.0
90.466293 136.0
90.499397 188.0
90.525742 280.0
90.540634 392.0
90.581642 120.0
90.604378 108.0
90.621201 224.0
90.654465 192.0
90.667816 100.0
90.708603 148.0
90.759583 144.0
90.763107 128.0
90.770424 112.0
90.775772 84.0
90.797714 120.0
90.814789 88.0
90.839447 68.0
90.879364 288.0
90.897758 152.0
90.901512 112.0
90.919861 164.0
90.97319 144.0
90.992798 144.0
91.023544 136.0
91.07412 108.0
91.099098 156.0
91.104736 144.0
91.117828 144.0
91.143333 128.0
91.167915 144.0
91.219231 140.0
91.256821 416.0
91.286362 168.0
91.322929 172.0
91.344994 88.0
91.392296 124.0
91.410255 248.0
91.432259 164.0
91.446396 176.0
91.460808 208.0
91.477943 160.0
91.490471 212.0
91.504593 156.0
91.528519 168.0
91.543755 176.0
91.548088 204.0
91.555206 248.0
91.57505 172.0
91.597908 176.0
91.66436 132.0
91.68174 364.0
91.704071 132.0
91.724754 148.0
91.748451 144.0
91.776512 360.0
91.836166 140.0
91.871246 360.0
91.888657 140.0
91.920113 132.0
91.944923 128.0
92.012367 208.0
92.030823 296.0
92.070923 164.0
92.085175 268.0
92.105301 144.0
92.130402 144.0
92.17981 232.0
92.214211 88.0
92.2295 172.0
92.25692 116.0
92.300629 176.0
92.352951 192.0
92.380562 112.0
92.395393 192.0
92.430313 180.0
92.458015 188.0
92.480431 200.0
92.495377 144.0
92.520264 48.0
92.535225 216.0
92.58429 192.0
92.604523 80.0
92.64682 236.0
92.693802 172.0
92.708382 100.0
92.813408 276.0
92.826828 156.0
92.859428 224.0
92.890121 152.0
92.920815 76.0
92.935623 100.0
92.98542 156.0
92.989532 232.0
93.009087 152.0
93.041725 52.0
93.056305 208.0
93.078201 136.0
93.114693 52.0
93.14167 88.0
93.190887 192.0
93.210838 248.0
93.228996 296.0
93.275002 160.0
93.299156 128.0
93.315086 128.0
93.327377 100.0
93.332001 116.0
93.356842 292.0
93.395302 164.0
93.422234 52.0
93.449165 128.0
93.464561 136.0
93.489578 228.0
93.512672 172.0
93.55117 188.0
93.564644 128.0
93.58329 216.0
93.608635 132.0
93.629539 108.0
93.634979 124.0
93.676003 132.0
93.754089 136.0
93.767525 92.0
93.830513 224.0
93.863289 144.0
93.882195 284.0
93.901855 92.0
93.91922 92.0
93.934647 172.0
93.983086 172.0
94.014748 160.0
94.071655 184.0
94.106407 328.0
94.126053 160.0
94.158546 128.0
94.195244 180.0
94.21402 156.0
94.252808 292.0
94.269951 48.0
94.289352 152.0
94.322617 140.0
94.365005 228.0
94.4132 156.0
94.445824 164.0
94.474174 136.0
94.510376 176.0
94.530174 188.0
94.574318 180.0
94.59166 148.0
94.621048 260.0
94.648605 144.0
94.670753 136.0
94.684593 136.0
94.700905 128.0
94.714371 180.0
94.758202 144.0
94.780701 200.0
94.794701 148.0
94.829903 96.0
94.847343 124.0
94.864792 80.0
94.880302 212.0
94.903564 208.0
94.934593 76.0
94.952049 204.0
94.978447 160.0
95.030556 76.0
95.042389 84.0
95.058235 184.0
95.082031 120.0
95.125053 72.0
95.131294 84.0
95.139267 164.0
95.163559 124.0
95.212105 300.0
95.229416 92.0
95.250618 164.0
95.329926 172.0
95.344269 288.0
95.384109 160.0
95.400711 144.0
95.422546 80.0
95.435577 164.0
95.451134 156.0
95.484192 116.0
95.517258 164.0
95.538795 164.0
95.567627 148.0
95.597023 140.0
95.626411 320.0
95.74498 112.0
95.772247 116.0
95.806541 152.0
95.825066 320.0
95.850868 168.0
95.885254 84.0
95.898895 128.0
95.963226 164.0
95.988655 176.0
96.004837 152.0
96.030724 192.0
96.061447 164.0
96.108688 180.0
96.133789 108.0
96.173912 100.0
96.27153 156.0
96.337936 132.0
96.363464 120.0
96.388733 240.0
96.419998 176.0
96.439697 156.0
96.458237 220.0
96.502106 140.0
96.517166 108.0
96.549034 148.0
96.654671 168.0
96.697723 296.0
96.739258 288.0
96.777977 120.0
96.811272 96.0
96.832809 224.0
96.856316 128.0
96.883743 60.0
96.915085 164.0
96.946907 152.0
96.974449 176.0
96.995438 208.0
97.010468 204.0
97.014122 136.0
97.07386 164.0
97.099052 180.0
97.135818 136.0
97.158661 68.0
97.177895 148.0
97.197441 116.0
97.222954 80.0
97.243721 144.0
97.297539 144.0
97.358414 108.0
97.397331 152.0
97.425194 308.0
97.478241 156.0
97.499863 132.0
97.536781 188.0
97.552925 132.0
97.572632 168.0
97.625443 168.0
97.630623 148.0
97.659111 100.0
97.685417 288.0
97.726929 152.0
97.744034 240.0
97.802742 140.0
97.818169 240.0
97.837143 152.0
97.869682 60.0
97.889374 204.0
97.917778 156.0
97.941536 164.0
97.956337 188.0
97.982193 188.0
98.006821 192.0
98.023323 160.0
98.046608 284.0
98.09549 156.0
98.139618 292.0
98.166504 240.0
98.198776 108.0
98.234825 244.0
98.255981 60.0
98.276291 96.0
98.301369 176.0
98.33168 144.0
98.352676 168.0
98.382401 144.0
98.402031 96.0
98.426941 300.0
98.441849 288.0
98.459297 144.0
98.512672 172.0
98.543167 192.0
98.565971 152.0
98.61142 180.0
98.625259 120.0
98.664795 148.0
98.739929 148.0
98.759651 136.0
98.792282 208.0
98.826874 156.0
98.850105 248.0
98.864388 132.0
98.889641 156.0
98.973442 88.0
98.995567 268.0
99.021812 136.0
99.059296 184.0
99.072037 92.0
99.075264 156.0
99.0951 148.0
99.152344 284.0
99.197319 160.0
99.211197 128.0
99.258163 116.0
99.289322 268.0
99.295723 108.0
99.302856 184.0
99.371834 112.0
99.387711 160.0
99.410652 180.0
99.441292 220.0
99.467094 92.0
99.484673 120.0
99.498856 180.0
99.524361 156.0
99.590935 108.0
99.621384 120.0
99.637878 112.0
99.667252 204.0
99.687553 340.0
99.703445 108.0
99.725311 92.0
99.743919 220.0
99.782959 108.0
99.819984 180.0
99.895653 204.0
99.901115 136.0
99.907578 260.0
99.923569 160.0
99.957291 192.0
100.007744 196.0
100.12574 152.0
100.162819 236.0
100.191727 188.0
100.20755 252.0
100.22982 196.0
100.260681 408.0
100.31649 108.0
100.35437 320.0
100.410065 112.0
100.434143 132.0
100.450096 120.0
100.47435 132.0
100.509392 320.0
100.530678 176.0
100.565826 188.0
100.583687 168.0
100.616936 232.0
100.639641 152.0
100.684364 272.0
100.724884 140.0
100.741547 208.0
100.776749 116.0
100.797729 272.0
100.84124 132.0
100.908089 112.0
100.915573 104.0
100.93055 192.0
100.963303 144.0
100.970116 136.0
100.993416 160.0
101.019615 160.0
101.049423 196.0
101.075439 128.0
101.091446 196.0
101.10424 152.0
101.129471 220.0
101.157021 136.0
101.176514 52.0
101.193161 176.0
101.215553 116.0
101.23822 424.0
101.273682 168.0
101.324677 116.0
101.348267 188.0
101.409874 204.0
101.425911 48.0
101.439941 164.0
101.464729 148.0
101.502098 168.0
101.524155 56.0
101.544205 104.0
101.589821 148.0
101.613976 164.0
101.63739 152.0
101.696022 48.0
101.717514 172.0
101.735428 116.0
101.768707 156.0
101.803032 364.0
101.825188 72.0
101.85331 124.0
101.931664 176.0
101.96991 124.0
102.014687 156.0
102.046776 324.0
102.066338 132.0
102.080414 212.0
102.098511 304.0
102.136871 172.0
102.171173 164.0
102.215736 236.0
102.229797 200.0
102.279594 128.0
102.303749 156.0
102.350052 180.0
102.372147 176.0
102.414185 104.0
102.448738 152.0
102.464417 104.0
102.509239 152.0
102.540222 144.0
102.554817 112.0
102.589493 204.0
102.617683 172.0
102.646263 92.0
102.665123 164.0
102.70311 156.0
102.709991 80.0
102.715225 208.0
102.75145 192.0
102.77829 256.0
102.838402 132.0
102.880478 140.0
102.91526 152.0
102.932907 152.0
102.957031 120.0
102.971169 92.0
102.989349 88.0
103.011223 188.0
103.037827 52.0
103.055 128.0
103.090866 272.0
103.114616 248.0
103.132805 180.0
103.205582 104.0
103.244003 184.0
103.293159 132.0
103.318542 188.0
103.326836 160.0
103.381523 192.0
103.422043 140.0
103.448357 164.0
103.474678 228.0
103.498978 128.0
103.517197 76.0
103.531372 84.0
103.559731 160.0
103.62455 148.0
103.638733 208.0
103.668945 172.0
103.6894 48.0
103.719292 128.0
103.748177 96.0
103.790649 152.0
103.826347 116.0
103.853218 120.0
103.875839 164.0
103.904335 136.0
103.92057 172.0
103.938354 120.0
103.965576 264.0
103.989395 144.0
104.05249 136.0
104.094986 172.0
104.113403 240.0
104.150566 176.0
104.17231 100.0
104.207336 132.0
104.225136 144.0
104.246979 128.0
104.271812 144.0
104.332077 168.0
104.367416 96.0
104.392357 196.0
104.41304 160.0
104.523659 172.0
104.553307 168.0
104.581024 120.0
104.597305 128.0
104.615982 228.0
104.659683 264.0
104.676704 64.0
104.699829 136.0
104.71447 184.0
104.731697 68.0
104.763107 204.0
104.824097 124.0
104.839676 152.0
104.867729 152.0
104.910324 200.0
104.931404 40.0
104.949753 128.0
104.984169 200.0
105.025208 164.0
105.059883 140.0
105.075409 256.0
105.115158 188.0
105.196915 188.0
105.228035 152.0
105.24765 176.0
105.261948 144.0
105.290535 64.0
105.306557 52.0
105.32058 152.0
105.335655 88.0
105.366112 40.0
105.388588 144.0
105.402893 300.0
105.43354 96.0
105.465286 168.0
105.506073 232.0
105.530609 124.0
105.543289 192.0
105.564377 236.0
105.581947 244.0
105.629829 96.0
105.646194 236.0
105.678925 84.0
105.738266 192.0
105.756691 196.0
105.777161 44.0
105.808014 112.0
105.836533 396.0
105.854958 156.0
105.884369 100.0
105.91613 180.0
105.948677 164.0
106.023308 248.0
106.045486 108.0
106.070084 164.0
106.10083 172.0
106.141838 148.0
106.170547 184.0
106.190071 100.0
106.223549 204.0
106.228836 172.0
106.281319 164.0
106.326996 108.0
106.344559 180.0
106.36541 160.0
106.418839 96.0
106.463875 200.0
106.490662 160.0
106.516891 204.0
106.544121 92.0
106.599533 260.0
106.618088 176.0
106.646866 168.0
106.669472 284.0
106.704422 148.0
106.720871 100.0
106.73732 192.0
106.755829 84.0
106.774338 116.0
106.800545 124.0
106.834587 164.0
106.866905 160.0
106.905998 208.0
106.939018 164.0
106.977264 128.0
106.995598 136.0
107.044266 144.0
107.066475 84.0
107.07325 116.0
107.101158 228.0
107.125343 128.0
107.145157 188.0
107.184807 132.0
107.206146 160.0
107.249031 144.0
107.276741 156.0
107.303543 152.0
107.332405 156.0
107.37571 168.0
107.400223 172.0
107.462479 284.0
107.478249 68.0
107.486214 156.0
107.503616 76.0
107.530449 172.0
107.553261 148.0
107.582054 108.0
107.612129 204.0
107.651176 184.0
107.681168 204.0
107.706337 156.0
107.723366 196.0
107.762466 168.0
107.791969 220.0
107.827965 148.0
107.854721 132.0
107.90139 272.0
107.947762 72.0
107.9758 260.0
107.997391 212.0
108.047554 144.0
108.063332 288.0
108.083076 172.0
108.100906 188.0
108.12587 276.0
108.150505 172.0
108.173988 232.0
108.196045 116.0
108.210541 60.0
108.229324 164.0
108.273071 168.0
108.28923 164.0
108.340912 156.0
108.392479 124.0
108.430115 144.0
108.466629 244.0
108.489128 340.0
108.519249 192.0
108.557777 220.0
108.610497 176.0
108.662361 160.0
108.679604 116.0
108.68911 112.0
108.701233 152.0
108.727219 172.0
108.778572 64.0
108.797256 144.0
108.845337 152.0
108.882286 160.0
108.9002 184.0
108.965477 144.0
108.995605 216.0
109.01535 128.0
109.046227 140.0
109.081505 188.0
109.104721 140.0
109.149399 180.0
109.177498 92.0
109.196213 252.0
109.227898 224.0
109.259628 396.0
109.298149 128.0
109.348099 188.0
109.370987 96.0
109.387642 164.0
109.420471 268.0
109.43969 80.0
109.485504 116.0
109.523628 416.0
109.547989 132.0
109.635498 40.0
109.681351 60.0
109.709244 164.0
109.725128 268.0
109.789764 148.0
109.826912 168.0
109.869026 120.0
109.908669 92.0
109.923279 140.0
109.976822 128.0
109.982803 84.0
109.989044 172.0
110.026031 156.0
110.035812 100.0
110.041466 140.0
110.068832 192.0
110.095467 132.0
110.129585 164.0
110.164848 108.0
110.179771 128.0
110.199402 176.0
110.236008 184.0
110.256271 192.0
110.296913 372.0
110.329803 164.0
110.363655 140.0
110.389839 92.0
110.409172 148.0
110.446892 236.0
110.481712 132.0
110.510231 128.0
110.516487 116.0
110.539719 152.0
110.564835 124.0
110.580528 104.0
110.607582 160.0
110.652496 232.0
110.674812 276.0
110.705376 176.0
110.728935 156.0
110.737625 60.0
110.744217 188.0
110.765839 84.0
110.795807 184.0
110.820305 172.0
110.861069 212.0
110.891876 320.0
110.929283 100.0
110.977501 124.0
110.993942 200.0
111.05909 128.0
111.085526 176.0
111.113831 76.0
111.131752 184.0
111.135483 100.0
111.15789 152.0
111.211449 448.0
111.238525 124.0
111.268364 164.0
111.302727 180.0
111.328026 168.0
111.359428 148.0
111.379272 124.0
111.407745 148.0
111.445877 188.0
111.467903 196.0
111.535812 200.0
111.565353 140.0
111.611679 116.0
111.678909 140.0
111.750069 400.0
111.794617 296.0
111.809349 116.0
111.832649 168.0
111.869629 92.0
111.888535 136.0
111.900589 128.0
111.921516 184.0
111.964127 168.0
111.98423 124.0
112.011475 196.0
112.043076 136.0
112.064148 152.0
112.087326 272.0
112.118935 156.0
112.137901 112.0
112.169411 152.0
112.189972 108.0
112.215897 68.0
112.23909 136.0
112.300247 116.0
112.32 336.0
112.349899 372.0
112.396027 172.0
112.416283 80.0
112.472763 168.0
112.507339 140.0
112.571632 312.0
112.621071 40.0
112.654869 136.0
112.68026 204.0
112.709801 108.0
112.779541 108.0
112.807014 152.0
112.823929 160.0
112.84938 164.0
112.892128 188.0
112.921196 40.0
112.942352 160.0
112.967934 296.0
112.986771 168.0
113.039665 100.0
113.128212 192.0
113.156082 228.0
113.173019 148.0
113.242043 236.0
113.28743 128.0
113.319969 180.0
113.35112 100.0
113.44445 260.0
113.47448 156.0
113.499107 152.0
113.505135 152.0
113.529175 192.0
113.545982 160.0
113.56295 184.0
113.61174 72.0
113.636299 208.0
113.662148 184.0
113.688126 160.0
113.718506 164.0
113.739281 200.0
113.798988 140.0
113.824776 352.0
113.849464 212.0
113.864326 120.0
113.893906 160.0
113.920441 260.0
113.938675 124.0
113.971626 228.0
114.006668 284.0
114.035095 276.0
114.074684 112.0
114.104103 124.0
114.121567 76.0
114.155479 148.0
114.189636 188.0
114.207703 180.0
114.246605 156.0
114.279312 200.0
114.30864 144.0
114.370354 168.0
114.389725 80.0
114.397552 144.0
114.404221 184.0
114.414696 140.0
114.4701 216.0
114.504494 120.0
114.563484 132.0
114.577515 128.0
114.654488 148.0
114.677208 124.0
114.695259 88.0
114.719696 96.0
114.816399 168.0
114.871964 136.0
114.903107 152.0
114.924438 188.0
114.950043 152.0
114.996346 132.0
115.016792 116.0
115.03186 108.0
115.083878 160.0
115.110146 164.0
115.146446 144.0
115.174034 144.0
115.216736 328.0
115.295998 140.0
115.313095 104.0
115.385132 160.0
115.400505 148.0
115.432098 36.0
115.461868 184.0
115.478676 156.0
115.491425 256.0
115.531807 140.0
115.55687 156.0
115.59111 40.0
115.632736 212.0
115.68528 64.0
115.710274 160.0
115.746239 152.0
115.776772 180.0
115.800903 152.0
115.824226 192.0
115.868645 148.0
115.895164 128.0
115.926292 144.0
115.966583 196.0
115.985176 148.0
116.060211 128.0
116.079506 176.0
116.098808 84.0
116.117447 184.0
116.143044 160.0
116.204948 256.0
116.233948 200.0
116.272156 296.0
116.289749 152.0
116.319801 112.0
116.342918 276.0
116.378448 200.0
116.399239 208.0
116.416412 224.0
116.439171 168.0
116.512802 160.0
116.540016 136.0
116.578285 160.0
116.631264 112.0
116.660942 168.0
116.678551 152.0
116.723709 92.0
116.739761 160.0
116.811882 220.0
116.832527 188.0
116.873138 184.0
116.888 116.0
116.936211 164.0
116.958206 332.0
116.997086 196.0
117.057114 312.0
117.090179 244.0
117.134773 132.0
117.187408 260.0
117.210182 124.0
117.252274 232.0
117.32872 148.0
117.342514 128.0
117.359184 112.0
117.38694 156.0
117.440857 164.0
117.464584 172.0
117.490471 360.0
117.513168 176.0
117.552498 160.0
117.578003 292.0
117.590569 144.0
117.62085 184.0
117.669235 212.0
117.686867 156.0
117.701988 180.0
117.738693 132.0
117.766769 152.0
117.792694 80.0
117.814293 252.0
117.850922 244.0
117.884453 196.0
117.935303 196.0
117.967148 164.0
117.982857 280.0
118.01313 152.0
118.043221 192.0
118.067741 140.0
118.103104 336.0
118.137871 224.0
118.163574 188.0
118.181839 120.0
118.205635 184.0
118.220291 176.0
118.243835 184.0
118.266235 160.0
118.28788 112.0
118.310608 112.0
118.328186 148.0
118.352829 184.0
118.389107 388.0
118.41288 268.0
118.429047 144.0
118.525009 216.0
118.541283 160.0
118.560341 176.0
118.60305 160.0
118.662666 332.0
118.682175 200.0
118.736389 188.0
118.784111 168.0
118.827499 64.0
118.846878 176.0
118.873062 172.0
118.913132 112.0
118.954689 308.0
118.996788 308.0
119.020668 104.0
119.05825 144.0
119.103195 292.0
119.137947 132.0
119.158432 112.0
119.182907 208.0
119.209648 112.0
119.235062 52.0
119.264816 136.0
119.278625 196.0
119.327026 132.0
119.381386 172.0
119.437935 268.0
119.456596 124.0
119.498848 248.0
119.546715 140.0
119.576454 232.0
119.598953 116.0
119.629425 152.0
119.648422 132.0
119.682358 184.0
119.709045 240.0
119.758774 256.0
119.775322 92.0
119.810173 92.0
119.838501 128.0
119.875984 176.0
119.903748 136.0
119.949463 48.0
120.001373 132.0
120.078285 164.0
120.117546 140.0
120.139366 100.0
120.198273 208.0
120.252022 232.0
120.269012 164.0
120.296654 152.0
120.33387 128.0
120.353752 192.0
120.378723 240.0
120.393318 308.0
120.411247 164.0
120.417221 108.0
120.426682 160.0
120.432373 328.0
120.461288 272.0
120.495277 288.0
120.521439 208.0
120.575584 144.0
120.626091 176.0
120.648201 128.0
120.680992 352.0
120.701599 180.0
120.726913 156.0
120.746597 120.0
120.775818 188.0
120.818489 152.0
120.849411 96.0
120.864723 136.0
120.883652 160.0
120.891655 104.0
120.898544 88.0
120.926003 108.0
120.956642 112.0
120.987289 168.0
121.004807 164.0
121.031082 144.0
121.06472 264.0
121.103348 288.0
121.117661 284.0
121.140587 104.0
121.182213 120.0
121.238052 124.0
121.258904 120.0
121.287399 48.0
121.356308 204.0
121.372902 48.0
121.403603 184.0
121.447746 92.0
121.4673 168.0
121.49353 224.0
121.513275 44.0
121.528633 196.0
121.562424 120.0
121.624092 136.0
121.647141 212.0
121.663574 140.0
121.695442 168.0
121.716583 172.0
121.749725 172.0
121.780357 232.0
121.805702 208.0
121.82502 176.0
121.844322 112.0
121.871155 124.0
121.902466 256.0
121.956238 156.0
121.981041 176.0
122.027206 96.0
122.068253 168.0
122.132767 220.0
122.190323 240.0
122.236168 308.0
122.27491 204.0
122.291183 140.0
122.313194 148.0
122.357224 60.0
122.381439 132.0
122.405663 144.0
122.419411 100.0
122.502571 152.0
122.553185 292.0
122.578087 160.0
122.598045 160.0
122.634781 108.0
122.650208 164.0
122.684006 144.0
122.697601 120.0
122.720749 116.0
122.74501 156.0
122.811165 156.0
122.85276 196.0
122.883965 144.0
122.95237 156.0
122.992439 156.0
123.011475 180.0
123.110214 128.0
123.15358 180.0
123.186203 84.0
123.197815 208.0
123.271965 172.0
123.30352 76.0
123.323418 68.0
123.37159 136.0
123.405205 156.0
123.425529 84.0
123.456192 152.0
123.488548 204.0
123.50499 176.0
123.534286 152.0
123.579941 172.0
123.615341 92.0
123.64502 188.0
123.677307 160.0
123.72403 112.0
123.747932 248.0
123.797798 196.0
123.813515 108.0
123.858978 168.0
123.907616 40.0
123.94722 352.0
123.996178 132.0
124.003799 128.0
124.010223 184.0
124.035408 120.0
124.055038 232.0
124.072006 180.0
124.104866 76.0
124.122604 132.0
124.162521 132.0
124.179253 184.0
124.200226 188.0
124.265656 140.0
124.286751 196.0
124.321434 248.0
124.344444 184.0
124.371483 180.0
124.437683 180.0
124.460739 52.0
124.489464 200.0
124.524284 72.0
124.542053 104.0
124.569473 152.0
124.713142 196.0
124.754807 172.0
124.806931 168.0
124.823219 72.0
124.87545 96.0
124.899994 232.0
124.924385 128.0
124.942177 284.0
124.965149 148.0
124.983078 136.0
125.022285 280.0
125.066795 80.0
125.113541 100.0
125.142311 152.0
125.171432 176.0
125.201454 108.0
125.220421 200.0
125.240471 152.0
125.269424 144.0
125.296494 212.0
125.318443 152.0
125.365234 204.0
125.396835 176.0
125.430527 176.0
125.446701 196.0
125.462585 124.0
125.49675 124.0
125.514587 160.0
125.530197 196.0
125.559189 60.0
125.579262 136.0
125.597099 176.0
125.626099 204.0
125.641716 160.0
125.667282 192.0
125.69973 88.0
125.742126 148.0
125.778793 188.0
125.797928 176.0
125.838982 328.0
125.895058 188.0
125.94754 180.0
125.976578 168.0
126.038658 188.0
126.053864 196.0
126.091652 96.0
126.157593 164.0
126.177711 160.0
126.19783 132.0
126.222427 108.0
126.313942 96.0
126.347389 376.0
126.366074 200.0
126.399139 156.0
126.429817 316.0
126.437462 224.0
126.50116 144.0
126.521698 196.0
126.55336 160.0
126.593895 164.0
126.614044 132.0
126.645401 76.0
126.655525 100.0
126.680893 180.0
126.701408 92.0
126.738167 204.0
126.793274 108.0
126.811203 140.0
126.828613 172.0
126.858856 124.0
126.912086 148.0
126.958672 196.0
126.964188 136.0
127.006271 180.0
127.048897 160.0
127.062897 148.0
127.097038 180.0
127.120689 132.0
127.149864 160.0
127.165573 196.0
127.194298 236.0
127.223938 148.0
127.287781 92.0
127.318245 168.0
127.351929 140.0
127.371109 116.0
127.396622 152.0
127.420761 300.0
127.455421 120.0
127.531677 116.0
127.556404 156.0
127.616356 144.0
127.625069 96.0
127.633995 196.0
127.668823 84.0
127.701752 312.0
127.7229 184.0
127.741364 168.0
127.79908 252.0
127.817978 132.0
127.844299 188.0
127.8713 240.0
127.893433 120.0
127.90966 184.0
127.936096 356.0
127.966248 156.0
127.999619 156.0
128.041031 276.0
128.091965 144.0
128.143768 120.0
128.192047 284.0
128.207687 252.0
128.224899 136.0
128.245178 100.0
128.28125 148.0
128.305588 216.0
128.322876 188.0
128.341019 164.0
128.372803 284.0
128.406845 420.0
128.449295 196.0
128.490509 224.0
128.511276 128.0
128.538223 208.0
128.563187 104.0
128.595337 180.0
128.64444 108.0
128.682129 156.0
128.700882 152.0
128.720367 152.0
128.749237 212.0
128.788635 224.0
128.814697 304.0
128.889038 160.0
128.898361 160.0
128.902588 228.0
128.969711 148.0
128.992325 136.0
129.04567 228.0
129.08728 184.0
129.132568 140.0
129.185379 200.0
129.245178 144.0
129.284088 148.0
129.333954 128.0
129.355515 172.0
129.376892 140.0
129.392731 160.0
129.431 484.0
129.456131 68.0
129.471985 192.0
129.496902 156.0
129.527603 108.0
129.55806 144.0
129.576187 168.0
129.629593 176.0
129.657761 124.0
129.678513 180.0
129.712158 140.0
129.736267 188.0
129.755234 180.0
129.771103 140.0
129.806641 160.0
129.828842 324.0
129.85849 164.0
129.876099 188.0
129.920776 160.0
129.952545 128.0
129.987595 336.0
130.034241 112.0
130.067108 944.0
130.089081 100.0
130.11142 68.0
130.161301 132.0
130.178101 140.0
130.239639 164.0
130.280029 224.0
130.31308 96.0
130.323517 148.0
130.363541 120.0
130.402237 148.0
130.449905 120.0
130.46582 312.0
130.499924 152.0
130.526443 288.0
130.553101 200.0
130.581894 144.0
130.599976 140.0
130.665802 192.0
130.708191 144.0
130.753418 164.0
130.76207 216.0
130.780823 92.0
130.786774 44.0
130.794617 96.0
130.810654 136.0
130.848663 184.0
130.9095 180.0
130.964157 104.0
131.011993 140.0
131.034348 148.0
131.065979 220.0
131.088531 152.0
131.119095 56.0
131.141632 172.0
131.172653 192.0
131.192932 248.0
131.239899 144.0
131.264984 100.0
131.287796 128.0
131.322006 164.0
131.340256 140.0
131.367615 48.0
131.383591 72.0
131.417816 144.0
131.434174 152.0
131.460236 176.0
131.485153 148.0
131.512024 200.0
131.533096 124.0
131.554749 128.0
131.607254 68.0
131.667709 152.0
131.710022 116.0
131.750412 200.0
131.773987 180.0
131.805984 44.0
131.847305 188.0
131.876816 132.0
131.900696 144.0
131.906952 176.0
131.949966 72.0
131.965973 200.0
131.995697 128.0
132.02771 240.0
132.089478 100.0
132.132935 104.0
132.187149 156.0
132.205917 160.0
132.31282 252.0
132.337296 124.0
132.361816 140.0
132.377853 124.0
132.467178 212.0
132.509842 128.0
132.529266 296.0
132.548141 184.0
132.567978 208.0
132.621262 164.0
132.678009 168.0
132.714691 204.0
132.760544 76.0
132.776596 208.0
132.805756 152.0
132.845413 84.0
132.880966 256.0
132.923584 164.0
132.951767 228.0
132.973907 96.0
133.013657 188.0
133.061142 160.0
133.083496 208.0
133.114639 172.0
133.139069 136.0
133.158752 152.0
133.200592 164.0
133.242569 312.0
133.264481 112.0
133.282135 128.0
133.300735 156.0
133.322205 200.0
133.364227 136.0
133.371765 128.0
133.378662 164.0
133.399796 176.0
133.437225 252.0
133.493103 116.0
133.541504 188.0
133.578201 200.0
133.594315 104.0
133.626999 252.0
133.649521 116.0
133.682755 136.0
133.701019 212.0
133.785309 204.0
133.826752 96.0
133.848923 140.0
133.871094 220.0
133.900482 384.0
133.924179 184.0
133.949051 116.0
133.969543 132.0
133.991318 160.0
134.010635 196.0
134.034058 124.0
134.057098 92.0
134.136871 176.0
134.170044 256.0
134.197998 280.0
134.21846 332.0
134.235443 220.0
134.300552 308.0
134.31813 236.0
134.335693 144.0
134.351181 88.0
134.362839 80.0
134.36702 136.0
134.395569 88.0
134.408813 128.0
134.439911 148.0
134.480957 168.0
134.523544 148.0
134.566238 208.0
134.601562 144.0
134.639389 284.0
134.656921 112.0
134.726227 152.0
134.771362 96.0
134.795532 316.0
134.816818 172.0
134.838257 124.0
134.860245 124.0
134.885666 260.0
134.901855 156.0
134.943848 196.0
134.999374 176.0
135.031342 180.0
135.052795 172.0
135.091476 244.0
135.13237 136.0
135.173065 136.0
135.193283 68.0
135.23262 140.0
135.274292 120.0
135.299484 172.0
135.334488 168.0
135.366791 248.0
135.373184 236.0
135.404358 172.0
135.425735 148.0
135.444641 176.0
135.462524 196.0
135.479736 196.0
135.49971 132.0
135.53595 200.0
135.5448 156.0
135.612473 196.0
135.682022 200.0
135.710037 188.0
135.733017 96.0
135.757004 148.0
135.792084 180.0
135.8181 332.0
135.835892 344.0
135.88147 184.0
135.902344 208.0
135.941528 136.0
135.949295 120.0
135.956345 164.0
136.019501 168.0
136.077805 208.0
136.103027 184.0
136.120087 164.0
136.162888 172.0
136.232025 336.0
136.278015 164.0
136.317993 40.0
136.337799 344.0
136.378418 196.0
136.397003 56.0
136.438858 188.0
136.483032 120.0
136.518707 152.0
136.539627 152.0
136.55011 104.0
136.553345 136.0
136.592331 184.0
136.609604 132.0
136.655151 184.0
136.683075 48.0
136.70929 240.0
136.752884 156.0
136.778488 132.0
136.806244 152.0
136.825043 180.0
136.85408 144.0
136.872803 172.0
136.92572 128.0
136.932785 120.0
136.942139 168.0
136.996475 236.0
137.024155 140.0
137.064941 164.0
137.103745 136.0
137.127869 136.0
137.153168 164.0
137.204697 268.0
137.230438 108.0
137.270599 144.0
137.303085 128.0
137.343994 168.0
137.373337 204.0
137.40303 132.0
137.433716 52.0
137.469971 232.0
137.495773 232.0
137.587402 168.0
137.628693 116.0
137.648102 124.0
137.68486 196.0
137.764877 36.0
137.781113 200.0
137.791306 104.0
137.816284 216.0
137.866699 160.0
137.888718 112.0
137.912231 144.0
137.94516 184.0
137.975204 124.0
138.000275 116.0
138.024673 232.0
138.109299 140.0
138.152267 164.0
138.176346 136.0
138.214417 188.0
138.232498 152.0
138.272186 100.0
138.283508 180.0
138.328461 136.0
138.351868 228.0
138.368164 216.0
138.429779 196.0
138.467636 136.0
138.513 168.0
138.54184 168.0
138.586182 84.0
138.608826 204.0
138.634323 324.0
138.661057 96.0
138.689178 404.0
138.705582 116.0
138.729034 144.0
138.750809 160.0
138.801071 128.0
138.836884 104.0
138.86972 128.0
138.885223 224.0
138.914291 204.0
138.970596 148.0
139.002991 164.0
139.029175 120.0
139.054123 188.0
139.079788 340.0
139.10202 144.0
139.123993 272.0
139.144272 172.0
139.179123 356.0
139.212372 140.0
139.280472 168.0
139.315094 216.0
139.334503 180.0
139.355652 216.0
139.380386 288.0
139.421448 88.0
139.446335 184.0
139.470795 144.0
139.528259 144.0
139.567184 124.0
139.614609 192.0
139.647751 188.0
139.66832 52.0
139.684784 248.0
139.716339 228.0
139.748413 164.0
139.811096 140.0
139.871536 200.0
139.888351 180.0
139.92247 156.0
139.957779 104.0
139.982529 252.0
140.016708 168.0
140.047501 196.0
140.070831 204.0
140.087311 140.0
140.134811 244.0
140.173981 388.0
140.197113 256.0
140.211716 156.0
140.252258 164.0
140.34523 92.0
140.393723 132.0
140.429886 200.0
140.45488 116.0
140.509308 148.0
140.563568 112.0
140.591888 136.0
140.630829 200.0
140.724075 156.0
140.772781 356.0
140.809082 132.0
140.844299 132.0
140.868134 212.0
140.895752 288.0
140.931931 120.0
140.951706 108.0
140.983353 120.0
140.987503 92.0
141.005371 196.0
141.038269 96.0
141.071747 160.0
141.092819 184.0
141.120651 156.0
141.165939 88.0
141.18486 64.0
141.203613 184.0
141.253159 336.0
141.321457 128.0
141.421448 304.0
141.488281 152.0
141.523178 152.0
141.559662 192.0
141.584122 208.0
141.624008 224.0
141.655228 164.0
141.680542 168.0
141.701736 264.0
141.726715 180.0
141.769806 172.0
141.79129 164.0
141.811691 180.0
141.835953 136.0
141.9039 320.0
141.928406 148.0
141.957886 96.0
141.9841 148.0
142.020905 164.0
142.037506 148.0
142.055817 172.0
142.087326 84.0
142.162949 160.0
142.194107 244.0
142.22496 176.0
142.289505 352.0
142.308044 160.0
142.348404 168.0
142.380356 240.0
142.389404 108.0
142.398651 152.0
142.454056 172.0
142.507217 28.0
142.571121 192.0
142.612122 496.0
142.665909 140.0
142.672409 88.0
142.68222 172.0
142.725418 140.0
142.777344 172.0
142.805084 204.0
142.820938 180.0
142.85466 128.0
142.884628 328.0
142.924835 132.0
142.952682 204.0
143.014877 156.0
143.037888 120.0
143.090256 100.0
143.122971 168.0
143.145828 320.0
143.173599 168.0
143.199799 164.0
143.228378 120.0
143.259354 184.0
143.279327 116.0
143.30011 296.0
143.345123 208.0
143.361801 68.0
143.390396 144.0
143.415878 148.0
143.467438 100.0
143.499405 176.0
143.505829 188.0
143.547363 228.0
143.569199 84.0
143.597992 108.0
143.620911 204.0
143.661392 332.0
143.712585 148.0
143.734741 152.0
143.767212 188.0
143.824493 200.0
143.851349 176.0
143.894516 108.0
143.942734 196.0
143.967316 156.0
143.976547 128.0
143.987091 116.0
144.016541 148.0
144.046555 56.0
144.074188 156.0
144.113449 188.0
144.130173 148.0
144.165604 160.0
144.194702 48.0
144.223373 208.0
144.242508 124.0
144.295929 260.0
144.319 156.0
144.357162 204.0
144.379242 128.0
144.442352 240.0
144.493607 136.0
144.526108 172.0
144.56395 220.0
144.599457 152.0
144.659531 36.0
144.684387 156.0
144.705383 108.0
144.773315 200.0
144.789581 148.0
144.821548 360.0
144.851471 156.0
144.867004 140.0
144.91095 412.0
144.926422 144.0
144.977829 212.0
145.025497 204.0
145.036453 168.0
145.061172 168.0
145.089935 28.0
145.118637 132.0
145.127441 112.0
145.134766 144.0
145.169754 152.0
145.220963 188.0
145.254913 156.0
145.312973 164.0
145.352295 328.0
145.385361 172.0
145.513565 384.0
145.543396 184.0
145.57843 272.0
145.598846 136.0
145.654846 148.0
145.681625 124.0
145.711533 164.0
145.734421 152.0
145.743607 80.0
145.750229 180.0
145.759384 100.0
145.768463 172.0
145.776932 220.0
145.812454 136.0
145.84285 136.0
145.876511 172.0
145.927597 160.0
145.990356 196.0
146.048065 88.0
146.117828 148.0
146.137085 100.0
146.168365 152.0
146.209274 136.0
146.226578 256.0
146.265503 200.0
146.304993 224.0
146.319641 108.0
146.368149 152.0
146.376678 192.0
146.40799 356.0
146.43544 236.0
146.452438 112.0
146.490524 148.0
146.53244 132.0
146.580124 204.0
146.633148 168.0
146.652191 244.0
146.678223 136.0
146.710281 184.0
146.728409 136.0
146.770554 124.0
146.806717 228.0
146.833008 200.0
146.874069 156.0
146.910431 204.0
146.945496 240.0
146.977997 72.0
147.040741 180.0
147.059265 200.0
147.086548 160.0
147.092911 156.0
147.144119 152.0
147.18074 192.0
147.209717 152.0
147.239334 204.0
147.285675 240.0
147.320648 160.0
147.344986 388.0
147.371567 76.0
147.403824 228.0
147.427139 196.0
147.460968 404.0
147.486557 100.0
147.505966 72.0
147.533432 168.0
147.61322 160.0
147.657181 260.0
147.681 124.0
147.710022 192.0
147.72937 124.0
147.746063 116.0
147.764542 224.0
147.789291 156.0
147.820847 188.0
147.862457 108.0
147.889069 140.0
147.916107 144.0
147.940964 192.0
147.969238 136.0
147.993164 48.0
148.049957 160.0
148.092194 148.0
148.136063 88.0
148.186935 128.0
148.202194 156.0
148.24025 220.0
148.265656 132.0
148.315369 212.0
148.346222 116.0
148.36232 132.0
148.398865 100.0
148.417191 52.0
148.451141 188.0
148.489075 172.0
148.556198 204.0
148.577271 72.0
148.594254 160.0
148.628052 232.0
148.679184 108.0
148.75174 264.0
148.768784 96.0
148.789246 128.0
148.795471 44.0
148.804764 168.0
148.819977 204.0
148.850204 176.0
148.8974 172.0
148.977859 356.0
149.023987 100.0
149.051727 232.0
149.087173 132.0
149.121262 136.0
149.154007 168.0
149.177109 120.0
149.199875 108.0
149.268051 168.0
149.310837 68.0
149.362595 228.0
149.388672 136.0
149.456787 124.0
149.484055 212.0
149.508026 372.0
149.535477 204.0
149.566299 128.0
149.593079 132.0
149.625107 128.0
149.672211 128.0
149.693695 232.0
149.71405 240.0
149.73674 164.0
149.758652 100.0
149.789581 172.0
149.812241 160.0
149.83313 336.0
149.851227 156.0
149.888062 136.0
149.93895 152.0
149.963318 172.0
149.987701 80.0
150.011139 188.0
150.020905 116.0
150.040588 272.0
150.101761 320.0
150.126114 176.0
150.165695 184.0
150.192154 132.0
150.329147 180.0
150.36644 172.0
150.397247 232.0
150.42688 364.0
150.442398 100.0
150.470718 176.0
150.504898 44.0
150.527649 176.0
150.550919 156.0
150.574493 188.0
150.607468 92.0
150.640915 184.0
150.688324 120.0
150.717407 136.0
150.744461 272.0
150.822495 96.0
150.842041 212.0
150.865295 312.0
150.900711 96.0
150.955551 128.0
150.973373 140.0
151.013199 160.0
151.052917 716.0
151.105896 184.0
151.161636 208.0
151.259277 148.0
151.311737 48.0
151.333771 40.0
151.370758 156.0
151.397446 152.0
151.419479 200.0
151.497864 208.0
151.520126 328.0
151.576263 48.0
151.598328 176.0
151.621246 140.0
151.638794 164.0
151.645935 84.0
151.658157 200.0
151.690536 116.0
151.736816 128.0
151.745453 192.0
151.784622 72.0
151.809143 108.0
151.829605 116.0
151.892532 200.0
151.924194 196.0
151.947464 132.0
152.013641 208.0
152.059433 372.0
152.108475 136.0
152.128815 56.0
152.146378 172.0
152.188736 144.0
152.220551 228.0
152.251083 144.0
152.289795 208.0
152.32753 132.0
152.363861 112.0
152.386826 116.0
152.415466 108.0
152.432663 180.0
152.453918 224.0
152.494278 112.0
152.511307 140.0
152.535889 96.0
152.570251 228.0
152.617279 148.0
152.644058 168.0
152.670746 136.0
152.721985 228.0
152.726578 152.0
152.752274 136.0
152.771957 176.0
152.818695 160.0
152.876404 260.0
152.909653 100.0
152.959427 152.0
152.993912 228.0
153.063538 396.0
153.093445 312.0
153.110458 204.0
153.143295 164.0
153.205231 160.0
153.227402 144.0
153.26358 276.0
153.273438 188.0
153.277298 112.0
153.313644 100.0
153.351608 328.0
153.38266 148.0
153.41716 200.0
153.455078 148.0
153.48204 348.0
153.543854 116.0
153.583496 204.0
153.614456 212.0
153.641586 64.0
153.713135 112.0
153.751038 212.0
153.77977 184.0
153.815765 164.0
153.819794 132.0
153.863739 160.0
153.885208 140.0
153.910614 136.0
153.932831 64.0
153.979492 136.0
154.029785 160.0
154.065536 180.0
154.08728 204.0
154.091354 248.0
154.118118 256.0
154.137863 164.0
154.178772 208.0
154.18959 116.0
154.19574 200.0
154.218201 156.0
154.243729 228.0
154.275345 160.0
154.370224 76.0
154.40979 168.0
154.443451 132.0
154.487915 136.0
154.498215 80.0
154.504044 196.0
154.526596 128.0
154.560516 216.0
154.584686 400.0
154.617111 156.0
154.635513 168.0
154.651901 112.0
154.693604 120.0
154.706055 224.0
154.712402 120.0
154.755798 184.0
154.786133 204.0
154.805283 128.0
154.85614 140.0
154.880051 160.0
155.011139 136.0
155.0634 168.0
155.108017 136.0
155.125366 392.0
155.147675 132.0
155.17247 80.0
155.193497 208.0
155.217102 296.0
155.2509 108.0
155.303894 204.0
155.331192 120.0
155.351028 112.0
155.37088 184.0
155.397797 136.0
155.47261 140.0
155.505966 136.0
155.547073 188.0
155.578888 132.0
155.58342 112.0
155.615326 176.0
155.639984 196.0
155.660141 184.0
155.692291 172.0
155.715912 140.0
155.734131 96.0
155.795471 132.0
155.827698 104.0
155.884842 116.0
155.93454 192.0
155.960358 176.0
155.995453 160.0
156.020645 176.0
156.063538 108.0
156.082611 132.0
156.101105 132.0
156.1409 180.0
156.19313 140.0
156.27771 68.0
156.30191 156.0
156.392197 140.0
156.427032 144.0
156.469772 144.0
156.55484 156.0
156.636215 168.0
156.675217 200.0
156.710739 200.0
156.743332 148.0
156.788193 108.0
156.805634 164.0
156.838043 164.0
156.866272 148.0
156.890381 156.0
156.907837 140.0
156.97081 188.0
157.022751 48.0
157.044998 100.0
157.069931 164.0
157.145874 192.0
157.167496 304.0
157.260422 128.0
157.316772 196.0
157.376602 196.0
157.404358 128.0
157.425095 112.0
157.476791 84.0
157.506393 128.0
157.55069 244.0
157.594193 132.0
157.632095 192.0
157.643341 180.0
157.687073 120.0
157.719147 168.0
157.751648 224.0
157.778229 240.0
157.876663 248.0
157.904175 124.0
157.958923 180.0
158.004272 172.0
158.049377 176.0
158.079285 256.0
158.106567 160.0
158.137024 140.0
158.164383 128.0
158.1819 216.0
158.255875 212.0
158.292068 188.0
158.314026 132.0
158.332138 112.0
158.35968 176.0
158.394745 224.0
158.429764 108.0
158.46962 288.0
158.511795 188.0
158.537567 132.0
158.559006 160.0
158.62027 168.0
158.675339 128.0
158.709793 204.0
158.81015 164.0
158.843872 164.0
158.86705 104.0
158.893616 68.0
158.937912 104.0
158.942032 148.0
158.978821 180.0
159.011551 124.0
159.041245 140.0
159.063629 96.0
159.070236 136.0
159.093933 88.0
159.102448 132.0
159.145386 176.0
159.162003 112.0
159.186172 156.0
159.227463 100.0
159.245041 172.0
159.274872 64.0
159.307846 128.0
159.343018 172.0
159.370651 96.0
159.424286 220.0
159.458603 180.0
159.491287 216.0
159.516418 180.0
159.53569 168.0
159.583511 140.0
159.617844 164.0
159.622314 336.0
159.647675 196.0
159.690979 168.0
159.722961 176.0
159.751144 128.0
159.795563 148.0
159.828278 196.0
159.860992 132.0
159.883636 152.0
159.92894 144.0
159.954788 180.0
159.976761 184.0
160.004456 148.0
160.049774 76.0
160.074951 180.0
160.09259 352.0
160.110214 128.0
160.149887 160.0
160.188568 216.0
160.209457 140.0
160.240524 148.0
160.274872 188.0
160.301666 136.0
160.324356 188.0
160.341995 80.0
160.36467 52.0
160.432266 192.0
160.473541 124.0
160.514023 124.0
160.534103 156.0
160.576462 256.0
160.613571 112.0
160.682404 144.0
160.701218 168.0
160.744278 96.0
160.78334 172.0
160.828766 160.0
160.914597 148.0
160.936783 148.0
160.957092 164.0
160.977081 204.0
161.005508 200.0
161.02832 112.0
161.058548 144.0
161.08493 216.0
161.157074 52.0
161.215179 112.0
161.245514 140.0
161.350067 88.0
161.384552 164.0
161.419708 188.0
161.437561 228.0
161.473053 180.0
161.514587 136.0
161.539169 144.0
161.557938 144.0
161.568039 80.0
161.580978 188.0
161.622299 128.0
161.657043 44.0
161.712921 164.0
161.76358 136.0
161.778259 296.0
161.811462 136.0
161.841827 208.0
161.885559 124.0
161.928619 152.0
161.985275 152.0
162.002075 140.0
162.042603 160.0
162.080612 196.0
162.138901 164.0
162.155411 152.0
162.196182 200.0
162.217285 168.0
162.241547 152.0
162.2603 112.0
162.281998 144.0
162.303665 164.0
162.355835 216.0
162.363846 132.0
162.37413 168.0
162.447845 236.0
162.468521 128.0
162.497375 140.0
162.590012 228.0
162.623657 292.0
162.653778 108.0
162.697937 192.0
162.735718 172.0
162.765747 152.0
162.831512 232.0
162.851822 180.0
162.896515 364.0
162.916824 136.0
162.965744 152.0
162.999954 52.0
163.03743 412.0
163.069427 176.0
163.080109 212.0
163.11058 240.0
163.131927 140.0
163.187271 316.0
163.206238 132.0
163.249847 144.0
163.280807 148.0
163.314423 196.0
163.334763 224.0
163.397491 164.0
163.414536 168.0
163.431442 236.0
163.454849 160.0
163.503235 360.0
163.520508 276.0
163.547653 144.0
163.646317 188.0
163.742004 84.0
163.782944 168.0
163.803131 128.0
163.85408 92.0
163.882111 180.0
163.899673 212.0
163.974136 144.0
164.049042 144.0
164.080307 136.0
164.116699 200.0
164.154739 176.0
164.190552 60.0
164.219299 132.0
164.246658 172.0
164.30278 68.0
164.330856 132.0
164.393112 240.0
164.430374 92.0
164.490768 196.0
164.527359 284.0
164.557999 108.0
164.5793 176.0
164.599594 292.0
164.637161 348.0
164.680573 180.0
164.718414 192.0
164.774719 176.0
164.82077 128.0
164.861649 300.0
164.87883 100.0
164.885483 200.0
164.895844 280.0
164.935013 312.0
164.994888 172.0
165.043457 108.0
165.069565 304.0
165.127853 176.0
165.145752 176.0
165.183914 144.0
165.19751 300.0
165.252289 180.0
165.290039 384.0
165.325226 212.0
165.355057 124.0
165.392258 176.0
165.433365 176.0
165.451248 156.0
165.479889 180.0
165.498917 160.0
165.544998 264.0
165.575455 112.0
165.609024 148.0
165.652573 56.0
165.685822 200.0
165.703537 184.0
165.722321 180.0
165.749924 72.0
165.789307 88.0
165.839233 104.0
165.887177 116.0
165.911407 160.0
166.004623 324.0
166.025986 176.0
166.063736 148.0
166.10202 132.0
166.150177 168.0
166.208923 176.0
166.231262 124.0
166.24826 132.0
166.310837 192.0
166.334045 132.0
166.367676 140.0
166.420578 112.0
166.445709 160.0
166.474274 208.0
166.484909 140.0
166.495407 352.0
166.514404 156.0
166.534958 120.0
166.571259 204.0
166.599457 144.0
166.622147 140.0
166.671112 92.0
166.694229 156.0
166.739227 100.0
166.789322 124.0
166.825317 136.0
166.876984 200.0
166.888855 140.0
166.930725 80.0
166.94873 264.0
166.966736 120.0
166.989563 128.0
166.997498 112.0
167.006058 124.0
167.016296 148.0
167.075073 444.0
167.103806 180.0
167.130264 208.0
167.193924 156.0
167.218201 156.0
167.255356 156.0
167.283203 192.0
167.301224 84.0
167.321823 108.0
167.341736 212.0
167.355728 188.0
167.37793 152.0
167.414383 216.0
167.451385 152.0
167.486191 164.0
167.494522 136.0
167.500061 172.0
167.537125 284.0
167.612747 308.0
167.653519 140.0
167.712524 168.0
167.757202 84.0
167.780838 248.0
167.838577 220.0
167.883545 176.0
167.926132 240.0
167.947937 120.0
168.002136 180.0
168.044434 244.0
168.073441 144.0
168.163071 164.0
168.232986 184.0
168.262848 136.0
168.291245 168.0
168.322235 100.0
168.352692 336.0
168.372238 232.0
168.395996 356.0
168.433609 224.0
168.453949 160.0
168.483978 160.0
168.52092 308.0
168.565048 268.0
168.634537 496.0
168.659668 208.0
168.698181 148.0
168.720123 124.0
168.771835 148.0
168.808029 144.0
168.833893 160.0
168.929596 124.0
168.960632 228.0
168.981339 128.0
169.01088 220.0
169.034622 148.0
169.070648 340.0
169.083038 360.0
169.116119 140.0
169.189224 304.0
169.25795 92.0
169.290314 248.0
169.31073 104.0
169.340256 316.0
169.372345 152.0
169.417145 144.0
169.437988 176.0
169.470688 356.0
169.50177 120.0
169.543243 188.0
169.580643 340.0
169.620987 136.0
169.644318 216.0
169.668365 368.0
169.690994 144.0
169.733566 104.0
169.786926 224.0
169.810272 44.0
169.856964 252.0
169.875122 120.0
169.89328 60.0
169.921814 152.0
169.958145 312.0
170.029282 136.0
170.063278 132.0
170.093094 84.0
170.116455 132.0
170.134628 136.0
170.178757 208.0
170.199539 184.0
170.241089 136.0
170.26683 140.0
170.339783 188.0
170.368347 176.0
170.392761 152.0
170.430145 204.0
170.461487 180.0
170.480621 192.0
170.519058 104.0
170.571686 164.0
170.605515 216.0
170.641235 160.0
170.66423 252.0
170.688034 168.0
170.728806 148.0
170.744308 276.0
170.763458 164.0
170.830719 140.0
170.862305 60.0
170.91304 144.0
170.924744 160.0
170.932846 144.0
170.940826 176.0
171.015259 164.0
171.043823 196.0
171.070435 216.0
171.109543 104.0
171.130371 132.0
171.166763 200.0
171.211807 200.0
171.231735 164.0
171.259232 128.0
171.323959 156.0
171.35321 308.0
171.422104 52.0
171.459152 188.0
171.496155 136.0
171.524155 156.0
171.569138 232.0
171.599518 308.0
171.635849 52.0
171.655731 100.0
171.678024 116.0
171.712708 212.0
171.738785 120.0
171.784943 48.0
171.857559 168.0
171.885391 132.0
171.914963 144.0
171.938461 212.0
171.961945 120.0
172.053314 144.0
172.126984 128.0
172.185287 140.0
172.275284 140.0
172.302338 192.0
172.325546 168.0
172.348434 168.0
172.398087 192.0
172.432068 136.0
172.500687 204.0
172.531082 172.0
172.646439 156.0
172.664749 180.0
172.690033 168.0
172.714447 196.0
172.735367 212.0
172.800766 160.0
172.856537 152.0
172.897583 132.0
172.949936 164.0
172.979919 296.0
173.036743 100.0
173.065125 152.0
173.089493 116.0
173.129059 144.0
173.145294 156.0
173.189407 172.0
173.219635 176.0
173.279312 128.0
173.304764 172.0
173.360306 52.0
173.399887 188.0
173.44809 176.0
173.471191 152.0
173.494263 180.0
173.657364 204.0
173.685654 180.0
173.725571 132.0
173.750809 184.0
173.782303 104.0
173.822647 296.0
173.869293 148.0
173.909241 168.0
173.948914 288.0
173.980118 156.0
174.011627 156.0
174.03479 204.0
174.064758 168.0
174.095291 232.0
174.136032 180.0
174.190201 304.0
174.275299 240.0
174.309769 160.0
174.351715 156.0
174.480011 216.0
174.507263 136.0
174.535645 136.0
174.560791 196.0
174.579193 136.0
174.601349 160.0
174.644943 152.0
174.663361 136.0
174.70018 112.0
174.731354 176.0
174.771362 152.0
174.815948 44.0
174.855621 128.0
174.875092 428.0
174.904282 164.0
174.95018 320.0
174.998856 184.0
175.030487 168.0
175.052612 328.0
175.081833 148.0
175.100281 64.0
175.120956 204.0
175.152451 104.0
175.1707 96.0
175.197037 144.0
175.215591 128.0
175.245163 140.0
175.274139 192.0
175.299988 172.0
175.318588 160.0
175.330215 100.0
175.358475 116.0
175.391159 188.0
175.411179 132.0
175.478561 208.0
175.486282 116.0
175.506012 264.0
175.554779 104.0
175.601028 180.0
175.675034 148.0
175.698624 140.0
175.735565 88.0
175.777664 92.0
175.806686 136.0
175.858612 128.0
175.882706 116.0
175.886429 264.0
175.953445 116.0
175.963058 144.0
176.01535 176.0
176.062393 1500.0
176.091934 216.0
176.122894 156.0
176.155975 116.0
176.216095 112.0
176.254425 144.0
176.292725 132.0
176.371384 184.0
176.388809 180.0
176.431717 212.0
176.459015 328.0
176.53569 300.0
176.561691 108.0
176.615265 256.0
176.639938 148.0
176.658707 228.0
176.707855 120.0
176.734314 108.0
176.771362 160.0
176.804749 136.0
176.853409 112.0
176.878235 116.0
176.932816 152.0
176.95253 280.0
176.981995 160.0
176.999893 252.0
177.067642 1476.0
177.102295 240.0
177.155899 184.0
177.176468 140.0
177.212189 224.0
177.242035 80.0
177.258011 272.0
177.300507 192.0
177.328384 192.0
177.359314 112.0
177.406631 160.0
177.441193 188.0
177.463043 204.0
177.521042 184.0
177.548203 148.0
177.608154 184.0
177.663483 424.0
177.70575 192.0
177.751816 168.0
177.784149 164.0
177.812851 128.0
177.843277 208.0
177.851013 96.0
177.858902 148.0
177.930191 236.0
177.966537 148.0
178.019836 124.0
178.067902 944.0
178.105942 176.0
178.151184 172.0
178.171326 176.0
178.194946 36.0
178.232437 124.0
178.257843 200.0
178.293549 112.0
178.344055 72.0
178.369476 200.0
178.440842 108.0
178.504105 196.0
178.567398 148.0
178.59639 216.0
178.62027 272.0
178.63826 112.0
178.659241 212.0
178.716354 316.0
178.736694 236.0
178.744156 152.0
178.784302 120.0
178.870712 124.0
178.89534 212.0
178.931946 376.0
178.992126 232.0
179.019897 120.0
179.074921 1092.0
179.126343 168.0
179.152985 220.0
179.192947 128.0
179.216873 204.0
179.242752 152.0
179.283951 160.0
179.327179 108.0
179.347519 80.0
179.366165 132.0
179.384827 212.0
179.404526 124.0
179.483337 152.0
179.531372 100.0
179.592072 172.0
179.67186 256.0
179.748489 304.0
179.779984 168.0
179.816711 344.0
179.862305 52.0
179.913025 160.0
179.949173 224.0
179.966766 148.0
179.989258 160.0
180.035706 340.0
180.079437 1388.0
180.116333 184.0
180.146469 188.0
180.18927 156.0
180.219971 248.0
180.254349 420.0
180.293335 272.0
180.321213 108.0
180.378799 200.0
180.450027 128.0
180.498154 28.0
180.560989 116.0
180.609695 244.0
180.639908 40.0
180.675781 272.0
180.714813 72.0
180.743225 220.0
180.762222 216.0
180.831848 212.0
180.872696 192.0
180.895523 176.0
180.926544 104.0
180.959229 236.0
180.977737 172.0
181.051666 76.0
181.089127 824.0
181.134247 272.0
181.16861 184.0
181.194046 100.0
181.238235 204.0
181.264175 320.0
181.291611 156.0
181.330719 356.0
181.369125 144.0
181.395981 148.0
181.46431 272.0
181.494232 184.0
181.526596 176.0
181.555908 220.0
181.577377 112.0
181.639847 68.0
181.673935 136.0
181.695389 280.0
181.72023 216.0
181.754425 264.0
181.822311 272.0
181.846466 160.0
181.867615 156.0
181.906342 204.0
181.928207 160.0
181.948608 184.0
181.969147 216.0
182.014786 92.0
182.0681 188.0
182.090714 300.0
182.141418 136.0
182.192062 192.0
182.249634 168.0
182.27803 144.0
182.350586 100.0
182.372101 172.0
182.398972 176.0
182.417786 104.0
182.450043 172.0
182.474243 260.0
182.521194 156.0
182.558701 156.0
182.597397 172.0
182.631714 152.0
182.656311 188.0
182.663147 248.0
182.685745 384.0
182.748581 136.0
182.790207 136.0
182.837387 140.0
182.888519 176.0
182.950439 212.0
182.969284 212.0
182.992996 168.0
183.015045 84.0
183.053177 200.0
183.102692 156.0
183.144257 116.0
183.17363 140.0
183.183212 168.0
183.229614 204.0
183.252197 176.0
183.271469 140.0
183.297867 144.0
183.327515 132.0
183.354462 172.0
183.378723 152.0
183.416458 160.0
183.477859 184.0
183.516434 140.0
183.542694 152.0
183.582077 176.0
183.633316 112.0
183.696899 332.0
183.7211 148.0
183.750854 124.0
183.791138 116.0
183.849747 148.0
183.923553 180.0
183.955688 336.0
184.001846 156.0
184.02597 124.0
184.082199 172.0
184.11525 68.0
184.153061 156.0
184.174667 108.0
184.193588 148.0
184.215195 112.0
184.250732 140.0
184.280807 180.0
184.325958 72.0
184.355682 100.0
184.400757 124.0
184.424896 148.0
184.473068 176.0
184.522583 172.0
184.58197 164.0
184.623184 148.0
184.680115 184.0
184.72258 160.0
184.754684 324.0
184.777267 200.0
184.809036 244.0
184.880325 92.0
184.93663 164.0
184.97084 236.0
184.999802 196.0
185.048477 172.0
185.094177 180.0
185.130005 140.0
185.190125 188.0
185.228073 176.0
185.2621 240.0
185.29213 144.0
185.318649 156.0
185.370483 316.0
185.402206 108.0
185.439789 128.0
185.463226 160.0
185.483429 160.0
185.505997 132.0
185.550751 220.0
185.633423 116.0
185.675797 160.0
185.70665 172.0
185.736908 336.0
185.779037 160.0
185.822098 100.0
185.861755 180.0
185.896561 124.0
185.918259 152.0
185.962524 168.0
185.999695 172.0
186.044846 168.0
186.090378 208.0
186.110992 256.0
186.134644 180.0
186.221146 200.0
186.265793 200.0
186.28923 80.0
186.374466 144.0
186.401642 148.0
186.428818 152.0
186.463257 148.0
186.498566 144.0
186.581024 116.0
186.627609 152.0
186.65715 128.0
186.691238 156.0
186.711548 208.0
186.737534 216.0
186.748993 120.0
186.75621 132.0
186.803497 100.0
186.847549 240.0
186.934616 112.0
186.964554 164.0
186.989044 252.0
187.02063 292.0
187.047546 408.0
187.08432 144.0
187.122849 192.0
187.150955 140.0
187.220276 160.0
187.254547 124.0
187.30864 132.0
187.37027 136.0
187.479553 156.0
187.510254 160.0
187.536499 148.0
187.580566 188.0
187.622696 192.0
187.675522 52.0
187.704971 240.0
187.757339 72.0
187.787338 180.0
187.810059 188.0
187.827118 116.0
187.852798 132.0
187.903854 140.0
187.948074 176.0
187.96817 180.0
188.032883 136.0
188.103851 200.0
188.128418 216.0
188.147522 160.0
188.228577 352.0
188.262817 216.0
188.30864 312.0
188.345795 112.0
188.393066 264.0
188.434448 204.0
188.474731 160.0
188.506622 144.0
188.550827 148.0
188.576065 236.0
188.586166 208.0
188.641983 120.0
188.663559 224.0
188.721268 116.0
188.748611 100.0
188.769852 172.0
188.815994 212.0
188.85527 152.0
188.87442 48.0
188.899033 144.0
188.922012 360.0
188.99675 156.0
189.031189 172.0
189.070099 368.0
189.132767 128.0
189.156265 168.0
189.180893 124.0
189.202789 436.0
189.231461 308.0
189.251938 316.0
189.295425 120.0
189.343674 80.0
189.375015 384.0
189.428726 88.0
189.47821 184.0
189.514786 144.0
189.541245 208.0
189.554184 124.0
189.58078 220.0
189.616241 180.0
189.645874 176.0
189.690414 140.0
189.722488 200.0
189.75177 296.0
189.800079 76.0
189.819275 164.0
189.83847 76.0
189.867676 148.0
189.941162 144.0
189.975815 164.0
190.000305 208.0
190.02774 228.0
190.063812 744.0
190.107315 132.0
190.152847 336.0
190.206116 156.0
190.235687 160.0
190.294434 116.0
190.361694 180.0
190.431274 128.0
190.455612 180.0
190.486801 128.0
190.512497 180.0
190.535645 124.0
190.576859 192.0
190.612579 268.0
190.635895 132.0
190.689804 140.0
190.758438 220.0
190.802231 96.0
190.821472 260.0
190.839828 240.0
190.892761 356.0
190.924881 132.0
190.967224 88.0
191.002975 208.0
191.074203 4328.0
191.129669 240.0
191.157043 136.0
191.21759 340.0
191.236862 80.0
191.294662 244.0
191.320526 192.0
191.355225 132.0
191.41214 144.0
191.454361 104.0
191.483856 124.0
191.517365 128.0
191.528427 112.0
191.542206 116.0
191.595459 228.0
191.647186 52.0
191.66922 212.0
191.688507 60.0
191.716537 232.0
191.745056 124.0
191.782211 168.0
191.824982 128.0
191.910049 172.0
191.96199 96.0
192.000626 148.0
192.075027 1076.0
192.129669 88.0
192.193115 76.0
192.245544 220.0
192.292328 152.0
192.32283 168.0
192.34491 300.0
192.373672 296.0
192.403 152.0
192.430496 140.0
192.463547 252.0
192.518951 212.0
192.547501 240.0
192.659714 144.0
192.694168 128.0
192.753647 260.0
192.799133 192.0
192.822739 332.0
192.858994 136.0
192.897369 120.0
192.925018 236.0
192.952881 100.0
192.983749 132.0
192.992889 80.0
193.044861 116.0
193.08931 348.0
193.110275 212.0
193.14473 132.0
193.21698 264.0
193.253845 156.0
193.288574 320.0
193.317764 128.0
193.340469 180.0
193.386963 40.0
193.420181 168.0
193.447861 164.0
193.503143 136.0
193.535156 180.0
193.577988 136.0
193.611954 104.0
193.647217 172.0
193.697083 116.0
193.760788 72.0
193.788712 256.0
193.840195 152.0
193.887253 132.0
193.933212 400.0
193.971405 180.0
193.996353 76.0
194.049026 168.0
194.09375 152.0
194.12944 168.0
194.159943 124.0
194.263382 192.0
194.30661 324.0
194.354126 124.0
194.375107 256.0
194.435318 200.0
194.456802 124.0
194.48912 112.0
194.552689 236.0
194.599106 136.0
194.611526 152.0
194.628967 140.0
194.706802 168.0
194.753891 152.0
194.773331 172.0
194.798325 108.0
194.83699 196.0
194.8573 124.0
194.940033 100.0
195.000244 84.0
195.032547 96.0
195.068512 304.0
195.100006 200.0
195.142639 260.0
195.177322 152.0
195.197144 136.0
195.227417 116.0
195.262512 48.0
195.333755 224.0
195.357498 132.0
195.392563 300.0
195.437759 136.0
195.503021 160.0
195.543518 192.0
195.581177 168.0
195.612808 276.0
195.667389 104.0
195.713318 192.0
195.735596 76.0
195.78978 272.0
195.848373 196.0
195.944489 112.0
196.006973 152.0
196.042023 228.0
196.073364 464.0
196.099442 172.0
196.122406 128.0
196.161865 56.0
196.195312 272.0
196.231567 88.0
196.287323 172.0
196.30661 144.0
196.314285 132.0
196.359833 124.0
196.447006 112.0
196.516052 108.0
196.573761 216.0
196.593796 144.0
196.633118 168.0
196.71196 320.0
196.756073 96.0
196.789566 92.0
196.825867 512.0
196.874252 136.0
196.897629 144.0
196.924271 264.0
196.952667 168.0
196.987488 308.0
197.014465 232.0
197.035568 244.0
197.057465 236.0
197.099609 204.0
197.123947 164.0
197.160095 224.0
197.178879 228.0
197.267441 304.0
197.324081 180.0
197.348724 208.0
197.361801 100.0
197.408493 176.0
197.527359 120.0
197.560928 220.0
197.580505 152.0
197.630875 148.0
197.700928 360.0
197.782532 288.0
197.835175 192.0
197.887314 152.0
197.924774 116.0
197.978424 148.0
198.018066 192.0
198.065048 208.0
198.150558 144.0
198.184479 156.0
198.209335 108.0
198.28212 164.0
198.303696 200.0
198.40387 132.0
198.431915 324.0
198.451538 112.0
198.508636 300.0
198.569305 136.0
198.608582 128.0
198.664368 36.0
198.673477 236.0
198.712372 160.0
198.746902 92.0
198.812668 204.0
198.861832 184.0
198.891983 164.0
198.92128 100.0
198.945312 124.0
198.990234 80.0
199.011597 124.0
199.092651 136.0
199.142868 192.0
199.203827 212.0
199.246765 212.0
199.309235 164.0
199.344147 184.0
199.374115 196.0
199.395035 128.0
199.417221 188.0
199.471008 116.0
199.485886 120.0
199.491104 168.0
199.540894 112.0
199.588699 128.0
199.616821 192.0
199.666641 212.0
199.687119 112.0
199.725327 172.0
199.809555 144.0
199.843292 256.0
199.883331 188.0
199.891754 184.0
199.914673 68.0
199.964157 160.0
200.000351 172.0
200.047806 108.0
200.083252 176.0
200.136719 152.0
200.147614 124.0
200.155594 208.0
200.201294 160.0
200.284943 160.0
200.347794 232.0
200.38678 168.0
200.394852 280.0
200.44722 144.0
200.469772 132.0
200.502396 148.0
200.531418 148.0
200.582504 196.0
200.630432 340.0
200.672989 164.0
200.726669 148.0
200.75325 184.0
200.787354 104.0
200.798782 176.0
200.804474 72.0
200.831635 124.0
200.8367 212.0
200.848267 112.0
200.885696 192.0
200.948959 140.0
201.013031 240.0
201.057709 596.0
201.10997 176.0
201.143845 148.0
201.166428 128.0
201.197922 128.0
201.241211 164.0
201.256363 192.0
201.307098 136.0
201.34996 176.0
201.372543 116.0
201.409363 116.0
201.43187 172.0
201.469513 160.0
201.527115 168.0
201.555496 168.0
201.663559 136.0
201.700302 196.0
201.722916 348.0
201.746704 232.0
201.790741 260.0
201.825485 256.0
201.883316 296.0
202.01561 148.0
202.066833 932.0
202.104721 260.0
202.128983 172.0
202.161453 164.0
202.192444 128.0
202.223953 212.0
202.235733 108.0
202.258682 160.0
202.308502 128.0
202.361847 128.0
202.397369 268.0
202.477951 204.0
202.504471 212.0
202.54155 440.0
202.567978 220.0
202.597351 156.0
202.620163 152.0
202.654022 104.0
202.675491 176.0
202.741852 168.0
202.796082 104.0
202.852707 144.0
202.877914 164.0
202.914764 164.0
202.968643 104.0
203.008331 80.0
203.071747 2612.0
203.109787 172.0
203.140671 140.0
203.145187 192.0
203.211807 104.0
203.217041 76.0
203.235657 172.0
203.263641 116.0
203.300369 68.0
203.334579 164.0
203.359116 168.0
203.37793 220.0
203.467865 420.0
203.525894 316.0
203.55368 136.0
203.590088 176.0
203.631012 128.0
203.668045 188.0
203.703705 128.0
203.765778 212.0
203.773712 180.0
203.82019 72.0
203.850922 348.0
203.881332 316.0
203.91156 204.0
203.958405 320.0
203.980408 168.0
204.034836 180.0
204.080948 40576.0
204.13588 148.0
204.161682 148.0
204.201126 172.0
204.227875 120.0
204.251648 236.0
204.276932 128.0
204.324585 396.0
204.354584 72.0
204.394577 80.0
204.431488 144.0
204.442291 140.0
204.482788 172.0
204.520157 188.0
204.561874 184.0
204.585983 188.0
204.608032 116.0
204.626846 156.0
204.67099 144.0
204.69873 160.0
204.727631 176.0
204.77034 204.0
204.793137 44.0
204.817398 100.0
204.87207 84.0
204.909592 172.0
204.956238 160.0
204.985962 124.0
205.037994 136.0
205.088058 29436.0
205.133636 308.0
205.184525 140.0
205.224792 148.0
205.274872 204.0
205.308762 156.0
205.345657 228.0
205.352982 164.0
205.389221 260.0
205.445175 252.0
205.463516 160.0
205.490768 176.0
205.498566 164.0
205.519012 172.0
205.557266 204.0
205.611389 140.0
205.637085 60.0
205.666534 188.0
205.705582 128.0
205.729492 152.0
205.758072 144.0
205.797592 160.0
205.816925 256.0
205.842789 140.0
205.864624 252.0
205.896881 140.0
205.925247 60.0
205.970505 268.0
206.005417 432.0
206.043564 184.0
206.091583 4544.0
206.167145 160.0
206.219376 64.0
206.238541 188.0
206.294983 184.0
206.399826 256.0
206.425568 84.0
206.466843 228.0
206.52092 376.0
206.528778 92.0
206.588928 140.0
206.63588 196.0
206.656296 312.0
206.702026 148.0
206.734512 92.0
206.773788 144.0
206.838638 80.0
206.861862 288.0
206.873779 104.0
206.878448 176.0
206.905426 124.0
206.950958 208.0
207.061905 208.0
207.097458 632.0
207.139175 184.0
207.212692 108.0
207.24675 140.0
207.263992 124.0
207.27092 112.0
207.282318 160.0
207.314255 152.0
207.353851 188.0
207.389603 200.0
207.426483 160.0
207.472778 144.0
207.499298 184.0
207.531998 208.0
207.553375 208.0
207.58754 124.0
207.59201 200.0
207.646378 96.0
207.654556 28.0
207.66481 100.0
207.722992 104.0
207.761292 248.0
207.785217 128.0
207.815796 216.0
207.84581 168.0
207.874008 176.0
207.924988 160.0
207.95253 148.0
207.974167 172.0
208.027924 132.0
208.058426 144.0
208.069595 128.0
208.102707 200.0
208.136658 204.0
208.175293 156.0
208.185913 220.0
208.208054 168.0
208.288467 128.0
208.311447 52.0
208.33252 364.0
208.378754 168.0
208.489151 156.0
208.583099 128.0
208.612213 200.0
208.639053 100.0
208.701416 116.0
208.738556 188.0
208.809357 108.0
208.856979 152.0
208.962479 300.0
208.984192 120.0
209.009033 196.0
209.040085 164.0
209.076263 72.0
209.09642 132.0
209.116562 84.0
209.141907 160.0
209.18277 220.0
209.248108 132.0
209.300797 156.0
209.364319 136.0
209.395508 180.0
209.443863 124.0
209.524506 128.0
209.543655 176.0
209.577545 180.0
209.606979 68.0
209.658051 300.0
209.701233 132.0
209.750854 112.0
209.790588 136.0
209.825577 148.0
209.876236 164.0
209.967789 264.0
209.998795 156.0
210.032822 40.0
210.075897 180.0
210.155853 236.0
210.208801 116.0
210.257858 40.0
210.29538 148.0
210.318466 132.0
210.362289 180.0
210.388931 144.0
210.418167 180.0
210.468826 100.0
210.506134 120.0
210.529236 180.0
210.55043 156.0
210.590073 180.0
210.621246 340.0
210.679428 76.0
210.754318 148.0
210.787476 192.0
210.869705 132.0
210.907715 108.0
210.933731 148.0
210.953964 80.0
211.008789 108.0
211.026352 176.0
211.061569 436.0
211.110199 112.0
211.143219 196.0
211.178223 308.0
211.202637 180.0
211.222885 108.0
211.248932 56.0
211.306778 152.0
211.361237 132.0
211.397064 180.0
211.445679 140.0
211.480408 168.0
211.56749 156.0
211.627609 156.0
211.690063 60.0
211.698944 124.0
211.709656 152.0
211.807602 192.0
211.841751 152.0
211.861725 140.0
211.904846 324.0
211.916351 400.0
211.953522 160.0
211.965042 140.0
211.975769 188.0
212.001007 292.0
212.069534 180.0
212.116394 160.0
212.146637 172.0
212.210419 84.0
212.245407 316.0
212.279144 200.0
212.31601 388.0
212.372818 192.0
212.493362 152.0
212.524246 132.0
212.546249 148.0
212.599121 232.0
212.636307 452.0
212.657471 148.0
212.689087 104.0
212.718109 184.0
212.765732 228.0
212.788116 152.0
212.841309 120.0
212.913864 160.0
212.967438 176.0
212.98674 208.0
213.063187 208.0
213.074432 172.0
213.129944 508.0
213.153763 148.0
213.208984 108.0
213.230698 296.0
213.299072 192.0
213.336868 196.0
213.355881 156.0
213.375961 152.0
213.446716 184.0
213.48027 244.0
213.504089 92.0
213.550919 176.0
213.62767 48.0
213.648041 196.0
213.674225 216.0
213.720764 120.0
213.747055 336.0
213.789154 224.0
213.816803 172.0
213.86911 156.0
213.90564 92.0
213.953262 100.0
213.997284 284.0
214.031418 160.0
214.056717 228.0
214.084641 144.0
214.119583 132.0
214.145798 188.0
214.175644 128.0
214.201141 156.0
214.236816 160.0
214.278702 128.0
214.311844 416.0
214.343887 156.0
214.387604 80.0
214.408005 100.0
214.438309 140.0
214.507111 88.0
214.539169 120.0
214.591644 92.0
214.617889 128.0
214.644135 456.0
214.669495 120.0
214.790604 248.0
214.836624 164.0
214.857925 160.0
214.892059 132.0
214.945404 184.0
214.988342 128.0
215.020447 172.0
215.072586 556.0
215.11557 116.0
215.15181 164.0
215.205658 72.0
215.266388 148.0
215.294876 116.0
215.31926 292.0
215.356216 164.0
215.501999 260.0
215.532639 320.0
215.592667 180.0
215.643494 136.0
215.691193 136.0
215.69635 88.0
215.743851 176.0
215.794556 80.0
215.832565 124.0
215.861801 180.0
215.900604 152.0
215.934662 140.0
215.961243 144.0
215.998917 144.0
216.067902 2224.0
216.172882 76.0
216.198212 124.0
216.223877 292.0
216.243637 144.0
216.286026 156.0
216.309494 204.0
216.337936 136.0
216.36644 152.0
216.419067 192.0
216.464615 184.0
216.527527 288.0
216.557098 124.0
216.581757 152.0
216.605194 104.0
216.640335 176.0
216.670105 212.0
216.713577 292.0
216.735229 176.0
216.802811 140.0
216.822327 356.0
216.844574 160.0
216.872803 124.0
216.964905 176.0
217.011856 184.0
217.044739 224.0
217.077591 5016.0
217.132965 160.0
217.181 144.0
217.210663 180.0
217.238358 160.0
217.264771 132.0
217.287476 140.0
217.329376 180.0
217.382126 152.0
217.411041 108.0
217.449631 168.0
217.483932 140.0
217.517136 108.0
217.555756 124.0
217.583481 80.0
217.616959 88.0
217.643372 80.0
217.708786 292.0
217.78595 188.0
217.840149 260.0
217.868469 136.0
217.895233 128.0
217.929321 156.0
217.950668 136.0
218.010559 164.0
218.095627 2796.0
218.163406 136.0
218.19281 120.0
218.222198 468.0
218.286896 120.0
218.333939 148.0
218.357468 96.0
218.390335 204.0
218.43309 96.0
218.483017 276.0
218.541443 344.0
218.591202 232.0
218.624252 156.0
218.651672 168.0
218.701706 180.0
218.729187 144.0
218.762878 192.0
218.798431 252.0
218.840073 108.0
218.874527 160.0
218.924652 116.0
218.957855 76.0
218.995743 176.0
219.039291 136.0
219.09787 1956.0
219.146393 104.0
219.192963 184.0
219.262787 252.0
219.309708 192.0
219.347198 112.0
219.391006 44.0
219.449326 164.0
219.487488 176.0
219.532532 96.0
219.559509 108.0
219.665253 104.0
219.691803 132.0
219.721298 128.0
219.79628 408.0
219.866425 176.0
219.908737 216.0
219.938156 256.0
219.98024 124.0
220.007568 152.0
220.063705 148.0
220.109207 1276.0
220.225861 104.0
220.250229 148.0
220.314697 200.0
220.364929 372.0
220.410248 232.0
220.444534 136.0
220.462585 164.0
220.491989 96.0
220.518585 152.0
220.554062 48.0
220.589523 168.0
220.648193 160.0
220.690048 168.0
220.752136 260.0
220.778763 80.0
220.819107 248.0
220.828659 160.0
220.83696 388.0
220.877869 164.0
220.908798 124.0
220.936676 144.0
220.957184 160.0
220.994598 132.0
221.068665 132.0
221.114395 456.0
221.172256 224.0
221.198898 124.0
221.237915 308.0
221.280746 136.0
221.348145 68.0
221.369003 228.0
221.409225 100.0
221.450745 160.0
221.477234 84.0
221.572021 164.0
221.595734 156.0
221.622543 156.0
221.64592 196.0
221.652115 184.0
221.661987 200.0
221.726105 192.0
221.754364 172.0
221.826614 132.0
221.859116 268.0
221.892105 48.0
221.967255 128.0
222.007751 156.0
222.055588 156.0
222.097519 148.0
222.117828 160.0
222.136032 232.0
222.161377 196.0
222.18869 272.0
222.224289 148.0
222.271759 184.0
222.29422 232.0
222.363754 192.0
222.460846 152.0
222.473251 108.0
222.480194 140.0
222.51178 152.0
222.556717 96.0
222.605576 176.0
222.693405 188.0
222.763184 292.0
222.800247 44.0
222.86058 224.0
222.908478 256.0
222.988754 272.0
223.030853 152.0
223.054749 112.0
223.092133 160.0
223.136078 156.0
223.165588 212.0
223.209839 164.0
223.227386 136.0
223.315689 200.0
223.35614 324.0
223.404785 160.0
223.444168 240.0
223.475311 144.0
223.522522 204.0
223.628525 192.0
223.677505 148.0
223.702835 244.0
223.734848 256.0
223.769791 168.0
223.808502 252.0
223.8358 284.0
223.885391 208.0
223.916794 204.0
223.938538 144.0
223.949585 96.0
223.95787 180.0
223.988998 180.0
224.016739 272.0
224.066376 332.0
224.213638 256.0
224.307617 324.0
224.338821 132.0
224.36644 136.0
224.401428 140.0
224.43721 152.0
224.51561 244.0
224.565445 136.0
224.592285 120.0
224.649567 376.0
224.692505 168.0
224.737991 152.0
224.774857 180.0
224.875732 180.0
224.926468 108.0
224.960953 116.0
224.995132 88.0
225.016037 152.0
225.056137 176.0
225.093658 256.0
225.122879 348.0
225.210129 240.0
225.25618 164.0
225.290787 164.0
225.317673 236.0
225.375656 208.0
225.405365 276.0
225.451279 236.0
225.4776 92.0
225.546844 180.0
225.584854 196.0
225.62413 184.0
225.658295 132.0
225.690552 200.0
225.762787 96.0
225.788391 152.0
225.834824 320.0
225.877014 184.0
225.910889 128.0
225.95578 248.0
225.990372 116.0
226.037231 212.0
226.077148 96.0
226.125046 104.0
226.163956 184.0
226.246552 236.0
226.287933 144.0
226.334595 368.0
226.35556 148.0
226.376511 152.0
226.431625 168.0
226.463852 124.0
226.502304 184.0
226.554016 168.0
226.601166 132.0
226.643112 120.0
226.685562 172.0
226.732452 108.0
226.763565 124.0
226.822922 108.0
226.847931 128.0
226.916367 280.0
226.963837 88.0
227.04213 108.0
227.074783 88.0
227.113785 220.0
227.140778 108.0
227.166641 216.0
227.205185 144.0
227.290283 148.0
227.326706 136.0
227.393982 152.0
227.435959 224.0
227.458527 172.0
227.53389 192.0
227.607864 132.0
227.641769 124.0
227.661453 332.0
227.7332 164.0
227.776428 184.0
227.816452 144.0
227.870819 176.0
227.944565 148.0
227.981445 84.0
228.035431 104.0
228.047729 180.0
228.085022 644.0
228.112915 384.0
228.158707 140.0
228.21965 344.0
228.281921 152.0
228.339828 428.0
228.372284 136.0
228.397873 168.0
228.435852 180.0
228.467911 132.0
228.520554 216.0
228.555176 136.0
228.59288 408.0
228.641235 256.0
228.700256 152.0
228.735535 160.0
228.757446 248.0
228.779388 148.0
228.841736 88.0
228.878311 356.0
228.944122 172.0
228.977768 252.0
229.022949 136.0
229.07605 2204.0
229.161804 180.0
229.225143 124.0
229.246796 84.0
229.263443 188.0
229.305634 60.0
229.335785 144.0
229.374268 120.0
229.406525 136.0
229.432236 168.0
229.456665 116.0
229.513641 88.0
229.552841 144.0
229.598083 180.0
229.636276 184.0
229.67952 232.0
229.702789 168.0
229.743896 188.0
229.786301 140.0
229.814545 300.0
229.818985 296.0
229.902405 324.0
229.947479 164.0
229.951965 160.0
229.987823 248.0
230.022446 384.0
230.084625 5648.0
230.137543 156.0
230.14418 148.0
230.192749 276.0
230.234619 336.0
230.251617 168.0
230.306076 296.0
230.331284 356.0
230.391312 196.0
230.417725 104.0
230.450653 164.0
230.490326 240.0
230.497803 212.0
230.531693 288.0
230.569748 320.0
230.619125 236.0
230.662933 160.0
230.701263 160.0
230.745758 152.0
230.787521 336.0
230.813583 208.0
230.858154 332.0
230.88356 272.0
230.912827 680.0
230.964508 464.0
231.000229 776.0
231.035202 728.0
231.093246 270900.0
231.173309 136.0
231.212982 172.0
231.224274 92.0
231.235291 172.0
231.253113 320.0
231.274536 356.0
231.278839 284.0
231.314804 72.0
231.362061 448.0
231.411011 216.0
231.447266 180.0
231.462814 296.0
231.493103 172.0
231.550064 464.0
231.591568 4320.0
231.638107 472.0
231.648224 260.0
231.65448 396.0
231.690567 236.0
231.741592 284.0
231.77948 348.0
231.819214 596.0
231.864655 260.0
231.872894 812.0
231.905472 680.0
231.946762 320.0
231.987534 772.0
231.996597 500.0
232.032883 980.0
232.04631 968.0
232.100555 360780.0
232.195404 144.0
232.237366 220.0
232.257507 136.0
232.302795 512.0
232.330154 256.0
232.353409 448.0
232.37793 624.0
232.386612 520.0
232.423889 332.0
232.451324 236.0
232.487885 144.0
232.51358 112.0
232.525146 88.0
232.564087 484.0
232.601059 6176.0
232.635101 716.0
232.714798 232.0
232.737854 312.0
232.77803 172.0
232.822617 212.0
232.86026 168.0
232.878326 204.0
232.958603 380.0
233.008728 260.0
233.055893 412.0
233.103134 79284.0
233.176422 288.0
233.227463 268.0
233.26799 112.0
233.290161 216.0
233.336929 432.0
233.374588 264.0
233.412079 132.0
233.433456 220.0
233.4702 176.0
233.474991 272.0
233.517456 312.0
233.540497 200.0
233.582275 256.0
233.604477 416.0
233.639206 200.0
233.694504 200.0
233.717361 68.0
233.722443 192.0
233.759689 200.0
233.76532 240.0
233.771484 96.0
233.810333 216.0
233.861328 404.0
233.890991 256.0
233.926575 304.0
233.954346 320.0
233.963242 156.0
233.976074 268.0
234.028641 204.0
234.050461 108.0
234.105362 5592.0
234.154999 128.0
234.212402 112.0
234.243835 64.0
234.292099 128.0
234.343811 216.0
234.38298 228.0
234.420425 360.0
234.450302 72.0
234.477753 188.0
234.515198 152.0
234.5298 100.0
234.534363 208.0
234.570221 192.0
234.603455 184.0
234.62796 256.0
234.691986 376.0
234.738434 376.0
234.766434 108.0
234.803162 212.0
234.815323 332.0
234.862946 220.0
234.900894 176.0
234.909729 220.0
234.933945 148.0
234.965988 212.0
235.009033 192.0
235.064117 120.0
235.105453 416.0
235.130493 152.0
235.181137 116.0
235.229538 48.0
235.253647 80.0
235.283157 76.0
235.310471 96.0
235.328979 132.0
235.354584 248.0
235.410721 176.0
235.454178 236.0
235.494812 136.0
235.538757 120.0
235.593307 188.0
235.654846 192.0
235.685181 236.0
235.73201 116.0
235.753067 112.0
235.812119 140.0
235.839706 76.0
235.88829 268.0
235.964386 192.0
236.014694 244.0
236.039261 128.0
236.067047 588.0
236.093826 88.0
236.12027 108.0
236.148056 112.0
236.189026 204.0
236.222351 248.0
236.243744 248.0
236.319885 108.0
236.332657 84.0
236.412903 160.0
236.470139 164.0
236.504181 156.0
236.528671 56.0
236.574265 116.0
236.624786 140.0
236.648193 184.0
236.696991 104.0
236.757385 148.0
236.818954 164.0
236.873093 268.0
236.90155 52.0
236.92421 120.0
236.989243 112.0
237.048248 68.0
237.082886 84.0
237.125931 72.0
237.177216 108.0
237.214157 148.0
237.273514 168.0
237.319061 136.0
237.375793 112.0
237.417191 184.0
237.454666 148.0
237.506134 172.0
237.597412 228.0
237.64418 156.0
237.696335 84.0
237.739304 52.0
237.760788 44.0
237.784073 204.0
237.822174 92.0
237.900009 156.0
237.949081 244.0
237.970978 160.0
238.04277 224.0
238.082367 192.0
238.100647 116.0
238.165131 132.0
238.198227 144.0
238.247162 120.0
238.297852 80.0
238.335022 68.0
238.409439 148.0
238.442581 160.0
238.483871 148.0
238.546799 172.0
238.608566 40.0
238.646912 144.0
238.688507 48.0
238.732849 172.0
238.778671 100.0
238.802292 184.0
238.823669 160.0
238.87677 204.0
239.076111 176.0
239.129623 176.0
239.165359 56.0
239.202301 52.0
239.288498 92.0
239.325455 92.0
239.347 36.0
239.401901 144.0
239.458832 128.0
239.495743 120.0
239.534866 176.0
239.621124 148.0
239.642685 72.0
239.698151 80.0
239.72435 136.0
239.759781 148.0
239.8172 292.0
239.892319 108.0
239.926239 112.0
239.9879 104.0
240.05574 44.0
240.123245 288.0
240.175293 324.0
240.213028 144.0
240.280899 132.0
240.355621 148.0
240.410492 192.0
240.475311 124.0
240.572845 120.0
240.626556 92.0
240.65921 136.0
240.737854 148.0
240.765518 128.0
240.799484 52.0
240.856964 112.0
240.935394 196.0
240.987915 180.0
241.025452 136.0
241.055908 136.0
241.075287 132.0
241.117706 96.0
241.162354 152.0
241.204773 172.0
241.292618 148.0
241.334091 64.0
241.358826 156.0
241.389404 108.0
241.399918 152.0
241.451294 120.0
241.524994 192.0
241.572235 144.0
241.624817 108.0
241.662292 224.0
241.695496 128.0
241.739029 44.0
241.764069 80.0
241.837357 124.0
241.912628 100.0
241.966812 176.0
242.018311 176.0
242.050049 200.0
242.081314 300.0
242.104218 196.0
242.154587 124.0
242.183777 104.0
242.225388 132.0
242.286545 108.0
242.315231 96.0
242.352417 240.0
242.411285 248.0
242.444046 144.0
242.531326 120.0
242.571701 140.0
242.597244 280.0
242.64859 180.0
242.695145 180.0
242.770874 104.0
242.824203 184.0
242.848419 148.0
242.930771 232.0
243.09053 1244.0
243.144348 160.0
243.174194 164.0
243.217331 236.0
243.262863 220.0
243.313873 108.0
243.384033 208.0
243.469131 132.0
243.493973 68.0
243.591812 224.0
243.643082 92.0
243.683456 180.0
243.720276 208.0
243.785202 124.0
243.845047 132.0
243.869919 116.0
243.903992 116.0
243.937439 116.0
243.993286 128.0
244.042648 204.0
244.098907 1376.0
244.173569 132.0
244.218155 108.0
244.242767 168.0
244.268661 168.0
244.293289 76.0
244.338547 124.0
244.360504 180.0
244.390533 164.0
244.42659 108.0
244.455017 88.0
244.507492 96.0
244.547028 120.0
244.568863 84.0
244.600159 176.0
244.649704 152.0
244.679031 112.0
244.740967 196.0
244.780029 284.0
244.842316 168.0
244.86261 176.0
244.888672 172.0
244.949188 84.0
244.96669 376.0
244.99733 128.0
245.036407 124.0
245.10791 39792.0
245.185089 28.0
245.210846 116.0
245.318481 260.0
245.382797 212.0
245.404633 148.0
245.470108 76.0
245.491943 52.0
245.52269 172.0
245.533997 148.0
245.542191 244.0
245.551758 176.0
245.573608 164.0
245.602005 176.0
245.641479 248.0
245.666046 112.0
245.692627 148.0
245.754318 132.0
245.796295 148.0
245.828064 64.0
245.869019 32.0
245.923431 132.0
245.95842 324.0
245.99115 112.0
246.014236 212.0
246.024734 84.0
246.053421 180.0
246.072342 520.0
246.115143 53268.0
246.201843 180.0
246.238647 164.0
246.271912 352.0
246.309204 420.0
246.361145 460.0
246.404297 536.0
246.451797 328.0
246.457672 348.0
246.470291 240.0
246.53421 248.0
246.582764 364.0
246.630157 336.0
246.709488 224.0
246.718277 120.0
246.740723 264.0
246.766724 280.0
246.787704 280.0
246.818344 232.0
246.845383 380.0
246.859451 128.0
246.868835 380.0
246.906998 228.0
246.939987 332.0
246.965942 604.0
246.998474 584.0
247.034653 980.0
247.069366 1932.0
247.124557 351332.0
247.180878 272.0
247.189972 336.0
247.202255 88.0
247.238159 328.0
247.287094 116.0
247.318405 76.0
247.342514 168.0
247.405975 540.0
247.46846 288.0
247.497482 300.0
247.547333 276.0
247.602921 252.0
247.639923 8580.0
247.674072 316.0
247.730042 208.0
247.772385 232.0
247.810959 240.0
247.880081 376.0
247.900986 308.0
247.935913 356.0
247.974457 264.0
248.019623 444.0
248.028534 248.0
248.04129 168.0
248.050644 392.0
248.085953 248.0
248.126465 89896.0
248.183212 236.0
248.216965 48.0
248.233459 240.0
248.295471 140.0
248.328522 68.0
248.3703 260.0
248.395844 152.0
248.411484 168.0
248.435165 360.0
248.494781 272.0
248.557312 292.0
248.600281 132.0
248.641708 208.0
248.667786 148.0
248.717285 128.0
248.754166 196.0
248.797424 80.0
248.829666 104.0
248.865005 68.0
248.897476 88.0
248.92453 136.0
248.97644 92.0
249.027283 64.0
249.071716 448.0
249.128784 7468.0
249.175415 180.0
249.209213 192.0
249.245926 312.0
249.274918 52.0
249.281204 96.0
249.307693 36.0
249.335953 60.0
249.360107 388.0
249.405045 104.0
249.443481 340.0
249.490097 104.0
249.496521 184.0
249.5383 272.0
249.590225 136.0
249.626572 120.0
249.661469 128.0
249.700653 212.0
249.728302 376.0
249.759811 232.0
249.787109 164.0
249.821686 596.0
249.848526 104.0
249.856491 88.0
249.897461 412.0
249.933304 208.0
249.968735 288.0
250.00174 108.0
250.023605 72.0
250.073318 376.0
250.1082 128.0
250.134613 248.0
250.199432 180.0
250.229675 144.0
250.251709 124.0
250.30838 120.0
250.336731 80.0
250.389282 128.0
250.439758 84.0
250.502304 84.0
250.544083 100.0
250.563507 32.0
250.597198 172.0
250.619171 108.0
250.666443 76.0
250.700729 216.0
250.739975 48.0
250.764084 80.0
250.819244 76.0
250.878601 128.0
250.942551 116.0
250.960281 152.0
250.993546 76.0
251.042114 128.0
251.089218 156.0
251.161636 244.0
251.238174 76.0
251.28981 112.0
251.335983 76.0
251.367538 48.0
251.445496 116.0
251.548782 28.0
251.587357 96.0
251.619553 76.0
251.636459 116.0
251.736862 92.0
251.775726 104.0
251.803024 156.0
251.821182 80.0
251.86319 92.0
251.901108 96.0
251.935852 40.0
251.962646 224.0
252.019363 120.0
252.157043 28.0
252.19812 48.0
252.220245 52.0
252.264511 88.0
252.305603 44.0
252.399368 116.0
252.480392 92.0
252.504807 92.0
252.550674 120.0
252.594681 68.0
252.723083 92.0
252.761047 60.0
252.870926 132.0
252.910919 56.0
252.950943 68.0
253.061859 112.0
253.093414 64.0
253.321442 80.0
253.40358 56.0
253.43866 52.0
253.524216 48.0
253.552734 76.0
253.622467 44.0
253.831711 100.0
253.895126 88.0
253.926849 56.0
254.088623 64.0
254.377411 112.0
254.542511 52.0
254.596497 68.0
254.793427 56.0
254.855286 136.0
254.904633 128.0
255.063538 64.0
255.088974 72.0
255.241577 108.0
255.301987 96.0
255.371964 84.0
255.680573 72.0
255.744232 88.0
255.860413 72.0
255.92569 84.0
255.986176 92.0
256.011658 68.0
256.094452 76.0
256.269684 48.0
256.317474 84.0
256.451324 60.0
256.548187 44.0
256.582092 92.0
256.623474 44.0
256.687225 104.0
256.735077 112.0
256.77652 52.0
256.798859 100.0
256.904114 116.0
256.932831 44.0
257.060455 60.0
257.085968 120.0
257.167908 36.0
257.199036 76.0
257.379669 72.0
257.465881 36.0
257.651154 112.0
257.740601 56.0
257.819641 92.0
257.86203 72.0
257.913177 108.0
257.93457 108.0
258.031464 80.0
258.268097 88.0
258.345825 108.0
258.402466 48.0
258.431244 124.0
258.465637 64.0
258.486633 52.0
258.545227 84.0
258.616852 76.0
258.687286 64.0
258.808929 48.0
258.847351 44.0
258.917816 52.0
258.953033 168.0
259.108032 156.0
259.218933 148.0
259.372772 96.0
259.481781 92.0
259.53949 96.0
259.577972 64.0
259.68219 128.0
259.735107 76.0
259.812103 80.0
259.913239 84.0
259.937225 56.0
259.991791 100.0
260.091278 52.0
260.113739 52.0
260.172485 80.0
260.204681 136.0
260.232544 60.0
260.255005 96.0
260.291931 96.0
260.388885 132.0
260.425201 72.0
260.518372 68.0
260.576202 84.0
260.762573 28.0
260.887939 68.0
260.98761 56.0
261.090485 88.0
261.219147 56.0
261.241669 68.0
261.280273 116.0
261.344635 84.0
261.441162 32.0
261.553802 40.0
261.862915 36.0
261.891907 40.0
262.064362 120.0
262.12384 132.0
262.210419 84.0
262.281769 56.0
262.343018 116.0
262.375244 80.0
262.42038 96.0
262.47522 80.0
262.655823 36.0
262.768707 48.0
262.810669 84.0
262.901001 36.0
263.003174 80.0
263.091156 168.0
263.120514 64.0
263.156006 108.0
263.201233 88.0
263.252899 116.0
263.362701 56.0
263.401459 84.0
263.475769 112.0
263.498383 112.0
263.601776 56.0
263.860352 36.0
263.932495 76.0
264.015564 88.0
264.087341 280.0
264.136963 60.0
264.342285 36.0
264.523529 64.0
264.792267 52.0
264.848755 92.0
264.983398 128.0
265.090332 140.0
265.187531 56.0
265.336243 96.0
265.424194 60.0
265.751801 72.0
265.889343 124.0
265.988708 80.0
266.264679 80.0
266.414093 48.0
266.657806 60.0
266.878845 48.0
267.575134 40.0
267.721649 52.0
267.79657 40.0
267.87146 72.0
268.135406 36.0
268.484222 28.0
268.859406 136.0
268.931213 68.0
269.159729 56.0
269.342621 52.0
269.97995 104.0
270.208923 104.0
270.303802 56.0
270.452576 104.0
271.224091 56.0
271.407684 36.0
271.752075 76.0
271.804565 64.0
271.958801 60.0
272.316681 92.0
272.635376 48.0
272.885193 128.0
273.793396 68.0
274.172241 44.0
274.383209 168.0
274.844971 44.0
274.89444 72.0
275.066071 68.0
275.128784 76.0
275.21463 96.0
275.419403 36.0
276.179626 60.0
276.25238 104.0
276.292084 52.0
276.907776 92.0
277.099915 164.0
277.156219 36.0
277.693268 76.0
277.971924 76.0
278.054901 52.0
278.290588 56.0
278.456635 32.0
278.715729 56.0
279.11795 144.0
279.187775 80.0
280.709625 48.0
281.119934 120.0
281.697571 88.0
282.235626 32.0
284.057526 52.0
284.644867 72.0
285.091644 40.0
285.838165 96.0
286.461029 72.0
286.609283 100.0
286.980042 28.0
287.506256 88.0
287.664886 108.0
288.198486 72.0
288.384369 120.0
288.668335 96.0
288.830688 96.0
289.040436 76.0
289.145355 28.0
289.314606 64.0
289.578705 80.0
289.73114 76.0
290.867157 120.0
291.753784 96.0
292.144867 84.0
292.818817 64.0
292.883545 88.0
293.486755 88.0
294.688171 48.0
294.930817 52.0
295.40271 52.0
296.758881 112.0
297.294006 88.0
297.554871 56.0
298.620117 88.0
298.730194 60.0
299.397919 80.0
300.46991 104.0
300.977295 116.0
301.198303 140.0
302.381653 48.0
302.650818 64.0
304.874359 60.0
305.23587 132.0
305.354126 228.0
307.273468 52.0
308.037994 72.0
308.723053 52.0
308.932892 84.0
310.530182 48.0
311.288208 92.0
311.368988 68.0
313.01828 56.0
314.061462 48.0
314.230804 108.0
315.102844 48.0
315.226532 68.0
316.429138 100.0
317.254578 76.0
318.127258 60.0
319.168243 112.0
320.040009 84.0
320.346283 56.0
320.545807 76.0
320.866577 48.0
321.337372 88.0
321.947754 72.0
322.133484 108.0
322.287109 88.0
323.198883 92.0
323.291931 88.0
323.778809 56.0
323.864746 76.0
324.008026 68.0
324.678345 60.0
324.825378 116.0
324.864838 72.0
325.112427 76.0
327.881592 64.0
328.346649 116.0
328.772369 96.0
328.916748 68.0
329.223633 40.0
330.181305 48.0
330.257263 56.0
330.926758 80.0
331.473694 72.0
332.267731 56.0
332.6633 64.0
332.692352 44.0
333.622345 84.0
333.884155 80.0
335.672211 60.0
335.909271 68.0
336.445709 48.0
336.50412 92.0
336.668427 84.0
336.949707 40.0
337.041046 108.0
337.768555 132.0
338.112488 36.0
338.753235 116.0
338.954742 84.0
339.097687 88.0
339.933838 44.0
340.165039 64.0
340.877563 92.0
341.403259 68.0
341.443695 48.0
342.625275 120.0
342.728424 108.0
343.11911 116.0
343.458374 124.0
343.838409 72.0
344.004517 64.0
345.342133 84.0
345.815704 64.0
346.093353 96.0
346.360016 52.0
346.837982 100.0
347.344391 88.0
347.557465 80.0
347.772705 116.0
347.906342 40.0
348.467133 76.0
348.861084 120.0
349.683105 76.0
350.740906 120.0
351.326355 92.0
351.695801 84.0
351.733124 108.0
352.106476 100.0
352.285767 60.0
352.397858 68.0
354.362122 84.0
354.800629 44.0
356.294281 56.0
356.812897 60.0
357.106201 52.0
357.418457 68.0
357.764709 76.0
358.702728 80.0
359.951508 120.0
360.359436 48.0
360.52948 76.0
360.623962 52.0
360.782745 48.0
361.130615 68.0
361.232758 144.0
362.97113 80.0
363.638824 36.0
363.775452 68.0
364.341309 96.0
364.375488 112.0
365.375366 68.0
365.569427 80.0
365.75592 40.0
365.839661 68.0
366.289001 88.0
367.230469 64.0
367.318207 44.0
367.932617 92.0
367.993683 100.0
368.245728 28.0
368.627747 72.0
369.185883 84.0
369.23941 88.0
369.633453 32.0
369.683197 84.0
369.836273 72.0
369.905182 112.0
370.115753 36.0
370.222961 64.0
370.506409 120.0
370.843628 44.0
371.035278 104.0
371.073639 100.0
371.844666 88.0
371.898376 64.0
372.290009 52.0
372.316864 88.0
372.378326 92.0
372.458984 96.0
372.578064 36.0
373.289124 40.0
373.846924 40.0
373.943146 40.0
375.324799 104.0
375.588379 44.0
375.630798 72.0
375.711823 92.0
375.897003 112.0
376.089966 52.0
376.939606 128.0
377.00531 104.0
377.357056 48.0
378.064911 64.0
378.215881 108.0
378.393951 96.0
380.324463 100.0
380.802032 40.0
380.934082 88.0
381.291565 132.0
381.35376 64.0
381.423706 92.0
381.820282 60.0
382.042023 32.0
382.17041 60.0
382.399994 60.0
382.544006 48.0
382.991821 128.0
384.087097 84.0
384.715363 68.0
384.875427 60.0
385.594238 100.0
385.852203 80.0
386.251099 100.0
387.578278 104.0
387.684082 40.0
388.358398 56.0
388.402161 76.0
388.636932 92.0
389.614532 96.0
389.665619 120.0
389.928894 44.0
390.738922 92.0
390.770416 40.0
392.609955 64.0
392.669098 112.0
392.700653 56.0
392.882111 52.0
393.821594 100.0
394.098114 112.0
394.181091 60.0
394.362885 124.0
394.647522 68.0
395.822693 52.0
396.837036 92.0
397.003571 92.0
397.789185 44.0
399.557617 80.0
399.676971 64.0
400.035156 88.0
400.855621 88.0
400.971191 80.0
401.716827 108.0
401.83252 64.0
402.946411 76.0
403.273254 116.0
403.557587 48.0
403.681885 32.0
404.654175 80.0
404.862396 48.0
405.018616 120.0
405.587585 92.0
405.992523 116.0
406.092804 88.0
408.305756 52.0
408.358032 52.0
408.603424 68.0
409.174896 40.0
409.517181 80.0
410.552979 100.0
410.605377 28.0
411.18634 64.0
411.719269 64.0
411.949493 80.0
412.381836 100.0
413.044952 80.0
413.267456 56.0
413.862457 76.0
414.137817 60.0
414.299866 112.0
414.518646 100.0
415.349762 116.0
415.605347 40.0
415.763611 92.0
416.888519 72.0
416.973877 68.0
417.563385 152.0
417.595917 124.0
417.765991 108.0
418.548187 100.0
418.723297 80.0
418.865845 32.0
419.395569 84.0
419.880737 68.0
420.194824 56.0
420.782532 40.0
421.203156 76.0
421.325714 112.0
421.448273 104.0
422.085938 84.0
422.818176 60.0
422.994202 56.0
424.186218 44.0
424.25589 44.0
424.600342 100.0
425.297821 80.0
426.402679 36.0
427.16745 36.0
427.315552 104.0
427.525391 60.0
428.291199 36.0
428.600159 48.0
429.012329 48.0
430.126099 52.0
431.026428 64.0
431.390137 104.0
432.097321 88.0
434.077179 84.0
435.048035 60.0
435.085419 72.0
435.334534 88.0
436.377472 84.0
436.568756 100.0
436.893188 72.0
438.071289 136.0
438.333771 44.0
438.493195 96.0
438.700562 104.0
439.100861 72.0
439.530518 56.0
440.419769 72.0
441.017242 68.0
441.364227 148.0
442.192535 72.0
442.812164 160.0
443.415497 52.0
443.981476 116.0
444.245697 68.0
444.489044 96.0
444.586212 80.0
444.732452 104.0
444.787018 144.0
444.938141 84.0
445.547119 68.0
445.643738 56.0
445.694153 64.0
447.115509 108.0
447.869141 44.0
448.61499 92.0
448.846893 128.0
449.061951 40.0
449.357239 40.0
450.100098 96.0
450.560486 68.0
451.004181 76.0
451.329712 108.0
451.617279 68.0
452.594849 96.0
452.815063 56.0
453.929626 80.0
454.243469 52.0
454.35376 56.0
455.448975 84.0
456.324402 100.0
457.741302 96.0
457.77536 88.0
457.830719 76.0
458.942902 60.0
459.301147 120.0
460.005219 36.0
460.329712 48.0
460.440735 56.0
460.851318 68.0
461.851166 84.0
462.261871 40.0
462.381714 72.0
462.57431 48.0
462.822632 80.0
464.262421 76.0
464.785767 28.0
464.815796 108.0
464.923096 88.0
466.486511 80.0
468.802094 44.0
468.987427 56.0
469.276245 88.0
469.483215 88.0
470.147583 40.0
470.290009 72.0
470.393616 76.0
470.769226 84.0
471.23288 116.0
472.044037 112.0
472.762115 88.0
473.156006 32.0
474.798248 84.0
475.800598 60.0
476.265259 52.0
476.704041 108.0
477.79541 60.0
478.04776 64.0
478.722504 64.0
480.090881 72.0
480.662323 52.0
480.83847 88.0
481.277802 72.0
481.640259 80.0
481.959167 52.0
482.221375 44.0
482.321899 44.0
483.144012 80.0
483.923065 52.0
484.431061 72.0
485.930389 96.0
486.830231 44.0
487.361755 112.0
489.081268 36.0
490.235168 88.0
490.940491 84.0
491.88028 108.0
492.697235 52.0
493.156799 88.0
493.532562 96.0
495.028168 96.0
495.927521 72.0
498.314972 92.0
499.21286 36.0
499.297363 116.0
499.831177 44.0
500.058136 76.0
501.060059 64.0
501.394257 104.0
503.504456 64.0
504.398071 48.0
505.404327 108.0
505.623596 96.0
505.842896 56.0
506.026459 64.0
506.43396 44.0
507.711273 28.0
507.791992 84.0
507.993866 40.0
508.469482 108.0
508.54129 56.0
511.300842 88.0
512.10675 100.0
512.277893 108.0
513.260437 56.0
513.779114 64.0
516.064392 84.0
517.408081 96.0
518.875977 104.0
519.102722 128.0
519.95105 48.0
519.987305 112.0
520.733459 96.0
521.140747 44.0
521.686157 28.0
522.277283 28.0
523.264771 52.0
523.565308 32.0
523.706482 112.0
524.348877 68.0
524.763733 84.0
524.827576 96.0
525.119385 28.0
526.420044 60.0
527.781799 196.0
530.061279 60.0
530.258362 60.0
530.4646 60.0
531.423096 96.0
531.652527 124.0
533.443848 80.0
533.59552 32.0
533.834656 60.0
535.744751 148.0
537.755188 92.0
538.96051 64.0
540.731628 72.0
540.889038 40.0
541.666931 84.0
541.713257 104.0
542.148804 112.0
542.686523 56.0
543.669922 68.0
546.811584 40.0
546.844177 100.0
547.211914 88.0
547.938477 92.0
550.074341 36.0
550.195679 48.0
550.648621 32.0
552.610291 100.0
552.771057 72.0
553.52002 72.0
553.796326 48.0
554.082092 40.0
555.755859 64.0
557.037537 76.0
557.441589 84.0
560.142151 92.0
560.457825 48.0
561.004517 76.0
561.952454 52.0
563.335754 72.0
563.864929 96.0
564.838928 80.0
565.60553 68.0
566.53363 60.0
567.652222 48.0
567.851379 104.0
567.884583 88.0
568.126526 100.0
568.311523 100.0
569.731079 80.0
570.263306 48.0
570.610291 44.0
571.566345 96.0
571.656738 88.0
571.828064 28.0
573.847839 80.0
573.96228 68.0
574.17688 84.0
574.954529 104.0
575.446167 68.0
576.325012 92.0
576.50177 96.0
577.03717 76.0
577.500977 96.0
577.682739 64.0
578.228271 32.0
578.319153 68.0
578.386169 104.0
578.78833 56.0
579.549927 88.0
582.077759 100.0
582.860718 100.0
583.649048 56.0
584.71698 48.0
585.858154 40.0
586.171326 44.0
588.061768 76.0
588.472107 76.0
588.993652 44.0
590.90802 92.0
591.053162 96.0
592.360352 68.0
593.775696 44.0
594.459717 104.0
595.299561 76.0
596.450989 76.0
596.53363 80.0
598.236206 68.0
598.392029 56.0
601.004517 68.0
601.17041 92.0
601.917297 32.0
602.444763 52.0
603.221741 124.0
604.938782 44.0
606.320007 60.0
609.136353 108.0
610.207703 88.0
613.511169 80.0
614.680054 56.0
614.763977 60.0
617.723511 84.0
620.273682 112.0
621.062073 52.0
621.826172 128.0
623.922363 68.0
624.121216 64.0
625.349976 108.0
626.59491 84.0
627.581787 36.0
627.616638 64.0
628.105408 84.0
628.978638 104.0
631.972107 76.0
632.267395 56.0
637.407532 172.0
638.508423 124.0
639.776428 68.0
641.761475 84.0
642.856079 56.0
643.108398 88.0
643.214417 60.0
645.735718 44.0
650.178894 84.0
651.620972 40.0
652.866333 84.0
657.216553 72.0
658.421265 80.0
660.736816 84.0
661.396912 88.0
663.210144 48.0
664.363953 76.0
665.395447 104.0
666.093872 44.0
666.319946 76.0
667.008545 84.0
667.214172 76.0
667.270752 96.0
667.368408 80.0
667.500732 124.0
670.080811 88.0
670.235413 88.0
671.168335 36.0
674.043457 212.0
674.4104 56.0
677.07489 108.0
678.759094 88.0
679.194763 80.0
681.894653 92.0
682.144165 128.0
682.289734 112.0
684.360413 52.0
684.974976 104.0
687.044495 76.0
687.743774 72.0
687.921204 132.0
689.895874 72.0
690.837219 84.0
691.344727 64.0
694.073914 112.0
694.292786 60.0
697.680908 48.0
698.122559 72.0
698.24353 56.0
700.433105 44.0
701.803284 100.0
702.953186 108.0
705.483154 112.0
706.419128 76.0
708.557922 40.0
710.349731 80.0
710.71051 80.0
717.262512 72.0
717.699707 52.0
718.030334 72.0
719.700562 72.0
721.757751 56.0
723.357422 68.0
725.955933 56.0
729.590942 60.0
730.16095 68.0
730.273865 72.0
731.177734 52.0
734.049072 88.0
734.415833 84.0
734.539856 68.0
735.975464 56.0
738.201721 44.0
739.137512 60.0
739.229492 32.0
740.512573 68.0
740.799683 124.0
742.192505 164.0
742.295532 56.0
743.282776 88.0
743.961243 68.0
744.531311 112.0
746.67804 108.0
748.495667 68.0
749.345337 48.0
750.342712 72.0
750.970886 120.0
751.908203 100.0
754.038208 52.0
756.565308 80.0
757.118347 40.0
757.479797 88.0
761.341125 48.0
764.138977 56.0
764.80481 52.0
766.578247 144.0
766.975037 28.0
768.171631 36.0
771.921753 48.0
772.474854 40.0
772.961731 56.0
774.473083 52.0
774.694641 132.0
776.66803 104.0
777.511353 48.0
778.549561 72.0
779.438354 52.0
782.603271 60.0
784.542114 76.0
785.272583 88.0
785.356201 80.0
786.790344 28.0
787.024841 64.0
787.86261 108.0
787.907288 80.0
789.601013 36.0
790.910217 160.0
791.324463 48.0
794.328308 152.0
795.748169 56.0
796.065002 56.0
798.068604 56.0
798.124817 72.0
800.521973 76.0
800.764099 52.0
803.074951 52.0
804.101807 68.0
806.58136 52.0
806.700073 56.0
806.790527 92.0
807.945129 152.0
809.461121 36.0
811.659668 76.0
812.380005 84.0
813.378723 76.0
814.258789 60.0
815.957825 176.0
816.401306 48.0
818.61499 56.0
818.820007 60.0
819.213013 40.0
821.664429 144.0
824.942444 88.0
827.202026 80.0
829.046326 96.0
829.395935 92.0
830.02655 132.0
830.169922 96.0
831.432007 76.0
835.891418 44.0
835.943176 48.0
837.146301 84.0
841.02063 44.0
842.446899 92.0
843.093994 100.0
845.881836 112.0
850.443604 52.0
851.860474 60.0
853.051697 140.0
854.639404 84.0
856.071411 48.0
858.734741 60.0
858.973877 44.0
861.86377 64.0
868.279663 52.0
872.001892 132.0
873.918945 80.0
876.474365 56.0
881.70282 56.0
883.104004 116.0
885.311523 72.0
885.424072 68.0
885.779419 32.0
887.533691 64.0
891.891235 56.0
898.763794 188.0
902.371338 100.0
905.560852 176.0
909.812256 68.0
910.076477 60.0
910.15448 108.0
911.289734 68.0
919.388733 116.0
922.330078 68.0
928.778748 92.0
931.765442 68.0
938.009277 112.0
947.003601 40.0
947.78772 60.0
949.038147 116.0
950.289368 96.0
951.768616 144.0
952.57312 64.0
953.626038 168.0
959.792358 40.0
960.668091 80.0
961.371521 84.0
961.48877 120.0
962.001038 60.0
965.727112 88.0
968.933655 64.0
969.206238 88.0
969.739197 36.0
970.018127 44.0
971.276917 108.0
975.630005 40.0
980.753052 52.0
980.852783 60.0
982.967041 72.0
985.545898 104.0
988.253235 44.0
988.403442 104.0
989.448669 52.0
990.713745 72.0
993.384277 128.0
996.831177 72.0
998.547424 116.0
998.616577 148.0
1001.190674 136.0
1001.984314 44.0
1002.160767 52.0
1009.856018 100.0
1013.318726 32.0
1013.882629 68.0
1015.385193 52.0
1016.673035 40.0
1016.994385 76.0
1017.136353 96.0
1021.71814 48.0
1022.774475 56.0
1029.609375 100.0
1035.044922 76.0
1036.85791 112.0
1037.954102 112.0
1046.467651 60.0
1049.960327 160.0
1050.469849 100.0
1053.14856 40.0
1053.910889 64.0
1055.287598 100.0
1057.745972 68.0
1065.540894 192.0
1066.223267 40.0
1078.71167 52.0
1083.71167 36.0
1083.980225 128.0
1084.399658 108.0
1088.834839 140.0
1093.43042 72.0
1095.300293 96.0
1097.758667 100.0
1098.358765 184.0
1100.312134 28.0
1103.311523 172.0
1104.10498 128.0
1110.602295 136.0
1111.75 108.0
1112.619507 144.0
1113.263672 212.0
1116.559937 156.0
1121.326782 232.0
1122.293457 152.0
1122.933594 184.0
1125.676514 64.0
1127.065918 72.0
1128.870728 192.0
1132.069458 60.0
1133.40918 56.0
1134.012329 180.0
1134.065918 152.0
1134.474854 84.0
1137.016968 80.0
1138.561035 240.0
1139.158813 44.0
1139.400757 68.0
1144.992676 72.0
1149.04834 136.0
1151.883789 152.0
1152.066162 56.0
1153.853882 120.0
1154.046387 64.0
1158.3573 240.0
1159.278809 172.0
1161.122803 28.0
1162.581299 56.0
1167.037476 148.0
1169.193848 160.0
1170.800415 120.0
1170.909424 44.0
1171.134155 224.0
1171.747314 60.0
1173.949951 164.0
1174.105713 212.0
1176.241333 120.0
1177.101562 88.0
1177.470337 144.0
1179.615845 56.0
1179.861938 80.0
1184.275635 168.0
1185.870972 196.0
1186.475342 56.0
1186.584961 168.0
1186.73584 124.0
1188.917114 92.0
1189.102417 160.0
1190.612915 48.0
1197.52478 160.0
1199.143921 160.0
1199.288696 196.0
1200.026367 108.0
1201.660889 240.0
1204.449951 48.0
1204.601929 116.0
1206.129028 92.0
1208.009888 240.0
1208.867798 48.0
1210.423462 232.0
1211.374146 88.0
1213.092773 64.0
1214.715332 196.0
1216.894531 180.0
1217.477783 148.0
1218.526611 124.0
1219.450928 168.0
1221.036011 80.0
1221.112549 76.0
1225.860474 172.0
1227.8125 64.0
1228.614624 140.0
1229.765991 220.0
1230.785278 160.0
1231.155396 172.0
1233.747559 188.0
1235.251099 100.0
1235.838745 196.0
1238.239868 212.0
1239.514893 220.0
1239.661987 192.0
1239.893311 80.0
1242.171997 112.0
1243.968506 124.0
1244.832031 76.0
1245.731079 144.0
1246.033081 64.0
1247.066162 128.0
1247.382446 140.0
1248.324585 104.0
1249.850952 244.0
1251.026367 96.0
1251.09668 140.0
1252.948853 68.0
1253.442139 80.0
1254.661499 208.0
1255.063354 168.0
1256.981934 136.0
1257.694702 44.0
1257.941772 140.0
1259.368164 84.0
1259.763794 80.0
1259.841431 128.0
1260.802368 80.0
1261.007324 144.0
1261.092163 48.0
1261.381958 80.0
1261.77771 248.0
1261.93335 136.0
1262.393066 68.0
1262.824463 68.0
1263.48938 144.0
1264.111938 128.0
1264.168579 144.0
1265.003784 196.0
1268.99231 148.0
1269.715698 56.0
1269.850342 88.0
1271.602905 180.0
1272.42627 164.0
1274.223145 76.0
1274.329712 152.0
1275.289062 132.0
1277.671265 168.0
1278.418335 60.0
1280.326172 124.0
1280.511353 92.0
1280.710815 148.0
1280.924561 212.0
1281.18811 176.0
1281.501587 156.0
1281.629883 168.0
1283.347534 168.0
1284.467285 232.0
1285.401855 160.0
1287.322144 160.0
1287.607788 160.0
1288.014893 132.0
1289.393921 220.0
1289.951416 100.0
1290.037109 136.0
1291.503052 108.0
1293.026978 232.0
1293.75 72.0
1294.050659 132.0
1294.186646 116.0
1294.924316 68.0
1295.934326 116.0
1296.4646 136.0
1297.862427 116.0
1301.055176 156.0
1302.07312 188.0
1302.951172 152.0
1303.152344 96.0
1304.003662 184.0
1304.32373 136.0
1304.568115 84.0
1305.747314 184.0
1306.747192 148.0
1307.538818 180.0
1307.740356 160.0
1307.82666 176.0
1308.236938 32.0
1308.294556 92.0
1309.09375 56.0
1309.842773 152.0
1309.972534 52.0
1310.443604 248.0
1311.074829 116.0
1311.197388 148.0
1311.766846 124.0
1312.220947 196.0
1313.915894 44.0
1314.088989 148.0
1315.294189 140.0
1315.943848 64.0
1317.727905 80.0
1318.450439 32.0
1319.657593 100.0
1319.845581 132.0
1320.547119 116.0
1320.988281 128.0
1321.429565 48.0
1321.995728 168.0
1322.355835 204.0
1323.036255 68.0
1323.832764 140.0
1324.578735 184.0
1325.158325 112.0
1325.303223 44.0
1326.042358 168.0
1326.230835 204.0
1327.637329 172.0
1327.992676 136.0
1328.101562 204.0
1328.340942 88.0
1328.524902 144.0
1328.898926 144.0
1329.886475 92.0
1330.626831 72.0
1330.772095 132.0
1331.411133 148.0
1333.314575 216.0
1333.409058 36.0
1333.88147 120.0
1334.681152 128.0
1335.008423 172.0
1335.168335 68.0
1335.277466 144.0
1335.35022 128.0
1335.601562 208.0
1336.594238 132.0
1336.848877 80.0
1337.205444 48.0
1337.896973 188.0
1338.763428 248.0
1339.564697 128.0
1340.424316 48.0
1341.721802 124.0
1341.896729 216.0
1342.939575 196.0
1343.625244 188.0
1343.749268 152.0
1344.208984 100.0
1347.348511 140.0
1347.830811 176.0
1348.59082 80.0
1348.66394 132.0
1348.927002 172.0
1349.504639 188.0
1349.789795 148.0
1351.45752 80.0
1351.779419 48.0
1351.852661 140.0
1352.10144 124.0
1352.203857 100.0
1353.162842 56.0
1354.283203 108.0
1354.781372 120.0
1355.924438 88.0
1355.997681 72.0
1356.107666 120.0
1356.158936 184.0
1356.584106 176.0
1356.891968 288.0
1357.053345 108.0
1357.170654 156.0
1357.56665 136.0
1358.769531 112.0
1359.532715 220.0
1360.14917 164.0
1360.212769 180.0
1360.369385 100.0
1360.472168 96.0
1360.67041 160.0
1360.853882 196.0
1362.557861 152.0
1363.380859 204.0
1363.696899 176.0
1363.755615 120.0
1364.407837 188.0
1365.34375 180.0
1365.424683 156.0
1366.093994 224.0
1366.454468 136.0
1366.601562 172.0
1368.095581 80.0
1368.301758 108.0
1368.721436 152.0
1369.082275 212.0
1369.303223 36.0
1369.54187 208.0
1370.187134 144.0
1370.445068 160.0
1370.599731 40.0
1370.761841 40.0
1371.432495 112.0
1372.066528 188.0
1372.390869 40.0
1374.234863 132.0
1374.323364 160.0
1374.507812 140.0
1375.41272 204.0
1375.697632 80.0
1375.802368 172.0
1376.050415 200.0
1377.424072 144.0
1378.096313 152.0
1378.731812 132.0
1378.953613 184.0
1380.557861 120.0
1380.63916 268.0
1380.994141 212.0
1381.674805 116.0
1382.392456 292.0
1383.339844 36.0
1384.294922 132.0
1384.931885 144.0
1385.376343 92.0
1386.984375 88.0
1387.844238 72.0
1387.970337 108.0
1388.096436 108.0
1388.422729 136.0
1389.649048 88.0
1389.743042 172.0
1390.848877 32.0
1390.937988 188.0
1391.69519 248.0
1392.17041 208.0
1392.311523 228.0
1392.794312 108.0
1392.927979 148.0
1392.994873 168.0
1393.2771 160.0
1394.109375 216.0
1394.220825 120.0
1394.317383 220.0
1394.659302 120.0
1395.298584 248.0
1395.566284 112.0
1395.700073 164.0
1397.082642 172.0
1397.750488 108.0
1398.207031 112.0
1398.906738 120.0
1399.532104 116.0
1400.291626 228.0
1400.410889 128.0
1400.790771 200.0
1402.444946 196.0
1402.646118 200.0
1402.989136 60.0
1403.339478 104.0
1404.517822 224.0
1405.472656 220.0
1406.607056 140.0
1406.868408 168.0
1407.779297 152.0
1408.025757 204.0
1408.466431 168.0
1409.198486 160.0
1409.345825 188.0
1409.587036 68.0
1410.678223 172.0
1411.018311 172.0
1411.24646 156.0
1412.517822 132.0
1412.734741 160.0
1413.026489 148.0
1414.156494 212.0
1414.283691 220.0
1415.167114 216.0
1415.371582 156.0
1416.080688 188.0
1416.260376 164.0
1416.766235 108.0
1417.129395 164.0
1418.665771 220.0
1418.838257 44.0
1420.368042 148.0
1420.575439 172.0
1421.230835 72.0
1421.35083 248.0
1421.500977 100.0
1421.643555 128.0
1422.154541 168.0
1422.866943 208.0
1423.392578 112.0
1424.189209 160.0
1424.406494 56.0
1426.83374 192.0
1427.32251 72.0
1427.41272 92.0
1428.480713 180.0
1429.564209 188.0
1429.932983 164.0
1430.03833 140.0
1432.643677 88.0
1432.960083 144.0
1433.287231 144.0
1433.472412 156.0
1434.309082 124.0
1434.994995 116.0
1435.078857 100.0
1435.952759 184.0
1436.261963 236.0
1436.527344 200.0
1436.805176 140.0
1437.559692 96.0
1438.216309 272.0
1438.744629 220.0
1439.522339 168.0
1439.915039 100.0
1440.859253 52.0
1441.6073 184.0
1441.886963 216.0
1442.839355 152.0
1443.376221 168.0
1443.875244 240.0
1444.192993 208.0
1444.858643 144.0
1445.380737 136.0
1446.932251 84.0
1447.023193 192.0
1449.019043 208.0
1449.469604 164.0
1450.500366 200.0
1450.818726 148.0
1451.144775 180.0
1451.478394 148.0
1451.539062 112.0
1451.865112 144.0
1452.183716 168.0
1452.525024 136.0
1452.661499 160.0
1452.927002 172.0
1453.093994 200.0
1453.792114 164.0
1454.209473 128.0
1454.733276 116.0
1454.876465 152.0
1455.044434 92.0
1456.358154 48.0
1456.502563 132.0
1457.246948 156.0
1457.497803 148.0
1457.615845 168.0
1458.310913 140.0
1458.576904 56.0
1458.668091 136.0
1459.603271 40.0
1460.112793 200.0
1460.949463 156.0
1461.375488 156.0
1462.509399 52.0
1463.019409 204.0
1463.788452 68.0
1463.849365 100.0
1464.81665 88.0
1465.388062 200.0
1466.165283 128.0
1467.598389 120.0
1467.758423 100.0
1467.849976 128.0
1468.452393 128.0
1468.704102 96.0
1468.772827 108.0
1468.97876 104.0
1470.359863 132.0
1470.466675 136.0
1470.573486 64.0
1471.039062 140.0
1471.25293 148.0
1471.581177 120.0
1471.733887 156.0
1471.810181 124.0
1472.011963 184.0
1472.848877 160.0
1472.902344 180.0
1472.994019 68.0
1473.337769 184.0
1473.47522 128.0
1473.704468 140.0
1474.155273 196.0
1474.23938 184.0
1474.797241 124.0
1474.907715 36.0
1475.696533 184.0
1475.844604 120.0
1475.966919 104.0
1477.137085 136.0
1477.657349 180.0
1477.734985 176.0
1477.808716 136.0
1477.978638 68.0
1478.070435 84.0
1479.111328 124.0
1479.363892 128.0
1480.087158 192.0
1480.328613 204.0
1481.094727 148.0
1481.186401 116.0
1481.49292 200.0
1481.807007 100.0
1482.059814 280.0
1482.259033 164.0
1482.473633 156.0
1483.630981 256.0
1483.784302 216.0
1484.267334 168.0
1484.543457 116.0
1485.617188 184.0
1485.855103 188.0
1486.622314 156.0
1486.955811 144.0
1487.505005 132.0
1488.272705 92.0
1488.564453 136.0
1488.679688 148.0
1489.155884 148.0
1489.647461 132.0
1489.831787 140.0
1490.039185 148.0
1490.607788 96.0
1491.161133 172.0
1491.460938 168.0
1492.244995 120.0
1492.898682 184.0
1493.167847 112.0
1493.298584 184.0
1493.383179 164.0
1493.567749 184.0
1494.39856 152.0
1494.798706 128.0
1495.398926 104.0
1495.745361 160.0
1496.592163 172.0
1497.601074 132.0
1497.678101 128.0
1498.194214 112.0
1498.379028 180.0
1498.818237 204.0
1498.879883 76.0
1498.941528 248.0
1499.149536 176.0
1499.858643 208.0
1500.377808 228.0
1501.161621 104.0
1501.578003 140.0
1501.670654 192.0
1501.861694 88.0
1502.033081 52.0
1502.604004 240.0
1502.85083 124.0
1502.982056 144.0
1503.074585 88.0
1503.182861 128.0
1503.383301 180.0
1503.529907 128.0
1504.301758 84.0
1504.42627 156.0
1504.613892 180.0
1505.004395 140.0
1505.313232 112.0
