>compound MLS001304073-01!Prednisone53-03-2
>formula C21H26O5
>ionization [M+H]+
>parentmass 359.1853003840905
#inchi InChI=1S/C21H26O5/c1-19-7-5-13(23)9-12(19)3-4-14-15-6-8-21(26,17(25)11-22)20(15,2)10-16(24)18(14)19/h5,7,9,14-15,18,22,26H,3-4,6,8,10-11H2,1-2H3/t14-,15-,18+,19-,20-,21-/m0/s1
#inchikey XOFYZVNMUHMLCC
#Ion_Source LC-ESI
#Instrument qTof
#Compound_Source NIH Pharmacologically Active Library
#PI Dorrestein
#Data_Collector VP/LMS
#Scan -1
#Precursor_MZ 359.189
#ExactMass 358.178
#Charge 1
#CAS_Number N/A
#Pubmed_ID N/A
#Smiles C[C@@]12CC(=O)[C@H]3[C@@H](CCC4=CC(=O)C=C[C@]34C)[C@@H]2CC[C@]1(O)C(=O)CO
#INCHI_AUX N/A
#Library_Class 1
#SpectrumID CCMSLIB00000084830
#IonMode Positive
#UpdateWorkflowName UPDATE-SINGLE-ANNOTATED-GOLD
#LibraryQualityString Gold
#TaskID d252d724072548979f1f6f1ced849daf
##Scan# 1694
#SpectrumFile p3-B04_GB4_01_18237.mzXML
#LibraryName Pharm_Active_Library.mgf
#MQScore -1
#Organism Pharm_Active_Library
#TIC_Query 0
#RT_Query -1
#MZErrorPPM -1
#SharedPeaks 0
#MassDiff 0
#LibMZ -1
#SpecMZ 359.189
#SpecCharge 0
#internalFilename spec-00000.mgf

>collision 10
44.970474 140.0
45.094688 300.0
45.149506 68.0
45.256561 128.0
45.296738 152.0
45.359718 120.0
45.464336 212.0
45.669899 96.0
45.916378 132.0
45.964943 188.0
46.143234 56.0
46.384205 68.0
46.407253 120.0
46.468288 40.0
46.597271 156.0
46.608139 188.0
46.620369 104.0
47.041241 220.0
47.050797 176.0
47.259911 100.0
47.402317 68.0
47.623199 108.0
47.652046 192.0
47.84597 100.0
47.927231 144.0
48.08168 120.0
48.125854 232.0
48.264027 228.0
48.402397 44.0
48.457802 148.0
48.574257 204.0
48.624207 224.0
48.735298 116.0
48.920273 124.0
48.950905 208.0
48.964832 160.0
49.25774 184.0
49.386337 136.0
49.648243 144.0
50.196693 196.0
50.505989 204.0
50.776516 148.0
50.803467 64.0
51.221401 168.0
51.362518 148.0
51.448139 152.0
51.490978 104.0
51.502403 192.0
51.582424 176.0
51.682533 172.0
51.88018 40.0
52.032253 60.0
52.338505 180.0
52.452316 156.0
52.79884 220.0
52.903023 216.0
53.107788 176.0
53.248123 160.0
53.476387 184.0
53.715351 112.0
53.868626 180.0
54.329762 124.0
55.643272 176.0
56.108944 216.0
56.13578 232.0
56.146221 112.0
56.30143 164.0
56.561012 200.0
56.847847 188.0
57.238686 156.0
57.339619 128.0
57.39389 124.0
57.703411 152.0
58.133591 148.0
58.576027 156.0
58.742153 192.0
58.937603 224.0
59.116512 148.0
59.174679 132.0
59.272705 160.0
59.544235 88.0
59.68869 176.0
59.757908 76.0
59.927273 72.0
60.416687 124.0
61.240952 216.0
61.537991 184.0
61.80452 84.0
62.100601 172.0
62.133541 80.0
62.183758 76.0
62.248123 144.0
62.292099 52.0
62.653919 180.0
62.792633 160.0
62.952026 108.0
63.012051 176.0
63.136925 164.0
63.204945 168.0
63.634483 176.0
63.879223 180.0
63.965153 160.0
64.181824 164.0
64.277527 144.0
64.544289 108.0
64.667465 164.0
65.021667 224.0
65.232079 168.0
65.355919 164.0
65.697472 164.0
65.744263 144.0
65.947762 140.0
66.039925 208.0
66.448143 136.0
66.57962 180.0
66.96344 180.0
67.022087 32.0
67.28141 200.0
67.659058 136.0
67.670525 124.0
67.86058 148.0
67.899933 188.0
68.016426 116.0
68.034485 148.0
68.149445 112.0
68.463631 128.0
68.932129 156.0
69.185188 140.0
69.422127 152.0
69.598022 116.0
69.978775 180.0
69.998756 128.0
70.140366 152.0
70.335526 148.0
70.566063 160.0
70.609543 172.0
70.827126 148.0
71.036659 204.0
71.179314 172.0
71.207863 156.0
71.406181 188.0
71.426369 200.0
71.667107 192.0
71.717667 136.0
71.798592 120.0
71.925133 88.0
72.038269 208.0
72.195457 248.0
72.841209 136.0
72.854805 132.0
73.000977 144.0
73.343178 188.0
73.414787 124.0
73.544449 196.0
73.757957 168.0
74.05397 132.0
74.096794 248.0
74.84565 172.0
75.007591 164.0
75.135201 184.0
75.435684 124.0
75.726379 216.0
75.958641 168.0
76.194733 168.0
76.278145 140.0
76.601807 212.0
76.73774 184.0
76.865074 192.0
77.363182 92.0
77.382446 224.0
77.443733 208.0
77.780388 208.0
77.822517 172.0
77.954262 232.0
78.284973 148.0
78.318436 144.0
78.598747 248.0
79.09536 32.0
79.385918 96.0
80.016693 200.0
80.207306 144.0
80.321426 152.0
80.439194 120.0
80.474899 104.0
80.503471 212.0
80.539192 260.0
80.573135 52.0
80.664268 156.0
80.869972 192.0
81.169144 140.0
81.418587 200.0
81.630638 124.0
81.853767 172.0
81.987076 156.0
82.068192 100.0
82.196259 160.0
82.270256 120.0
82.564774 128.0
82.810913 116.0
83.046532 200.0
83.202583 188.0
83.244347 232.0
83.356972 220.0
83.462402 104.0
83.520554 180.0
83.540604 72.0
83.890244 176.0
83.970474 68.0
84.017899 144.0
84.324661 120.0
84.432533 120.0
84.485573 172.0
84.745552 76.0
84.818855 204.0
85.024277 120.0
85.338387 132.0
85.37516 132.0
85.454254 140.0
85.72493 172.0
85.997879 212.0
86.169609 84.0
86.428459 172.0
86.837868 100.0
87.01786 152.0
87.082855 56.0
87.676346 156.0
87.719208 68.0
87.775139 172.0
87.887062 268.0
88.041992 212.0
88.152206 156.0
88.183983 100.0
88.329826 52.0
88.880623 180.0
89.847694 168.0
89.934494 180.0
90.257545 148.0
90.282127 104.0
90.812416 88.0
91.055779 680.0
91.074341 208.0
91.15033 196.0
91.163635 68.0
91.31382 36.0
91.365181 152.0
92.007423 196.0
92.058975 192.0
92.294006 104.0
92.403023 140.0
92.592529 104.0
92.651909 120.0
92.784142 148.0
92.99131 164.0
93.070015 268.0
93.375565 88.0
93.423645 212.0
93.658493 152.0
93.976578 64.0
94.117477 48.0
94.264275 60.0
94.376389 188.0
94.478889 128.0
94.629845 124.0
94.65889 136.0
94.775108 148.0
95.043282 208.0
95.086487 168.0
95.736649 160.0
95.754173 160.0
95.771706 180.0
95.802872 180.0
95.900299 164.0
96.0914 168.0
96.72261 56.0
96.761757 140.0
96.808754 104.0
96.857719 196.0
97.063492 108.0
97.414803 180.0
97.438377 220.0
97.49929 144.0
97.570053 108.0
98.070045 108.0
98.233704 196.0
98.389603 168.0
98.707703 136.0
98.739349 168.0
98.780884 76.0
98.840233 192.0
99.51017 108.0
100.242142 180.0
100.36174 176.0
100.538002 164.0
100.597153 108.0
100.665031 136.0
100.894806 60.0
101.164879 136.0
101.495453 172.0
101.71814 60.0
101.758293 200.0
102.041573 152.0
102.554893 168.0
102.776726 196.0
102.926086 148.0
103.054062 156.0
103.469971 176.0
103.577293 200.0
103.636047 112.0
103.761703 148.0
103.777924 56.0
104.057915 260.0
104.283394 104.0
104.610878 100.0
104.916039 60.0
105.071259 548.0
105.318436 184.0
105.620949 132.0
105.903412 148.0
105.940285 212.0
106.07988 164.0
106.282661 192.0
106.342178 148.0
106.360649 220.0
106.395546 116.0
106.455086 180.0
106.860016 132.0
107.048477 204.0
107.085289 672.0
107.117348 56.0
107.303368 224.0
107.32756 60.0
107.440994 120.0
107.529724 76.0
107.953232 152.0
108.013206 116.0
108.054581 96.0
108.483261 144.0
108.70726 112.0
108.808968 96.0
109.063789 672.0
109.351501 64.0
109.386887 128.0
109.741043 232.0
109.805687 196.0
109.820282 200.0
110.069519 192.0
110.102036 144.0
110.25872 104.0
110.273354 252.0
110.664528 180.0
110.888672 124.0
111.043495 156.0
111.078468 304.0
111.392242 192.0
111.806442 132.0
111.899063 176.0
112.274132 180.0
112.326859 220.0
112.358505 168.0
112.533676 56.0
112.622368 188.0
112.660393 96.0
112.840027 136.0
113.233604 136.0
113.322578 220.0
113.475174 124.0
113.549393 236.0
113.651215 44.0
114.759354 68.0
114.823326 108.0
115.054375 660.0
115.335739 176.0
116.153694 192.0
116.303894 56.0
116.534424 148.0
116.628227 172.0
116.783035 228.0
116.97023 172.0
117.070602 412.0
117.235138 176.0
117.375259 152.0
117.41407 52.0
117.4674 232.0
117.956009 148.0
118.094391 152.0
118.126839 72.0
118.252335 232.0
118.286964 148.0
118.577202 112.0
118.926392 188.0
119.086617 876.0
119.108383 176.0
119.160912 180.0
119.298706 208.0
119.62413 176.0
119.946518 92.0
119.968315 132.0
120.09478 180.0
120.195137 200.0
120.284615 124.0
120.341377 32.0
120.5467 180.0
120.649422 168.0
120.760941 144.0
120.798126 148.0
121.027916 92.0
121.066269 2452.0
121.159325 48.0
121.179047 140.0
121.59787 152.0
121.751549 184.0
121.986649 156.0
122.068779 344.0
122.279182 64.0
122.424484 264.0
122.528008 140.0
122.973434 236.0
123.004333 168.0
123.05732 188.0
123.079498 384.0
123.357765 128.0
124.223595 148.0
124.305687 80.0
124.356728 112.0
125.092461 156.0
125.177063 76.0
125.500153 160.0
125.937538 208.0
126.093933 248.0
126.404778 100.0
126.446739 60.0
127.056053 236.0
127.081459 216.0
127.108383 136.0
127.168976 184.0
127.575539 72.0
127.665474 36.0
127.901711 56.0
127.980499 220.0
128.061279 452.0
128.153931 188.0
128.715561 160.0
128.848816 136.0
129.070023 476.0
129.228653 176.0
129.267105 204.0
129.285217 228.0
129.310104 128.0
129.441406 176.0
130.026276 160.0
130.069397 208.0
130.319214 172.0
130.487396 188.0
130.751251 68.0
130.919724 140.0
130.940216 128.0
130.990326 176.0
131.050644 396.0
131.085678 708.0
131.188583 132.0
131.525314 224.0
131.845932 184.0
131.912201 104.0
131.994507 152.0
132.024246 164.0
132.058746 352.0
132.095337 240.0
132.223267 164.0
132.626373 232.0
132.910736 196.0
132.949753 80.0
132.972702 180.0
133.062775 460.0
133.099487 664.0
133.181625 168.0
133.820923 36.0
134.046646 160.0
134.072952 200.0
134.231964 172.0
134.775803 116.0
135.080597 1608.0
135.235992 52.0
135.28923 192.0
135.73407 260.0
136.08374 176.0
136.116943 244.0
136.602676 196.0
136.746933 92.0
137.056763 212.0
137.093109 240.0
137.117249 132.0
137.649124 148.0
138.120087 248.0
138.505096 120.0
138.56366 176.0
138.683167 192.0
138.70192 120.0
138.755829 176.0
138.856659 204.0
138.905914 72.0
139.072418 216.0
139.297928 160.0
139.662262 220.0
139.930527 100.0
139.956421 200.0
140.031784 192.0
140.085953 180.0
140.458389 208.0
140.604675 156.0
140.621201 172.0
140.85022 176.0
140.86676 112.0
140.991974 140.0
141.069138 652.0
141.131302 124.0
141.569199 64.0
141.78952 60.0
141.877228 108.0
142.073212 296.0
142.354126 244.0
142.375504 184.0
142.456253 164.0
142.643982 184.0
142.867508 152.0
142.893677 180.0
143.05365 272.0
143.084564 504.0
143.746674 164.0
144.028381 176.0
144.056747 476.0
144.09288 172.0
144.621368 204.0
144.638123 288.0
144.717117 212.0
144.805069 148.0
144.918304 96.0
145.065186 2280.0
145.097 316.0
145.282715 56.0
145.645187 32.0
145.890274 136.0
146.071533 944.0
146.10054 148.0
146.171677 124.0
146.38591 136.0
146.405182 96.0
146.670197 132.0
146.73288 76.0
146.933044 216.0
146.949936 156.0
146.969238 56.0
147.022324 272.0
147.044037 172.0
147.081787 8480.0
147.135773 132.0
147.573059 144.0
147.78833 156.0
147.902069 64.0
147.955322 184.0
147.986786 108.0
148.086182 824.0
148.195084 140.0
148.301712 120.0
148.379272 176.0
148.607254 156.0
149.088593 196.0
149.246048 200.0
149.423584 232.0
149.781433 224.0
149.817978 200.0
149.837463 160.0
149.881317 108.0
149.956863 160.0
149.990982 64.0
150.017807 116.0
150.586334 200.0
150.627853 156.0
150.728012 172.0
150.764679 68.0
150.938232 188.0
151.072571 232.0
151.163269 44.0
151.214661 172.0
152.04303 224.0
152.066513 204.0
152.730957 204.0
152.999176 248.0
153.069794 740.0
153.095947 216.0
153.156769 88.0
153.422897 172.0
153.64978 48.0
154.073547 288.0
154.50705 116.0
154.774338 152.0
154.818909 128.0
155.063385 188.0
155.083328 380.0
156.095947 324.0
156.5224 96.0
156.701736 208.0
156.824661 120.0
156.978394 180.0
157.062775 312.0
157.105408 160.0
157.307739 96.0
157.779877 152.0
157.824875 116.0
158.073578 1404.0
158.247726 116.0
158.538284 160.0
159.007248 100.0
159.080536 4004.0
159.121414 108.0
159.254517 88.0
159.29097 72.0
159.927124 64.0
159.96991 188.0
160.08429 948.0
160.567062 148.0
160.794128 168.0
161.060425 388.0
161.096252 1768.0
161.316956 132.0
162.099945 164.0
162.291656 180.0
162.593521 124.0
162.761932 220.0
163.025238 88.0
163.073395 864.0
163.108414 208.0
163.345581 200.0
163.531326 168.0
164.080734 204.0
164.124878 220.0
164.203934 148.0
164.323822 36.0
165.068268 624.0
165.104492 192.0
165.4944 140.0
165.655746 92.0
166.069717 184.0
166.242874 164.0
166.417419 196.0
166.514999 156.0
166.818192 124.0
167.03418 180.0
167.084869 516.0
167.131943 172.0
167.494934 120.0
167.685608 132.0
168.05542 148.0
168.092651 304.0
168.185959 108.0
168.470001 164.0
168.816345 132.0
168.870651 220.0
168.981888 148.0
169.007751 240.0
169.065399 676.0
169.098907 124.0
169.196686 48.0
169.411636 164.0
169.790054 228.0
169.963867 120.0
170.067856 356.0
170.107605 340.0
170.301346 120.0
170.847214 156.0
170.998123 176.0
171.029358 232.0
171.080582 4636.0
171.122437 176.0
171.179245 56.0
171.20639 28.0
171.589432 68.0
171.687134 76.0
172.086487 1104.0
172.121933 212.0
172.278381 176.0
172.401184 176.0
172.505737 40.0
172.887604 116.0
172.921616 56.0
172.98967 48.0
173.028946 128.0
173.057739 144.0
173.097504 2176.0
173.138916 92.0
173.207016 156.0
173.290848 48.0
173.314423 128.0
173.513611 104.0
173.539825 88.0
173.558182 212.0
174.102356 360.0
174.138138 144.0
174.174896 176.0
174.26947 148.0
174.992752 136.0
175.066742 164.0
175.106232 208.0
175.896973 32.0
176.118774 100.0
176.732086 144.0
177.062973 360.0
177.083939 196.0
177.092346 180.0
177.100449 212.0
178.076721 436.0
179.086014 1696.0
179.118729 92.0
179.406525 160.0
179.465164 144.0
179.585175 184.0
179.630524 36.0
179.80127 40.0
180.092392 384.0
180.350021 180.0
180.691071 36.0
181.067688 1016.0
181.101578 796.0
181.540146 64.0
181.628647 180.0
181.966782 64.0
182.07312 776.0
182.106277 160.0
182.859207 136.0
183.081711 1552.0
183.114731 192.0
183.193085 56.0
183.236191 44.0
183.271225 32.0
183.418335 68.0
183.49762 60.0
183.937332 180.0
184.091385 488.0
184.153336 96.0
184.469482 72.0
184.894119 156.0
185.059692 444.0
185.094299 1036.0
185.173874 168.0
185.256943 116.0
185.308411 32.0
185.885941 68.0
186.100708 748.0
186.290482 168.0
186.798813 208.0
187.016479 160.0
187.076385 1196.0
187.109985 1076.0
187.166214 48.0
187.201614 48.0
187.27211 180.0
187.525803 256.0
187.951218 56.0
188.081924 192.0
188.108307 128.0
188.142258 152.0
188.398972 144.0
189.092667 580.0
189.21666 96.0
189.613846 84.0
190.077286 152.0
190.401215 128.0
190.640213 128.0
191.089905 676.0
191.184708 160.0
191.341599 112.0
191.617004 96.0
192.092209 416.0
192.999771 60.0
193.10289 536.0
193.14357 140.0
193.409195 84.0
193.882797 200.0
194.072784 972.0
194.107376 356.0
194.451324 96.0
194.504059 196.0
194.537369 32.0
195.079849 1116.0
195.116776 636.0
195.143005 104.0
195.366364 164.0
195.535217 144.0
195.841476 120.0
196.087234 1236.0
196.214874 64.0
196.284576 100.0
196.348709 152.0
196.443542 216.0
196.516083 136.0
196.873367 132.0
197.095871 2496.0
197.205826 104.0
197.608505 136.0
197.997589 148.0
198.064804 168.0
198.099136 944.0
198.496399 72.0
198.664673 116.0
199.068832 200.0
199.109879 1420.0
199.338501 96.0
199.383469 208.0
199.412476 100.0
199.900894 96.0
200.110733 116.0
200.289413 76.0
200.895462 144.0
201.084503 168.0
201.133331 176.0
202.07991 440.0
202.144257 128.0
202.523621 60.0
203.101212 200.0
204.073044 184.0
204.09375 436.0
204.437134 100.0
204.536743 156.0
204.852814 164.0
205.02092 172.0
205.066864 128.0
205.096375 408.0
205.808212 140.0
205.868011 76.0
206.076691 284.0
206.115555 332.0
206.299606 64.0
206.522629 136.0
206.559814 164.0
206.662811 172.0
206.694275 96.0
206.994827 204.0
207.082413 1036.0
207.118073 640.0
207.143753 72.0
207.55072 96.0
208.08934 2220.0
208.190613 52.0
208.248062 152.0
208.40892 56.0
208.443405 160.0
208.768234 156.0
209.094635 2464.0
209.128891 496.0
209.154205 204.0
209.502182 224.0
209.603012 40.0
209.626068 76.0
209.689468 56.0
209.764404 96.0
210.070068 236.0
210.105148 1440.0
210.217209 48.0
210.523209 64.0
210.667618 48.0
210.762955 64.0
210.864105 40.0
211.084442 144.0
211.114105 780.0
211.349915 112.0
211.370163 188.0
211.47435 80.0
211.549606 88.0
211.711746 28.0
211.827591 52.0
211.86525 72.0
212.076782 136.0
212.117325 916.0
212.410233 44.0
212.761353 140.0
213.090927 376.0
213.12645 232.0
213.892151 100.0
214.132523 168.0
214.346466 100.0
214.795441 84.0
214.836273 180.0
215.08139 236.0
215.105469 596.0
215.133942 116.0
215.504837 116.0
216.090637 184.0
216.118835 124.0
216.689758 64.0
217.100388 584.0
217.350525 112.0
217.384659 76.0
217.675278 80.0
218.107391 136.0
218.577682 92.0
218.860245 224.0
219.080185 860.0
219.112686 300.0
220.088303 432.0
220.119644 172.0
221.003082 52.0
221.094711 1228.0
221.132126 536.0
221.337555 112.0
221.441208 100.0
221.565613 88.0
222.030975 168.0
222.066559 244.0
222.104401 2276.0
222.294998 28.0
222.674988 48.0
222.746262 28.0
223.07016 104.0
223.111206 1596.0
223.352646 28.0
223.647202 44.0
223.897293 96.0
224.092789 288.0
224.117126 892.0
224.183273 140.0
224.424728 88.0
224.609619 168.0
224.746857 92.0
225.097672 164.0
225.127411 1364.0
225.260345 144.0
225.314117 56.0
225.421677 48.0
225.517303 40.0
225.804321 116.0
225.947906 48.0
226.040649 56.0
226.098801 332.0
226.129044 568.0
226.163361 136.0
227.107971 712.0
227.141449 868.0
227.239151 36.0
227.956772 112.0
228.09201 168.0
228.149582 592.0
229.095551 308.0
229.148285 148.0
229.234238 80.0
230.10434 364.0
230.37915 224.0
230.605774 56.0
230.720642 88.0
230.98674 176.0
231.083282 304.0
231.112503 464.0
231.404358 164.0
232.091019 392.0
232.11673 156.0
233.092041 436.0
233.12796 368.0
233.617554 180.0
234.105621 836.0
234.615585 84.0
234.737549 76.0
234.993759 160.0
235.07637 144.0
235.11145 1636.0
235.176849 60.0
235.221481 64.0
235.363068 68.0
235.384445 80.0
235.506592 48.0
235.61351 80.0
235.916046 64.0
236.007767 76.0
236.035294 48.0
236.081879 196.0
236.119324 672.0
236.273849 52.0
237.051544 52.0
237.089218 328.0
237.128067 2348.0
237.621857 100.0
237.677078 132.0
238.098145 408.0
238.132721 1644.0
238.272705 68.0
238.303436 64.0
238.457077 136.0
238.490891 200.0
238.761429 60.0
239.104462 476.0
239.142273 872.0
239.339951 60.0
239.432327 80.0
239.731155 124.0
239.77121 76.0
239.959244 108.0
239.98082 56.0
240.051743 68.0
240.108505 332.0
240.153336 364.0
241.088959 200.0
241.122726 292.0
241.153854 152.0
241.258957 56.0
241.973587 212.0
242.11293 140.0
242.138992 164.0
242.453705 96.0
243.120316 272.0
244.094116 172.0
244.125641 236.0
244.294907 64.0
244.886307 152.0
244.976639 168.0
245.091629 220.0
245.124741 164.0
245.359955 164.0
245.584457 124.0
245.968246 52.0
246.103043 804.0
246.549164 116.0
247.113937 760.0
247.662949 64.0
247.688019 176.0
248.120605 1428.0
248.173752 192.0
248.220795 92.0
248.311737 68.0
248.437195 68.0
249.12648 2360.0
249.231506 48.0
249.288055 72.0
249.316345 56.0
249.404343 40.0
249.448349 60.0
249.512482 80.0
250.025146 124.0
250.100632 268.0
250.13147 748.0
250.294647 60.0
250.738815 48.0
250.836517 124.0
251.104248 360.0
251.140182 828.0
251.659897 108.0
251.820953 76.0
252.007324 36.0
252.089478 220.0
252.147522 144.0
253.121674 184.0
253.158279 136.0
253.222031 160.0
253.386749 32.0
253.627579 36.0
253.798767 36.0
253.982697 168.0
254.122742 440.0
254.170319 200.0
254.223816 88.0
254.455521 140.0
254.963745 92.0
255.06546 140.0
255.13327 560.0
255.418396 80.0
255.927582 32.0
256.000824 40.0
256.09317 168.0
256.137177 152.0
256.957031 144.0
257.09137 348.0
257.122437 188.0
257.621063 36.0
257.940613 44.0
258.101288 200.0
259.107208 208.0
259.132996 140.0
259.762604 164.0
260.121674 328.0
260.43988 44.0
260.616577 216.0
261.12561 428.0
261.404358 60.0
261.948456 104.0
262.096283 248.0
262.133301 588.0
262.170746 56.0
262.702759 28.0
263.103333 304.0
263.144623 1176.0
263.406464 176.0
263.845947 56.0
264.113983 184.0
264.14798 964.0
264.706573 36.0
265.017517 32.0
265.158417 2432.0
265.354584 68.0
265.81192 28.0
265.987183 168.0
266.119812 164.0
266.159912 224.0
266.412567 52.0
266.77002 92.0
267.137451 732.0
267.15033 320.0
267.158813 540.0
268.114746 132.0
268.143311 364.0
268.181244 208.0
269.130188 200.0
269.154846 192.0
270.121399 172.0
270.77356 48.0
271.109344 292.0
271.173248 100.0
271.691345 132.0
272.121063 644.0
273.136414 260.0
274.523254 156.0
275.090729 172.0
275.139954 372.0
276.055481 100.0
276.107422 280.0
276.144745 152.0
276.23407 48.0
277.120636 484.0
277.157043 436.0
277.429504 48.0
278.127319 148.0
278.172546 204.0
278.800293 60.0
279.139374 152.0
279.758209 84.0
279.818115 52.0
280.133759 248.0
281.149689 316.0
281.348328 76.0
281.802521 44.0
281.912811 124.0
282.133392 188.0
282.160156 108.0
283.026672 84.0
283.150574 148.0
283.178925 236.0
284.193085 116.0
286.139069 152.0
287.143311 164.0
288.155853 216.0
289.126312 156.0
290.131592 136.0
291.136414 136.0
291.252075 68.0
292.091644 156.0
292.144714 308.0
293.1604 264.0
293.259521 28.0
294.156464 112.0
294.392181 36.0
295.170624 692.0
295.934296 32.0
296.162689 144.0
296.182129 160.0
296.948608 52.0
297.156708 72.0
297.624634 40.0
298.139893 204.0
299.1633 176.0
304.548737 72.0
305.147583 756.0
305.330719 48.0
306.169922 140.0
308.147186 192.0
310.313599 88.0
311.161926 120.0
313.145844 156.0
313.184601 168.0
314.330353 60.0
315.202515 120.0
317.187927 200.0
320.970612 72.0
323.117157 136.0
323.166412 140.0
323.410583 44.0
325.184723 144.0
329.155457 88.0
331.727783 108.0
333.215668 156.0
342.16507 172.0
344.617645 84.0
360.211853 132.0
369.063049 104.0
377.147644 100.0
382.006226 88.0
410.301514 104.0
443.513794 60.0
452.935364 92.0
457.163971 188.0
464.010925 72.0
464.988922 60.0
472.624939 60.0
514.397705 68.0
559.73175 68.0
569.207703 80.0
593.40564 48.0
625.526917 36.0
658.310913 116.0
661.009949 132.0
671.252625 60.0
734.42157 64.0
764.991638 128.0
769.098206 92.0
786.460205 64.0
787.141296 156.0
808.19751 80.0
813.399963 156.0
846.337036 52.0
849.36792 180.0
856.995117 132.0
891.121399 152.0
894.636108 224.0
902.439575 236.0
922.573914 144.0
932.028564 44.0
961.823242 152.0
967.250305 212.0
990.908569 196.0
1003.579224 160.0
1012.204041 144.0
1014.060242 188.0
1014.598999 148.0
1036.806274 152.0
1037.306152 148.0
1065.259644 144.0
1074.596069 60.0
1082.459106 164.0
1086.430908 176.0
1095.542358 220.0
1097.433838 224.0
1100.165161 172.0
1101.829346 172.0
1117.988037 212.0
1132.267822 196.0
1142.060059 72.0
1150.071167 56.0
1151.509277 196.0
1161.30957 152.0
1167.836548 48.0
1170.286377 152.0
1173.897827 120.0
1178.580322 196.0
1203.927856 184.0
1211.702393 144.0
1212.138916 72.0
1215.606079 176.0
1218.772339 104.0
1219.321289 212.0
1220.099854 108.0
1226.106812 196.0
1232.722412 168.0
1233.463257 100.0
1235.589111 216.0
1241.38855 80.0
1244.890259 176.0
1246.309082 180.0
1251.316895 196.0
1255.869019 144.0
1259.348755 56.0
1260.344727 184.0
1262.055298 204.0
1263.066528 44.0
1269.256226 208.0
1270.043457 192.0
1271.249512 68.0
1275.525024 160.0
1280.370239 180.0
1286.230957 140.0
1286.930542 112.0
1297.010254 216.0
1298.853027 168.0
1302.161865 196.0
1307.381226 52.0
1307.517944 196.0
1308.561646 160.0
1309.893921 172.0
1310.009155 108.0
1313.53418 144.0
1314.652466 48.0
1319.274902 196.0
1321.560303 196.0
1325.970337 156.0
1328.682129 180.0
1330.307739 212.0
1334.121582 152.0
1336.543457 212.0
1342.086304 80.0
1356.092773 116.0
1371.424561 120.0
1372.648438 228.0
1372.965454 208.0
1384.331177 88.0
1387.08728 44.0
1390.966675 156.0
1391.820435 132.0
1396.955933 172.0
1398.13147 216.0
1403.405396 212.0
1405.240112 172.0
1409.839844 164.0
1414.828735 160.0
1415.360352 172.0
1418.304443 204.0
1426.952393 164.0
1427.042603 68.0
1427.290771 124.0
1428.321045 128.0
1433.681641 68.0
1434.450439 48.0
1434.578613 148.0
1438.214355 132.0
1438.757812 116.0
1439.369385 136.0
1440.434326 88.0
1440.592896 168.0
1440.645752 148.0
1441.42395 192.0
1446.824219 100.0
1447.157349 84.0
1455.163696 208.0
1455.748291 128.0
1457.639771 164.0
1459.129517 148.0
1460.36145 140.0
1460.764526 52.0
1461.639404 180.0
1462.803833 172.0
1463.69458 148.0
1464.319092 156.0
1464.70752 124.0
1467.87793 192.0
1473.984497 164.0
1474.932251 148.0
1482.317505 160.0
1486.911011 88.0
1487.486694 140.0
1489.252686 192.0
1491.065918 48.0
1494.803345 144.0
1496.85083 352.0
1499.431519 120.0
1501.97583 208.0
1503.210327 168.0
1503.68103 248.0
