>compound (5S,8R,9S,10S,13S,14S,17S)-17-hydroxy-10,13,17-trimethyl-2,4,5,6,7,8,9,11,12,14,15,16-dodecahydro-1H-cyclopenta[a]phenanthren-3-one
>formula C20H32O2
>ionization [M+H]+
>parentmass 305.248474
#inchi InChI=1S/C20H32O2/c1-18-9-6-14(21)12-13(18)4-5-15-16(18)7-10-19(2)17(15)8-11-20(19,3)22/h13,15-17,22H,4-12H2,1-3H3/t13-,15+,16-,17-,18-,19-,20-/m0/s1
#inchikey WYZDXEKUWRCKOB
#Ion_Source LC-ESI
#Instrument qTof
#Compound_Source Commercial
#PI Dorrestein
#Data_Collector Garg_Neha
#Scan -1
#Precursor_MZ 305.247
#ExactMass 304.24
#Charge 1
#CAS_Number N/A
#Pubmed_ID N/A
#Smiles C[C@]1(O)CC[C@H]2[C@@H]3CC[C@H]4CC(=O)CC[C@]4(C)[C@H]3CC[C@@]21C
#INCHI_AUX N/A
#Library_Class 1
#SpectrumID CCMSLIB00000079028
#IonMode Positive
#UpdateWorkflowName UPDATE-SINGLE-ANNOTATED-GOLD
#LibraryQualityString Gold
#TaskID 278b19f5865741e282cec7349aa7e7a1
##Scan# 1858
#SpectrumFile NCP003352_G2_H11_BC7_01_15721.mzXML
#LibraryName NIHcollectionI_05062014.mgf
#MQScore -1
#Organism NIHcollectionI_05062014
#TIC_Query 0
#RT_Query -1
#MZErrorPPM -1
#SharedPeaks 0
#MassDiff 0
#LibMZ -1
#SpecMZ 305.247
#SpecCharge 0
#internalFilename spec-00000.mgf

>collision 10
46.85537 140.0
47.720356 156.0
50.089134 148.0
59.658924 148.0
59.962154 216.0
73.236885 176.0
75.367622 184.0
81.572426 156.0
84.409897 180.0
85.759254 144.0
89.142815 152.0
90.90847 192.0
91.058449 172.0
92.469299 148.0
93.078178 220.0
94.226868 220.0
95.086838 368.0
95.117676 192.0
96.0868 292.0
96.334732 168.0
99.081543 620.0
100.870125 172.0
101.000092 148.0
103.076889 172.0
105.068214 292.0
105.264648 220.0
106.711243 160.0
107.085365 1300.0
109.061539 196.0
109.100418 208.0
109.117836 164.0
109.369545 164.0
110.074203 192.0
110.787415 164.0
111.080894 160.0
117.070755 144.0
119.086891 436.0
119.569061 156.0
120.090836 172.0
121.101379 824.0
121.380043 152.0
122.102531 164.0
122.146523 188.0
123.01252 164.0
123.11515 172.0
125.058434 152.0
128.058426 152.0
128.773666 176.0
130.418594 160.0
131.087051 264.0
133.101883 640.0
135.079269 188.0
135.117676 420.0
138.914734 176.0
139.111847 140.0
143.082901 300.0
144.100189 156.0
145.101288 1080.0
147.117981 1320.0
147.149734 176.0
148.120453 304.0
149.133774 144.0
150.852158 148.0
151.112015 188.0
154.128296 188.0
155.214935 160.0
155.505173 140.0
156.090317 160.0
157.101379 508.0
157.130096 220.0
159.118134 1508.0
160.119919 256.0
161.132736 1004.0
163.146759 144.0
165.130234 128.0
169.103729 208.0
169.792297 284.0
171.11377 336.0
172.118729 144.0
173.132919 904.0
174.133682 164.0
175.150284 296.0
175.174149 216.0
176.15361 196.0
176.599503 152.0
177.129074 268.0
183.11203 152.0
185.13063 432.0
186.142929 180.0
187.149506 344.0
188.148483 148.0
189.163971 548.0
190.166168 148.0
191.137436 144.0
193.15448 152.0
197.454529 144.0
199.150818 524.0
199.279388 160.0
200.154831 300.0
201.162766 116.0
202.169647 144.0
204.192413 172.0
204.872696 148.0
205.155914 244.0
205.197586 172.0
213.166534 1000.0
214.169525 268.0
215.168213 116.0
217.199951 156.0
218.166 176.0
225.163666 344.0
226.600723 144.0
227.180084 1132.0
228.175873 168.0
229.139435 160.0
229.194153 3820.0
230.197144 436.0
230.820618 188.0
231.176788 180.0
233.191284 212.0
241.188187 152.0
242.100876 180.0
244.052689 172.0
245.095398 156.0
245.198227 152.0
246.927841 184.0
247.207977 720.0
250.931519 140.0
256.195587 184.0
263.898254 124.0
267.211212 148.0
267.570923 172.0
269.22757 7908.0
270.230713 1260.0
270.712006 144.0
271.232666 340.0
277.228058 160.0
279.050354 208.0
282.187347 204.0
283.295441 160.0
284.67392 180.0
287.013 156.0
287.069885 156.0
287.235687 4600.0
287.677185 156.0
288.241272 628.0
289.247589 160.0
294.816711 184.0
295.110687 188.0
295.144897 160.0
303.139069 120.0
303.376953 180.0
304.272003 244.0
304.83606 96.0
305.032776 176.0
305.067535 208.0
305.130127 152.0
305.164215 512.0
305.248474 26916.0
305.660034 136.0
306.123993 156.0
306.183105 124.0
306.250641 3924.0
307.15686 140.0
307.252502 632.0
307.982178 108.0
308.075592 236.0
308.158112 116.0
308.22168 192.0
308.263702 144.0
308.435883 164.0
323.259766 588.0
324.257416 144.0
346.281525 164.0
347.269745 184.0
1437.513306 164.0
1757.43689 164.0
1787.997925 184.0
1805.968628 224.0
1852.521973 144.0
1885.506958 176.0
1959.192993 196.0
1970.662109 164.0
