>compound MLS001074115-01!
>formula C29H35NO2
>ionization [M+H]+
>parentmass 430.27359
#inchi InChI=1S/C29H35NO2/c1-5-15-29(32)16-14-26-24-12-8-20-17-22(31)11-13-23(20)27(24)25(18-28(26,29)2)19-6-9-21(10-7-19)30(3)4/h6-7,9-10,17,24-26,32H,8,11-14,16,18H2,1-4H3/t24-,25+,26-,28-,29-/m0/s1
#inchikey VKHAHZOOUSRJNA
#Ion_Source LC-ESI
#Instrument qTof
#Compound_Source NIH Pharmacologically Active Library
#PI Dorrestein
#Data_Collector VP/LMS
#Scan -1
#Precursor_MZ 430.285
#ExactMass 429.267
#Charge 1
#CAS_Number N/A
#Pubmed_ID N/A
#Smiles CC#C[C@]1(O)CC[C@H]2[C@@H]3CCC4=CC(=O)CCC4=C3[C@H](C[C@@]21C)c5ccc(cc5)N(C)C
#INCHI_AUX N/A
#Library_Class 1
#SpectrumID CCMSLIB00000085552
#IonMode Positive
#UpdateWorkflowName UPDATE-SINGLE-ANNOTATED-GOLD
#LibraryQualityString Gold
#TaskID d252d724072548979f1f6f1ced849daf
##Scan# 1761
#SpectrumFile p4-C07_GC7_01_18355.mzXML
#LibraryName Pharm_Active_Library.mgf
#MQScore -1
#Organism Pharm_Active_Library
#TIC_Query 0
#RT_Query -1
#MZErrorPPM -1
#SharedPeaks 0
#MassDiff 0
#LibMZ -1
#SpecMZ 430.285
#SpecCharge 0
#internalFilename spec-00000.mgf

>collision 10
44.905811 124.0
44.929195 148.0
44.934326 136.0
44.944145 188.0
44.953812 76.0
44.976009 168.0
44.995895 124.0
45.005871 152.0
45.0219 204.0
45.05785 168.0
45.06356 164.0
45.078384 268.0
45.110962 132.0
45.124985 108.0
45.145683 160.0
45.172432 172.0
45.186783 160.0
45.204018 196.0
45.227295 208.0
45.246643 176.0
45.260174 136.0
45.285984 168.0
45.306301 168.0
45.32774 104.0
45.345371 288.0
45.358078 188.0
45.369102 176.0
45.372746 152.0
45.382938 144.0
45.397446 116.0
45.420059 180.0
45.445766 248.0
45.474773 156.0
45.483604 128.0
45.498898 176.0
45.536503 156.0
45.568123 204.0
45.582619 144.0
45.590538 148.0
45.631081 192.0
45.640461 172.0
45.650425 124.0
45.667385 140.0
45.683636 348.0
45.709091 84.0
45.730469 240.0
45.733818 152.0
45.739479 124.0
45.764278 76.0
45.778751 160.0
45.81189 192.0
45.832901 156.0
45.856224 204.0
45.888233 156.0
45.913853 164.0
45.931343 124.0
45.944668 152.0
45.965115 196.0
45.97456 196.0
45.987118 196.0
46.012825 172.0
46.024506 108.0
46.0373 160.0
46.052979 168.0
46.096096 116.0
46.116817 156.0
46.134178 176.0
46.167774 168.0
46.20116 212.0
46.21981 268.0
46.236736 172.0
46.250557 188.0
46.254963 180.0
46.272503 184.0
46.299011 72.0
46.314804 188.0
46.332874 96.0
46.373524 276.0
46.385307 156.0
46.416397 292.0
46.434299 392.0
46.447273 184.0
46.465736 180.0
46.4888 164.0
46.504986 108.0
46.523468 148.0
46.531906 204.0
46.541584 228.0
46.557331 224.0
46.585201 136.0
46.612373 80.0
46.658421 164.0
46.674793 152.0
46.699379 216.0
46.726254 196.0
46.740089 108.0
46.75108 188.0
46.775578 116.0
46.803535 200.0
46.82679 124.0
46.854935 160.0
46.875565 324.0
46.890846 108.0
46.89592 160.0
46.914524 136.0
46.945881 104.0
46.955429 112.0
46.971798 96.0
46.986092 284.0
47.000282 132.0
47.016941 144.0
47.031689 300.0
47.043198 160.0
47.056408 168.0
47.077824 240.0
47.096161 72.0
47.119183 116.0
47.131126 164.0
47.14716 136.0
47.15274 168.0
47.155376 124.0
47.167637 164.0
47.218369 144.0
47.231327 136.0
47.242268 136.0
47.251846 160.0
47.279064 192.0
47.297215 104.0
47.3148 84.0
47.332985 184.0
47.343731 156.0
47.369408 128.0
47.40794 60.0
47.418903 44.0
47.43261 192.0
47.442207 108.0
47.455257 104.0
47.473316 300.0
47.478298 124.0
47.505287 308.0
47.516659 208.0
47.527237 212.0
47.549194 164.0
47.566811 224.0
47.580765 164.0
47.594582 128.0
47.599155 112.0
47.603168 164.0
47.615093 168.0
47.625034 84.0
47.642044 176.0
47.67363 164.0
47.681595 168.0
47.692356 68.0
47.702858 160.0
47.72171 188.0
47.74374 180.0
47.762157 144.0
47.794125 288.0
47.815815 204.0
47.837841 176.0
47.865376 164.0
47.884022 164.0
47.904209 196.0
47.915565 272.0
47.944885 312.0
47.954201 92.0
47.966187 368.0
47.981663 140.0
48.000595 236.0
48.011444 164.0
48.023857 112.0
48.050068 208.0
48.065754 260.0
48.078228 372.0
48.102928 144.0
48.130955 132.0
48.150833 96.0
48.170834 148.0
48.187485 364.0
48.21946 208.0
48.242027 36.0
48.254471 100.0
48.273396 256.0
48.284172 208.0
48.322998 328.0
48.342426 264.0
48.382168 172.0
48.397747 288.0
48.409348 116.0
48.432316 116.0
48.448261 144.0
48.47039 192.0
48.487999 204.0
48.507225 188.0
48.546032 188.0
48.562832 144.0
48.575756 96.0
48.588078 100.0
48.618771 52.0
48.638199 276.0
48.651985 116.0
48.656605 108.0
48.65937 144.0
48.679817 176.0
48.704849 120.0
48.724163 164.0
48.734596 184.0
48.754639 224.0
48.768764 116.0
48.784912 136.0
48.805031 248.0
48.817722 204.0
48.852459 84.0
48.863998 136.0
48.879486 104.0
48.883785 152.0
48.902287 176.0
48.925014 112.0
48.938931 148.0
48.94482 188.0
48.947472 140.0
48.976948 280.0
49.009514 172.0
49.023449 76.0
49.034599 32.0
49.050808 216.0
49.080601 60.0
49.099152 172.0
49.115135 152.0
49.139179 116.0
49.152332 160.0
49.166382 144.0
49.182442 140.0
49.215008 244.0
49.231304 108.0
49.241245 304.0
49.254829 128.0
49.284386 144.0
49.295097 144.0
49.307392 164.0
49.327312 168.0
49.330318 120.0
49.334995 152.0
49.378044 140.0
49.39122 200.0
49.401173 172.0
49.416035 176.0
49.474594 144.0
49.552254 124.0
49.557659 180.0
49.58176 196.0
49.590946 196.0
49.60347 116.0
49.626419 184.0
49.652546 120.0
49.665169 100.0
49.687946 84.0
49.721287 184.0
49.731113 208.0
49.745396 136.0
49.767612 336.0
49.776432 156.0
49.7971 180.0
49.823792 100.0
49.839634 144.0
49.861656 152.0
49.89687 156.0
49.943165 556.0
49.956089 132.0
49.968246 192.0
49.996037 144.0
50.031021 112.0
50.067127 232.0
50.089664 204.0
50.11805 176.0
50.133873 224.0
50.161392 124.0
50.181053 176.0
50.195553 232.0
50.226391 188.0
50.240498 172.0
50.253197 100.0
50.308884 148.0
50.327557 140.0
50.352692 188.0
50.364719 200.0
50.381668 140.0
50.401554 160.0
50.417519 280.0
50.43124 196.0
50.471825 132.0
50.492916 176.0
50.542847 148.0
50.558411 176.0
50.604328 164.0
50.630779 136.0
50.652958 232.0
50.667439 108.0
50.697067 44.0
50.726959 96.0
50.745548 144.0
50.783676 128.0
50.796947 168.0
50.816849 232.0
50.831066 148.0
50.87162 176.0
50.894955 196.0
50.917835 152.0
50.952599 116.0
50.966805 312.0
50.981018 256.0
50.994503 112.0
51.06205 192.0
51.076275 140.0
51.101185 188.0
51.113262 184.0
51.12854 148.0
51.137772 144.0
51.143642 104.0
51.148018 180.0
51.168774 56.0
51.181461 136.0
51.185673 124.0
51.190994 244.0
51.193501 216.0
51.208523 144.0
51.219246 316.0
51.243607 156.0
51.290985 172.0
51.296482 136.0
51.319794 172.0
51.329777 84.0
51.360699 216.0
51.368 140.0
51.371342 252.0
51.381123 284.0
51.397957 260.0
51.415367 40.0
51.433842 140.0
51.466759 168.0
51.481834 188.0
51.518173 104.0
51.556751 216.0
51.572845 184.0
51.611069 196.0
51.622921 148.0
51.648529 456.0
51.666222 128.0
51.678295 284.0
51.706913 156.0
51.75845 220.0
51.775631 60.0
51.788521 200.0
51.812965 232.0
51.837231 120.0
51.848934 292.0
51.869404 188.0
51.907104 348.0
51.920376 116.0
51.932751 196.0
51.962151 144.0
51.989239 140.0
52.017975 184.0
52.029106 180.0
52.051598 208.0
52.072506 96.0
52.089077 168.0
52.14922 132.0
52.192471 156.0
52.215969 336.0
52.22139 88.0
52.22731 300.0
52.256504 172.0
52.288158 140.0
52.301979 260.0
52.322708 192.0
52.347183 164.0
52.394699 200.0
52.416389 92.0
52.434353 228.0
52.459427 168.0
52.476051 144.0
52.487972 108.0
52.514355 144.0
52.526527 548.0
52.565613 216.0
52.604519 212.0
52.624027 136.0
52.644245 208.0
52.663017 164.0
52.67313 164.0
52.683105 128.0
52.69817 156.0
52.723698 160.0
52.733814 184.0
52.749714 80.0
52.768509 64.0
52.78931 196.0
52.811909 300.0
52.828384 124.0
52.853931 324.0
52.864239 152.0
52.894955 108.0
52.907066 88.0
52.911324 188.0
52.930561 96.0
52.945042 176.0
52.960972 84.0
53.013126 132.0
53.036633 164.0
53.050602 188.0
53.072952 140.0
53.089725 420.0
53.121143 188.0
53.147774 140.0
53.175552 140.0
53.194424 172.0
53.219181 224.0
53.238243 368.0
53.248917 196.0
53.261944 120.0
53.273838 192.0
53.319336 128.0
53.32951 160.0
53.344044 112.0
53.359344 312.0
53.381767 148.0
53.40366 96.0
53.428387 184.0
53.442848 200.0
53.467075 160.0
53.494221 152.0
53.506977 108.0
53.529411 196.0
53.547749 80.0
53.557945 44.0
53.57251 148.0
53.587078 120.0
53.602165 272.0
53.619137 140.0
53.638084 188.0
53.649746 180.0
53.67149 184.0
53.675053 168.0
53.681286 76.0
53.685406 140.0
53.698181 184.0
53.716591 264.0
53.729954 184.0
53.759541 72.0
53.784374 192.0
53.840782 140.0
53.886292 144.0
53.906837 216.0
53.926296 192.0
53.946087 72.0
53.963631 144.0
53.987923 144.0
54.004761 224.0
54.038975 140.0
54.053181 180.0
54.067513 180.0
54.080662 228.0
54.093559 192.0
54.1269 164.0
54.13306 96.0
54.138245 144.0
54.153011 164.0
54.172497 156.0
54.187557 120.0
54.20248 152.0
54.248379 144.0
54.287498 88.0
54.304859 192.0
54.319496 124.0
54.341572 172.0
54.369785 160.0
54.403141 180.0
54.425037 256.0
54.451679 148.0
54.463917 164.0
54.478035 240.0
54.488319 180.0
54.499321 92.0
54.508888 236.0
54.525055 148.0
54.541222 64.0
54.55513 200.0
54.569721 228.0
54.607384 164.0
54.625397 148.0
54.654186 308.0
54.664536 132.0
54.669632 180.0
54.693203 392.0
54.729527 436.0
54.769623 228.0
54.786999 168.0
54.800224 212.0
54.810539 92.0
54.822327 108.0
54.837063 172.0
54.866024 296.0
54.886551 260.0
54.898083 208.0
54.925484 128.0
54.943233 112.0
54.968784 248.0
54.984547 220.0
55.001923 88.0
55.011368 184.0
55.025879 116.0
55.039879 332.0
55.06535 148.0
55.084061 332.0
55.104092 188.0
55.122673 120.0
55.125488 200.0
55.149967 216.0
55.160313 160.0
55.186924 144.0
55.225838 304.0
55.24662 132.0
55.262356 248.0
55.283493 240.0
55.304737 100.0
55.330173 136.0
55.356758 168.0
55.364311 132.0
55.371426 152.0
55.382626 184.0
55.410408 184.0
55.449924 348.0
55.471169 256.0
55.483845 128.0
55.502373 392.0
55.517471 104.0
55.547405 136.0
55.573776 148.0
55.586849 136.0
55.603176 184.0
55.626923 140.0
55.641769 44.0
55.655594 180.0
55.706493 240.0
55.722878 300.0
55.733723 368.0
55.75317 116.0
55.795719 140.0
55.81263 140.0
55.842373 128.0
55.85445 232.0
55.875099 128.0
55.888958 152.0
55.905186 368.0
55.932476 168.0
55.942741 88.0
55.96291 124.0
55.978436 112.0
55.998646 84.0
56.02993 212.0
56.044827 144.0
56.059109 144.0
56.092518 116.0
56.104443 148.0
56.119305 124.0
56.157131 240.0
56.174278 164.0
56.211086 316.0
56.249889 224.0
56.260239 120.0
56.280495 116.0
56.294266 180.0
56.329777 192.0
56.365498 176.0
56.390987 148.0
56.429306 180.0
56.443172 152.0
56.456299 224.0
56.472149 224.0
56.509171 340.0
56.537861 140.0
56.569035 124.0
56.586998 160.0
56.621918 356.0
56.662846 236.0
56.682167 172.0
56.709835 164.0
56.739521 144.0
56.757805 156.0
56.76762 88.0
56.777607 156.0
56.792671 176.0
56.803013 280.0
56.8283 108.0
56.85231 156.0
56.876324 248.0
56.897339 116.0
56.91655 196.0
56.930714 456.0
56.945389 136.0
56.976151 100.0
56.988953 88.0
57.003578 180.0
57.02359 244.0
57.036613 56.0
57.040852 120.0
57.052074 88.0
57.065823 184.0
57.083649 216.0
57.103199 92.0
57.115231 132.0
57.137798 224.0
57.149834 100.0
57.171516 332.0
57.190811 260.0
57.226593 152.0
57.25988 192.0
57.276291 260.0
57.289848 156.0
57.304661 96.0
57.307293 152.0
57.313057 352.0
57.329399 48.0
57.33263 152.0
57.35796 360.0
57.380184 140.0
57.432232 148.0
57.444889 160.0
57.457603 156.0
57.479816 184.0
57.506706 144.0
57.522076 152.0
57.55331 168.0
57.571899 192.0
57.588802 124.0
57.625679 152.0
57.639877 148.0
57.654987 140.0
57.684509 360.0
57.712673 248.0
57.729061 76.0
57.755859 156.0
57.761955 112.0
57.764557 128.0
57.794155 124.0
57.809238 92.0
57.822617 176.0
57.835022 200.0
57.85313 96.0
57.872902 136.0
57.888638 460.0
57.923355 308.0
57.94854 184.0
57.96265 220.0
58.001652 172.0
58.062229 152.0
58.081944 152.0
58.098694 284.0
58.118355 88.0
58.132011 96.0
58.165791 124.0
58.18504 128.0
58.195034 100.0
58.213589 164.0
58.226131 140.0
58.251476 140.0
58.276474 196.0
58.297344 160.0
58.3349 232.0
58.345814 204.0
58.35313 308.0
58.370331 144.0
58.388718 420.0
58.403194 120.0
58.413429 176.0
58.43438 128.0
58.448677 128.0
58.461529 152.0
58.465908 128.0
58.483078 348.0
58.496777 124.0
58.512001 152.0
58.533314 104.0
58.565048 400.0
58.591152 148.0
58.609474 156.0
58.632961 184.0
58.647575 148.0
58.666882 156.0
58.671375 124.0
58.689255 304.0
58.710083 188.0
58.737934 200.0
58.764996 40.0
58.807873 164.0
58.828747 124.0
58.847412 164.0
58.885284 120.0
58.921669 316.0
58.931999 176.0
58.965034 136.0
59.018539 80.0
59.03315 252.0
59.052181 56.0
59.070133 152.0
59.086231 92.0
59.095131 156.0
59.11393 168.0
59.125702 216.0
59.14238 344.0
59.165348 180.0
59.175934 124.0
59.184635 160.0
59.206985 428.0
59.218464 180.0
59.241547 140.0
59.247261 180.0
59.266148 88.0
59.298637 152.0
59.314007 72.0
59.332401 156.0
59.359058 176.0
59.374554 108.0
59.393238 196.0
59.397274 92.0
59.403408 132.0
59.414558 196.0
59.439537 164.0
59.450203 184.0
59.47813 136.0
59.495502 164.0
59.512482 192.0
59.587906 380.0
59.607468 204.0
59.614029 148.0
59.620392 128.0
59.64402 152.0
59.673027 192.0
59.689919 192.0
59.71315 304.0
59.749027 256.0
59.771191 168.0
59.803135 380.0
59.833233 136.0
59.851067 144.0
59.862152 184.0
59.883419 192.0
59.911774 236.0
59.924099 132.0
59.951836 112.0
59.97187 168.0
59.984795 176.0
59.990185 68.0
59.995911 168.0
60.007324 220.0
60.022743 168.0
60.042725 184.0
60.094231 336.0
60.12336 196.0
60.160717 168.0
60.179165 212.0
60.193314 160.0
60.208675 116.0
60.230095 188.0
60.260849 180.0
60.296753 188.0
60.32806 180.0
60.333622 136.0
60.350903 196.0
60.365505 148.0
60.389786 184.0
60.403343 128.0
60.414185 152.0
60.433949 396.0
60.462418 156.0
60.486092 140.0
60.500809 140.0
60.520283 68.0
60.540413 160.0
60.604649 204.0
60.639561 96.0
60.65506 140.0
60.690769 120.0
60.713158 144.0
60.734451 492.0
60.748779 220.0
60.77137 68.0
60.783783 88.0
60.803776 208.0
60.82975 304.0
60.856503 372.0
60.866478 208.0
60.887794 72.0
60.900219 372.0
60.931286 116.0
60.952164 252.0
60.979458 168.0
60.994843 200.0
61.007435 180.0
61.021427 156.0
61.03231 104.0
61.044491 48.0
61.068077 132.0
61.084362 196.0
61.096275 220.0
61.107086 260.0
61.127193 36.0
61.157173 228.0
61.184982 344.0
61.221375 96.0
61.233433 280.0
61.248631 136.0
61.280361 152.0
61.30357 136.0
61.321861 104.0
61.334969 172.0
61.347496 128.0
61.36256 144.0
61.396034 208.0
61.415409 108.0
61.44138 160.0
61.473133 120.0
61.487179 148.0
61.537952 220.0
61.555866 148.0
61.571415 336.0
61.594082 252.0
61.610424 284.0
61.621532 196.0
61.637894 160.0
61.651951 212.0
61.685917 280.0
61.724625 116.0
61.736259 200.0
61.761154 224.0
61.790318 48.0
61.808365 172.0
61.813854 92.0
61.817665 176.0
61.857609 176.0
61.870708 196.0
61.887356 168.0
61.903011 144.0
61.924938 224.0
61.938858 204.0
61.969532 188.0
61.99387 148.0
62.013706 140.0
62.046303 168.0
62.061272 192.0
62.073818 160.0
62.128712 140.0
62.145969 108.0
62.160587 152.0
62.186714 116.0
62.211884 156.0
62.234539 376.0
62.250027 144.0
62.262817 256.0
62.289177 240.0
62.301395 188.0
62.317108 84.0
62.358749 340.0
62.379971 144.0
62.392544 160.0
62.415668 328.0
62.451515 160.0
62.457806 80.0
62.46069 120.0
62.474625 124.0
62.505562 112.0
62.516479 468.0
62.529991 252.0
62.554577 116.0
62.58691 164.0
62.624416 184.0
62.632332 116.0
62.637585 112.0
62.646057 216.0
62.680336 160.0
62.697906 104.0
62.715244 108.0
62.733658 144.0
62.744278 124.0
62.756905 348.0
62.785309 200.0
62.805115 152.0
62.833134 168.0
62.843277 168.0
62.891994 320.0
62.912346 88.0
62.92189 148.0
62.939259 104.0
62.965034 148.0
62.996113 44.0
63.014095 200.0
63.032333 176.0
63.067764 288.0
63.090359 144.0
63.102028 212.0
63.132832 116.0
63.143112 160.0
63.158928 160.0
63.223122 164.0
63.253868 116.0
63.265305 636.0
63.288696 196.0
63.30302 236.0
63.337788 52.0
63.35445 108.0
63.365723 176.0
63.407501 192.0
63.421028 128.0
63.438656 116.0
63.474205 104.0
63.485184 144.0
63.49926 128.0
63.502911 112.0
63.50983 148.0
63.516605 192.0
63.543762 176.0
63.56926 152.0
63.583542 136.0
63.612904 96.0
63.649788 208.0
63.678799 136.0
63.699913 96.0
63.725368 276.0
63.738625 172.0
63.756645 364.0
63.772541 84.0
63.788433 116.0
63.802742 204.0
63.820229 184.0
63.83136 116.0
63.872711 108.0
63.888618 76.0
63.910892 192.0
63.928394 128.0
63.955452 216.0
63.980919 236.0
64.008308 140.0
64.024445 152.0
64.033989 300.0
64.059662 148.0
64.097191 120.0
64.119766 264.0
64.144997 184.0
64.168915 248.0
64.230415 332.0
64.274315 140.0
64.286949 124.0
64.312454 128.0
64.336426 216.0
64.367599 232.0
64.370247 284.0
64.389114 92.0
64.40509 152.0
64.423729 288.0
64.456215 104.0
64.472824 224.0
64.493591 92.0
64.497086 160.0
64.539169 240.0
64.543533 108.0
64.557007 296.0
64.56971 220.0
64.603348 148.0
64.635178 172.0
64.641457 208.0
64.665268 284.0
64.676147 84.0
64.682259 128.0
64.711365 124.0
64.73175 156.0
64.763374 152.0
64.777786 76.0
64.800407 168.0
64.825546 188.0
64.845085 144.0
64.899147 132.0
64.914017 88.0
64.947701 76.0
64.975998 192.0
64.997429 160.0
65.014091 208.0
65.034805 152.0
65.058807 128.0
65.091255 124.0
65.114616 180.0
65.140091 368.0
65.168716 148.0
65.203575 336.0
65.222878 232.0
65.257286 172.0
65.275467 176.0
65.316704 224.0
65.346458 176.0
65.371834 60.0
65.389366 152.0
65.393181 136.0
65.399986 188.0
65.405212 228.0
65.426651 176.0
65.449844 148.0
65.461983 180.0
65.494415 204.0
65.513519 88.0
65.524803 324.0
65.542717 168.0
65.554939 176.0
65.561455 208.0
65.567879 168.0
65.606018 92.0
65.621078 228.0
65.643341 164.0
65.680107 164.0
65.712982 204.0
65.740929 200.0
65.753525 128.0
65.768021 140.0
65.808586 88.0
65.825836 176.0
65.85128 112.0
65.863754 136.0
65.878105 124.0
65.895874 200.0
65.921532 100.0
65.954048 148.0
65.972366 132.0
66.000626 212.0
66.034889 120.0
66.051064 220.0
66.067787 180.0
66.086372 160.0
66.091705 196.0
66.110687 188.0
66.121414 308.0
66.144653 148.0
66.179619 256.0
66.230309 184.0
66.245842 172.0
66.264755 200.0
66.282578 120.0
66.293915 136.0
66.313187 172.0
66.327141 128.0
66.341919 156.0
66.362938 124.0
66.391792 160.0
66.403244 64.0
66.425636 164.0
66.480247 116.0
66.524231 136.0
66.540817 620.0
66.572937 360.0
66.594818 228.0
66.608673 240.0
66.634659 92.0
66.666679 136.0
66.672302 96.0
66.684807 172.0
66.690422 192.0
66.750847 200.0
66.787468 136.0
66.80101 184.0
66.814095 168.0
66.828285 192.0
66.849289 160.0
66.863632 212.0
66.894859 144.0
66.910172 188.0
66.933235 148.0
66.952202 148.0
66.977905 160.0
66.993111 184.0
67.020416 180.0
67.045792 384.0
67.084602 124.0
67.101761 44.0
67.113167 148.0
67.137733 124.0
67.17025 124.0
67.211594 268.0
67.225525 164.0
67.258362 144.0
67.289383 36.0
67.306496 136.0
67.332504 224.0
67.344902 152.0
67.360306 148.0
67.378265 188.0
67.399284 276.0
67.428223 180.0
67.451576 168.0
67.473991 224.0
67.488708 212.0
67.510269 236.0
67.536133 144.0
67.557396 220.0
67.568443 144.0
67.595024 108.0
67.616302 144.0
67.64904 100.0
67.676872 216.0
67.689964 424.0
67.730911 84.0
67.744019 120.0
67.757118 108.0
67.778419 120.0
67.806244 276.0
67.810532 188.0
67.8489 184.0
67.867516 236.0
67.904648 76.0
67.933617 232.0
67.968979 148.0
67.98307 140.0
67.990547 100.0
68.046982 192.0
68.064819 212.0
68.080315 204.0
68.08802 148.0
68.124702 128.0
68.137741 264.0
68.159096 204.0
68.176628 152.0
68.191238 180.0
68.231171 148.0
68.253723 168.0
68.26535 168.0
68.29541 144.0
68.316742 188.0
68.329201 200.0
68.372871 148.0
68.385117 144.0
68.402504 184.0
68.419533 184.0
68.442009 160.0
68.455185 44.0
68.479782 124.0
68.506241 184.0
68.544609 112.0
68.551094 144.0
68.58625 152.0
68.610092 164.0
68.641388 156.0
68.670227 140.0
68.687302 196.0
68.716087 152.0
68.744118 420.0
68.781624 132.0
68.804733 92.0
68.83445 120.0
68.846016 104.0
68.857574 488.0
68.882156 176.0
68.920013 140.0
68.938133 196.0
69.002983 64.0
69.023811 188.0
69.035004 160.0
69.058495 196.0
69.082367 172.0
69.102425 232.0
69.118645 152.0
69.136375 312.0
69.150856 224.0
69.177879 156.0
69.182625 164.0
69.186951 140.0
69.209801 180.0
69.225533 136.0
69.239609 124.0
69.269768 344.0
69.29892 288.0
69.302139 48.0
69.3396 56.0
69.357246 112.0
69.382782 148.0
69.394386 256.0
69.42762 216.0
69.461182 316.0
69.49617 228.0
69.513382 184.0
69.542931 112.0
69.566246 140.0
69.584343 168.0
69.622314 156.0
69.642097 196.0
69.697235 92.0
69.718697 204.0
69.73069 132.0
69.749252 260.0
69.768921 32.0
69.780556 288.0
69.803345 196.0
69.827118 188.0
69.842087 76.0
69.858749 168.0
69.870712 192.0
69.878632 128.0
69.880875 188.0
69.911339 204.0
69.925278 252.0
69.941917 180.0
69.957718 188.0
69.972145 332.0
69.990196 116.0
70.003517 160.0
70.015175 160.0
70.038284 128.0
70.060226 156.0
70.073479 304.0
70.094734 340.0
70.111671 180.0
70.125137 40.0
70.151802 128.0
70.182388 232.0
70.20182 52.0
70.216827 212.0
70.246857 168.0
70.260201 168.0
70.292831 244.0
70.310394 196.0
70.335289 112.0
70.356995 140.0
70.397408 176.0
70.437439 160.0
70.479454 160.0
70.49427 172.0
70.517349 192.0
70.530624 140.0
70.549805 144.0
70.570839 64.0
70.590508 236.0
70.602615 72.0
70.611534 144.0
70.617218 120.0
70.636383 208.0
70.661316 84.0
70.673889 164.0
70.685127 148.0
70.728096 124.0
70.762245 240.0
70.776939 160.0
70.798096 188.0
70.800323 152.0
70.836891 160.0
70.855247 148.0
70.873795 160.0
70.894485 148.0
70.93293 396.0
70.95089 128.0
70.972687 116.0
71.002922 132.0
71.037773 128.0
71.054871 64.0
71.073326 120.0
71.093933 156.0
71.121414 200.0
71.157242 136.0
71.197121 180.0
71.219376 52.0
71.237854 104.0
71.249611 96.0
71.289276 192.0
71.311783 148.0
71.345406 400.0
71.360535 160.0
71.380714 220.0
71.39753 36.0
71.412666 96.0
71.427803 280.0
71.45752 156.0
71.46093 104.0
71.473846 292.0
71.488251 168.0
71.501686 260.0
71.536774 100.0
71.550964 148.0
71.577583 324.0
71.603531 128.0
71.616531 168.0
71.636536 124.0
71.651695 188.0
71.668541 212.0
71.685181 152.0
71.692078 128.0
71.706863 108.0
71.721527 164.0
71.737923 168.0
71.76458 120.0
71.776421 208.0
71.803398 28.0
71.820267 156.0
71.881882 160.0
71.886627 240.0
71.902634 44.0
71.906128 36.0
71.912262 76.0
71.923195 120.0
71.945976 152.0
71.952133 220.0
71.95945 184.0
71.964851 124.0
71.972664 144.0
71.999748 152.0
72.027878 188.0
72.079277 164.0
72.116203 204.0
72.130951 176.0
72.142784 144.0
72.180794 184.0
72.196274 132.0
72.206444 136.0
72.223953 64.0
72.246758 108.0
72.278091 184.0
72.301689 152.0
72.324051 124.0
72.348793 196.0
72.370499 148.0
72.402115 120.0
72.427986 140.0
72.442314 192.0
72.45417 36.0
72.483017 160.0
72.499916 132.0
72.515068 132.0
72.538902 188.0
72.564964 200.0
72.580879 208.0
72.603333 144.0
72.646774 364.0
72.669487 136.0
72.698486 128.0
72.706551 128.0
72.730576 120.0
72.764526 172.0
72.785988 136.0
72.806091 268.0
72.831451 156.0
72.854156 124.0
72.88517 248.0
72.898033 120.0
72.902702 184.0
72.919106 124.0
72.936134 232.0
72.997253 132.0
73.024063 164.0
73.051445 212.0
73.081718 180.0
73.092522 212.0
73.114685 40.0
73.15213 108.0
73.17823 344.0
73.210022 104.0
73.226646 168.0
73.240967 372.0
73.266228 28.0
73.2873 140.0
73.303711 228.0
73.319046 64.0
73.331322 196.0
73.350616 92.0
73.388939 152.0
73.413307 348.0
73.450333 160.0
73.464195 124.0
73.479706 72.0
73.512955 176.0
73.525612 188.0
73.551697 164.0
73.593575 188.0
73.612411 132.0
73.652901 160.0
73.657181 196.0
73.684166 192.0
73.709526 180.0
73.771355 104.0
73.785927 204.0
73.803841 132.0
73.84317 208.0
73.857185 140.0
73.887062 152.0
73.925293 224.0
73.93898 276.0
73.973213 136.0
73.986664 160.0
74.014793 252.0
74.045837 192.0
74.060539 172.0
74.086761 156.0
74.099937 428.0
74.129768 176.0
74.146606 120.0
74.161629 152.0
74.186272 212.0
74.243919 72.0
74.259361 164.0
74.283371 140.0
74.300529 152.0
74.348572 120.0
74.36573 172.0
74.405212 164.0
74.42334 200.0
74.469231 172.0
74.497398 180.0
74.509071 152.0
74.535492 216.0
74.577812 104.0
74.615433 312.0
74.63842 236.0
74.650513 136.0
74.656456 184.0
74.68187 28.0
74.733482 56.0
74.763718 188.0
74.784996 184.0
74.789879 124.0
74.825188 112.0
74.857414 188.0
74.895302 196.0
74.922859 124.0
74.940094 228.0
74.952148 152.0
74.968475 152.0
75.000244 172.0
75.048676 140.0
75.064194 152.0
75.082565 184.0
75.095238 144.0
75.112488 180.0
75.140213 144.0
75.171143 100.0
75.187431 128.0
75.212563 176.0
75.23069 128.0
75.256607 296.0
75.273033 152.0
75.291985 184.0
75.309258 132.0
75.356117 204.0
75.371445 188.0
75.385071 176.0
75.397636 336.0
75.42675 120.0
75.47039 196.0
75.500336 100.0
75.519707 100.0
75.537415 228.0
75.549522 172.0
75.603325 164.0
75.626007 140.0
75.629906 124.0
75.667206 364.0
75.682785 316.0
75.698372 152.0
75.717422 188.0
75.764191 128.0
75.776314 168.0
75.797714 184.0
75.80883 152.0
75.813377 180.0
75.838699 176.0
75.857262 124.0
75.869904 180.0
75.883774 112.0
75.904579 136.0
75.931976 172.0
75.935074 164.0
75.963547 188.0
75.975685 40.0
76.022537 148.0
76.050301 120.0
76.068329 228.0
76.098907 68.0
76.137863 220.0
76.153328 180.0
76.188225 168.0
76.225189 124.0
76.237869 280.0
76.255249 80.0
76.282875 148.0
76.299583 276.0
76.321152 400.0
76.337906 176.0
76.342896 96.0
76.348358 216.0
76.385223 112.0
76.41523 152.0
76.428314 100.0
76.448288 164.0
76.493889 112.0
76.512688 32.0
76.538803 148.0
76.555801 184.0
76.5606 140.0
76.566246 116.0
76.581017 164.0
76.601242 292.0
76.625557 252.0
76.65242 160.0
76.697594 164.0
76.717712 348.0
76.730049 204.0
76.761948 136.0
76.786263 168.0
76.800522 348.0
76.828079 160.0
76.868248 72.0
76.886932 268.0
76.910133 120.0
76.935783 104.0
76.961586 140.0
76.979927 172.0
77.010994 272.0
77.027122 128.0
77.0411 180.0
77.069511 208.0
77.085907 248.0
77.100159 200.0
77.125763 160.0
77.161682 164.0
77.173927 128.0
77.189659 204.0
77.209465 136.0
77.228134 168.0
77.249893 164.0
77.261887 212.0
77.280617 80.0
77.307777 84.0
77.319504 168.0
77.352371 272.0
77.371513 128.0
77.385506 168.0
77.412834 208.0
77.429405 268.0
77.444305 172.0
77.457428 220.0
77.468819 128.0
77.514091 152.0
77.527512 116.0
77.555115 144.0
77.560356 108.0
77.586426 196.0
77.616913 132.0
77.638733 248.0
77.667053 156.0
77.692329 80.0
77.715134 140.0
77.728699 164.0
77.764275 204.0
77.786301 196.0
77.820076 76.0
77.833748 160.0
77.846741 152.0
77.864342 240.0
77.895935 268.0
77.92646 276.0
77.975029 72.0
77.994362 188.0
78.017212 144.0
78.03186 156.0
78.047104 100.0
78.085442 224.0
78.116096 208.0
78.148071 128.0
78.170502 208.0
78.255478 176.0
78.297935 176.0
78.351257 172.0
78.354156 260.0
78.374786 428.0
78.395721 156.0
78.418053 144.0
78.434402 168.0
78.455093 276.0
78.482002 148.0
78.516121 184.0
78.532204 112.0
78.572235 176.0
78.638466 156.0
78.674309 148.0
78.693047 184.0
78.715767 172.0
78.734344 196.0
78.769173 176.0
78.782036 128.0
78.812401 168.0
78.830521 160.0
78.843872 484.0
78.856247 128.0
78.896545 80.0
78.917053 80.0
78.948807 152.0
79.002258 132.0
79.03022 232.0
79.067253 180.0
79.088898 164.0
79.099358 160.0
79.135994 112.0
79.157433 240.0
79.174248 280.0
79.201263 108.0
79.215431 176.0
79.236115 152.0
79.251915 156.0
79.27774 312.0
79.306046 176.0
79.327072 324.0
79.343025 396.0
79.371918 160.0
79.38913 132.0
79.424599 188.0
79.440315 116.0
79.459564 148.0
79.481606 180.0
79.504326 128.0
79.529282 152.0
79.546181 216.0
79.58503 136.0
79.594482 116.0
79.627228 144.0
79.665161 192.0
79.681999 40.0
79.695824 164.0
79.713982 144.0
79.731056 132.0
79.767303 136.0
79.793968 212.0
79.807693 200.0
79.830406 348.0
79.850288 172.0
79.861923 148.0
79.874977 152.0
79.891502 136.0
79.916168 80.0
79.943375 112.0
79.982529 308.0
79.996773 228.0
80.016357 108.0
80.054207 92.0
80.082237 252.0
80.1054 456.0
80.130341 152.0
80.162407 164.0
80.174881 104.0
80.18914 152.0
80.235489 164.0
80.271149 108.0
80.288437 368.0
80.310379 84.0
80.341911 160.0
80.355911 84.0
80.387245 48.0
80.413864 164.0
80.438759 160.0
80.455353 196.0
80.476341 184.0
80.492409 108.0
80.538689 220.0
80.558495 64.0
80.57457 188.0
80.604942 240.0
80.617455 80.0
80.66214 208.0
80.681801 196.0
80.703255 148.0
80.730766 124.0
80.744385 156.0
80.756332 100.0
80.768372 116.0
80.789101 84.0
80.80162 356.0
80.817726 120.0
80.846672 180.0
80.882042 356.0
80.894562 236.0
80.939781 164.0
80.953766 100.0
81.007858 176.0
81.026512 124.0
81.050491 92.0
81.072212 168.0
81.093102 180.0
81.134895 172.0
81.186676 276.0
81.198219 128.0
81.228325 188.0
81.248093 168.0
81.267448 176.0
81.283592 108.0
81.310516 208.0
81.333847 80.0
81.346413 160.0
81.35981 184.0
81.387108 120.0
81.405663 44.0
81.434029 140.0
81.461334 200.0
81.504456 184.0
81.523796 160.0
81.538597 140.0
81.552979 304.0
81.567154 180.0
81.594322 200.0
81.623085 168.0
81.648911 380.0
81.67524 172.0
81.709145 372.0
81.732262 144.0
81.746552 220.0
81.785606 236.0
81.812584 124.0
81.849808 112.0
81.87394 208.0
81.915764 180.0
81.919922 112.0
81.933777 228.0
81.941422 148.0
81.947075 148.0
81.961754 188.0
81.98983 208.0
82.021858 192.0
82.027267 96.0
82.039726 244.0
82.060326 172.0
82.079529 368.0
82.110664 180.0
82.139809 140.0
82.177849 96.0
82.194092 128.0
82.22657 172.0
82.256126 256.0
82.273506 128.0
82.306 184.0
82.318642 96.0
82.365372 160.0
82.387276 156.0
82.410759 132.0
82.430336 168.0
82.458138 184.0
82.499313 80.0
82.524055 168.0
82.551559 152.0
82.566528 164.0
82.623016 160.0
82.640144 188.0
82.678177 108.0
82.712563 208.0
82.75441 76.0
82.780617 128.0
82.803108 188.0
82.846771 132.0
82.870621 172.0
82.885803 144.0
82.902939 76.0
82.939934 116.0
82.979416 268.0
83.006264 112.0
83.033096 156.0
83.060669 188.0
83.095139 88.0
83.111961 136.0
83.118729 156.0
83.124191 164.0
83.150688 196.0
83.178444 124.0
83.213837 100.0
83.229446 264.0
83.249428 88.0
83.262138 144.0
83.282471 184.0
83.289246 160.0
83.296242 172.0
83.299408 184.0
83.324615 164.0
83.343575 164.0
83.359039 152.0
83.39476 216.0
83.411125 172.0
83.425331 176.0
83.43708 200.0
83.454254 176.0
83.473007 196.0
83.490791 200.0
83.516586 168.0
83.555191 216.0
83.569336 80.0
83.582077 84.0
83.609818 236.0
83.645775 112.0
83.67672 116.0
83.696289 168.0
83.708565 228.0
83.730759 124.0
83.774414 180.0
83.789383 144.0
83.793159 164.0
83.801102 136.0
83.809319 120.0
83.895332 296.0
83.912056 140.0
83.925522 372.0
83.965355 180.0
83.982048 108.0
83.989197 212.0
83.99649 144.0
84.04744 344.0
84.06678 176.0
84.08429 200.0
84.1063 104.0
84.130806 152.0
84.157516 248.0
84.172455 180.0
84.194572 244.0
84.214661 288.0
84.23156 192.0
84.278603 84.0
84.332611 108.0
84.348045 100.0
84.372101 176.0
84.389595 332.0
84.41127 172.0
84.444122 124.0
84.460747 132.0
84.478844 220.0
84.509659 160.0
84.525444 124.0
84.538254 128.0
84.556557 164.0
84.587868 148.0
84.640282 340.0
84.668228 180.0
84.689178 200.0
84.708527 184.0
84.732338 112.0
84.761871 200.0
84.798309 156.0
84.811134 128.0
84.829468 124.0
84.863464 88.0
84.912834 128.0
84.926651 100.0
84.958015 160.0
84.976181 156.0
84.995216 332.0
85.018379 120.0
85.084457 148.0
85.102852 212.0
85.14444 156.0
85.162399 36.0
85.185463 128.0
85.203835 40.0
85.228165 180.0
85.251816 172.0
85.267052 148.0
85.28405 184.0
85.319611 136.0
85.341675 216.0
85.357117 192.0
85.37738 124.0
85.404198 116.0
85.418915 208.0
85.498032 128.0
85.51664 140.0
85.540237 180.0
85.564835 136.0
85.593193 224.0
85.61953 124.0
85.645271 160.0
85.676636 172.0
85.695229 252.0
85.70047 176.0
85.707085 136.0
85.742188 208.0
85.763237 148.0
85.78167 48.0
85.809326 132.0
85.826225 48.0
85.868332 128.0
85.890465 120.0
85.909172 168.0
85.941902 172.0
85.948799 116.0
85.957344 128.0
85.999802 140.0
86.018875 328.0
86.08213 244.0
86.100868 172.0
86.122925 140.0
86.13755 168.0
86.156281 176.0
86.175537 200.0
86.209404 168.0
86.224648 256.0
86.243134 108.0
86.262497 252.0
86.29229 188.0
86.321861 164.0
86.366844 132.0
86.378265 284.0
86.407707 180.0
86.486336 172.0
86.52037 148.0
86.542213 396.0
86.562042 196.0
86.576439 128.0
86.59726 180.0
86.624969 220.0
86.686447 148.0
86.709534 124.0
86.723824 164.0
86.742897 176.0
86.778122 268.0
86.803352 108.0
86.824478 172.0
86.839066 148.0
86.850739 176.0
86.865433 200.0
86.93322 136.0
86.936867 192.0
86.94474 248.0
86.962387 96.0
86.968109 116.0
86.975121 144.0
86.99147 180.0
87.004417 172.0
87.034172 160.0
87.049362 44.0
87.071312 292.0
87.102394 136.0
87.121361 192.0
87.162643 168.0
87.183212 192.0
87.201355 104.0
87.217491 100.0
87.237579 220.0
87.251549 72.0
87.279778 152.0
87.304886 192.0
87.354179 168.0
87.383591 124.0
87.433296 248.0
87.471504 200.0
87.522812 140.0
87.541885 168.0
87.586502 140.0
87.662651 128.0
87.689781 140.0
87.706886 112.0
87.732536 164.0
87.755753 260.0
87.802391 144.0
87.845604 252.0
87.885147 124.0
87.912361 128.0
87.935127 240.0
87.973083 156.0
87.992935 212.0
88.024208 236.0
88.061493 200.0
88.095749 108.0
88.112564 192.0
88.13504 124.0
88.155067 144.0
88.200333 132.0
88.234039 192.0
88.247993 344.0
88.296082 88.0
88.34063 212.0
88.365692 176.0
88.387405 192.0
88.413605 132.0
88.435295 156.0
88.451889 184.0
88.485344 132.0
88.503883 264.0
88.528259 212.0
88.560242 172.0
88.596939 156.0
88.619583 128.0
88.655182 176.0
88.670174 168.0
88.687042 112.0
88.701973 116.0
88.741409 156.0
88.786163 120.0
88.789948 104.0
88.810791 236.0
88.829552 96.0
88.867416 156.0
88.895218 116.0
88.937431 144.0
88.949646 168.0
88.993988 148.0
89.040802 180.0
89.060425 108.0
89.092361 256.0
89.107391 100.0
89.127419 228.0
89.138725 248.0
89.194244 164.0
89.225876 256.0
89.254448 164.0
89.267151 292.0
89.300323 144.0
89.323669 168.0
89.332573 148.0
89.338203 260.0
89.371681 288.0
89.395767 140.0
89.446198 384.0
89.46553 116.0
89.498734 360.0
89.528587 160.0
89.589859 132.0
89.619232 164.0
89.643639 100.0
89.652328 124.0
89.664391 200.0
89.679443 92.0
89.713379 180.0
89.739723 168.0
89.785027 156.0
89.814056 184.0
89.830963 112.0
89.856705 152.0
89.875572 176.0
89.888557 168.0
89.907478 176.0
89.939911 168.0
89.962784 152.0
89.979187 120.0
90.009583 312.0
90.029854 180.0
90.048889 192.0
90.068352 136.0
90.10334 144.0
90.127907 180.0
90.17527 340.0
90.194023 204.0
90.218834 168.0
90.257233 132.0
90.273582 164.0
90.281174 116.0
90.311958 128.0
90.327995 100.0
90.34668 144.0
90.360939 184.0
90.384727 344.0
90.398308 56.0
90.461601 184.0
90.551109 168.0
90.565819 96.0
90.599861 172.0
90.629723 220.0
90.660866 372.0
90.699417 344.0
90.716331 180.0
90.749405 224.0
90.762672 184.0
90.780365 124.0
90.805069 160.0
90.853714 156.0
90.898453 124.0
90.92202 244.0
90.948853 184.0
90.980782 192.0
91.023918 412.0
91.055191 3552.0
91.089104 232.0
91.103775 160.0
91.118431 128.0
91.146095 108.0
91.167572 160.0
91.216797 160.0
91.256607 172.0
91.277252 96.0
91.315506 172.0
91.349525 160.0
91.38826 144.0
91.407097 168.0
91.440132 104.0
91.496056 436.0
91.509384 144.0
91.530327 404.0
91.563812 164.0
91.579842 152.0
91.615082 128.0
91.635086 144.0
91.657951 84.0
91.707115 100.0
91.732277 164.0
91.751343 100.0
91.768501 160.0
91.839493 140.0
91.847878 128.0
91.853653 92.0
91.88102 180.0
91.905586 128.0
91.926903 84.0
91.961166 128.0
91.974525 248.0
91.989799 116.0
92.004753 288.0
92.060844 776.0
92.079498 164.0
92.118111 264.0
92.148041 176.0
92.154709 132.0
92.193527 168.0
92.226799 108.0
92.278816 168.0
92.293564 164.0
92.30986 184.0
92.33181 116.0
92.372345 148.0
92.410728 344.0
92.442421 224.0
92.508011 220.0
92.528893 100.0
92.560051 132.0
92.593727 160.0
92.60762 228.0
92.634224 328.0
92.657211 376.0
92.678825 100.0
92.707367 204.0
92.721855 196.0
92.753349 144.0
92.777946 192.0
92.795959 164.0
92.826378 212.0
92.858482 80.0
92.902832 196.0
92.923698 340.0
92.942886 176.0
92.957344 200.0
92.988823 132.0
93.002731 216.0
93.035812 192.0
93.070023 1236.0
93.132736 280.0
93.181358 196.0
93.187439 180.0
93.193451 120.0
93.227913 120.0
93.242416 192.0
93.270378 220.0
93.33857 40.0
93.357391 112.0
93.385048 168.0
93.401199 188.0
93.416222 172.0
93.446793 212.0
93.462563 104.0
93.513573 132.0
93.547249 180.0
93.56176 128.0
93.580185 160.0
93.599388 168.0
93.625961 152.0
93.690788 164.0
93.744011 192.0
93.757431 136.0
93.772354 180.0
93.798698 164.0
93.816681 312.0
93.884277 196.0
93.898682 220.0
93.926216 180.0
93.945442 124.0
93.965416 160.0
93.992157 180.0
94.010696 208.0
94.043861 232.0
94.062775 284.0
94.089508 160.0
94.117523 168.0
94.14019 52.0
94.16993 216.0
94.195724 208.0
94.21434 204.0
94.252678 68.0
94.27803 216.0
94.301361 244.0
94.314468 136.0
94.32325 232.0
94.328636 208.0
94.385597 200.0
94.400604 100.0
94.420403 144.0
94.456474 148.0
94.473145 212.0
94.520691 100.0
94.541794 220.0
94.548721 172.0
94.569382 104.0
94.589859 76.0
94.639214 160.0
94.678398 172.0
94.702972 76.0
94.724075 228.0
94.753441 148.0
94.778694 140.0
94.793709 308.0
94.817284 48.0
94.840569 152.0
94.861748 276.0
94.902168 76.0
94.931168 172.0
94.937904 128.0
94.958809 164.0
94.972389 140.0
95.009247 216.0
95.030525 128.0
95.050079 792.0
95.085556 736.0
95.108109 152.0
95.114677 144.0
95.128319 288.0
95.135773 160.0
95.141159 204.0
95.160896 336.0
95.185867 68.0
95.232475 144.0
95.26664 264.0
95.333496 228.0
95.349045 184.0
95.362648 92.0
95.412437 168.0
95.448639 136.0
95.472412 128.0
95.48513 148.0
95.500748 132.0
95.517212 132.0
95.544067 148.0
95.564949 120.0
95.594078 152.0
95.646255 364.0
95.671928 168.0
95.70031 152.0
95.736183 136.0
95.773186 104.0
95.795189 148.0
95.824394 92.0
95.849159 116.0
95.88916 160.0
95.958817 252.0
95.977806 88.0
96.010834 316.0
96.015015 296.0
96.020966 340.0
96.048462 176.0
96.065041 88.0
96.068314 148.0
96.089867 160.0
96.154106 364.0
96.170746 164.0
96.188507 104.0
96.205757 172.0
96.225601 400.0
96.247673 352.0
96.281326 200.0
96.30246 192.0
96.335068 144.0
96.356483 176.0
96.375992 128.0
96.395958 164.0
96.446342 108.0
96.468544 156.0
96.491585 116.0
96.598969 196.0
96.642075 136.0
96.665092 192.0
96.708221 256.0
96.756142 216.0
96.776031 108.0
96.800446 152.0
96.843338 200.0
96.884666 88.0
96.900337 236.0
96.925194 140.0
96.928345 96.0
96.936447 168.0
96.98893 192.0
97.022858 148.0
97.063995 2416.0
97.09832 192.0
97.112045 64.0
97.154366 204.0
97.212105 184.0
97.239532 176.0
97.252792 196.0
97.306313 220.0
97.321213 188.0
97.338715 136.0
97.346069 180.0
97.365227 180.0
97.382896 312.0
97.408432 128.0
97.435181 240.0
97.472031 148.0
97.487022 116.0
97.510605 124.0
97.532227 128.0
97.55442 164.0
97.593956 96.0
97.645073 264.0
97.694778 268.0
97.717361 164.0
97.736053 260.0
97.741951 168.0
97.748871 200.0
97.768234 144.0
97.81588 156.0
97.825317 168.0
97.844757 320.0
97.870598 120.0
97.904068 292.0
97.921501 108.0
97.965828 184.0
98.002563 180.0
98.034088 84.0
98.067345 160.0
98.081726 164.0
98.100632 180.0
98.134407 152.0
98.159622 88.0
98.165611 200.0
98.170654 116.0
98.195747 76.0
98.217445 132.0
98.274651 196.0
98.301178 384.0
98.317009 180.0
98.347664 68.0
98.363457 148.0
98.37722 148.0
98.389778 168.0
98.410004 148.0
98.436714 116.0
98.463356 136.0
98.503891 304.0
98.528625 256.0
98.555023 144.0
98.578735 156.0
98.595406 164.0
98.661743 92.0
98.675583 116.0
98.69278 224.0
98.740837 92.0
98.758636 140.0
98.782761 124.0
98.81601 144.0
98.837769 164.0
98.860046 172.0
98.909019 88.0
98.927414 176.0
98.959885 276.0
98.989067 120.0
98.992973 148.0
99.019707 172.0
99.040855 328.0
99.071198 164.0
99.09362 200.0
99.118942 136.0
99.186325 160.0
99.202911 152.0
99.238762 80.0
99.289421 108.0
99.30529 104.0
99.357346 176.0
99.402451 164.0
99.419777 232.0
99.439842 220.0
99.462036 100.0
99.479904 92.0
99.503723 148.0
99.525566 276.0
99.552872 340.0
99.576447 312.0
99.601028 84.0
99.614937 116.0
99.64473 64.0
99.678513 88.0
99.694405 160.0
99.731003 188.0
99.743988 140.0
99.767952 152.0
99.815666 112.0
99.833595 240.0
99.845833 212.0
99.863396 152.0
99.885628 156.0
99.921082 148.0
99.950211 200.0
99.968834 76.0
99.988228 156.0
100.000999 172.0
100.031677 160.0
100.072235 152.0
100.106186 180.0
100.124786 200.0
100.14682 40.0
100.170052 124.0
100.251167 288.0
100.268517 212.0
100.290062 136.0
100.305565 268.0
100.354195 180.0
100.368858 156.0
100.376572 128.0
100.414215 196.0
100.438499 168.0
100.462959 148.0
100.497108 200.0
100.511414 264.0
100.52829 220.0
100.547394 100.0
100.582687 108.0
100.609337 160.0
100.639473 152.0
100.66243 144.0
100.717461 128.0
100.750427 52.0
100.778397 148.0
100.829506 180.0
100.848335 276.0
100.867729 216.0
100.897743 156.0
100.908752 144.0
100.930084 184.0
100.951385 264.0
100.99926 176.0
101.050583 144.0
101.104332 164.0
101.120903 128.0
101.168907 124.0
101.209709 156.0
101.234375 212.0
101.26049 140.0
101.292488 156.0
101.323936 320.0
101.342621 260.0
101.372673 176.0
101.406471 148.0
101.430794 192.0
101.446831 140.0
101.464874 120.0
101.487686 212.0
101.511948 160.0
101.533051 140.0
101.563133 192.0
101.584259 148.0
101.615295 128.0
101.633179 144.0
101.653412 228.0
101.694412 300.0
101.712349 220.0
101.737709 184.0
101.769585 224.0
101.799141 112.0
101.819351 200.0
101.859871 96.0
101.873566 160.0
101.908424 148.0
101.931473 156.0
101.9552 244.0
101.99295 128.0
102.044525 488.0
102.059593 188.0
102.087318 88.0
102.103401 224.0
102.117485 168.0
102.159096 180.0
102.167053 124.0
102.193924 216.0
102.220085 164.0
102.233345 180.0
102.268173 76.0
102.292534 240.0
102.319801 88.0
102.334808 124.0
102.361641 544.0
102.395576 136.0
102.409912 176.0
102.424728 200.0
102.452904 276.0
102.487801 92.0
102.50602 144.0
102.533173 332.0
102.553825 144.0
102.583282 192.0
102.60788 172.0
102.628975 116.0
102.662064 156.0
102.68071 244.0
102.702011 184.0
102.736946 156.0
102.77475 336.0
102.819801 140.0
102.826279 84.0
102.831909 208.0
102.870346 168.0
102.896988 124.0
102.917503 212.0
102.959908 144.0
102.982666 196.0
102.999657 124.0
103.015656 120.0
103.053963 2616.0
103.100853 192.0
103.112671 156.0
103.143517 284.0
103.161774 172.0
103.208458 152.0
103.244858 112.0
103.26152 160.0
103.299797 172.0
103.319702 136.0
103.346596 164.0
103.367889 152.0
103.396591 80.0
103.435043 180.0
103.468246 180.0
103.494492 132.0
103.511765 76.0
103.558556 192.0
103.576782 140.0
103.613251 48.0
103.633011 196.0
103.657822 60.0
103.682144 120.0
103.704437 124.0
103.724701 112.0
103.742188 288.0
103.754433 96.0
103.760216 124.0
103.812393 88.0
103.841713 264.0
103.867767 160.0
103.882874 92.0
103.906227 188.0
103.926003 92.0
103.95388 148.0
103.976616 176.0
104.034431 216.0
104.060379 664.0
104.081383 148.0
104.099586 72.0
104.110962 116.0
104.118835 156.0
104.13456 136.0
104.155495 152.0
104.175186 168.0
104.197426 148.0
104.217674 184.0
104.235802 360.0
104.257622 192.0
104.288979 68.0
104.306328 168.0
104.332573 184.0
104.351852 184.0
104.387154 164.0
104.402824 160.0
104.422096 84.0
104.460289 160.0
104.484192 368.0
104.502502 36.0
104.520813 128.0
104.567619 164.0
104.585938 136.0
104.608322 188.0
104.625671 184.0
104.634308 152.0
104.638863 152.0
104.662628 160.0
104.694061 148.0
104.710579 232.0
104.741989 192.0
104.790169 204.0
104.810692 104.0
104.828842 340.0
104.853981 116.0
104.879082 160.0
104.896141 68.0
104.930931 236.0
104.974022 300.0
104.997375 72.0
105.006157 112.0
105.029259 192.0
105.070168 8364.0
105.119934 180.0
105.14637 164.0
105.154327 108.0
105.156998 196.0
105.172951 104.0
105.205612 68.0
105.221947 128.0
105.244102 192.0
105.275345 276.0
105.291931 116.0
105.314598 160.0
105.340385 108.0
105.373466 104.0
105.416504 188.0
105.439354 276.0
105.491608 48.0
105.50975 160.0
105.524445 128.0
105.577477 196.0
105.598412 308.0
105.626564 220.0
105.653328 144.0
105.680328 156.0
105.698601 148.0
105.716927 96.0
105.730911 132.0
105.745239 112.0
105.762886 296.0
105.797089 372.0
105.880356 88.0
105.917953 180.0
105.956146 212.0
105.980499 140.0
106.003624 288.0
106.040222 140.0
106.068588 1080.0
106.113953 140.0
106.149376 148.0
106.174072 176.0
106.193932 172.0
106.209389 164.0
106.237007 32.0
106.251366 36.0
106.273933 124.0
106.295181 188.0
106.350044 180.0
106.367371 128.0
106.408569 144.0
106.486382 252.0
106.520287 200.0
106.548859 176.0
106.559662 192.0
106.588081 76.0
106.60247 144.0
106.640816 152.0
106.667336 128.0
106.69252 128.0
106.696655 68.0
106.699562 152.0
106.746559 124.0
106.783379 76.0
106.811241 96.0
106.841164 264.0
106.857918 136.0
106.878265 128.0
106.899422 216.0
106.931343 148.0
106.99115 144.0
107.022522 188.0
107.050003 4988.0
107.078033 2568.0
107.116989 144.0
107.144333 140.0
107.176567 156.0
107.209846 184.0
107.252167 216.0
107.330238 140.0
107.347137 192.0
107.362808 160.0
107.376083 56.0
107.380318 124.0
107.399292 136.0
107.430153 144.0
107.45166 160.0
107.467072 152.0
107.473297 136.0
107.479431 140.0
107.486679 120.0
107.495865 188.0
107.546097 188.0
107.570839 204.0
107.596924 128.0
107.626938 216.0
107.655952 200.0
107.681969 188.0
107.697861 208.0
107.712906 164.0
107.755966 180.0
107.775612 308.0
107.807991 148.0
107.845634 152.0
107.857597 184.0
107.885971 176.0
107.901009 140.0
107.931015 124.0
107.94693 132.0
107.975876 244.0
107.993423 144.0
107.998436 136.0
108.023483 160.0
108.055122 432.0
108.086143 476.0
108.122597 244.0
108.150169 80.0
108.178154 392.0
108.223511 164.0
108.244545 104.0
108.287323 144.0
108.313835 260.0
108.321617 128.0
108.330406 272.0
108.363396 96.0
108.399826 56.0
108.426483 356.0
108.45578 144.0
108.47139 172.0
108.499901 152.0
108.5159 108.0
108.536636 208.0
108.560806 128.0
108.583359 120.0
108.614738 244.0
108.631157 172.0
108.66391 176.0
108.683762 168.0
108.70813 132.0
108.737854 92.0
108.767006 184.0
108.787094 172.0
108.819962 180.0
108.843193 188.0
108.889412 200.0
108.906029 180.0
108.923706 164.0
108.953072 228.0
108.975433 68.0
108.979759 364.0
109.001976 292.0
109.020294 180.0
109.036995 112.0
109.064713 3248.0
109.100128 488.0
109.120064 84.0
109.151817 132.0
109.179062 172.0
109.22831 156.0
109.254829 180.0
109.267067 164.0
109.294266 212.0
109.338333 176.0
109.35376 128.0
109.401779 276.0
109.444641 124.0
109.461296 136.0
109.514717 140.0
109.522865 184.0
109.545921 184.0
109.575325 176.0
109.612839 376.0
109.640541 100.0
109.678848 160.0
109.69722 84.0
109.726654 56.0
109.746178 200.0
109.772751 192.0
109.803116 156.0
109.843979 208.0
109.869812 112.0
109.899017 172.0
109.928795 308.0
109.944923 136.0
109.969971 92.0
110.015419 160.0
110.039871 164.0
110.067795 240.0
110.0942 252.0
110.114723 168.0
110.132828 164.0
110.152641 148.0
110.160149 196.0
110.233101 260.0
110.281174 108.0
110.304161 284.0
110.320534 144.0
110.334648 172.0
110.356529 164.0
110.42717 280.0
110.47599 164.0
110.491531 160.0
110.51667 184.0
110.541107 96.0
110.592056 88.0
110.626305 124.0
110.64724 168.0
110.664337 144.0
110.688461 192.0
110.722618 100.0
110.755608 160.0
110.773674 96.0
110.81649 172.0
110.848686 180.0
110.864525 112.0
110.881844 144.0
110.899605 168.0
110.932144 124.0
110.965591 144.0
110.986656 132.0
111.007622 112.0
111.029289 120.0
111.050026 144.0
111.082352 596.0
111.110397 160.0
111.153412 80.0
111.1614 156.0
111.168495 128.0
111.197708 164.0
111.217415 36.0
111.234207 196.0
111.253944 120.0
111.298599 396.0
111.318192 132.0
111.339447 228.0
111.369514 164.0
111.396851 204.0
111.42321 264.0
111.470039 208.0
111.477303 172.0
111.514626 188.0
111.538788 92.0
111.574524 116.0
111.595551 108.0
111.621964 196.0
111.652321 144.0
111.672737 296.0
111.687843 264.0
111.707298 136.0
111.753288 124.0
111.803795 164.0
111.829048 132.0
111.873253 136.0
111.891479 372.0
111.925888 184.0
111.945923 124.0
111.970314 164.0
112.004723 148.0
112.013176 116.0
112.055191 192.0
112.069855 136.0
112.085968 144.0
112.106079 140.0
112.142609 164.0
112.158798 232.0
112.218758 168.0
112.242905 112.0
112.261459 212.0
112.290451 68.0
112.328423 180.0
112.347404 188.0
112.395927 140.0
112.415535 164.0
112.445328 216.0
112.460617 448.0
112.498329 204.0
112.521812 164.0
112.538239 132.0
112.564796 108.0
112.587067 176.0
112.630264 176.0
112.651443 304.0
112.680862 84.0
112.711166 244.0
112.729561 336.0
112.763763 288.0
112.786919 500.0
112.823174 152.0
112.83947 172.0
112.851997 224.0
112.889931 148.0
112.90731 140.0
112.922997 208.0
112.943092 128.0
112.983284 156.0
113.016479 180.0
113.046448 136.0
113.088783 168.0
113.117531 128.0
113.135651 120.0
113.150475 76.0
113.17794 168.0
113.211403 160.0
113.241524 132.0
113.271179 172.0
113.295525 132.0
113.313545 152.0
113.333817 120.0
113.360214 176.0
113.45694 228.0
113.483101 164.0
113.506691 168.0
113.531876 176.0
113.573364 64.0
113.603653 148.0
113.625404 188.0
113.658264 224.0
113.6931 284.0
113.731575 156.0
113.778755 204.0
113.794991 156.0
113.820465 108.0
113.854439 120.0
113.88842 212.0
113.936317 188.0
113.981499 212.0
114.025795 152.0
114.071556 108.0
114.097168 120.0
114.120056 68.0
114.141319 124.0
114.168114 140.0
114.202995 160.0
114.242058 300.0
114.273552 164.0
114.291298 188.0
114.329788 204.0
114.369675 200.0
114.390038 200.0
114.437073 92.0
114.462494 132.0
114.511604 164.0
114.542328 216.0
114.575508 124.0
114.598946 76.0
114.631989 156.0
114.662018 164.0
114.688583 184.0
114.715408 160.0
114.723038 156.0
114.752396 156.0
114.776932 276.0
114.819977 332.0
114.862175 244.0
114.897423 148.0
114.948265 140.0
114.953621 212.0
114.976372 48.0
114.996269 160.0
115.014671 220.0
115.05526 4852.0
115.114822 168.0
115.136482 84.0
115.15519 112.0
115.170654 220.0
115.185608 156.0
115.199135 120.0
115.260384 120.0
115.305878 220.0
115.333687 212.0
115.350143 48.0
115.371971 132.0
115.405731 156.0
115.421211 160.0
115.507568 148.0
115.52977 160.0
115.561943 180.0
115.589012 180.0
115.592278 88.0
115.625343 156.0
115.633301 104.0
115.667458 116.0
115.709534 140.0
115.733086 140.0
115.758781 92.0
115.791679 400.0
115.820122 156.0
115.848152 132.0
115.870163 112.0
115.908569 248.0
115.934578 144.0
115.950806 156.0
115.966438 112.0
116.018867 72.0
116.060837 2288.0
116.089348 196.0
116.11364 156.0
116.130913 212.0
116.15506 148.0
116.183914 296.0
116.206764 216.0
116.242073 140.0
116.263504 316.0
116.29689 144.0
116.311836 108.0
116.356369 124.0
116.36451 176.0
116.371056 80.0
116.380058 140.0
116.396378 280.0
116.411858 108.0
116.440659 112.0
116.520218 120.0
116.537033 140.0
116.559998 132.0
116.595421 112.0
116.616623 120.0
116.623276 104.0
116.634033 116.0
116.638847 216.0
116.648186 160.0
116.692268 148.0
116.714691 116.0
116.750793 284.0
116.784966 124.0
116.817749 468.0
116.851799 156.0
116.869492 176.0
116.896179 140.0
116.901596 224.0
116.942757 192.0
116.968361 404.0
117.001854 180.0
117.023087 216.0
117.069901 8884.0
117.099022 152.0
117.119865 164.0
117.145515 120.0
117.179886 144.0
117.195786 116.0
117.211708 124.0
117.216972 48.0
117.225327 164.0
117.261665 140.0
117.291344 388.0
117.323494 188.0
117.349724 184.0
117.39917 148.0
117.430244 232.0
117.441002 80.0
117.477333 128.0
117.511108 128.0
117.534615 120.0
117.568832 40.0
117.600159 156.0
117.655029 156.0
117.669991 60.0
117.691872 140.0
117.725548 148.0
117.748611 364.0
117.790771 136.0
117.875084 132.0
117.893425 208.0
117.935837 116.0
117.976387 156.0
118.007324 180.0
118.026779 240.0
118.045013 224.0
118.065773 2844.0
118.12484 164.0
118.145737 160.0
118.172729 192.0
118.20961 180.0
118.247612 148.0
118.304352 176.0
118.32103 272.0
118.368446 120.0
118.398979 120.0
118.452843 152.0
118.488564 128.0
118.521416 184.0
118.53891 168.0
118.570427 172.0
118.606133 176.0
118.659363 136.0
118.698914 176.0
118.728287 172.0
118.752922 64.0
118.759834 128.0
118.774986 128.0
118.806473 136.0
118.822968 116.0
118.839523 204.0
118.857208 164.0
118.885231 188.0
118.894981 116.0
118.912796 192.0
118.922112 272.0
118.947762 108.0
118.964355 188.0
118.995941 172.0
119.028206 116.0
119.050514 320.0
119.086281 7364.0
119.151649 52.0
119.168961 372.0
119.211998 244.0
119.235306 188.0
119.256172 80.0
119.282036 44.0
119.310295 132.0
119.335197 88.0
119.358131 132.0
119.373352 40.0
119.390083 144.0
119.413612 172.0
119.434242 180.0
119.452339 348.0
119.50386 180.0
119.527794 128.0
119.582413 164.0
119.630081 200.0
119.663849 252.0
119.678291 168.0
119.701935 104.0
119.726746 132.0
119.743233 212.0
119.813011 88.0
119.830444 100.0
119.869362 68.0
119.895813 176.0
119.911064 212.0
119.943459 172.0
119.98555 156.0
120.006042 280.0
120.026711 144.0
120.058563 528.0
120.081062 8400.0
120.10981 296.0
120.127769 88.0
120.219383 128.0
120.241577 132.0
120.288406 256.0
120.303688 56.0
120.340797 100.0
120.368774 128.0
120.3955 160.0
120.415939 164.0
120.429276 228.0
120.456451 192.0
120.487625 176.0
120.50679 164.0
120.530823 136.0
120.550491 112.0
120.57016 136.0
120.593407 148.0
120.61824 172.0
120.669228 148.0
120.723259 120.0
120.793289 76.0
120.812683 108.0
120.841301 100.0
120.859467 132.0
120.892242 324.0
120.930733 276.0
120.951599 228.0
120.989632 72.0
121.040482 104.0
121.064911 1956.0
121.088867 11632.0
121.179901 372.0
121.202774 84.0
121.21917 160.0
121.237633 80.0
121.278381 324.0
121.295235 240.0
121.319588 92.0
121.347099 188.0
121.380005 80.0
121.401131 156.0
121.405701 48.0
121.416092 344.0
121.450172 148.0
121.466103 144.0
121.49855 44.0
121.541069 288.0
121.566444 156.0
121.574028 140.0
121.633011 344.0
121.654366 196.0
121.682091 184.0
121.728508 156.0
121.782654 264.0
121.814667 340.0
121.837845 160.0
121.868492 148.0
121.930588 132.0
121.935158 100.0
121.99073 172.0
122.028114 160.0
122.065369 484.0
122.096558 12424.0
122.137276 136.0
122.16629 180.0
122.208755 292.0
122.268906 128.0
122.279228 156.0
122.305016 100.0
122.333633 356.0
122.379425 140.0
122.41069 172.0
122.428825 156.0
122.446381 164.0
122.483368 176.0
122.502686 104.0
122.549454 52.0
122.567085 120.0
122.594429 312.0
122.617767 176.0
122.670998 152.0
122.693306 104.0
122.714142 140.0
122.739807 300.0
122.785324 168.0
122.802963 116.0
122.848083 132.0
122.865799 148.0
122.912048 248.0
122.948212 196.0
122.962082 216.0
122.985085 96.0
123.021408 240.0
123.079224 1364.0
123.101456 1328.0
123.158966 136.0
123.182426 144.0
123.190514 132.0
123.21582 260.0
123.23336 132.0
123.236183 128.0
123.244957 164.0
123.264359 64.0
123.291397 136.0
123.312973 124.0
123.366028 76.0
123.431198 200.0
123.452255 108.0
123.482422 200.0
123.500908 148.0
123.52327 148.0
123.546959 200.0
123.560791 112.0
123.605301 148.0
123.625923 168.0
123.647484 96.0
123.674049 224.0
123.706696 88.0
123.728828 108.0
123.75515 144.0
123.761879 196.0
123.817947 316.0
123.843544 184.0
123.865105 196.0
123.917076 88.0
123.938202 184.0
123.978249 132.0
123.991852 156.0
124.024406 136.0
124.056694 112.0
124.084389 268.0
124.102409 188.0
124.129158 168.0
124.156204 164.0
124.161774 144.0
124.171631 220.0
124.194176 176.0
124.244644 144.0
124.333015 180.0
124.35614 324.0
124.391792 196.0
124.416077 136.0
124.470573 148.0
124.502335 132.0
124.535988 188.0
124.551537 120.0
124.571526 72.0
124.598183 408.0
124.61544 104.0
124.634735 204.0
124.662338 160.0
124.678932 164.0
124.701134 184.0
124.721481 216.0
124.77375 120.0
124.795982 212.0
124.828194 176.0
124.844696 212.0
124.899986 136.0
124.922752 116.0
124.94722 108.0
124.968422 292.0
124.991974 176.0
125.036987 128.0
125.059929 180.0
125.096024 348.0
125.154617 148.0
125.194901 116.0
125.214333 148.0
125.239754 164.0
125.280823 164.0
125.296745 252.0
125.341309 132.0
125.359131 160.0
125.390335 220.0
125.410393 172.0
125.444405 160.0
125.508484 164.0
125.533134 144.0
125.559769 128.0
125.577538 268.0
125.608841 180.0
125.633377 324.0
125.703819 140.0
125.73455 248.0
125.807442 72.0
125.835159 144.0
125.858788 64.0
125.920784 168.0
125.941422 168.0
125.974014 128.0
125.982368 192.0
126.007027 116.0
126.021843 148.0
126.047974 148.0
126.078789 140.0
126.095314 100.0
126.125099 116.0
126.18573 176.0
126.20578 240.0
126.246902 180.0
126.272484 160.0
126.319344 156.0
126.341545 100.0
126.360558 216.0
126.393562 128.0
126.400162 160.0
126.432854 148.0
126.461723 96.0
126.489769 184.0
126.51162 164.0
126.548668 168.0
126.589981 132.0
126.610756 116.0
126.651726 176.0
126.675095 144.0
126.715416 132.0
126.747833 264.0
126.7817 124.0
126.814011 124.0
126.838669 124.0
126.876778 140.0
126.91259 144.0
126.919693 80.0
126.950111 192.0
126.978523 128.0
126.994499 224.0
127.011124 136.0
127.019234 128.0
127.028145 152.0
127.05381 1304.0
127.110039 140.0
127.151573 204.0
127.176491 176.0
127.208191 136.0
127.268814 152.0
127.291855 160.0
127.31723 120.0
127.341263 84.0
127.384148 128.0
127.45134 188.0
127.471558 88.0
127.49305 156.0
127.532242 144.0
127.552795 176.0
127.586189 132.0
127.604172 276.0
127.672043 156.0
127.696365 152.0
127.727318 168.0
127.74585 164.0
127.781555 184.0
127.786064 160.0
127.821198 176.0
127.868233 200.0
127.906982 152.0
127.95739 36.0
127.979317 176.0
128.015533 224.0
128.020935 184.0
128.062836 8116.0
128.097015 152.0
128.111511 120.0
128.132904 216.0
128.223602 208.0
128.242905 144.0
128.280243 192.0
128.322372 52.0
128.369492 168.0
128.416153 204.0
128.446411 40.0
128.466705 236.0
128.483902 204.0
128.520432 196.0
128.526657 160.0
128.545792 216.0
128.572754 188.0
128.610458 188.0
128.661896 196.0
128.687881 76.0
128.726257 168.0
128.760132 208.0
128.783401 316.0
128.815704 132.0
128.853943 136.0
128.899353 280.0
128.949905 164.0
128.970245 144.0
129.010559 120.0
129.02919 228.0
129.070175 11076.0
129.100388 176.0
129.107971 240.0
129.147507 204.0
129.189224 200.0
129.209946 128.0
129.257248 128.0
129.288132 116.0
129.304138 172.0
129.327621 272.0
129.347702 184.0
129.372009 184.0
129.414871 184.0
129.448608 136.0
129.476135 216.0
129.508667 220.0
129.53392 116.0
129.542953 160.0
129.578979 200.0
129.603027 224.0
129.619766 148.0
129.642426 172.0
129.696808 116.0
129.724838 144.0
129.74411 144.0
129.760284 60.0
129.801102 84.0
129.836838 232.0
129.864227 124.0
129.882095 140.0
129.928116 168.0
129.947433 132.0
129.985016 196.0
130.005295 140.0
130.023407 164.0
130.074814 2056.0
130.118927 136.0
130.161118 276.0
130.199844 196.0
130.235458 132.0
130.241028 52.0
130.249786 176.0
130.289978 192.0
130.322754 160.0
130.352585 192.0
130.400482 308.0
130.467346 216.0
130.511658 184.0
130.545273 492.0
130.577759 64.0
130.597641 204.0
130.623245 64.0
130.64827 192.0
130.655487 252.0
130.700592 84.0
130.718796 212.0
130.741913 220.0
130.773422 84.0
130.790314 132.0
130.820084 208.0
130.844818 164.0
130.873016 96.0
130.897263 348.0
130.937347 308.0
130.952454 376.0
130.986465 120.0
130.997162 332.0
131.024261 336.0
131.048615 1432.0
131.085434 11812.0
131.156845 88.0
131.186661 360.0
131.217621 112.0
131.240417 172.0
131.258652 264.0
131.284576 76.0
131.325241 228.0
131.43161 140.0
131.439575 88.0
131.451569 144.0
131.493622 124.0
131.514771 196.0
131.54454 208.0
131.589493 132.0
131.616898 148.0
131.641953 172.0
131.682205 140.0
131.693817 64.0
131.700592 184.0
131.726273 412.0
131.761932 168.0
131.787369 124.0
131.806671 140.0
131.833893 124.0
131.874542 128.0
131.925781 304.0
131.95961 164.0
131.972809 88.0
131.981018 232.0
132.005341 100.0
132.022369 144.0
132.056198 940.0
132.081909 5992.0
132.13092 168.0
132.145905 160.0
132.163177 52.0
132.187088 116.0
132.220383 140.0
132.2509 272.0
132.291336 124.0
132.32692 56.0
132.371918 340.0
132.401245 120.0
132.426437 136.0
132.444763 116.0
132.47406 116.0
132.488052 40.0
132.502563 172.0
132.524033 276.0
132.557022 128.0
132.57225 112.0
132.586807 164.0
132.612015 156.0
132.628571 356.0
132.658844 160.0
132.695557 368.0
132.733444 128.0
132.758255 172.0
132.777084 164.0
132.809921 164.0
132.844376 252.0
132.854706 200.0
132.866455 340.0
132.870956 212.0
132.940048 220.0
132.961044 216.0
132.977249 136.0
133.003128 108.0
133.024658 160.0
133.03363 144.0
133.065201 15324.0
133.093079 3736.0
133.153244 52.0
133.180511 72.0
133.21048 196.0
133.243057 156.0
133.267593 144.0
133.288055 120.0
133.315018 100.0
133.334412 132.0
133.358719 272.0
133.372818 224.0
133.393143 116.0
133.436844 248.0
133.468292 108.0
133.497787 120.0
133.516586 116.0
133.534973 108.0
133.556732 200.0
133.574722 172.0
133.626053 236.0
133.632339 148.0
133.641495 304.0
133.679916 60.0
133.720032 192.0
133.744354 196.0
133.768677 184.0
133.777527 120.0
133.802582 68.0
133.832428 248.0
133.852554 132.0
133.880722 224.0
133.908859 80.0
133.952026 104.0
133.972321 184.0
134.001724 136.0
134.011978 132.0
134.026321 136.0
134.034012 184.0
134.069199 2852.0
134.097412 117748.0
134.160034 152.0
134.214233 152.0
134.223343 164.0
134.232727 348.0
134.262222 356.0
134.280106 248.0
134.304565 60.0
134.335602 140.0
134.342484 132.0
134.350922 156.0
134.376556 344.0
134.397369 44.0
134.428726 160.0
134.449326 196.0
134.475708 508.0
134.49437 136.0
134.532593 208.0
134.557129 200.0
134.574387 164.0
134.608566 116.0
134.643997 136.0
134.672226 308.0
134.689636 80.0
134.70546 172.0
134.712158 216.0
134.748749 192.0
134.791229 372.0
134.831528 180.0
134.869766 244.0
134.89476 196.0
134.93576 36.0
134.966568 156.0
134.981766 132.0
135.001831 48.0
135.029053 276.0
135.049561 336.0
135.0811 20184.0
135.100128 14176.0
135.148926 196.0
135.181091 120.0
135.216415 160.0
135.24852 196.0
135.273529 148.0
135.301773 196.0
135.337692 160.0
135.367355 128.0
135.39978 68.0
135.420166 104.0
135.433304 260.0
135.45845 60.0
135.476089 148.0
135.488846 256.0
135.536026 240.0
135.544067 100.0
135.553131 140.0
135.578156 108.0
135.620972 372.0
135.642654 108.0
135.66217 180.0
135.677826 196.0
135.69548 136.0
135.741028 108.0
135.7798 152.0
135.799866 76.0
135.840149 80.0
135.861038 96.0
135.884232 160.0
135.907608 76.0
135.937393 196.0
135.970795 172.0
135.978149 76.0
136.001389 132.0
136.036041 252.0
136.084641 1276.0
136.105545 644.0
136.142029 120.0
136.162903 152.0
136.208817 88.0
136.247925 156.0
136.295013 100.0
136.316391 204.0
136.356934 324.0
136.401794 232.0
136.427673 40.0
136.447861 128.0
136.490845 204.0
136.518341 52.0
136.542557 112.0
136.551117 128.0
136.558624 188.0
136.590439 108.0
136.60672 244.0
136.648605 36.0
136.676514 204.0
136.710739 148.0
136.73703 196.0
136.756226 80.0
136.81485 164.0
136.851425 56.0
136.902466 60.0
136.94191 132.0
136.980042 192.0
137.013107 248.0
137.054977 164.0
137.095734 1436.0
137.149963 244.0
137.166412 112.0
137.215775 180.0
137.233994 228.0
137.258057 144.0
137.28598 144.0
137.331314 160.0
137.370193 140.0
137.400131 244.0
137.426407 252.0
137.452438 104.0
137.498627 132.0
137.524139 180.0
137.571564 100.0
137.618362 176.0
137.642059 132.0
137.709244 32.0
137.730255 128.0
137.754425 140.0
137.781647 132.0
137.808182 316.0
137.865936 116.0
137.924698 168.0
137.940155 208.0
137.979706 188.0
137.987915 140.0
137.995209 224.0
138.054672 316.0
138.077164 132.0
138.097748 268.0
138.129822 204.0
138.152008 156.0
138.170685 192.0
138.244461 304.0
138.269562 216.0
138.294403 332.0
138.311935 168.0
138.35228 132.0
138.383713 84.0
138.400787 128.0
138.417831 104.0
138.443588 52.0
138.47403 80.0
138.497131 200.0
138.505905 172.0
138.512283 132.0
138.537277 96.0
138.590515 188.0
138.617279 212.0
138.640366 176.0
138.656662 164.0
138.690964 204.0
138.722397 124.0
138.750534 140.0
138.781006 184.0
138.803314 228.0
138.843246 104.0
138.858398 128.0
138.894745 128.0
138.915421 140.0
138.963593 180.0
139.029022 104.0
139.038681 76.0
139.056824 160.0
139.087784 292.0
139.108521 292.0
139.132935 56.0
139.149368 120.0
139.179886 204.0
139.210419 92.0
139.266968 156.0
139.322067 52.0
139.371933 152.0
139.401413 272.0
139.450043 100.0
139.502716 208.0
139.52504 164.0
139.560532 84.0
139.59964 184.0
139.631073 144.0
139.658493 188.0
139.679092 296.0
139.701645 188.0
139.720459 216.0
139.761063 92.0
139.778488 184.0
139.830612 168.0
139.883987 180.0
139.91687 96.0
139.941681 136.0
139.96759 152.0
139.98642 32.0
140.030716 164.0
140.059265 132.0
140.090057 44.0
140.115112 144.0
140.133041 324.0
140.170166 144.0
140.21022 80.0
140.232193 76.0
140.265579 140.0
140.290359 144.0
140.332794 116.0
140.358734 172.0
140.409088 272.0
140.437347 96.0
140.464859 120.0
140.497879 204.0
140.552155 132.0
140.642838 112.0
140.667786 148.0
140.718307 152.0
140.771805 76.0
140.799896 76.0
140.830719 128.0
140.862259 364.0
140.889771 144.0
140.918121 84.0
140.944107 160.0
140.99794 144.0
141.006149 112.0
141.01265 172.0
141.033859 180.0
141.070816 7628.0
141.121384 188.0
141.145264 420.0
141.166306 96.0
141.199417 352.0
141.238327 320.0
141.264847 212.0
141.325287 56.0
141.345596 192.0
141.368561 120.0
141.430359 216.0
141.485718 176.0
141.504196 144.0
141.524368 156.0
141.55513 216.0
141.609222 156.0
141.661392 132.0
141.719574 108.0
141.727539 80.0
141.732773 116.0
141.758102 148.0
141.789673 264.0
141.805634 144.0
141.820709 232.0
141.840286 160.0
141.863724 128.0
141.882324 140.0
141.892822 100.0
141.898117 116.0
141.920853 188.0
141.940063 136.0
141.945053 60.0
141.9897 176.0
142.012512 216.0
142.036407 152.0
142.076675 4616.0
142.12735 176.0
142.183502 220.0
142.227692 192.0
142.244308 172.0
142.260925 144.0
142.316406 232.0
142.348297 184.0
142.380829 176.0
142.425598 148.0
142.444839 192.0
142.485214 148.0
142.532135 124.0
142.554001 160.0
142.590286 36.0
142.624786 132.0
142.7034 176.0
142.732407 44.0
142.772491 180.0
142.862213 120.0
142.887756 276.0
142.910965 200.0
142.932983 144.0
142.956161 68.0
142.971588 184.0
143.025146 40.0
143.085617 8196.0
143.159653 164.0
143.226288 184.0
143.252731 156.0
143.279968 164.0
143.323792 88.0
143.364838 120.0
143.387619 52.0
143.429306 132.0
143.461685 152.0
143.509537 140.0
143.530197 144.0
143.555237 52.0
143.578247 92.0
143.594116 184.0
143.618576 100.0
143.634872 288.0
143.695953 104.0
143.715042 152.0
143.750732 168.0
143.824829 304.0
143.848694 108.0
143.901443 108.0
143.922699 64.0
143.944199 44.0
143.971313 236.0
144.000549 100.0
144.010422 60.0
144.014847 144.0
144.058014 2088.0
144.081833 4144.0
144.134415 208.0
144.160919 156.0
144.206619 212.0
144.226501 144.0
144.244736 100.0
144.252914 128.0
144.275391 116.0
144.305038 216.0
144.348022 144.0
144.364197 136.0
144.371719 44.0
144.381012 140.0
144.422424 184.0
144.472397 100.0
144.508163 176.0
144.514267 160.0
144.536316 252.0
144.580811 128.0
144.60878 132.0
144.661438 220.0
144.689987 240.0
144.723694 112.0
144.745789 172.0
144.767288 116.0
144.812286 108.0
144.84343 224.0
144.871643 160.0
144.880127 124.0
144.909042 184.0
144.941956 160.0
144.954239 176.0
144.977234 104.0
145.008194 120.0
145.064545 7892.0
145.099258 9416.0
145.130203 156.0
145.156036 64.0
145.180359 144.0
145.196518 76.0
145.217224 320.0
145.260513 44.0
145.279709 176.0
145.300034 220.0
145.345016 144.0
145.36232 200.0
145.380997 220.0
145.386871 96.0
145.397781 188.0
145.433212 96.0
145.436768 140.0
145.498886 288.0
145.586929 108.0
145.603745 120.0
145.66478 84.0
145.7258 200.0
145.742386 280.0
145.768677 188.0
145.800934 304.0
145.833511 188.0
145.864197 88.0
145.915436 140.0
145.970428 336.0
145.979492 156.0
146.029327 48.0
146.071838 3848.0
146.097351 8952.0
146.163345 132.0
146.196869 180.0
146.234268 108.0
146.279373 120.0
146.306061 44.0
146.323059 132.0
146.346771 80.0
146.384979 152.0
146.403656 228.0
146.42865 180.0
146.452988 192.0
146.486465 56.0
146.509521 112.0
146.529816 188.0
146.546692 168.0
146.606934 132.0
146.633438 52.0
146.664658 88.0
146.692627 244.0
146.743286 140.0
146.762466 168.0
146.782898 204.0
146.819077 164.0
146.862488 172.0
146.881775 184.0
146.905029 212.0
146.952393 144.0
146.975586 260.0
146.996704 332.0
147.050125 420.0
147.080978 9104.0
147.104416 7112.0
147.144516 152.0
147.185028 228.0
147.212753 316.0
147.272797 164.0
147.29454 184.0
147.330154 140.0
147.352966 160.0
147.375992 140.0
147.426132 148.0
147.458832 52.0
147.524094 32.0
147.548279 164.0
147.567612 276.0
147.58696 136.0
147.616882 180.0
147.639816 144.0
147.647964 124.0
147.65567 116.0
147.686035 136.0
147.768356 132.0
147.794998 348.0
147.82254 144.0
147.841614 172.0
147.865753 124.0
147.911133 76.0
147.93985 264.0
147.982407 212.0
148.004913 220.0
148.077652 7160.0
148.112061 23484.0
148.193893 192.0
148.222198 100.0
148.240509 72.0
148.262329 92.0
148.292206 36.0
148.319168 120.0
148.348602 112.0
148.371399 112.0
148.4021 108.0
148.438095 204.0
148.471771 212.0
148.492081 124.0
148.510971 136.0
148.533005 124.0
148.542923 120.0
148.568604 112.0
148.583664 144.0
148.621201 148.0
148.664886 104.0
148.686325 120.0
148.709503 344.0
148.734863 196.0
148.791306 92.0
148.84108 164.0
148.866364 52.0
148.914398 160.0
148.990417 156.0
149.038635 152.0
149.058395 788.0
149.096329 6572.0
149.114624 3400.0
149.169815 64.0
149.217651 168.0
149.281281 140.0
149.298935 204.0
149.320816 80.0
149.371887 104.0
149.403259 184.0
149.450638 108.0
149.465866 108.0
149.505707 92.0
149.522751 84.0
149.550461 144.0
149.576294 156.0
149.646484 120.0
149.683105 228.0
149.724808 128.0
149.75087 176.0
149.784302 136.0
149.8125 156.0
149.843079 264.0
149.905075 40.0
149.926254 276.0
149.965942 152.0
149.992813 124.0
150.029922 144.0
150.056458 152.0
150.092285 1448.0
150.132523 660.0
150.191376 176.0
150.244125 144.0
150.280975 196.0
150.316635 172.0
150.410172 120.0
150.434326 196.0
150.496201 308.0
150.51944 172.0
150.542801 228.0
150.566025 168.0
150.581345 172.0
150.606369 192.0
150.629944 148.0
150.652481 144.0
150.682419 168.0
150.712753 156.0
150.751846 92.0
150.792404 132.0
150.829819 172.0
150.84642 448.0
150.867722 216.0
150.910721 216.0
150.937622 140.0
150.979187 168.0
151.006088 104.0
151.033005 168.0
151.07457 1108.0
151.09552 468.0
151.159378 144.0
151.201447 160.0
151.242126 268.0
151.316864 180.0
151.33519 132.0
151.365189 168.0
151.440628 184.0
151.492172 188.0
151.514771 128.0
151.565536 288.0
151.654907 156.0
151.68187 60.0
151.701477 132.0
151.743164 144.0
151.772583 248.0
151.809235 152.0
151.828979 212.0
151.847763 156.0
151.924637 164.0
151.95813 288.0
152.001556 200.0
152.063049 1036.0
152.110016 164.0
152.159851 128.0
152.189697 152.0
152.214249 164.0
152.240173 172.0
152.290375 72.0
152.356705 160.0
152.379959 128.0
152.398468 152.0
152.420578 128.0
152.436844 144.0
152.502731 240.0
152.580338 80.0
152.603012 252.0
152.650635 192.0
152.676239 140.0
152.72583 48.0
152.754944 204.0
152.774628 48.0
152.809067 72.0
152.84726 176.0
152.880493 156.0
152.907486 48.0
152.946869 140.0
152.971481 116.0
152.996109 204.0
153.069641 3052.0
153.125198 196.0
153.178253 136.0
153.231094 124.0
153.257172 112.0
153.299057 136.0
153.335297 176.0
153.385315 84.0
153.406647 144.0
153.436981 196.0
153.443909 188.0
153.487411 116.0
153.4953 72.0
153.505005 160.0
153.543518 96.0
153.592438 96.0
153.626968 212.0
153.64917 68.0
153.703461 120.0
153.738007 148.0
153.765152 176.0
153.783386 240.0
153.818298 112.0
153.851547 96.0
153.873764 176.0
153.895767 372.0
153.915726 96.0
153.937958 116.0
153.973663 156.0
153.997223 76.0
154.019455 88.0
154.038147 140.0
154.076965 2628.0
154.125839 132.0
154.150391 140.0
154.199814 116.0
154.25914 132.0
154.280167 292.0
154.314346 180.0
154.339462 140.0
154.397598 156.0
154.43335 148.0
154.473877 100.0
154.519989 132.0
154.568283 184.0
154.616486 168.0
154.652924 100.0
154.707413 152.0
154.745483 224.0
154.771255 108.0
154.813354 96.0
154.865433 128.0
154.889053 156.0
154.936874 144.0
154.958008 160.0
154.99057 96.0
155.010742 176.0
155.059647 508.0
155.085052 11504.0
155.154358 224.0
155.194946 180.0
155.212311 168.0
155.265747 112.0
155.321884 256.0
155.3405 300.0
155.42067 180.0
155.460358 144.0
155.49263 168.0
155.533844 132.0
155.567017 140.0
155.609711 288.0
155.634125 136.0
155.69371 156.0
155.740494 72.0
155.800522 72.0
155.84787 440.0
155.876633 152.0
155.908859 200.0
155.930161 188.0
155.95459 168.0
155.997513 148.0
156.01445 200.0
156.049957 276.0
156.087006 3440.0
156.151352 280.0
156.190323 116.0
156.232468 176.0
156.252487 80.0
156.275375 144.0
156.307724 176.0
156.337585 168.0
156.380493 148.0
156.404785 64.0
156.431747 292.0
156.463394 132.0
156.489334 240.0
156.524872 204.0
156.579391 196.0
156.658768 180.0
156.676208 160.0
156.703613 52.0
156.726044 160.0
156.75885 212.0
156.787262 176.0
156.828842 144.0
156.868088 124.0
156.885544 156.0
156.91687 216.0
156.954361 192.0
156.980042 124.0
157.0177 40.0
157.064377 5252.0
157.094345 4600.0
157.135086 344.0
157.177353 116.0
157.2108 128.0
157.243408 112.0
157.261826 136.0
157.289322 132.0
157.312744 128.0
157.354553 116.0
157.420776 116.0
157.43071 160.0
157.435165 196.0
157.46167 192.0
157.518036 164.0
157.538177 160.0
157.573288 180.0
157.591568 120.0
157.607513 232.0
157.62236 144.0
157.676529 116.0
157.712936 144.0
157.742996 252.0
157.783371 168.0
157.811569 108.0
157.832916 80.0
157.851776 80.0
157.870804 256.0
157.900711 84.0
157.917145 228.0
157.936584 88.0
157.946732 112.0
157.955383 196.0
158.001846 176.0
158.010269 88.0
158.020645 156.0
158.044052 180.0
158.072464 2760.0
158.097351 18540.0
158.144302 116.0
158.181198 132.0
158.209808 40.0
158.258453 36.0
158.292191 44.0
158.309708 164.0
158.34436 96.0
158.390518 76.0
158.440018 132.0
158.474045 232.0
158.524765 160.0
158.534653 68.0
158.54213 104.0
158.590302 152.0
158.623276 156.0
158.641953 92.0
158.669525 152.0
158.705475 140.0
158.728806 184.0
158.77034 296.0
158.793396 148.0
158.823486 76.0
158.847351 84.0
158.870163 184.0
158.91954 272.0
158.947678 264.0
158.965759 180.0
158.982346 200.0
159.014343 228.0
159.045227 280.0
159.080887 20360.0
159.103607 9828.0
159.174683 136.0
159.198624 240.0
159.232162 152.0
159.320511 76.0
159.34671 180.0
159.370026 260.0
159.396683 88.0
159.413055 304.0
159.433578 172.0
159.457214 128.0
159.485443 176.0
159.505432 88.0
159.523163 56.0
159.559921 76.0
159.594452 128.0
159.617081 60.0
159.660538 128.0
159.698517 148.0
159.815964 176.0
159.849579 412.0
159.909103 424.0
159.949936 168.0
159.978302 132.0
160.001343 160.0
160.021011 128.0
160.042053 148.0
160.086411 5488.0
160.111755 19128.0
160.151901 152.0
160.176697 252.0
160.19516 168.0
160.219238 164.0
160.266815 60.0
160.286636 100.0
160.309326 96.0
160.341049 188.0
160.349792 44.0
160.359985 268.0
160.385925 264.0
160.413879 148.0
160.461395 88.0
160.503342 164.0
160.534409 164.0
160.559921 304.0
160.591675 108.0
160.624542 124.0
160.642136 264.0
160.67215 200.0
160.704193 220.0
160.714233 144.0
160.743378 172.0
160.777878 140.0
160.833786 88.0
160.842224 80.0
160.865005 152.0
160.915634 152.0
160.94751 60.0
160.97522 188.0
160.999695 128.0
161.026398 260.0
161.052155 312.0
161.096237 14472.0
161.163925 176.0
161.181549 212.0
161.223358 176.0
161.293182 484.0
161.321716 168.0
161.343216 120.0
161.35997 128.0
161.389679 164.0
161.41243 116.0
161.431671 100.0
161.459244 140.0
161.47818 96.0
161.518646 196.0
161.547882 464.0
161.583405 140.0
161.621262 64.0
161.662857 168.0
161.691879 256.0
161.734818 192.0
161.775879 116.0
161.7957 128.0
161.829041 264.0
161.862839 32.0
161.913483 80.0
161.943878 116.0
161.97084 304.0
162.042831 340.0
162.065475 144.0
162.099518 2556.0
162.127472 6608.0
162.175354 120.0
162.19725 80.0
162.223587 96.0
162.267441 152.0
162.276794 192.0
162.287079 164.0
162.32373 108.0
162.379028 144.0
162.388733 100.0
162.396271 196.0
162.427994 32.0
162.473663 140.0
162.549286 204.0
162.585297 140.0
162.61322 172.0
162.634247 152.0
162.657028 168.0
162.724915 156.0
162.752838 56.0
162.788391 176.0
162.808701 84.0
162.840561 192.0
162.897568 328.0
162.953491 48.0
162.976349 84.0
163.00177 196.0
163.032257 120.0
163.055023 100.0
163.075394 404.0
163.112381 1340.0
163.124893 520.0
163.129257 2012.0
163.154266 68.0
163.18222 44.0
163.200027 88.0
163.250885 76.0
163.2995 272.0
163.318924 132.0
163.347214 160.0
163.35936 80.0
163.406036 108.0
163.433762 236.0
163.464417 144.0
163.469269 136.0
163.512695 144.0
163.53244 276.0
163.551086 72.0
163.581635 112.0
163.614731 144.0
163.641876 84.0
163.70694 128.0
163.754379 164.0
163.778015 148.0
163.830582 168.0
163.876495 260.0
163.922638 76.0
163.95285 48.0
163.989166 64.0
164.023148 152.0
164.107712 668.0
164.137741 184.0
164.167633 32.0
164.188995 128.0
164.214767 240.0
164.27623 104.0
164.308914 132.0
164.3936 152.0
164.453369 100.0
164.492844 128.0
164.532028 108.0
164.563248 176.0
164.586121 136.0
164.611298 236.0
164.656845 160.0
164.67804 136.0
164.71994 180.0
164.764893 92.0
164.790527 136.0
164.882431 40.0
164.902878 200.0
164.923035 188.0
164.955338 176.0
164.996185 160.0
165.026001 348.0
165.070068 4552.0
165.109543 468.0
165.133347 168.0
165.176788 96.0
165.207169 88.0
165.234787 140.0
165.257172 132.0
165.278976 348.0
165.309509 52.0
165.331467 84.0
165.365799 188.0
165.421646 152.0
165.452835 48.0
165.481979 204.0
165.542633 108.0
165.561493 220.0
165.601349 44.0
165.619278 124.0
165.636703 120.0
165.66539 196.0
165.719193 128.0
165.737122 160.0
165.762741 104.0
165.792023 164.0
165.857574 160.0
165.917328 388.0
165.96524 104.0
165.996841 200.0
166.024216 56.0
166.076675 3292.0
166.156967 176.0
166.188385 184.0
166.21405 28.0
166.236115 180.0
166.265762 120.0
166.319855 140.0
166.429657 188.0
166.462723 204.0
166.534943 132.0
166.572983 160.0
166.618896 188.0
166.641907 608.0
166.69165 136.0
166.723206 168.0
166.789322 168.0
166.843292 128.0
166.864685 164.0
166.916733 128.0
166.938431 152.0
167.000153 128.0
167.018158 96.0
167.085251 6884.0
167.132584 132.0
167.200836 112.0
167.236862 128.0
167.272903 92.0
167.324478 104.0
167.355286 112.0
167.403473 84.0
167.43457 136.0
167.443481 108.0
167.499496 268.0
167.533478 208.0
167.557175 104.0
167.619781 128.0
167.64151 168.0
167.68959 128.0
167.721085 100.0
167.838562 148.0
167.909302 116.0
167.929932 104.0
167.96347 88.0
168.002594 164.0
168.054245 276.0
168.091141 3568.0
168.205368 160.0
168.240768 96.0
168.278305 108.0
168.352814 56.0
168.415466 136.0
168.434952 164.0
168.452469 136.0
168.497833 96.0
168.538574 156.0
168.588272 36.0
168.606354 64.0
168.637375 132.0
168.659225 220.0
168.689072 76.0
168.707809 208.0
168.727081 176.0
168.744705 208.0
168.77179 132.0
168.818344 156.0
168.848129 148.0
168.88678 164.0
168.925339 300.0
168.958801 296.0
168.981293 180.0
169.023926 160.0
169.067215 652.0
169.101364 9056.0
169.137482 328.0
169.199493 232.0
169.307007 188.0
169.340698 212.0
169.372803 204.0
169.407608 284.0
169.473419 52.0
169.533234 148.0
169.57428 160.0
169.592422 108.0
169.641525 356.0
169.706482 116.0
169.755295 296.0
169.758774 244.0
169.794464 216.0
169.826416 196.0
169.859375 164.0
169.916794 180.0
169.963272 168.0
170.004318 152.0
170.020065 108.0
170.043121 260.0
170.097427 4660.0
170.161896 264.0
170.257492 128.0
170.303345 72.0
170.343704 168.0
170.381042 180.0
170.406097 124.0
170.467545 220.0
170.48703 148.0
170.5215 208.0
170.542389 192.0
170.607956 212.0
170.660706 200.0
170.687729 152.0
170.717529 152.0
170.745178 148.0
170.765991 88.0
170.787338 76.0
170.833511 108.0
170.849701 136.0
170.871964 216.0
170.890854 48.0
170.916153 176.0
170.989731 60.0
171.028122 264.0
171.080048 4448.0
171.105698 9964.0
171.161316 92.0
171.204269 88.0
171.231857 92.0
171.2733 136.0
171.308563 356.0
171.341248 124.0
171.362991 176.0
171.399536 304.0
171.418381 172.0
171.440689 172.0
171.529373 84.0
171.566742 84.0
171.597687 112.0
171.637405 216.0
171.68251 220.0
171.699417 216.0
171.72847 220.0
171.74791 96.0
171.781235 616.0
171.821396 48.0
171.886169 180.0
171.904449 144.0
171.956879 132.0
171.984848 344.0
172.112305 53472.0
172.148224 464.0
172.166595 236.0
172.198578 84.0
172.243286 168.0
172.274979 148.0
172.304413 136.0
172.36409 328.0
172.429062 112.0
172.433563 72.0
172.443619 232.0
172.497177 152.0
172.501526 144.0
172.51561 156.0
172.573486 308.0
172.579529 80.0
172.590561 208.0
172.639145 48.0
172.700089 188.0
172.749313 152.0
172.772812 68.0
172.811707 184.0
172.84317 148.0
172.904846 152.0
172.94545 136.0
172.983688 236.0
173.006546 204.0
173.057083 460.0
173.097046 15632.0
173.116028 12292.0
173.156982 188.0
173.188095 244.0
173.225433 144.0
173.257843 236.0
173.281631 232.0
173.288666 192.0
173.326782 196.0
173.334045 196.0
173.343903 84.0
173.353806 160.0
173.377136 280.0
173.441406 188.0
173.459137 72.0
173.483368 228.0
173.507782 60.0
173.540207 132.0
173.56395 160.0
173.622223 128.0
173.656006 76.0
173.700089 144.0
173.716415 108.0
173.733322 144.0
173.751678 108.0
173.80809 56.0
173.849243 88.0
173.902252 316.0
173.922577 160.0
173.965118 296.0
173.984863 164.0
174.024673 324.0
174.102921 10024.0
174.127213 8228.0
174.201324 144.0
174.227539 184.0
174.258789 276.0
174.279068 112.0
174.293854 160.0
174.320282 64.0
174.36467 304.0
174.397659 56.0
174.42131 64.0
174.440506 172.0
174.457962 132.0
174.53598 336.0
174.565567 236.0
174.586243 60.0
174.613251 200.0
174.665268 160.0
174.692154 128.0
174.750961 192.0
174.778976 72.0
174.804733 76.0
174.877365 156.0
174.934204 208.0
174.968475 64.0
175.006165 148.0
175.07515 976.0
175.110733 5892.0
175.132736 4576.0
175.174454 128.0
175.20076 156.0
175.24057 168.0
175.258987 136.0
175.279266 76.0
175.307205 196.0
175.366318 232.0
175.431473 108.0
175.435577 116.0
175.450256 128.0
175.479584 148.0
175.505951 108.0
175.532593 192.0
175.573196 156.0
175.619339 76.0
175.637741 160.0
175.687927 148.0
175.786697 128.0
175.82811 124.0
175.854126 152.0
175.883499 120.0
175.932297 180.0
175.980301 128.0
176.079926 388.0
176.110855 1072.0
176.14209 692.0
176.218918 316.0
176.254517 376.0
176.305374 132.0
176.353348 136.0
176.382416 148.0
176.418274 164.0
176.443222 312.0
176.474945 40.0
176.518066 396.0
176.537811 124.0
176.582428 132.0
176.636261 176.0
176.736801 156.0
176.760605 136.0
176.826767 152.0
176.86647 144.0
176.911469 120.0
176.943237 136.0
177.00679 160.0
177.028549 108.0
177.089081 604.0
177.110809 416.0
177.129257 212.0
177.16156 160.0
177.190704 144.0
177.213745 176.0
177.249161 216.0
177.280289 80.0
177.306946 116.0
177.337723 152.0
177.390366 224.0
177.399628 188.0
177.465179 324.0
177.501007 116.0
177.528809 160.0
177.546494 144.0
177.613678 132.0
177.645508 96.0
177.689819 364.0
177.719803 40.0
177.755585 172.0
177.788528 164.0
177.831055 152.0
177.858383 180.0
177.902924 168.0
177.933792 108.0
177.942429 68.0
177.951553 100.0
177.977249 204.0
177.998505 168.0
178.077972 3952.0
178.110336 176.0
178.133942 136.0
178.156372 268.0
178.181061 120.0
178.208328 104.0
178.258224 124.0
178.298676 220.0
178.356262 156.0
178.412109 272.0
178.444031 88.0
178.459091 92.0
178.516663 184.0
178.554962 40.0
178.599106 156.0
178.620392 148.0
178.678055 132.0
178.705521 108.0
178.743652 164.0
178.79921 156.0
178.862534 116.0
178.8927 180.0
178.917389 188.0
178.938034 132.0
179.005585 136.0
179.052475 292.0
179.08461 6020.0
179.118668 196.0
179.172241 228.0
179.230042 128.0
179.288361 168.0
179.336639 124.0
179.41394 132.0
179.450455 136.0
179.52327 136.0
179.54837 96.0
179.621948 128.0
179.64061 308.0
179.661957 36.0
179.701981 260.0
179.741272 152.0
179.765854 64.0
179.778534 168.0
179.801956 188.0
179.824081 132.0
179.889801 168.0
179.934174 52.0
179.984894 240.0
180.091965 2676.0
180.135666 132.0
180.146027 36.0
180.189178 148.0
180.214569 256.0
180.241318 156.0
180.260025 216.0
180.30365 124.0
180.337524 168.0
180.376923 92.0
180.444992 144.0
180.480255 248.0
180.516647 60.0
180.577805 200.0
180.582886 132.0
180.632736 168.0
180.653046 144.0
180.692261 116.0
180.749359 124.0
180.848373 168.0
180.869797 220.0
180.910126 180.0
180.941101 144.0
180.993179 44.0
181.06485 1176.0
181.100479 8852.0
181.146133 132.0
181.187424 224.0
181.313202 144.0
181.334351 180.0
181.382462 232.0
181.430573 180.0
181.488632 80.0
181.516602 112.0
181.541992 160.0
181.56955 160.0
181.625946 80.0
181.671005 168.0
181.693268 148.0
181.736542 216.0
181.759537 96.0
181.783691 76.0
181.837372 96.0
181.882996 92.0
181.931305 136.0
181.966217 136.0
181.990265 100.0
182.014542 120.0
182.072433 1676.0
182.102097 2612.0
182.203049 64.0
182.235886 108.0
182.252701 360.0
182.288528 104.0
182.361084 188.0
182.449081 160.0
182.50087 120.0
182.52063 160.0
182.6073 104.0
182.637192 168.0
182.648132 116.0
182.684921 240.0
182.707962 76.0
182.726791 136.0
182.750656 136.0
182.776688 188.0
182.804825 140.0
182.847107 152.0
182.925217 96.0
182.943466 180.0
182.96669 200.0
183.029312 212.0
183.08017 4004.0
183.113663 5796.0
183.146881 96.0
183.184448 48.0
183.214081 96.0
183.245056 52.0
183.268219 84.0
183.288361 112.0
183.323883 64.0
183.408096 52.0
183.460724 284.0
183.491669 108.0
183.522049 236.0
183.556381 152.0
183.583984 168.0
183.639969 96.0
183.692062 64.0
183.751923 168.0
183.772156 228.0
183.811371 132.0
183.831512 112.0
183.869888 124.0
183.931656 164.0
183.958374 292.0
183.977264 136.0
184.01619 144.0
184.111923 11440.0
184.174164 48.0
184.210342 116.0
184.23381 120.0
184.26947 92.0
184.293732 148.0
184.343918 176.0
184.365906 152.0
184.409454 124.0
184.448944 124.0
184.471619 176.0
184.510925 96.0
184.531799 236.0
184.550476 384.0
184.568863 120.0
184.599289 308.0
184.615982 112.0
184.63385 188.0
184.653336 116.0
184.700058 92.0
184.728821 104.0
184.77504 212.0
184.797272 172.0
184.823196 156.0
184.844681 84.0
184.901672 220.0
184.9823 132.0
185.008408 112.0
185.057831 204.0
185.096329 5612.0
185.121109 8212.0
185.181656 132.0
185.221161 140.0
185.254654 220.0
185.283112 140.0
185.315979 56.0
185.365967 152.0
185.437927 144.0
185.470444 188.0
185.487686 156.0
185.513901 128.0
185.553696 184.0
185.616852 64.0
185.654465 188.0
185.685593 68.0
185.702682 368.0
185.747391 88.0
185.774155 72.0
185.799713 124.0
185.847397 200.0
185.89624 48.0
185.992386 324.0
186.018692 140.0
186.051727 128.0
186.127808 16024.0
186.197571 184.0
186.250809 60.0
186.30278 180.0
186.349472 248.0
186.390045 88.0
186.433929 84.0
186.523621 204.0
186.566452 148.0
186.574127 96.0
186.600616 116.0
186.680618 128.0
186.713943 160.0
186.743958 160.0
186.780914 124.0
186.837311 112.0
186.912521 116.0
186.939041 152.0
186.978653 260.0
187.032257 128.0
187.07254 380.0
187.112701 5392.0
187.132217 3888.0
187.203781 172.0
187.226868 84.0
187.311554 112.0
187.348694 152.0
187.380829 60.0
187.429672 168.0
187.465302 144.0
187.535538 88.0
187.560104 156.0
187.616257 160.0
187.634293 188.0
187.669189 120.0
187.702454 152.0
187.72699 316.0
187.772034 184.0
187.816986 80.0
187.844269 140.0
187.873428 220.0
187.948242 144.0
188.031021 324.0
188.112564 1120.0
188.142883 6044.0
188.189331 208.0
188.209885 132.0
188.260086 88.0
188.302811 48.0
188.335587 140.0
188.401505 132.0
188.451996 92.0
188.5159 148.0
188.54483 192.0
188.601181 140.0
188.618851 156.0
188.669418 72.0
188.714783 176.0
188.73732 52.0
188.760147 284.0
188.811142 144.0
188.836761 132.0
188.918503 80.0
188.940216 152.0
188.967072 52.0
189.005371 100.0
189.070267 292.0
189.125977 808.0
189.146179 872.0
189.232544 76.0
189.270874 128.0
189.306473 172.0
189.331116 156.0
189.377686 100.0
189.396851 44.0
189.446152 140.0
189.473557 40.0
189.506424 228.0
189.557175 52.0
189.58461 128.0
189.626999 140.0
189.681824 92.0
189.753098 80.0
189.791473 88.0
189.81456 116.0
189.849152 248.0
189.92009 216.0
189.953293 76.0
189.976807 168.0
189.999924 160.0
190.021866 132.0
190.077637 492.0
190.127014 680.0
190.157333 248.0
190.211227 36.0
190.241852 152.0
190.26004 112.0
190.294464 436.0
190.379791 176.0
190.46933 116.0
190.524277 144.0
190.546249 124.0
190.601196 128.0
190.645172 44.0
190.664398 168.0
190.713806 144.0
190.752365 196.0
190.813797 148.0
190.845825 120.0
190.87883 64.0
190.900818 172.0
190.955826 60.0
190.99118 192.0
191.027344 76.0
191.085495 3272.0
191.164841 156.0
191.208939 188.0
191.26123 168.0
191.299774 128.0
191.319031 92.0
191.371353 60.0
191.390625 156.0
191.438324 260.0
191.475479 88.0
191.511795 96.0
191.541077 144.0
191.585205 80.0
191.617432 80.0
191.628281 112.0
191.649536 240.0
191.748734 136.0
191.834183 68.0
191.856232 124.0
191.894623 164.0
191.90831 36.0
191.915253 196.0
191.964432 172.0
191.991333 152.0
192.013397 132.0
192.044586 104.0
192.092133 4856.0
192.159592 96.0
192.215927 192.0
192.269974 52.0
192.289291 192.0
192.311371 84.0
192.330688 128.0
192.363815 72.0
192.432831 112.0
192.468811 120.0
192.503738 252.0
192.521927 200.0
192.628113 168.0
192.648239 152.0
192.758759 112.0
192.836655 128.0
192.894135 116.0
192.903427 104.0
192.914444 156.0
192.985413 52.0
193.028381 140.0
193.033432 76.0
193.047928 168.0
193.066177 404.0
193.100143 6512.0
193.138565 168.0
193.190063 80.0
193.234329 188.0
193.332428 176.0
193.37822 144.0
193.421692 108.0
193.483398 88.0
193.502792 48.0
193.53009 140.0
193.562347 172.0
193.607101 160.0
193.630157 148.0
193.649765 52.0
193.682785 136.0
193.72728 184.0
193.7742 212.0
193.81282 112.0
193.850204 236.0
193.873947 52.0
193.911331 140.0
193.951797 404.0
193.971985 76.0
193.984467 64.0
194.005844 148.0
194.042389 156.0
194.072433 688.0
194.103287 3368.0
194.1595 32.0
194.208084 184.0
194.230499 160.0
194.259338 44.0
194.291061 176.0
194.320374 116.0
194.353668 128.0
194.37587 40.0
194.400848 108.0
194.453568 128.0
194.489655 44.0
194.522446 148.0
194.568039 84.0
194.600693 204.0
194.62291 88.0
194.686768 76.0
194.720688 132.0
194.75621 132.0
194.806198 36.0
194.82724 84.0
194.851913 88.0
194.875351 72.0
194.917343 156.0
194.945541 208.0
194.97847 80.0
195.021011 288.0
195.080551 2952.0
195.114029 5224.0
195.178619 156.0
195.213135 144.0
195.230591 132.0
195.299988 140.0
195.373306 128.0
195.394119 200.0
195.459625 160.0
195.486267 232.0
195.515213 100.0
195.554169 108.0
195.582703 96.0
195.626541 28.0
195.660782 140.0
195.709671 172.0
195.746262 108.0
195.774109 40.0
195.79361 48.0
195.826385 100.0
195.860443 36.0
195.90358 124.0
195.951813 120.0
195.992249 176.0
196.041534 160.0
196.086609 2988.0
196.114868 2236.0
196.155548 132.0
196.209076 224.0
196.272903 76.0
196.345398 164.0
196.420456 172.0
196.459763 36.0
196.537888 156.0
196.565781 52.0
196.594559 128.0
196.631332 148.0
196.686966 180.0
196.727661 84.0
196.764481 64.0
196.785355 144.0
196.805832 112.0
196.909546 116.0
196.93988 96.0
196.975739 124.0
197.022964 140.0
197.095581 7232.0
197.122192 4016.0
197.162552 148.0
197.269592 100.0
197.309311 96.0
197.340179 48.0
197.370239 64.0
197.395401 100.0
197.442444 176.0
197.453064 136.0
197.480942 124.0
197.529648 84.0
197.629608 356.0
197.65097 132.0
197.736694 52.0
197.7715 212.0
197.7771 92.0
197.788269 160.0
197.812271 120.0
197.834671 120.0
197.876663 60.0
197.938263 196.0
198.022278 148.0
198.064087 148.0
198.127579 11828.0
198.195953 148.0
198.214203 140.0
198.246399 120.0
198.284103 128.0
198.331223 240.0
198.419006 196.0
198.459335 120.0
198.466293 116.0
198.474365 172.0
198.526917 56.0
198.556732 208.0
198.609802 116.0
198.632233 188.0
198.655746 156.0
198.699448 76.0
198.781998 52.0
198.816849 324.0
198.883026 144.0
198.954712 112.0
198.984482 76.0
199.045853 148.0
199.082153 180.0
199.111725 5548.0
199.135437 6128.0
199.208572 124.0
199.233505 268.0
199.264465 48.0
199.290222 152.0
199.326752 112.0
199.35907 96.0
199.403809 172.0
199.437607 148.0
199.486954 84.0
199.518417 244.0
199.571365 252.0
199.61763 92.0
199.68425 116.0
199.711899 232.0
199.742706 180.0
199.779404 96.0
199.799103 116.0
199.83197 280.0
199.886322 88.0
199.922897 132.0
199.998886 68.0
200.035294 184.0
200.052017 32.0
200.114212 3300.0
200.141983 4160.0
200.209229 180.0
200.252945 204.0
200.286087 64.0
200.310547 216.0
200.321487 148.0
200.339661 216.0
200.37619 220.0
200.437302 124.0
200.473877 92.0
200.505081 88.0
200.577209 100.0
200.611984 160.0
200.631439 108.0
200.677795 100.0
200.72049 140.0
200.766342 228.0
200.852646 72.0
200.962662 88.0
201.010635 172.0
201.043442 96.0
201.086197 556.0
201.127045 2916.0
201.232849 140.0
201.259018 172.0
201.29393 44.0
201.348358 188.0
201.429199 232.0
201.467148 156.0
201.494644 152.0
201.520386 104.0
201.584396 192.0
201.627289 304.0
201.667068 108.0
201.709808 184.0
201.843918 92.0
201.86937 96.0
201.906128 124.0
201.945724 72.0
201.978333 68.0
202.024918 140.0
202.077377 636.0
202.124588 1468.0
202.150909 580.0
202.155563 704.0
202.247009 124.0
202.302246 52.0
202.337036 180.0
202.356812 192.0
202.380478 124.0
202.404846 204.0
202.466476 156.0
202.486298 56.0
202.533463 332.0
202.562775 100.0
202.728561 116.0
202.770905 108.0
202.826294 96.0
202.868805 176.0
202.894333 184.0
202.934021 68.0
203.010742 136.0
203.085587 1284.0
203.131516 828.0
203.208511 172.0
203.302292 160.0
203.366257 172.0
203.41954 116.0
203.461716 216.0
203.582809 160.0
203.613632 160.0
203.64061 144.0
203.670532 156.0
203.720139 144.0
203.742859 48.0
203.785477 104.0
203.839462 116.0
203.887772 140.0
203.962021 200.0
204.09404 2520.0
204.14003 456.0
204.163528 116.0
204.240326 184.0
204.263077 132.0
204.285843 96.0
204.339203 100.0
204.46225 48.0
204.535599 320.0
204.564713 100.0
204.60675 160.0
204.653473 156.0
204.692123 128.0
204.727005 144.0
204.77684 208.0
204.803894 112.0
204.849472 32.0
204.889359 168.0
204.932907 224.0
204.973022 152.0
205.000473 196.0
205.064758 136.0
205.100311 3688.0
205.141953 300.0
205.177185 112.0
205.198486 196.0
205.254166 104.0
205.328308 184.0
205.395874 116.0
205.453812 92.0
205.486938 268.0
205.516586 44.0
205.543854 200.0
205.567123 140.0
205.599335 120.0
205.637787 312.0
205.664978 156.0
205.699234 124.0
205.724915 156.0
205.866211 152.0
205.895981 88.0
205.97049 160.0
206.068619 344.0
206.105637 3192.0
206.147629 140.0
206.172501 132.0
206.203125 152.0
206.244797 76.0
206.292496 176.0
206.350571 84.0
206.404892 156.0
206.45488 156.0
206.495728 136.0
206.527863 28.0
206.581421 188.0
206.625122 156.0
206.665176 148.0
206.702377 112.0
206.733856 72.0
206.758774 124.0
206.776627 152.0
206.825439 140.0
206.86377 144.0
206.88945 100.0
206.924973 260.0
206.962845 244.0
206.982895 96.0
207.014389 136.0
207.036377 172.0
207.11261 5992.0
207.181168 176.0
207.206299 124.0
207.251556 196.0
207.277283 116.0
207.336166 148.0
207.369629 64.0
207.46225 212.0
207.486679 48.0
207.508575 128.0
207.534058 104.0
207.568542 124.0
207.62793 128.0
207.656342 152.0
207.70549 124.0
207.726883 128.0
207.755295 128.0
207.777252 120.0
207.802628 68.0
207.845673 160.0
207.88298 100.0
207.903061 132.0
207.952805 96.0
207.986298 132.0
208.025757 176.0
208.052444 180.0
208.11348 6588.0
208.19075 292.0
208.218857 124.0
208.27887 272.0
208.31691 176.0
208.328674 136.0
208.34053 212.0
208.368225 52.0
208.388336 124.0
208.433304 52.0
208.468887 116.0
208.501404 80.0
208.532013 140.0
208.572769 180.0
208.694183 200.0
208.733521 128.0
208.769867 152.0
208.890121 160.0
208.964996 168.0
208.993347 48.0
209.016907 260.0
209.097 4692.0
209.121445 7956.0
209.172531 192.0
209.213181 256.0
209.252869 176.0
209.312042 188.0
209.333374 192.0
209.374069 140.0
209.420197 176.0
209.45163 136.0
209.516113 88.0
209.540039 128.0
209.56221 52.0
209.599655 132.0
209.630539 56.0
209.662949 108.0
209.6707 104.0
209.67865 176.0
209.714935 44.0
209.752411 44.0
209.781235 68.0
209.842712 244.0
209.865463 164.0
209.896561 76.0
209.976349 220.0
210.020554 140.0
210.046524 124.0
210.126907 7688.0
210.186371 120.0
210.21814 116.0
210.26088 68.0
210.283112 64.0
210.305374 56.0
210.377228 252.0
210.407852 152.0
210.459778 164.0
210.49675 76.0
210.518204 204.0
210.553146 128.0
210.629593 56.0
210.685165 152.0
210.707596 132.0
210.749969 132.0
210.770279 120.0
210.793961 148.0
210.828949 112.0
210.859589 160.0
210.917587 332.0
210.938782 120.0
210.966568 104.0
210.974564 168.0
211.015457 128.0
211.076965 712.0
211.111542 10256.0
211.208984 132.0
211.2453 48.0
211.278976 108.0
211.283295 116.0
211.305237 144.0
211.315445 172.0
211.363907 48.0
211.389954 132.0
211.421783 176.0
211.478561 136.0
211.509583 192.0
211.544601 252.0
211.589752 152.0
211.624222 60.0
211.677887 136.0
211.711273 224.0
211.731552 72.0
211.766525 160.0
211.806931 144.0
211.853195 108.0
211.873474 76.0
211.906891 60.0
211.931427 52.0
211.952301 200.0
211.989548 284.0
212.01091 140.0
212.022232 212.0
212.118179 3904.0
212.141663 5940.0
212.20401 252.0
212.241562 132.0
212.276352 68.0
212.30246 144.0
212.329391 140.0
212.354111 128.0
212.422318 136.0
212.466736 44.0
212.546127 56.0
212.569336 100.0
212.598358 92.0
212.664536 252.0
212.689301 132.0
212.718185 168.0
212.763794 60.0
212.810883 92.0
212.871231 64.0
212.894089 212.0
212.940918 100.0
212.980362 320.0
213.01268 192.0
213.049576 128.0
213.09169 1048.0
213.127258 4608.0
213.148499 4736.0
213.199707 52.0
213.254242 176.0
213.283768 80.0
213.347717 144.0
213.367661 112.0
213.424179 132.0
213.446579 80.0
213.474228 180.0
213.542542 60.0
213.574799 44.0
213.608856 100.0
213.631546 264.0
213.731293 172.0
213.810196 76.0
213.846725 116.0
213.929535 160.0
214.013962 64.0
214.064896 120.0
214.125031 1976.0
214.158554 4928.0
214.226562 44.0
214.251282 64.0
214.276093 44.0
214.307465 140.0
214.372238 116.0
214.423584 136.0
214.450592 148.0
214.485901 80.0
214.523544 136.0
214.534149 124.0
214.5979 124.0
214.646255 96.0
214.672958 176.0
214.71199 332.0
214.768417 180.0
214.799362 96.0
214.853333 184.0
214.911682 140.0
214.990463 116.0
215.010895 56.0
215.108185 2836.0
215.159363 984.0
215.302826 88.0
215.323273 84.0
215.369415 60.0
215.386398 124.0
215.407974 196.0
215.431351 84.0
215.478088 96.0
215.513153 28.0
215.545288 84.0
215.600662 80.0
215.653702 124.0
215.685577 132.0
215.723572 196.0
215.746964 192.0
215.790909 252.0
215.828827 108.0
215.881454 124.0
215.945221 212.0
215.966263 124.0
216.004288 84.0
216.092072 760.0
216.118118 296.0
216.141373 196.0
216.172729 1576.0
216.227539 156.0
216.253006 72.0
216.311539 228.0
216.393509 180.0
216.418716 244.0
216.487213 160.0
216.521423 176.0
216.572937 192.0
216.647705 100.0
216.744736 144.0
216.783646 264.0
216.809235 112.0
216.834564 112.0
216.839691 164.0
216.885651 188.0
216.935486 104.0
216.970657 172.0
217.001144 232.0
217.033325 236.0
217.100784 2064.0
217.15947 124.0
217.169083 108.0
217.177155 140.0
217.23172 172.0
217.312958 140.0
217.354095 208.0
217.391129 176.0
217.413574 160.0
217.441605 100.0
217.4664 48.0
217.502594 96.0
217.537643 116.0
217.567474 192.0
217.609695 176.0
217.657211 188.0
217.75267 180.0
217.786423 48.0
217.819305 144.0
217.86467 144.0
217.901932 168.0
217.939194 96.0
217.965637 36.0
218.015579 56.0
218.044968 136.0
218.108093 2164.0
218.176208 316.0
218.209579 176.0
218.269562 80.0
218.293945 116.0
218.331528 68.0
218.338715 100.0
218.383087 164.0
218.413544 356.0
218.450729 164.0
218.49025 296.0
218.521332 176.0
218.585724 168.0
218.609604 92.0
218.666885 108.0
218.692017 220.0
218.73616 124.0
218.762665 188.0
218.817368 168.0
218.918701 88.0
218.99527 132.0
219.048782 208.0
219.115356 3824.0
219.150955 284.0
219.201492 172.0
219.228775 140.0
219.257492 120.0
219.281067 116.0
219.319382 68.0
219.376938 160.0
219.428452 132.0
219.484467 48.0
219.585815 76.0
219.61557 128.0
219.653107 172.0
219.73262 176.0
219.767624 108.0
219.831375 132.0
219.878387 148.0
219.910675 76.0
219.934677 92.0
220.026398 188.0
220.05687 164.0
220.118378 2716.0
220.166779 160.0
220.221924 172.0
220.257675 152.0
220.347382 160.0
220.392639 228.0
220.473831 76.0
220.495773 116.0
220.550201 72.0
220.609314 108.0
220.647614 256.0
220.703934 124.0
220.750977 176.0
220.788818 108.0
220.869537 156.0
220.91391 120.0
220.946442 68.0
220.981949 148.0
221.041122 60.0
221.121063 4976.0
221.211441 124.0
221.264542 264.0
221.349319 204.0
221.381546 160.0
221.423004 180.0
221.467438 32.0
221.488174 120.0
221.529633 80.0
221.556305 168.0
221.58815 144.0
221.648239 164.0
221.716309 96.0
221.763718 168.0
221.79805 124.0
221.852646 200.0
221.899918 204.0
222.015076 148.0
222.045319 284.0
222.127853 14652.0
222.219711 52.0
222.256943 164.0
222.28389 120.0
222.331253 140.0
222.365799 44.0
222.427612 64.0
222.472153 120.0
222.478668 136.0
222.490082 124.0
222.537369 136.0
222.591644 136.0
222.623444 112.0
222.656738 48.0
222.688278 124.0
222.712799 144.0
222.741882 48.0
222.753708 68.0
222.796341 84.0
222.832901 144.0
222.853989 200.0
222.909241 36.0
222.968689 132.0
223.004623 188.0
223.045959 124.0
223.134613 10976.0
223.193909 152.0
223.219025 180.0
223.268417 168.0
223.294052 152.0
223.325455 276.0
223.381714 228.0
223.408035 216.0
223.4552 280.0
223.507996 212.0
223.545609 116.0
223.596695 176.0
223.625961 160.0
223.682709 156.0
223.726334 200.0
223.750977 136.0
223.828384 104.0
223.869217 96.0
223.974976 108.0
224.030731 196.0
224.071121 536.0
224.116745 2744.0
224.142471 13588.0
224.234772 144.0
224.293137 60.0
224.319962 96.0
224.349777 132.0
224.370651 180.0
224.394073 140.0
224.431229 200.0
224.454132 144.0
224.551849 156.0
224.592545 108.0
224.663528 128.0
224.722565 192.0
224.748169 240.0
224.794174 140.0
224.817108 112.0
224.841202 112.0
224.86879 92.0
224.926407 184.0
224.945084 128.0
224.967285 88.0
225.006104 92.0
225.037277 136.0
225.127258 8076.0
225.222366 76.0
225.230438 32.0
225.240814 80.0
225.28981 112.0
225.325211 304.0
225.364502 52.0
225.441055 120.0
225.490005 96.0
225.512085 124.0
225.570358 136.0
225.635345 64.0
225.643524 100.0
225.67244 132.0
225.700043 212.0
225.778122 188.0
225.838684 96.0
225.889267 112.0
225.926239 160.0
225.968445 208.0
226.010086 208.0
226.049393 132.0
226.126968 4160.0
226.158401 4340.0
226.209549 120.0
226.279694 44.0
226.33429 204.0
226.419113 136.0
226.440002 128.0
226.484436 184.0
226.538376 124.0
226.560715 96.0
226.587173 84.0
226.641632 104.0
226.674255 148.0
226.696045 64.0
226.729691 140.0
226.762146 68.0
226.818832 136.0
226.865082 272.0
226.890167 256.0
226.926834 212.0
226.97641 196.0
227.013794 160.0
227.035675 60.0
227.141785 7844.0
227.213257 48.0
227.247406 136.0
227.290649 128.0
227.311417 236.0
227.367783 52.0
227.429214 264.0
227.469833 36.0
227.511795 128.0
227.552689 196.0
227.595932 72.0
227.627701 124.0
227.694046 136.0
227.731064 144.0
227.75058 64.0
227.792557 144.0
227.839203 104.0
227.860229 132.0
227.913361 168.0
227.956375 80.0
228.007462 108.0
228.06636 196.0
228.090836 508.0
228.141373 3184.0
228.235931 140.0
228.285858 228.0
228.320129 92.0
228.358902 112.0
228.392303 68.0
228.422592 60.0
228.491577 104.0
228.527222 136.0
228.570877 168.0
228.596878 60.0
228.636002 92.0
228.70784 132.0
228.716782 124.0
228.758087 220.0
228.852737 108.0
228.876816 128.0
228.944672 188.0
229.008728 120.0
229.021225 84.0
229.032898 116.0
229.105682 1852.0
229.195007 44.0
229.241302 44.0
229.309036 128.0
229.343765 316.0
229.401047 124.0
229.446747 100.0
229.493591 112.0
229.600037 164.0
229.65863 80.0
229.702591 56.0
229.738785 176.0
229.872131 188.0
229.934906 112.0
229.960983 100.0
230.022446 108.0
230.107605 904.0
230.186005 308.0
230.211029 104.0
230.283112 132.0
230.315338 100.0
230.390854 140.0
230.432816 148.0
230.475449 176.0
230.620499 164.0
230.656082 88.0
230.726303 60.0
230.766815 208.0
230.799606 124.0
230.835144 64.0
230.884232 120.0
230.90773 60.0
230.940994 84.0
230.986359 44.0
231.031738 100.0
231.053925 132.0
231.080872 388.0
231.115204 1712.0
231.182343 176.0
231.213287 136.0
231.249603 64.0
231.319977 80.0
231.352524 72.0
231.464035 120.0
231.564484 152.0
231.59465 100.0
231.643234 160.0
231.685638 52.0
231.841782 172.0
231.943207 164.0
232.119644 1924.0
232.168365 152.0
232.213058 272.0
232.272552 180.0
232.294479 164.0
232.439133 168.0
232.498245 156.0
232.546799 136.0
232.622559 96.0
232.683395 108.0
232.718948 180.0
232.765381 68.0
232.829147 116.0
232.885284 148.0
232.938492 76.0
232.981873 212.0
233.008362 48.0
233.095322 1324.0
233.127594 2576.0
233.176056 172.0
233.22908 44.0
233.263138 136.0
233.345703 52.0
233.384293 108.0
233.540329 96.0
233.582901 116.0
233.608704 108.0
233.635437 120.0
233.680252 112.0
233.707642 32.0
233.777618 140.0
233.821381 116.0
233.899368 56.0
233.921967 216.0
233.96077 140.0
234.008514 84.0
234.028931 164.0
234.129303 4596.0
234.177078 160.0
234.239319 168.0
234.303909 156.0
234.343704 44.0
234.383591 112.0
234.420151 40.0
234.459122 132.0
234.493301 76.0
234.523773 136.0
234.593887 52.0
234.626068 80.0
234.664413 204.0
234.708313 216.0
234.774139 136.0
234.860748 356.0
234.898819 132.0
234.956497 168.0
234.999496 192.0
235.031387 168.0
235.115433 3600.0
235.137192 5964.0
235.210068 32.0
235.244675 212.0
235.293411 144.0
235.329117 44.0
235.396301 80.0
235.41806 140.0
235.439056 140.0
235.493011 144.0
235.541306 224.0
235.662033 52.0
235.718796 208.0
235.757889 108.0
235.819473 176.0
235.84845 140.0
235.881058 72.0
235.94693 92.0
235.996841 320.0
236.025757 156.0
236.049057 136.0
236.076233 252.0
236.143021 28028.0
236.201141 104.0
236.225327 188.0
236.261703 240.0
236.317993 176.0
236.36998 172.0
236.408127 72.0
236.437286 76.0
236.460144 88.0
236.518127 124.0
236.555038 32.0
236.582581 104.0
236.616837 192.0
236.652283 240.0
236.683624 172.0
236.723419 32.0
236.762756 152.0
236.783142 96.0
236.832504 124.0
236.870438 140.0
236.904343 180.0
236.950897 188.0
236.9991 120.0
237.022003 152.0
237.050964 156.0
237.079468 332.0
237.148361 9488.0
237.246033 136.0
237.302536 36.0
237.342392 104.0
237.373062 88.0
237.394516 88.0
237.424774 88.0
237.449722 228.0
237.471191 52.0
237.498795 80.0
237.523331 128.0
237.5746 176.0
237.600021 176.0
237.622757 156.0
237.672531 108.0
237.71048 148.0
237.736145 88.0
237.768082 80.0
237.815964 108.0
237.883224 84.0
237.908783 136.0
237.949081 196.0
237.990509 176.0
238.075073 156.0
238.126968 2736.0
238.157333 10784.0
238.227814 192.0
238.259644 224.0
238.353271 64.0
238.522064 84.0
238.568634 108.0
238.601822 236.0
238.645569 236.0
238.709702 192.0
238.734573 96.0
238.779541 100.0
238.805313 232.0
238.850281 44.0
238.871826 120.0
238.917969 36.0
238.966522 216.0
238.985046 124.0
238.989883 128.0
239.023361 328.0
239.050812 180.0
239.13765 2172.0
239.162354 4012.0
239.22493 60.0
239.290543 64.0
239.345764 48.0
239.386978 148.0
239.422424 188.0
239.511551 216.0
239.554306 124.0
239.626053 52.0
239.673141 156.0
239.725494 116.0
239.771759 140.0
239.797623 76.0
239.855072 200.0
239.88504 64.0
239.911713 100.0
239.956161 36.0
239.991028 96.0
240.040527 116.0
240.138474 5164.0
240.172424 4932.0
240.221039 208.0
240.246002 44.0
240.269058 248.0
240.293427 120.0
240.338699 68.0
240.370255 164.0
240.460678 108.0
240.489487 44.0
240.539688 60.0
240.597519 44.0
240.631485 140.0
240.654495 68.0
240.705734 80.0
240.770523 132.0
240.801315 168.0
240.830414 76.0
240.865875 240.0
240.949585 84.0
241.007874 120.0
241.147141 4036.0
241.259995 100.0
241.2939 224.0
241.365219 184.0
241.434875 108.0
241.502487 204.0
241.546219 68.0
241.570953 156.0
241.596268 44.0
241.663651 100.0
241.731842 116.0
241.761307 92.0
241.801926 148.0
241.840164 156.0
241.880737 144.0
241.994934 96.0
242.016617 144.0
242.039032 124.0
242.070068 168.0
242.152435 4968.0
242.230972 156.0
242.261276 68.0
242.317047 44.0
242.348251 56.0
242.409988 200.0
242.4487 228.0
242.493668 48.0
242.52005 156.0
242.584366 108.0
242.61145 148.0
242.638397 108.0
242.665771 108.0
242.710663 96.0
242.774582 184.0
242.806793 128.0
242.834717 124.0
242.896744 56.0
242.968094 140.0
243.005325 52.0
243.033249 36.0
243.135849 3212.0
243.205017 148.0
243.24118 32.0
243.290848 48.0
243.312576 32.0
243.365356 68.0
243.398468 108.0
243.461609 140.0
243.505096 28.0
243.52684 48.0
243.554245 68.0
243.562103 56.0
243.571442 88.0
243.616913 76.0
243.707016 132.0
243.772324 220.0
243.849152 108.0
243.859283 168.0
243.921448 292.0
244.004456 148.0
244.032394 180.0
244.069305 160.0
244.122513 2228.0
244.159836 368.0
244.263489 164.0
244.285263 116.0
244.355484 124.0
244.384811 224.0
244.442719 164.0
244.485809 48.0
244.580872 44.0
244.635391 132.0
244.692932 32.0
244.742752 64.0
244.777008 88.0
244.798798 104.0
244.847855 96.0
244.889114 64.0
244.945175 56.0
244.968842 136.0
245.003677 168.0
245.042877 132.0
245.129272 2308.0
245.261734 128.0
245.335159 108.0
245.392822 152.0
245.472061 188.0
245.537369 88.0
245.609665 296.0
245.649658 280.0
245.721405 200.0
245.786926 56.0
245.845764 108.0
245.851639 76.0
245.896149 108.0
245.975327 164.0
245.999161 52.0
246.128632 2392.0
246.267136 224.0
246.339523 120.0
246.39325 144.0
246.420761 120.0
246.454193 228.0
246.50824 28.0
246.630859 136.0
246.708267 60.0
246.761414 144.0
246.78331 180.0
246.875336 212.0
247.027237 144.0
247.1362 4548.0
247.191757 96.0
247.227844 68.0
247.26503 36.0
247.33876 72.0
247.47998 144.0
247.515884 96.0
247.556183 220.0
247.596893 164.0
247.688416 72.0
247.725311 80.0
247.816162 192.0
247.866287 152.0
247.905548 152.0
247.935135 124.0
247.984619 168.0
248.026642 168.0
248.143753 7392.0
248.178955 168.0
248.236176 120.0
248.305161 48.0
248.35849 176.0
248.402405 136.0
248.447815 172.0
248.582169 84.0
248.625168 68.0
248.66597 72.0
248.735764 140.0
248.809067 136.0
248.835953 156.0
248.885712 104.0
248.926529 208.0
248.984375 124.0
249.066284 184.0
249.073151 216.0
249.151306 8748.0
249.240433 284.0
249.265366 204.0
249.313339 88.0
249.335556 196.0
249.397766 84.0
249.425674 164.0
249.471893 76.0
249.536087 148.0
249.561234 88.0
249.636703 48.0
249.671738 312.0
249.721619 64.0
249.759354 68.0
249.781372 56.0
249.812729 192.0
249.915085 176.0
249.95755 120.0
250.023636 108.0
250.157486 7924.0
250.227081 76.0
250.260986 160.0
250.331985 156.0
250.369934 60.0
250.459595 180.0
250.506516 88.0
250.536865 36.0
250.568375 56.0
250.590424 144.0
250.633087 148.0
250.675995 204.0
250.730423 64.0
250.757446 232.0
250.867767 108.0
250.894394 160.0
250.918198 68.0
250.961456 128.0
250.991623 140.0
251.071442 120.0
251.142929 5996.0
251.202896 172.0
251.210175 164.0
251.246414 112.0
251.274338 52.0
251.351089 48.0
251.394714 164.0
251.419724 128.0
251.45015 156.0
251.517563 100.0
251.557266 132.0
251.597015 72.0
251.628052 88.0
251.701859 192.0
251.741058 96.0
251.80014 112.0
251.822968 44.0
251.83316 88.0
251.845306 40.0
251.85437 120.0
251.887009 28.0
251.963257 172.0
252.032196 100.0
252.058487 144.0
252.141785 4440.0
252.169449 3056.0
252.263397 140.0
252.318985 80.0
252.389496 72.0
252.452744 76.0
252.474869 180.0
252.601395 176.0
252.655914 152.0
252.750076 112.0
252.792603 64.0
252.838684 76.0
252.890594 120.0
252.96312 92.0
252.993256 72.0
253.023499 112.0
253.14679 2024.0
253.231262 116.0
253.262253 144.0
253.412308 160.0
253.503708 56.0
253.557587 112.0
253.637192 176.0
253.687546 116.0
253.722412 116.0
253.758423 168.0
253.79599 116.0
253.823868 356.0
253.895493 192.0
253.979263 136.0
254.010986 60.0
254.033188 148.0
254.061737 68.0
254.152527 2480.0
254.188675 836.0
254.382248 40.0
254.426605 152.0
254.466248 96.0
254.515381 60.0
254.558197 104.0
254.582275 156.0
254.741089 80.0
254.82518 188.0
254.92218 52.0
254.944427 72.0
254.973816 260.0
255.058121 124.0
255.124481 628.0
255.151932 828.0
255.186661 540.0
255.238068 96.0
255.276062 124.0
255.300339 184.0
255.335449 144.0
255.388153 168.0
255.434052 64.0
255.491318 188.0
255.529495 40.0
255.576981 56.0
255.602661 76.0
255.626694 128.0
255.669495 44.0
255.733627 80.0
256.045166 112.0
256.117859 736.0
256.166931 2204.0
256.335052 92.0
256.405396 56.0
256.505066 104.0
256.535309 72.0
256.54837 60.0
256.553467 128.0
256.647522 136.0
256.720764 36.0
256.838776 80.0
256.899384 136.0
256.979126 128.0
257.020599 40.0
257.065277 160.0
257.093719 404.0
257.132721 976.0
257.228058 88.0
257.333405 56.0
257.37674 168.0
257.408966 128.0
257.462067 160.0
257.515411 200.0
257.620819 152.0
257.673126 128.0
257.69751 84.0
257.790161 32.0
257.841278 60.0
257.879639 152.0
258.128998 3040.0
258.215332 152.0
258.292114 116.0
258.381683 188.0
258.452057 112.0
258.525452 128.0
258.550964 88.0
258.589661 116.0
258.644073 136.0
258.711304 72.0
258.772125 96.0
258.84079 108.0
258.859955 84.0
258.905792 156.0
258.954651 144.0
258.996277 120.0
259.136169 2472.0
259.180298 220.0
259.220551 36.0
259.268616 104.0
259.302826 220.0
259.332703 44.0
259.371185 48.0
259.544281 148.0
259.569946 92.0
259.783539 96.0
259.807281 40.0
259.829742 100.0
259.858612 120.0
260.017456 144.0
260.047943 68.0
260.078613 96.0
260.143646 6156.0
260.188171 64.0
260.207275 120.0
260.234131 88.0
260.308502 156.0
260.346405 148.0
260.39325 132.0
260.436432 152.0
260.487823 76.0
260.548859 48.0
260.656921 164.0
260.69989 84.0
260.725586 100.0
260.79953 52.0
260.840912 68.0
260.873444 140.0
260.908813 128.0
260.953827 112.0
260.982758 188.0
261.018646 168.0
261.063141 172.0
261.148315 5784.0
261.21109 48.0
261.255768 188.0
261.314026 36.0
261.378387 76.0
261.404114 24.0
261.476776 152.0
261.503876 136.0
261.568268 56.0
261.593353 248.0
261.659637 84.0
261.702057 144.0
261.861267 132.0
261.938141 180.0
261.993408 136.0
262.043793 60.0
262.157074 7892.0
262.225342 104.0
262.273102 80.0
262.34137 52.0
262.363922 40.0
262.396179 124.0
262.462494 148.0
262.54126 124.0
262.570282 112.0
262.634796 120.0
262.667847 116.0
262.751984 148.0
262.792877 108.0
262.834717 136.0
262.860626 120.0
262.905792 112.0
262.950989 36.0
262.975403 156.0
263.039368 156.0
263.052979 60.0
263.073944 176.0
263.16507 4784.0
263.241547 36.0
263.271667 60.0
263.383636 148.0
263.453247 140.0
263.48053 108.0
263.515076 156.0
263.564545 112.0
263.614929 136.0
263.664734 164.0
263.732605 72.0
263.776794 124.0
263.826904 68.0
263.894226 48.0
263.91687 64.0
263.957855 164.0
264.028931 116.0
264.04245 76.0
264.05957 208.0
264.107208 392.0
264.140869 1512.0
264.17392 7996.0
264.233826 296.0
264.278503 132.0
264.337372 192.0
264.363251 148.0
264.388855 104.0
264.444153 80.0
264.508881 136.0
264.542694 144.0
264.593231 72.0
264.624084 84.0
264.656738 48.0
264.73877 220.0
264.830811 132.0
264.855347 100.0
264.878021 100.0
264.920258 96.0
264.996765 80.0
265.036774 116.0
265.090454 116.0
265.150879 4084.0
265.224731 296.0
265.261292 140.0
265.312592 40.0
265.375427 124.0
265.467896 100.0
265.519775 52.0
265.54895 72.0
265.606018 108.0
265.665741 160.0
265.687164 92.0
265.709808 52.0
265.772797 100.0
265.798767 112.0
265.84668 120.0
265.896179 124.0
265.954529 52.0
265.983734 156.0
266.01355 76.0
266.03891 188.0
266.066925 148.0
266.108185 184.0
266.154144 7200.0
266.18631 2940.0
266.23819 152.0
266.285706 84.0
266.310883 148.0
266.344147 156.0
266.387634 116.0
266.427002 140.0
266.459259 84.0
266.617065 120.0
266.646332 44.0
266.693176 180.0
266.745117 152.0
266.800964 272.0
266.85437 56.0
266.890137 128.0
266.935699 160.0
266.994171 64.0
267.020203 92.0
267.065735 112.0
267.162872 6040.0
267.387329 128.0
267.423645 140.0
267.460785 116.0
267.495239 116.0
267.571289 156.0
267.602661 304.0
267.654755 52.0
267.710114 56.0
267.758972 112.0
267.850037 192.0
267.918579 44.0
268.081482 232.0
268.166412 3712.0
268.231354 184.0
268.25824 224.0
268.30365 148.0
268.343231 164.0
268.373657 132.0
268.436798 80.0
268.50528 124.0
268.528107 128.0
268.61261 128.0
268.679474 84.0
268.704254 120.0
268.763 128.0
268.838043 124.0
268.870667 200.0
268.900055 56.0
268.942474 64.0
269.001251 132.0
269.027344 120.0
269.063263 176.0
269.100311 368.0
269.153412 18064.0
269.223267 40.0
269.261871 68.0
269.306366 36.0
269.347351 152.0
269.389832 156.0
269.476074 140.0
269.530487 124.0
269.617767 216.0
269.641418 32.0
269.678558 100.0
269.729675 64.0
269.754181 48.0
269.811554 160.0
269.906219 72.0
269.932373 40.0
269.965424 100.0
270.005585 288.0
270.056641 88.0
270.097992 292.0
270.15564 4220.0
270.346527 112.0
270.38382 164.0
270.428223 148.0
270.498352 40.0
270.531097 80.0
270.578339 148.0
270.604462 200.0
270.652222 68.0
270.708923 192.0
270.871643 48.0
270.914246 64.0
270.99942 44.0
271.042023 28.0
271.137512 956.0
271.25177 100.0
271.291229 96.0
271.465515 152.0
271.564423 184.0
271.6026 40.0
271.68042 200.0
271.717438 96.0
271.763367 84.0
271.796173 120.0
271.884064 132.0
271.926056 160.0
271.97995 48.0
272.020569 204.0
272.14328 3788.0
272.187775 196.0
272.240204 104.0
272.286072 116.0
272.387115 104.0
272.410095 44.0
272.465942 192.0
272.575531 80.0
272.617096 232.0
272.665009 104.0
272.692688 140.0
272.715698 172.0
272.794586 160.0
272.889923 72.0
272.929382 64.0
273.151428 6808.0
273.235229 160.0
273.305511 136.0
273.326385 160.0
273.366852 120.0
273.509827 60.0
273.557739 172.0
273.585022 224.0
273.6203 220.0
273.728394 116.0
273.784149 152.0
273.817871 136.0
273.854095 104.0
273.883728 68.0
273.919983 64.0
273.943024 56.0
273.991608 140.0
274.045166 36.0
274.158081 15764.0
274.219818 32.0
274.252472 96.0
274.367035 132.0
274.417603 132.0
274.467041 72.0
274.498779 100.0
274.531769 96.0
274.590698 160.0
274.663116 80.0
274.697906 84.0
274.833252 140.0
274.876068 72.0
274.902466 56.0
274.978363 76.0
275.047668 52.0
275.099823 172.0
275.163727 4972.0
275.239166 76.0
275.272186 112.0
275.325012 144.0
275.401459 84.0
275.443909 72.0
275.571838 72.0
275.705109 208.0
275.731354 124.0
275.759033 76.0
275.800781 124.0
275.852234 112.0
275.897522 196.0
275.923096 104.0
275.972687 172.0
275.996552 220.0
276.170563 4324.0
276.216003 160.0
276.250488 52.0
276.290161 48.0
276.31665 44.0
276.34671 92.0
276.440186 176.0
276.463623 104.0
276.497284 128.0
276.554413 108.0
276.594604 68.0
276.713776 72.0
276.773376 236.0
276.841522 104.0
276.899231 56.0
276.957153 152.0
277.013611 164.0
277.051605 116.0
277.078094 168.0
277.150818 1348.0
277.177917 1884.0
277.225433 132.0
277.258392 148.0
277.286316 100.0
277.322205 48.0
277.439331 164.0
277.544861 180.0
277.615051 184.0
277.701263 124.0
277.727814 60.0
277.763977 164.0
277.830627 64.0
277.929413 160.0
277.969452 124.0
278.008575 108.0
278.097046 152.0
278.154358 2076.0
278.187805 4308.0
278.295715 204.0
278.344025 100.0
278.421448 108.0
278.448029 84.0
278.53656 104.0
278.579987 44.0
278.695099 160.0
278.731415 92.0
278.793518 72.0
278.816803 108.0
279.045502 40.0
279.160522 2548.0
279.192383 592.0
279.298889 40.0
279.363312 120.0
279.471863 104.0
279.498505 68.0
279.549896 116.0
279.606201 164.0
279.668213 220.0
279.71814 168.0
279.741455 64.0
279.769867 80.0
279.832092 52.0
279.887939 140.0
279.924561 172.0
279.951202 160.0
279.99115 72.0
280.025299 184.0
280.169281 15844.0
280.271667 76.0
280.292725 136.0
280.33429 80.0
280.432892 96.0
280.455811 120.0
280.485199 200.0
280.524078 68.0
280.566833 140.0
280.641296 120.0
280.667725 124.0
280.714996 192.0
280.803741 156.0
280.860626 92.0
280.894165 116.0
280.947784 56.0
280.982422 84.0
281.007843 100.0
281.035004 244.0
281.079193 164.0
281.17453 7612.0
281.258911 136.0
281.322876 132.0
281.368134 100.0
281.377045 64.0
281.427032 120.0
281.55368 128.0
281.63208 32.0
281.71225 88.0
281.771088 84.0
281.855896 180.0
281.882629 40.0
281.926086 52.0
281.992706 136.0
282.04306 60.0
282.075012 200.0
282.129883 300.0
282.183105 6472.0
282.227417 220.0
282.253662 72.0
282.311859 80.0
282.346069 112.0
282.379944 100.0
282.412323 60.0
282.444305 32.0
282.467712 32.0
282.54187 48.0
282.584656 96.0
282.664093 92.0
282.809296 188.0
282.82135 64.0
282.862549 100.0
282.932861 36.0
282.973022 140.0
283.019897 88.0
283.071533 96.0
283.180664 1376.0
283.243958 120.0
283.277771 308.0
283.370667 176.0
283.475067 104.0
283.529083 64.0
283.554626 68.0
283.58606 92.0
283.632965 56.0
283.767059 156.0
283.839264 164.0
283.941437 44.0
284.025269 88.0
284.048767 84.0
284.078949 76.0
284.144287 1308.0
284.19519 824.0
284.249573 136.0
284.290314 92.0
284.328827 76.0
284.441345 124.0
284.471558 152.0
284.503784 84.0
284.527985 180.0
284.605865 44.0
284.649506 44.0
284.71051 120.0
284.780487 100.0
284.817413 84.0
284.847656 120.0
284.918213 108.0
284.975311 132.0
285.018982 100.0
285.079468 32.0
285.148529 1608.0
285.213623 48.0
285.238831 164.0
285.366302 72.0
285.472778 212.0
285.526581 68.0
285.573914 164.0
285.617401 128.0
285.644318 32.0
285.733337 172.0
285.788971 84.0
285.89328 96.0
285.947144 44.0
285.970703 180.0
286.083893 196.0
286.158447 5276.0
286.240021 136.0
286.31073 76.0
286.356445 76.0
286.410156 152.0
286.420532 80.0
286.429718 120.0
286.543152 104.0
286.591827 124.0
286.652893 48.0
286.701508 36.0
286.799255 116.0
286.826202 124.0
286.943054 116.0
286.991058 120.0
287.052094 60.0
287.079071 92.0
287.164978 3444.0
287.230469 148.0
287.274567 148.0
287.348022 92.0
287.389404 180.0
287.450134 80.0
287.473755 108.0
287.495941 76.0
287.551392 80.0
287.60199 248.0
287.632385 112.0
287.689758 64.0
287.80899 180.0
287.878845 88.0
287.931091 136.0
287.950226 208.0
287.99704 88.0
288.044342 124.0
288.174133 33600.0
288.258545 184.0
288.431488 160.0
288.459106 216.0
288.488007 80.0
288.517426 208.0
288.551239 168.0
288.630463 140.0
288.672974 80.0
288.711853 156.0
288.75412 124.0
288.801483 60.0
288.835419 124.0
288.872498 52.0
288.916473 196.0
288.949921 68.0
288.987518 92.0
289.026581 148.0
289.050476 132.0
289.059784 112.0
289.073059 124.0
289.177948 7328.0
289.233551 80.0
289.329346 76.0
289.389343 132.0
289.413147 48.0
289.596863 172.0
289.647186 164.0
289.759064 116.0
289.813873 140.0
289.891602 92.0
289.949738 76.0
290.033936 108.0
290.151764 1588.0
290.187775 3200.0
290.274658 28.0
290.396729 108.0
290.428802 256.0
290.50528 44.0
290.562958 96.0
290.590088 64.0
290.62973 68.0
290.661346 48.0
290.687317 120.0
290.761261 100.0
290.839081 88.0
290.905701 160.0
290.940491 112.0
290.993958 48.0
291.021118 92.0
291.06189 132.0
291.093323 120.0
291.170105 4388.0
291.254028 48.0
291.324554 152.0
291.371765 204.0
291.429504 84.0
291.462677 88.0
291.504639 104.0
291.58197 116.0
291.605621 128.0
291.674133 260.0
291.712616 212.0
291.767242 112.0
291.860382 112.0
291.92157 68.0
291.96579 64.0
292.047424 144.0
292.090454 172.0
292.120087 136.0
292.168884 2268.0
292.254913 136.0
292.312775 92.0
292.3638 44.0
292.391846 176.0
292.420044 56.0
292.468719 92.0
292.499939 92.0
292.574829 92.0
292.625916 68.0
292.72464 72.0
292.762115 52.0
292.82959 132.0
292.901764 76.0
292.980103 108.0
293.003937 48.0
293.08255 120.0
293.111237 128.0
293.17688 1740.0
293.29361 108.0
293.336975 132.0
293.389038 32.0
293.448425 96.0
293.557251 120.0
293.723236 188.0
293.769165 136.0
293.849457 140.0
293.883575 52.0
293.958618 76.0
293.992767 92.0
294.040527 112.0
294.081482 132.0
294.184479 2240.0
294.276062 32.0
294.306793 60.0
294.34436 132.0
294.379486 96.0
294.4263 144.0
294.491211 108.0
294.563507 76.0
294.606628 96.0
294.64151 208.0
294.867279 104.0
294.897797 40.0
294.952484 36.0
294.990082 120.0
295.148468 556.0
295.191254 500.0
295.245056 156.0
295.352539 116.0
295.397003 148.0
295.435333 96.0
295.468842 48.0
295.492798 84.0
295.588593 152.0
295.689362 60.0
295.882935 108.0
295.940704 96.0
296.060974 184.0
296.142151 412.0
296.198059 2480.0
296.365845 92.0
296.419128 80.0
296.561615 156.0
296.705139 108.0
296.765686 184.0
296.907104 40.0
296.94519 128.0
297.151062 492.0
297.198395 612.0
297.463287 116.0
297.518219 128.0
297.576569 44.0
297.634949 68.0
297.71048 348.0
297.787323 96.0
297.854736 56.0
298.016205 100.0
298.118622 428.0
298.156799 1992.0
298.282562 108.0
298.411438 64.0
298.548828 80.0
298.597137 68.0
298.748474 160.0
298.824158 72.0
298.886108 116.0
298.999664 76.0
299.03064 88.0
299.054718 80.0
299.078827 104.0
299.166809 4380.0
299.244049 136.0
299.295715 52.0
299.435242 84.0
299.491089 148.0
299.538116 124.0
299.602234 52.0
299.691803 152.0
299.784027 180.0
299.860657 84.0
299.979004 84.0
300.012329 176.0
300.084564 92.0
300.171906 3428.0
300.241699 204.0
300.301971 44.0
300.395081 32.0
300.450287 104.0
300.491699 52.0
300.516602 200.0
300.661346 72.0
300.709076 104.0
300.847137 104.0
300.93692 84.0
300.981812 80.0
301.037872 160.0
301.092316 164.0
301.17746 2544.0
301.233917 88.0
301.459015 52.0
301.487366 144.0
301.569061 108.0
301.649139 96.0
301.721161 56.0
301.80069 180.0
301.911346 40.0
302.028931 124.0
302.152405 756.0
302.188721 2728.0
302.291138 244.0
302.416443 136.0
302.457977 72.0
302.482208 72.0
302.544525 124.0
302.57489 156.0
302.603394 192.0
302.689941 128.0
302.7211 128.0
302.753571 140.0
302.835388 128.0
302.935852 64.0
302.994751 36.0
303.022461 132.0
303.05249 84.0
303.08136 172.0
303.162537 676.0
303.194672 1304.0
303.247681 64.0
303.299286 68.0
303.348206 148.0
303.400208 64.0
303.487579 60.0
303.601318 56.0
303.671906 216.0
303.800751 136.0
303.868408 100.0
303.916962 68.0
304.04538 132.0
304.076599 108.0
304.103973 140.0
304.168793 2356.0
304.200745 768.0
304.347382 88.0
304.437653 152.0
304.461853 132.0
304.506866 284.0
304.752228 92.0
304.788483 44.0
304.851044 124.0
304.948334 116.0
305.045654 112.0
305.083893 84.0
305.175293 2176.0
305.291321 116.0
305.314789 128.0
305.358124 88.0
305.508179 44.0
305.567322 112.0
305.668213 44.0
305.755219 96.0
305.807404 92.0
305.915588 152.0
305.946533 132.0
305.977966 68.0
306.029419 148.0
306.071991 148.0
306.117249 184.0
306.183228 6252.0
306.279907 68.0
306.322266 84.0
306.399384 80.0
306.430725 36.0
306.455109 48.0
306.503174 152.0
306.542236 160.0
306.612946 248.0
306.671173 176.0
306.744385 152.0
306.768768 72.0
306.812164 108.0
306.845459 80.0
306.869873 32.0
306.944885 164.0
307.023315 220.0
307.051208 120.0
307.104828 96.0
307.143799 152.0
307.188873 2872.0
307.351196 100.0
307.410522 72.0
307.456146 56.0
307.539642 88.0
307.567566 80.0
307.68277 132.0
307.846863 108.0
307.90625 184.0
307.960999 160.0
308.099609 164.0
308.144318 200.0
308.200592 2644.0
308.329193 60.0
308.384888 92.0
308.458282 44.0
308.631378 228.0
308.71701 60.0
308.796051 140.0
308.835907 200.0
308.906799 76.0
309.034973 84.0
309.094788 176.0
309.184509 4584.0
309.285583 124.0
309.327454 100.0
309.381805 172.0
309.431824 180.0
309.456573 128.0
309.645233 84.0
309.710938 220.0
309.77597 180.0
309.830048 112.0
309.99823 108.0
310.049316 120.0
310.169708 1084.0
310.179962 1508.0
310.275116 120.0
310.3172 128.0
310.38797 180.0
310.437073 192.0
310.524078 172.0
310.559174 56.0
310.593384 216.0
310.746521 76.0
310.822266 128.0
310.846832 152.0
310.881927 48.0
311.060913 60.0
311.094147 120.0
311.166779 1932.0
311.376923 132.0
311.448303 100.0
311.598206 148.0
311.882843 192.0
312.014313 140.0
312.069183 60.0
312.17337 1936.0
312.252014 164.0
312.575684 104.0
312.709412 60.0
312.781891 124.0
312.829071 84.0
312.857239 108.0
312.96286 88.0
312.992065 112.0
313.175385 1636.0
313.251648 84.0
313.487701 160.0
313.600464 128.0
313.702698 36.0
313.876282 120.0
313.945984 84.0
314.055298 216.0
314.188202 9160.0
314.259979 164.0
314.288116 124.0
314.316345 32.0
314.355164 60.0
314.429291 48.0
314.486206 64.0
314.626953 48.0
314.665436 160.0
314.746521 88.0
314.842346 52.0
314.875061 152.0
315.001282 108.0
315.121307 156.0
315.193207 3776.0
315.276855 56.0
315.362793 64.0
315.393494 36.0
315.66571 128.0
315.72937 60.0
315.781189 116.0
315.794373 188.0
315.863861 168.0
315.987579 36.0
316.11496 76.0
316.168121 3304.0
316.293091 120.0
316.381836 100.0
316.578674 52.0
316.670776 100.0
316.741608 104.0
316.82309 172.0
317.031586 128.0
317.071106 148.0
317.175812 5996.0
317.335388 136.0
317.403198 84.0
317.446899 48.0
317.510315 128.0
317.61142 92.0
317.787415 148.0
317.844177 100.0
317.90448 56.0
318.004608 164.0
318.031433 132.0
318.057098 136.0
318.106812 168.0
318.180573 4136.0
318.280762 56.0
318.326935 76.0
318.397949 36.0
318.490295 32.0
318.547119 48.0
318.61203 208.0
318.717651 152.0
318.770935 180.0
318.859802 140.0
318.913116 128.0
318.95462 88.0
318.961456 60.0
319.012634 52.0
319.073059 116.0
319.11734 84.0
319.152802 128.0
319.190125 3764.0
319.268616 96.0
319.303009 168.0
319.368225 108.0
319.42157 72.0
319.446472 72.0
319.496277 76.0
319.574554 108.0
319.613678 48.0
319.667053 64.0
319.699066 120.0
319.756012 52.0
319.812958 200.0
319.891266 56.0
319.962463 88.0
319.994507 64.0
320.050934 104.0
320.136932 40.0
320.199371 2848.0
320.27652 124.0
320.358795 168.0
320.441833 80.0
320.531342 88.0
320.68573 188.0
320.724792 36.0
320.8638 88.0
320.903046 88.0
320.995728 108.0
321.09201 80.0
321.15979 296.0
321.203949 1276.0
321.309601 76.0
321.360565 100.0
321.480865 88.0
321.57724 104.0
321.609344 84.0
321.730713 64.0
321.816406 96.0
321.847168 176.0
321.912811 176.0
322.034241 144.0
322.15976 168.0
322.216248 1236.0
322.335632 108.0
322.448669 52.0
322.539886 100.0
322.659576 124.0
322.712158 116.0
322.920593 152.0
323.053375 148.0
323.078003 64.0
323.103027 184.0
323.160736 464.0
323.217957 460.0
323.432251 200.0
323.469025 116.0
323.514587 48.0
323.600494 152.0
323.715088 192.0
323.790283 76.0
323.897736 188.0
323.926392 40.0
324.044617 48.0
324.079071 104.0
324.172302 1956.0
324.221008 184.0
324.256012 252.0
324.346558 188.0
324.420898 124.0
324.485443 76.0
324.628845 136.0
324.714935 164.0
324.795441 80.0
324.821442 120.0
324.962433 124.0
325.009094 84.0
325.03421 76.0
325.120331 112.0
325.176117 1628.0
325.235168 148.0
325.266266 132.0
325.314148 132.0
325.36441 68.0
325.396698 144.0
325.44696 136.0
325.475708 48.0
325.515198 112.0
325.572662 68.0
325.60733 92.0
325.71991 160.0
325.75943 144.0
325.820496 108.0
325.928284 100.0
326.188934 1728.0
326.694061 68.0
326.751617 132.0
327.069641 108.0
327.193146 808.0
327.233887 56.0
327.41394 108.0
327.518372 152.0
327.565216 60.0
327.593445 148.0
327.680481 148.0
327.712921 128.0
327.770569 56.0
327.875061 180.0
327.944153 120.0
327.993988 52.0
328.171265 604.0
328.203674 1676.0
328.289642 56.0
328.347351 100.0
328.37619 64.0
328.430298 120.0
328.497101 160.0
328.695557 128.0
328.787476 164.0
328.870483 132.0
328.9617 164.0
329.090698 160.0
329.177216 1024.0
329.212921 712.0
329.274841 32.0
329.310974 64.0
329.343475 64.0
329.45166 84.0
329.484344 128.0
329.525024 104.0
329.65448 180.0
329.764862 128.0
329.827637 28.0
329.998566 164.0
330.060272 128.0
330.095764 108.0
330.18399 2656.0
330.283966 240.0
330.348358 80.0
330.384949 140.0
330.425568 92.0
330.507538 160.0
330.569061 84.0
330.789825 132.0
330.833252 116.0
331.010681 188.0
331.070435 72.0
331.100494 140.0
331.191528 3460.0
331.300415 140.0
331.347504 52.0
331.376495 96.0
331.441711 36.0
331.481567 44.0
331.564911 92.0
331.61203 136.0
331.641022 108.0
331.677277 72.0
331.724396 116.0
331.822296 148.0
331.89978 224.0
331.957428 184.0
331.999969 200.0
332.02533 76.0
332.05072 60.0
332.121674 136.0
332.135406 208.0
332.200134 14100.0
332.287964 100.0
332.337311 160.0
332.395355 84.0
332.420746 56.0
332.478821 40.0
332.522369 80.0
332.547791 52.0
332.608887 72.0
332.656677 76.0
332.714752 48.0
332.758331 132.0
332.823669 60.0
332.849091 56.0
332.923737 56.0
333.03067 32.0
333.074249 80.0
333.204681 5308.0
333.302429 252.0
333.332184 36.0
333.373779 40.0
333.435516 172.0
333.46582 172.0
333.513214 144.0
333.59375 240.0
333.633881 128.0
333.69931 68.0
333.772034 52.0
333.833923 132.0
333.864746 116.0
333.961121 96.0
334.022949 180.0
334.062988 160.0
334.099945 100.0
334.212616 2636.0
334.390442 56.0
334.419556 148.0
334.459351 88.0
334.503693 108.0
334.659821 80.0
334.710815 48.0
334.772705 44.0
334.841888 76.0
334.871033 56.0
334.919739 64.0
334.974945 160.0
335.160339 96.0
335.173035 136.0
335.185272 148.0
335.218201 672.0
335.323456 44.0
335.355621 40.0
335.401672 128.0
335.434143 124.0
335.471161 172.0
335.588684 132.0
335.624542 124.0
335.672791 140.0
335.720184 64.0
335.793121 44.0
335.844177 44.0
336.022919 172.0
336.072174 172.0
336.159241 280.0
336.183899 208.0
336.227844 352.0
336.407867 128.0
336.46817 64.0
336.785858 56.0
336.822388 152.0
336.972168 132.0
337.024872 76.0
337.111023 36.0
337.175995 428.0
337.213348 132.0
337.36322 92.0
337.513092 168.0
337.641083 40.0
337.809357 156.0
337.889832 108.0
337.926422 88.0
337.973969 92.0
338.025208 128.0
338.091064 180.0
338.151947 212.0
338.18631 844.0
338.263092 124.0
338.307007 72.0
338.398407 100.0
338.438141 152.0
338.566986 52.0
338.634308 104.0
338.670868 252.0
338.739136 128.0
338.783081 36.0
338.885651 144.0
338.977264 144.0
339.197601 1428.0
339.321808 100.0
339.387787 68.0
339.646332 96.0
339.930664 172.0
339.98938 144.0
340.202759 1120.0
340.272034 68.0
340.386169 88.0
340.451935 108.0
340.496002 80.0
340.602509 156.0
340.701691 88.0
340.852356 108.0
340.940521 208.0
341.010376 148.0
341.054474 36.0
341.083862 156.0
341.181671 592.0
341.206787 536.0
341.326508 88.0
341.374329 60.0
341.539825 40.0
341.756866 100.0
341.841492 68.0
341.867249 88.0
341.999756 188.0
342.099121 92.0
342.183167 1448.0
342.219391 852.0
342.305298 80.0
342.482086 84.0
342.647858 44.0
342.751007 68.0
342.894745 152.0
343.00531 140.0
343.042175 160.0
343.082703 36.0
343.188812 1208.0
343.281799 104.0
343.425629 80.0
343.48465 92.0
343.650665 196.0
343.873474 80.0
343.901611 40.0
343.964355 152.0
344.198853 1820.0
344.26709 96.0
344.595825 80.0
344.632782 152.0
344.828644 104.0
345.07373 120.0
345.201691 1304.0
345.400574 168.0
345.438721 56.0
345.501617 52.0
345.745819 56.0
345.78653 84.0
345.897552 140.0
346.053802 220.0
346.09668 92.0
346.21405 4480.0
346.301147 52.0
346.367828 56.0
346.460449 60.0
346.495392 148.0
346.506989 64.0
346.518433 184.0
346.556763 56.0
346.616058 100.0
346.712402 88.0
346.823578 52.0
346.855133 96.0
346.908844 92.0
346.991821 72.0
347.081696 160.0
347.109039 56.0
347.219666 1540.0
347.290771 52.0
347.361237 36.0
347.554565 104.0
347.598663 120.0
347.683044 76.0
347.773102 40.0
347.932709 88.0
348.014404 64.0
348.051514 92.0
348.129517 80.0
348.166656 140.0
348.230042 4792.0
348.304077 136.0
348.36673 92.0
348.372772 80.0
348.453552 132.0
348.508392 124.0
348.631012 156.0
348.746216 36.0
348.967712 96.0
348.998993 84.0
349.196655 344.0
349.233429 1572.0
349.300232 104.0
349.496246 140.0
349.53833 48.0
349.564392 76.0
349.601593 84.0
349.670074 100.0
349.724426 88.0
349.888214 44.0
349.936615 124.0
350.09671 48.0
350.19278 136.0
350.23111 188.0
350.268036 72.0
350.309021 48.0
350.409607 124.0
350.595917 156.0
350.685364 76.0
350.797791 72.0
351.07309 68.0
351.200348 128.0
351.285675 104.0
351.378937 124.0
351.611725 88.0
351.923859 56.0
351.957458 156.0
352.050812 116.0
352.201416 316.0
352.301056 172.0
352.566345 160.0
352.775635 96.0
352.816772 28.0
352.962585 156.0
353.052307 88.0
353.203033 264.0
353.321625 36.0
353.347809 32.0
353.426392 40.0
353.460052 40.0
353.514313 136.0
353.598511 124.0
353.744507 80.0
353.783264 156.0
353.932617 128.0
354.122681 64.0
354.220886 3476.0
354.339935 52.0
354.508545 72.0
354.740936 64.0
355.044617 68.0
355.074615 60.0
355.22403 1084.0
355.385986 128.0
355.573608 124.0
355.656158 120.0
355.913147 116.0
356.001556 132.0
356.13678 104.0
356.2034 984.0
356.358398 44.0
356.403503 76.0
356.847015 144.0
356.910919 140.0
356.986115 124.0
357.068848 40.0
357.147858 120.0
357.20752 1956.0
357.287018 144.0
357.317932 128.0
357.381073 80.0
357.621918 160.0
357.685913 120.0
357.753662 72.0
357.874481 128.0
357.900513 184.0
358.107605 72.0
358.214142 4788.0
358.355652 52.0
358.41275 36.0
358.480591 60.0
358.506958 84.0
358.616241 152.0
358.651245 56.0
358.778351 108.0
358.955353 80.0
359.221344 4716.0
359.295013 68.0
359.321411 168.0
359.460999 148.0
359.509277 108.0
359.740295 64.0
359.804474 112.0
359.871735 364.0
359.985718 52.0
360.046143 96.0
360.13678 84.0
360.230164 5968.0
360.353607 60.0
360.391876 76.0
360.426727 48.0
360.452118 144.0
360.620392 72.0
360.6922 64.0
360.752686 108.0
360.824524 56.0
360.920929 128.0
361.024933 48.0
361.161072 100.0
361.231903 1656.0
361.301025 40.0
361.45993 28.0
361.641602 72.0
361.709717 36.0
362.00882 44.0
362.039124 104.0
362.118652 88.0
362.15274 156.0
362.228729 144.0
362.489899 136.0
362.527802 28.0
362.728668 48.0
362.868927 40.0
363.111603 92.0
363.172302 56.0
363.212708 156.0
363.24057 140.0
363.399902 72.0
363.646576 48.0
363.828766 52.0
364.011017 76.0
364.041382 96.0
364.109741 148.0
364.205261 140.0
364.256317 184.0
364.489624 176.0
364.62262 132.0
364.683441 132.0
364.710052 56.0
364.740448 152.0
364.961884 108.0
365.044586 96.0
365.09024 124.0
365.116852 68.0
365.162476 144.0
365.202454 124.0
365.230957 152.0
365.647644 108.0
365.795105 96.0
365.868347 176.0
365.973022 64.0
366.212311 192.0
366.411316 152.0
366.628204 72.0
367.112366 68.0
367.19989 172.0
367.225739 152.0
367.398407 164.0
367.463287 104.0
367.505249 124.0
367.566284 72.0
367.61972 188.0
367.646423 96.0
367.755676 160.0
367.98996 44.0
368.135071 144.0
368.198425 460.0
368.299286 88.0
368.547607 60.0
368.918304 56.0
369.199677 960.0
369.239838 368.0
369.380249 100.0
369.495789 164.0
369.778931 108.0
369.928223 44.0
370.062195 108.0
370.214325 688.0
370.370697 360.0
370.790009 104.0
370.816833 116.0
370.943329 136.0
370.973999 88.0
371.082123 136.0
371.141052 132.0
371.218536 400.0
371.326752 108.0
371.430298 88.0
371.501404 172.0
371.532745 80.0
371.636963 92.0
371.706543 60.0
371.80899 188.0
371.85321 128.0
371.906097 104.0
371.932953 136.0
371.966309 204.0
372.040649 164.0
372.08493 68.0
372.103302 128.0
372.119873 116.0
372.151062 340.0
372.231995 46940.0
372.310211 140.0
372.341492 80.0
372.384827 240.0
372.436829 160.0
372.482056 48.0
372.566559 72.0
372.604645 44.0
372.639557 32.0
372.69635 148.0
372.746979 100.0
372.7789 168.0
372.815613 216.0
372.870117 84.0
372.927765 88.0
373.029816 116.0
373.105286 112.0
373.234772 15432.0
373.364075 184.0
373.40921 108.0
373.44931 80.0
373.546539 60.0
373.55191 100.0
373.579987 96.0
373.627594 48.0
373.679199 128.0
373.716095 64.0
373.824402 80.0
373.868805 76.0
373.923889 68.0
373.970062 148.0
374.011322 112.0
374.238556 1200.0
374.312714 68.0
374.368866 68.0
374.469604 188.0
374.535583 92.0
374.604065 104.0
374.618561 68.0
374.701721 84.0
374.798615 188.0
374.853363 104.0
374.890533 60.0
374.940613 108.0
375.046326 56.0
375.089691 88.0
375.135193 124.0
375.164185 100.0
375.22287 708.0
375.350128 140.0
375.387451 88.0
375.393036 112.0
375.422516 128.0
375.500458 88.0
375.553619 156.0
375.581909 96.0
375.631958 156.0
375.707825 88.0
375.751709 184.0
375.836945 100.0
375.909332 120.0
375.951019 60.0
376.04364 120.0
376.150085 76.0
376.229279 124.0
376.308167 60.0
376.356323 56.0
376.441254 100.0
376.472168 124.0
376.510773 52.0
376.603455 128.0
376.688446 76.0
376.773438 100.0
376.969879 128.0
377.028442 48.0
377.094147 36.0
377.238129 144.0
377.337677 56.0
377.49234 148.0
377.685699 92.0
377.999084 96.0
378.057129 36.0
378.115173 108.0
378.15802 108.0
378.219452 224.0
378.318665 136.0
378.417114 64.0
378.498413 76.0
378.622314 60.0
378.649445 84.0
378.893463 56.0
378.967072 112.0
379.087189 44.0
379.230042 168.0
379.482574 88.0
379.521332 44.0
379.750122 64.0
379.858734 56.0
380.237122 108.0
380.289429 52.0
380.335999 112.0
380.374817 48.0
380.500854 112.0
380.546722 72.0
380.719208 212.0
380.80191 72.0
380.848541 64.0
380.992249 48.0
381.213715 308.0
381.240936 64.0
381.332336 100.0
381.520782 136.0
381.831848 52.0
381.890167 140.0
381.917419 80.0
382.010773 224.0
382.045776 44.0
382.149658 188.0
382.212372 1328.0
382.403748 80.0
382.446564 56.0
382.483551 128.0
382.633423 140.0
382.77359 56.0
382.839783 116.0
382.96051 184.0
383.222504 1940.0
383.392975 92.0
383.474792 104.0
383.583954 48.0
383.630707 40.0
384.125946 36.0
384.229767 816.0
384.311554 104.0
384.582489 40.0
384.842377 76.0
385.156464 84.0
385.222473 656.0
385.26416 160.0
385.569092 132.0
385.601868 132.0
385.724915 108.0
386.047546 92.0
386.145294 68.0
386.210724 308.0
386.229675 376.0
386.238159 248.0
386.583466 164.0
386.638245 88.0
386.928528 52.0
387.004272 148.0
387.223419 572.0
387.256592 480.0
387.352051 128.0
387.464447 144.0
387.640747 72.0
387.789673 80.0
387.942535 212.0
388.071777 116.0
388.082703 112.0
388.252472 320.0
388.497742 76.0
388.8172 96.0
388.96637 248.0
389.084137 52.0
389.223328 124.0
389.275146 148.0
389.351135 92.0
389.421814 108.0
389.641785 132.0
389.850037 136.0
389.92865 104.0
390.02298 64.0
390.243164 1072.0
390.443665 136.0
390.763367 52.0
391.06134 36.0
391.240936 728.0
391.407776 68.0
391.470764 128.0
391.50116 56.0
391.640106 80.0
391.844971 72.0
391.904053 28.0
391.951355 36.0
392.191742 48.0
392.229889 148.0
392.783173 56.0
392.988647 96.0
393.019897 88.0
393.126434 116.0
393.252716 128.0
393.280334 76.0
393.335602 88.0
393.363251 100.0
393.457977 136.0
393.631714 60.0
393.704224 240.0
393.750183 156.0
394.248871 212.0
394.342804 108.0
394.694641 100.0
394.753937 80.0
394.793243 128.0
395.259949 128.0
395.628357 256.0
395.850067 64.0
395.972839 84.0
396.071838 104.0
396.166901 160.0
396.231415 632.0
396.277832 36.0
396.388794 100.0
396.50766 64.0
396.55127 40.0
396.630554 152.0
396.72171 68.0
396.881989 144.0
397.236298 1744.0
397.550659 92.0
397.622101 112.0
397.75705 52.0
397.856293 80.0
398.118347 44.0
398.237061 908.0
398.360626 88.0
398.531433 80.0
398.968628 100.0
399.206573 176.0
399.252136 196.0
399.410004 36.0
399.497528 60.0
399.55719 64.0
399.648712 140.0
399.688507 96.0
399.871552 212.0
400.070587 92.0
400.13028 80.0
400.225342 612.0
400.282837 104.0
400.548431 24.0
400.64801 52.0
400.739655 84.0
400.867157 184.0
401.166077 140.0
401.233704 748.0
401.301605 96.0
401.337494 120.0
401.397308 76.0
401.647644 52.0
401.772217 144.0
402.244232 464.0
402.285187 136.0
402.734222 48.0
402.997894 76.0
403.053833 156.0
403.097778 44.0
403.235046 168.0
403.274841 296.0
403.305115 136.0
403.393524 108.0
403.50946 120.0
403.929352 64.0
403.996307 152.0
404.113403 44.0
404.293457 80.0
404.361481 148.0
404.982056 104.0
405.13028 76.0
405.282501 64.0
405.366669 68.0
406.232666 96.0
406.36908 132.0
406.822571 104.0
407.412903 160.0
407.453064 152.0
407.565552 128.0
407.979523 100.0
408.703461 164.0
409.230713 44.0
409.555359 64.0
410.217743 128.0
410.247559 180.0
410.32254 92.0
410.439484 64.0
410.568512 72.0
410.871033 80.0
410.971893 68.0
411.251221 148.0
411.359314 40.0
411.44812 80.0
411.516754 100.0
411.763092 48.0
412.146851 184.0
412.180389 84.0
412.26297 5296.0
412.352936 36.0
412.501678 136.0
412.70462 128.0
412.773376 52.0
412.829987 44.0
412.989014 88.0
413.092865 52.0
413.268158 1164.0
413.343719 52.0
413.37204 120.0
413.428711 40.0
413.473206 152.0
413.501556 116.0
413.659393 80.0
413.707977 56.0
413.78894 84.0
413.884949 124.0
413.975189 152.0
414.031891 148.0
414.165558 52.0
414.240173 748.0
414.343781 160.0
414.404541 152.0
414.56665 68.0
414.619324 96.0
414.67868 80.0
414.724701 44.0
414.793152 36.0
414.886841 116.0
414.950745 96.0
415.024689 76.0
415.113068 188.0
415.180908 260.0
415.249725 36396.0
415.378387 108.0
415.435852 96.0
415.51297 72.0
415.673676 56.0
415.717743 88.0
415.785187 84.0
415.814728 164.0
415.881378 180.0
416.044678 128.0
416.062988 52.0
416.078339 176.0
416.107971 56.0
416.164642 136.0
416.183624 44.0
416.252167 9100.0
416.393311 44.0
416.430939 184.0
416.554688 44.0
416.611542 72.0
416.694824 60.0
416.745392 68.0
416.873535 92.0
417.009399 104.0
417.054474 68.0
417.179474 48.0
417.254883 1664.0
417.741669 64.0
418.0495 120.0
418.248962 160.0
418.266113 108.0
418.271759 148.0
418.319489 44.0
418.362854 92.0
418.404877 140.0
418.518982 96.0
418.588531 100.0
418.632996 48.0
418.669647 120.0
418.724609 76.0
418.78775 144.0
418.814148 116.0
418.881439 120.0
418.92392 156.0
418.992981 104.0
419.068817 76.0
419.178833 96.0
419.513062 40.0
419.623138 84.0
419.739319 64.0
419.805695 88.0
419.90448 104.0
420.361389 80.0
420.500153 44.0
420.56543 48.0
420.67157 176.0
420.810364 140.0
420.936951 104.0
421.181976 172.0
421.304535 44.0
421.353546 132.0
421.472046 108.0
421.770386 112.0
422.84198 40.0
422.878815 76.0
423.1203 72.0
423.349609 52.0
423.849365 84.0
424.05426 112.0
424.320709 88.0
424.665161 68.0
424.800507 72.0
424.894867 52.0
424.940002 136.0
425.095917 80.0
425.362671 52.0
425.674713 164.0
425.82666 40.0
425.892365 92.0
426.294983 36.0
426.525146 76.0
426.788239 64.0
427.067871 132.0
427.153168 100.0
427.755035 140.0
427.88266 44.0
428.142059 56.0
428.256714 432.0
428.368591 28.0
428.525146 48.0
428.565308 80.0
428.792969 188.0
428.825958 112.0
428.858917 80.0
428.937225 160.0
429.077393 92.0
429.155731 100.0
429.21344 232.0
429.263489 248.0
429.308289 112.0
429.445251 156.0
429.564026 116.0
429.669952 112.0
429.720764 108.0
429.786224 144.0
429.86087 80.0
429.872589 76.0
429.947723 112.0
429.992615 252.0
430.058655 164.0
430.090393 104.0
430.097351 140.0
430.145844 160.0
430.209564 212.0
430.27359 28068.0
430.416779 140.0
430.482697 140.0
430.540466 124.0
430.568726 136.0
430.678497 80.0
430.707397 104.0
430.796326 76.0
430.848114 60.0
430.88916 136.0
430.942657 76.0
430.996582 76.0
431.033173 64.0
431.053986 36.0
431.124695 60.0
431.187256 56.0
431.276245 9876.0
431.529755 60.0
431.604187 72.0
431.644409 44.0
431.728241 56.0
431.777863 96.0
432.112915 80.0
432.279053 1268.0
432.390167 60.0
432.526764 100.0
432.586365 80.0
432.634369 132.0
432.663361 100.0
432.728333 52.0
432.804108 76.0
432.863953 80.0
433.009247 124.0
433.040863 80.0
433.135437 132.0
433.234833 112.0
433.28479 384.0
433.350861 40.0
433.471588 92.0
433.529022 48.0
433.628479 108.0
433.707245 72.0
433.776733 136.0
433.865784 96.0
434.007629 56.0
434.044891 116.0
434.1539 136.0
434.242096 120.0
434.30014 108.0
434.353943 116.0
434.395569 68.0
434.434692 68.0
434.470215 56.0
434.598846 72.0
434.673523 52.0
434.706726 28.0
435.096893 76.0
435.140045 84.0
435.383392 88.0
435.538818 84.0
435.632599 96.0
435.869415 60.0
435.940033 60.0
436.164459 80.0
436.459656 120.0
436.759064 116.0
437.047516 84.0
437.191742 64.0
437.73291 40.0
439.037231 108.0
439.091461 84.0
439.262451 64.0
439.458527 104.0
439.629608 52.0
439.896729 88.0
440.305908 48.0
440.569061 72.0
441.116486 68.0
441.271179 84.0
441.559692 72.0
441.865051 96.0
441.965454 84.0
442.07843 124.0
444.139709 60.0
444.387207 80.0
444.605408 96.0
444.769104 32.0
445.579559 80.0
445.798065 124.0
446.146912 84.0
446.256226 72.0
446.819794 72.0
447.135376 60.0
447.425812 60.0
447.783722 84.0
447.825836 40.0
448.291229 136.0
448.369324 32.0
448.403046 36.0
449.039673 40.0
449.204163 60.0
449.837128 56.0
449.87088 56.0
451.086548 92.0
451.565277 60.0
451.84021 44.0
452.119476 76.0
452.1745 44.0
452.292999 56.0
452.648621 64.0
452.80957 104.0
453.123016 56.0
453.330627 80.0
454.233704 68.0
454.730133 60.0
455.813019 88.0
455.893768 28.0
455.949005 108.0
456.050995 92.0
456.148773 28.0
456.318817 88.0
456.871674 32.0
457.914551 88.0
458.327759 76.0
458.464111 140.0
458.528046 52.0
458.988434 48.0
459.090759 140.0
459.513062 64.0
460.734039 116.0
460.887848 112.0
462.453033 80.0
463.082397 92.0
463.163788 124.0
465.891968 52.0
466.347473 104.0
466.399048 136.0
466.631165 92.0
467.392456 80.0
467.538757 92.0
469.382477 132.0
469.925964 72.0
471.057037 120.0
471.225494 144.0
471.32489 48.0
472.933624 160.0
472.998535 72.0
474.402039 52.0
474.566772 100.0
475.195679 48.0
475.9422 112.0
477.141357 116.0
478.908051 220.0
479.247864 88.0
479.565979 68.0
480.019348 36.0
480.996613 100.0
481.254181 80.0
481.638489 52.0
482.451263 36.0
482.976013 72.0
483.51416 44.0
483.614807 68.0
483.973785 124.0
485.77063 72.0
486.463959 112.0
488.524933 48.0
489.123383 88.0
489.453552 52.0
489.559235 64.0
489.642914 56.0
489.686951 60.0
491.971008 36.0
492.757111 100.0
492.79245 76.0
495.415955 76.0
496.359955 76.0
496.448669 72.0
496.6492 108.0
496.843414 120.0
496.936584 88.0
497.074127 72.0
497.442505 100.0
497.819885 60.0
497.939789 84.0
498.82843 52.0
499.241913 64.0
500.078308 104.0
500.225189 64.0
500.385437 72.0
502.381989 104.0
503.65863 60.0
503.707764 56.0
503.94455 72.0
505.657196 88.0
506.472076 92.0
506.619904 72.0
507.62384 48.0
509.163086 60.0
509.25293 40.0
509.922363 72.0
510.205536 144.0
512.996582 48.0
513.916626 40.0
514.015869 76.0
514.218994 120.0
514.530396 96.0
518.257202 92.0
520.143738 56.0
520.706787 120.0
521.197388 56.0
521.838257 96.0
522.279358 56.0
522.775269 84.0
523.439819 52.0
523.658447 48.0
524.788574 68.0
525.176147 44.0
526.686951 124.0
526.970215 76.0
527.678589 60.0
527.97583 64.0
528.227356 88.0
529.293701 80.0
529.367004 48.0
529.399048 152.0
529.51355 80.0
529.715088 96.0
531.259888 112.0
533.749207 80.0
533.813538 184.0
534.729065 84.0
537.692444 32.0
539.332031 92.0
539.456848 68.0
539.493835 36.0
539.664917 76.0
540.298523 76.0
540.525208 140.0
541.006531 68.0
541.525146 40.0
542.295044 48.0
543.1474 108.0
543.323669 60.0
544.386597 96.0
545.171631 52.0
545.538818 88.0
545.610474 48.0
547.008789 64.0
547.814392 108.0
548.056641 92.0
548.928284 52.0
549.184814 64.0
549.987305 64.0
551.528687 100.0
551.921387 44.0
552.295532 48.0
552.805481 44.0
553.521667 36.0
553.82605 60.0
553.961914 60.0
555.067993 56.0
555.391541 84.0
555.818481 96.0
555.926392 104.0
557.936707 84.0
558.722046 48.0
558.891418 52.0
558.929077 28.0
559.427979 92.0
559.903503 136.0
560.256775 56.0
560.968323 56.0
561.119202 52.0
561.251221 72.0
561.510559 44.0
561.55304 64.0
563.006592 108.0
564.54248 92.0
564.925598 52.0
565.076965 84.0
566.085144 80.0
566.852539 48.0
566.98999 168.0
567.961914 68.0
569.015381 72.0
570.616455 56.0
571.025391 100.0
571.515381 64.0
571.748535 44.0
572.624512 136.0
573.234314 152.0
573.911194 80.0
575.194458 136.0
576.30719 68.0
576.512695 88.0
576.665588 104.0
577.440125 60.0
579.929749 96.0
580.23175 68.0
580.754456 96.0
581.282166 108.0
581.680542 84.0
583.034973 84.0
585.074341 68.0
585.815979 64.0
588.271729 80.0
588.362244 60.0
588.521545 48.0
588.642273 96.0
588.985168 52.0
589.023804 44.0
590.831726 72.0
591.734192 168.0
593.09314 80.0
594.252136 60.0
595.519104 92.0
595.990356 76.0
598.018188 60.0
598.227478 56.0
598.748474 96.0
600.000732 92.0
600.205505 36.0
601.225037 60.0
601.649658 92.0
601.752197 52.0
602.20636 56.0
602.289368 52.0
603.012512 60.0
604.318115 36.0
606.036682 76.0
606.894409 88.0
607.375 52.0
607.502563 156.0
608.366211 76.0
608.626465 100.0
609.31897 112.0
609.967651 28.0
613.373901 56.0
614.444031 132.0
615.673035 88.0
616.428894 92.0
616.804504 84.0
617.145569 44.0
618.763428 80.0
618.931763 84.0
618.971375 44.0
619.318054 80.0
620.601562 48.0
620.696777 40.0
621.320679 56.0
621.712646 124.0
622.33313 36.0
626.067505 76.0
626.197021 104.0
626.246826 52.0
626.625366 124.0
626.725037 36.0
628.215698 56.0
628.345398 80.0
628.510071 68.0
628.574951 52.0
629.158875 108.0
629.263733 52.0
630.097778 48.0
631.227356 80.0
631.957642 52.0
632.052673 120.0
632.1828 100.0
632.317932 52.0
632.403015 48.0
637.041138 84.0
637.769775 132.0
638.443481 72.0
639.947998 64.0
640.597656 48.0
640.819336 68.0
641.111572 32.0
641.570251 64.0
642.715088 40.0
643.27533 68.0
644.098389 76.0
644.239807 108.0
644.861328 60.0
645.877625 52.0
650.625732 104.0
651.499268 40.0
651.875244 48.0
652.266541 68.0
653.553223 84.0
653.7771 180.0
653.899231 76.0
655.13147 52.0
656.222107 76.0
656.502502 60.0
657.099304 40.0
658.600098 88.0
660.281616 164.0
661.443054 84.0
662.631104 68.0
665.72406 64.0
666.016846 104.0
667.697449 108.0
667.73645 200.0
669.28241 56.0
669.472961 40.0
670.925903 80.0
671.245605 68.0
671.60144 120.0
671.689148 56.0
673.046387 72.0
673.795288 76.0
674.777283 68.0
675.190918 56.0
676.789917 140.0
678.701843 124.0
678.857422 180.0
681.115051 76.0
681.468323 180.0
681.764465 88.0
683.256775 44.0
683.41803 116.0
683.673035 60.0
684.526733 108.0
686.141968 56.0
686.402649 92.0
688.061829 84.0
688.740662 156.0
689.482544 144.0
690.732178 84.0
691.087891 44.0
691.867737 84.0
693.350037 60.0
694.765747 52.0
694.828735 64.0
696.571594 36.0
697.874878 76.0
700.411438 48.0
701.159607 84.0
701.881775 36.0
703.263977 84.0
703.411743 92.0
705.154785 48.0
705.52478 80.0
707.222778 88.0
708.096375 116.0
708.663147 196.0
708.986389 40.0
709.696716 84.0
710.136841 120.0
711.304138 132.0
712.275879 92.0
712.493713 152.0
712.647766 84.0
713.85968 76.0
714.492615 40.0
715.115173 120.0
716.419739 44.0
716.968567 80.0
717.267029 72.0
718.397522 116.0
718.525513 96.0
719.945374 192.0
720.72522 172.0
720.90155 172.0
721.837036 80.0
723.137024 140.0
723.356445 120.0
723.501038 168.0
723.924011 60.0
725.086487 124.0
726.899048 36.0
727.7901 108.0
729.38031 80.0
730.412659 32.0
733.093872 228.0
733.266296 44.0
734.732971 132.0
735.731323 76.0
736.060669 60.0
736.47113 40.0
737.573364 52.0
738.07074 48.0
738.627808 68.0
738.85498 204.0
738.995667 104.0
741.112671 168.0
741.372742 216.0
741.681702 72.0
742.375671 40.0
743.221863 200.0
744.231445 96.0
745.312317 160.0
745.399231 36.0
746.975891 164.0
749.458435 112.0
749.744385 64.0
749.888916 40.0
750.728455 88.0
751.181152 52.0
753.577759 28.0
754.058655 164.0
755.004456 144.0
755.130249 60.0
755.359924 44.0
756.180664 144.0
756.394165 108.0
761.304688 68.0
761.586731 124.0
763.686279 132.0
764.010864 72.0
764.737183 32.0
766.951355 92.0
767.46405 88.0
767.9328 56.0
767.976868 160.0
768.125793 48.0
769.527527 164.0
769.671082 100.0
769.75946 216.0
772.168884 96.0
772.356934 56.0
772.677795 112.0
773.004211 256.0
773.247742 152.0
773.618591 80.0
775.341187 148.0
775.446472 56.0
775.562866 124.0
775.70697 100.0
782.367554 68.0
783.124817 76.0
783.225098 232.0
785.415649 192.0
785.610901 144.0
787.145691 204.0
787.385864 64.0
787.715393 36.0
788.385864 160.0
788.944763 40.0
789.789124 112.0
790.600403 172.0
791.456848 40.0
791.854431 108.0
792.240906 56.0
792.347351 136.0
793.406555 76.0
793.546692 172.0
794.39917 176.0
794.444031 60.0
795.09491 148.0
795.431641 40.0
797.637573 180.0
798.724426 120.0
799.11261 196.0
800.722473 108.0
801.31958 136.0
801.877441 176.0
801.967651 48.0
803.106567 40.0
803.631226 48.0
805.878357 72.0
809.787231 136.0
810.750305 48.0
811.062073 52.0
811.572266 196.0
813.137939 228.0
813.79071 100.0
814.244995 236.0
814.750549 60.0
815.199402 84.0
815.546082 152.0
815.654053 176.0
816.160034 56.0
816.472778 196.0
818.333496 76.0
819.489685 48.0
819.575134 164.0
819.706177 180.0
820.23053 48.0
820.760742 156.0
821.068665 144.0
821.70752 100.0
823.385681 48.0
824.682617 56.0
825.042725 120.0
825.974854 112.0
826.661377 172.0
826.781555 48.0
827.806274 64.0
829.828918 44.0
830.362183 52.0
830.855469 172.0
831.016113 96.0
831.389099 80.0
832.433899 168.0
835.882874 128.0
836.136047 128.0
838.923828 36.0
838.964172 140.0
839.390869 140.0
840.463745 84.0
840.509888 140.0
841.006165 164.0
842.143616 196.0
842.536438 160.0
843.836731 88.0
844.056458 140.0
844.131653 156.0
844.305115 88.0
844.438171 80.0
844.588501 124.0
844.640564 180.0
844.68689 132.0
845.242249 184.0
845.566345 200.0
846.000427 72.0
846.27832 92.0
847.778564 124.0
847.877075 108.0
847.940857 60.0
848.764038 44.0
849.233765 56.0
850.754028 152.0
850.846924 144.0
851.247559 116.0
851.671509 196.0
852.426758 208.0
852.624329 40.0
854.368713 92.0
856.324463 124.0
857.180847 124.0
858.498291 64.0
859.437439 72.0
860.05603 44.0
861.165344 56.0
861.63269 192.0
862.170227 44.0
862.374817 60.0
862.509216 64.0
862.778137 108.0
863.041199 92.0
863.468079 100.0
863.994507 80.0
864.140808 148.0
865.001038 216.0
865.042053 76.0
865.246948 124.0
866.049194 124.0
866.63501 72.0
867.593079 176.0
867.959656 208.0
868.164856 152.0
868.276306 120.0
870.394714 192.0
870.846924 84.0
871.281616 132.0
871.322754 184.0
872.409912 152.0
873.956726 124.0
874.545166 136.0
875.722717 132.0
875.999573 184.0
876.117371 84.0
876.364807 140.0
877.502319 148.0
879.460815 92.0
879.773682 88.0
881.055176 140.0
881.846985 52.0
881.98291 104.0
882.355347 40.0
882.532715 228.0
882.917053 188.0
884.112061 124.0
884.301453 144.0
884.437622 48.0
885.568481 188.0
885.882446 88.0
886.125305 120.0
886.53418 160.0
887.524048 160.0
888.034058 32.0
889.048584 112.0
889.475891 108.0
890.437744 156.0
891.293152 44.0
891.459534 144.0
891.643799 112.0
892.749512 76.0
892.987427 192.0
894.123779 168.0
896.196045 116.0
896.452271 160.0
896.61908 120.0
898.4198 68.0
898.897095 140.0
899.326782 84.0
900.538818 76.0
900.664246 176.0
901.745728 116.0
903.300293 212.0
904.131958 172.0
904.41925 36.0
904.544922 116.0
904.856262 148.0
904.916138 64.0
905.305298 68.0
906.083984 128.0
906.689148 100.0
907.144714 40.0
907.91217 104.0
908.499939 180.0
908.739929 148.0
909.213989 76.0
912.601868 144.0
912.66803 172.0
913.149109 204.0
913.371643 104.0
913.618286 200.0
913.967224 140.0
916.405701 192.0
918.075439 232.0
918.346802 152.0
918.408325 196.0
918.950073 44.0
919.022461 84.0
919.125 52.0
919.179321 104.0
919.861328 200.0
919.933777 148.0
920.525452 92.0
920.839478 128.0
920.972351 52.0
921.141479 160.0
921.594543 60.0
921.685181 124.0
922.700562 160.0
922.942444 124.0
923.529053 36.0
923.922241 80.0
924.436523 128.0
925.144653 56.0
925.356934 180.0
925.707703 164.0
925.8349 164.0
926.416382 32.0
926.979858 100.0
927.604065 188.0
927.737427 196.0
928.355896 160.0
928.51355 240.0
928.774353 56.0
929.374939 76.0
930.0 120.0
930.060669 48.0
930.169983 108.0
930.254944 76.0
930.795288 160.0
931.548401 164.0
931.609131 136.0
932.034424 184.0
932.222778 120.0
932.552856 164.0
932.690552 124.0
932.867004 92.0
933.110229 176.0
933.839905 144.0
934.904541 148.0
936.024658 88.0
936.08551 188.0
936.69458 136.0
937.632874 148.0
937.730408 204.0
937.846191 104.0
938.09613 64.0
938.760681 152.0
938.986328 132.0
939.13269 340.0
939.815918 184.0
940.13324 96.0
940.420105 188.0
940.890076 48.0
941.073242 160.0
942.337524 156.0
942.673584 92.0
943.021973 48.0
943.41925 108.0
943.871704 136.0
944.412415 120.0
945.168457 172.0
945.71582 144.0
946.347168 196.0
946.8396 108.0
947.139709 144.0
947.819763 72.0
949.082397 32.0
949.290894 132.0
949.481018 204.0
949.947144 216.0
950.057556 160.0
951.045532 116.0
951.205078 240.0
951.278748 172.0
951.984802 168.0
952.064636 112.0
952.298035 100.0
952.906189 176.0
953.231812 160.0
953.416199 120.0
953.575989 132.0
954.116882 156.0
954.227539 196.0
955.460083 176.0
955.611389 196.0
955.679077 132.0
955.955933 44.0
956.079041 80.0
956.614502 144.0
956.90387 152.0
957.291748 172.0
957.562744 92.0
957.88916 160.0
958.959412 180.0
959.454407 120.0
959.63324 80.0
960.928406 164.0
961.391174 208.0
962.520813 212.0
962.730774 168.0
962.780212 136.0
964.040405 188.0
964.437622 108.0
964.738831 60.0
964.837769 128.0
965.035583 96.0
965.759094 84.0
966.798523 124.0
966.971802 136.0
967.20697 152.0
967.599426 220.0
967.702209 136.0
968.055176 88.0
968.234741 168.0
968.494873 140.0
968.878967 172.0
969.46759 160.0
969.851807 132.0
970.186523 204.0
970.434509 156.0
970.781799 128.0
970.911987 152.0
971.302734 208.0
972.158936 148.0
972.916138 92.0
973.144287 160.0
973.195557 132.0
973.276245 156.0
973.866211 128.0
974.288635 76.0
974.37561 132.0
975.177185 80.0
975.394714 44.0
975.61853 124.0
976.445251 100.0
976.625854 272.0
976.843567 64.0
977.061279 188.0
977.25415 124.0
977.316406 264.0
978.044495 208.0
978.100525 272.0
978.318359 140.0
979.950073 188.0
980.355103 184.0
981.475159 176.0
981.570679 96.0
981.657959 84.0
981.832581 160.0
984.297485 128.0
984.578491 228.0
985.084412 124.0
985.340515 112.0
985.540466 152.0
985.646667 88.0
985.940369 196.0
986.690491 208.0
987.331787 92.0
987.559631 136.0
987.878662 116.0
988.316589 148.0
988.515808 124.0
989.174011 68.0
989.368042 148.0
989.549622 96.0
990.62677 56.0
991.127991 192.0
991.422485 44.0
991.73584 40.0
991.792236 144.0
991.942688 128.0
992.463013 188.0
992.531982 88.0
993.918213 124.0
994.010254 212.0
994.683899 44.0
995.261475 160.0
995.738708 164.0
995.832886 148.0
997.145996 196.0
997.221436 228.0
997.322021 116.0
998.258423 80.0
998.273804 132.0
998.868774 240.0
999.711853 152.0
999.884949 152.0
999.99176 156.0
1000.04541 128.0
1000.284607 60.0
1000.341248 144.0
1000.637146 72.0
1000.750488 128.0
1000.84491 88.0
1001.027527 172.0
1001.134583 108.0
1001.399109 52.0
1001.846313 104.0
1002.1651 200.0
1002.369263 88.0
1002.419678 64.0
1002.520508 208.0
1002.61499 132.0
1002.974243 156.0
1003.106628 144.0
1003.30835 120.0
1003.377686 96.0
1003.516418 224.0
1004.033447 52.0
1004.285767 152.0
1004.702087 224.0
1005.01123 76.0
1005.105835 100.0
1005.219421 84.0
1005.629639 164.0
1005.692749 200.0
1006.498291 220.0
1006.589233 92.0
1007.062866 208.0
1007.220764 260.0
1007.492432 92.0
1008.135254 140.0
1008.806824 240.0
1009.167175 120.0
1009.571899 96.0
1009.61615 196.0
1009.907104 160.0
1010.340088 132.0
1011.232239 188.0
1011.463623 148.0
1011.666199 124.0
1011.767456 172.0
1011.881409 168.0
1012.027039 108.0
1012.520935 204.0
1012.837646 52.0
1012.983337 104.0
1013.046692 132.0
1013.711914 172.0
1013.876709 132.0
1014.085815 144.0
1014.415466 160.0
1014.719727 112.0
1014.859253 152.0
1015.050354 200.0
1016.007141 112.0
1016.134033 144.0
1016.978027 228.0
1017.854126 200.0
1018.444702 172.0
1018.939575 156.0
1019.029175 188.0
1019.575623 148.0
1019.950623 116.0
1020.134949 120.0
1020.567261 84.0
1020.666138 180.0
1020.83429 200.0
1021.750244 184.0
1022.087463 32.0
1022.443787 156.0
1022.571106 136.0
1022.819275 44.0
1022.902039 128.0
1023.646973 124.0
1023.774292 96.0
1023.869812 72.0
1023.965393 112.0
1024.283813 124.0
1024.704224 128.0
1024.838135 192.0
1025.405273 180.0
1025.927856 40.0
1026.590942 204.0
1026.890747 184.0
1027.834839 216.0
1028.173096 148.0
1029.028442 140.0
1029.916016 120.0
1030.031006 152.0
1030.420776 176.0
1030.471802 204.0
1030.816895 84.0
1031.462402 112.0
1031.986572 156.0
1032.920288 140.0
1033.400024 168.0
1033.624023 200.0
1033.81604 168.0
1033.89917 88.0
1034.456909 136.0
1034.545654 192.0
1034.846558 172.0
1035.038574 52.0
1035.089844 92.0
1035.237183 152.0
1036.185059 108.0
1036.242798 108.0
1036.319702 80.0
1036.492676 136.0
1036.537476 124.0
1037.505249 84.0
1038.12085 156.0
1039.118164 160.0
1039.256226 104.0
1039.795166 140.0
1039.936401 124.0
1040.289429 136.0
1040.578369 164.0
1040.886475 100.0
1041.098389 76.0
1041.242554 160.0
1041.426025 140.0
1041.862793 212.0
1041.972046 184.0
1042.620972 68.0
1043.21228 108.0
1043.270142 108.0
1043.417969 84.0
1043.548462 68.0
1043.745972 116.0
1044.067383 132.0
1044.646362 116.0
1044.974365 128.0
1045.025879 60.0
1045.283203 68.0
1045.334717 136.0
1045.662964 156.0
1045.765869 224.0
1045.875366 148.0
1046.062012 144.0
1046.422485 112.0
1047.336914 148.0
1047.916748 128.0
1047.99646 232.0
1048.973633 172.0
1049.457153 96.0
1049.676392 60.0
1049.896606 152.0
1049.953613 68.0
1050.043945 204.0
1050.125488 196.0
1050.676025 32.0
1050.837402 36.0
1051.0448 156.0
1051.250366 76.0
1051.560059 60.0
1051.6698 100.0
1051.889282 152.0
1052.202271 172.0
1053.032104 168.0
1053.154785 92.0
1053.464844 76.0
1053.624023 252.0
1053.696655 192.0
1053.768555 152.0
1053.871094 180.0
1054.214355 200.0
1054.776611 176.0
1054.886597 72.0
1055.009399 172.0
1055.261475 136.0
1055.37146 88.0
1055.720581 64.0
1055.824097 48.0
1056.186279 76.0
1056.360962 176.0
1056.749023 60.0
1057.027344 64.0
1057.318481 96.0
1057.460938 208.0
1057.771606 144.0
1057.842773 120.0
1058.554932 104.0
1058.930542 184.0
1059.423706 96.0
1059.656128 120.0
1060.012451 240.0
1060.200317 192.0
1060.738281 108.0
1060.893921 208.0
1061.030029 96.0
1061.075439 212.0
1061.313354 132.0
1062.061035 184.0
1062.177856 140.0
1062.268677 132.0
1062.956421 188.0
1063.03418 124.0
1063.248413 188.0
1063.326294 56.0
1064.514282 116.0
1064.767578 204.0
1065.209229 68.0
1065.417114 120.0
1065.534058 208.0
1066.125366 140.0
1066.658325 112.0
1066.729736 176.0
1067.178345 96.0
1067.457886 112.0
1067.796143 140.0
1067.932739 152.0
1068.322998 148.0
1068.414062 156.0
1068.511597 180.0
1068.615723 132.0
1068.875977 232.0
1069.207764 224.0
1069.435669 164.0
1069.676514 188.0
1070.633545 128.0
1071.330566 176.0
1072.601196 148.0
1073.070557 120.0
1073.605225 160.0
1073.77478 184.0
1073.996094 156.0
1074.211792 72.0
1074.368408 100.0
1075.399414 172.0
1076.169678 136.0
1076.587524 92.0
1076.822632 204.0
1077.181885 68.0
1077.619629 144.0
1078.514893 112.0
1078.691406 248.0
1078.952881 132.0
1079.162109 148.0
1079.214355 168.0
1079.377808 144.0
1080.175781 188.0
1081.104858 108.0
1081.297607 88.0
1081.621826 124.0
1082.433716 112.0
1082.545044 212.0
1082.70874 72.0
1083.357178 128.0
1083.710938 176.0
1083.933716 144.0
1083.999268 216.0
1084.222046 172.0
1084.713623 92.0
1085.008545 164.0
1085.179077 176.0
1085.349487 84.0
1085.565918 96.0
1085.78894 56.0
1086.280762 108.0
1086.366089 124.0
1086.497314 92.0
1086.799072 48.0
1087.075562 188.0
1087.304321 220.0
1087.685059 188.0
1087.750732 152.0
1087.980469 112.0
1088.032959 200.0
1088.13147 164.0
1089.254395 132.0
1089.319214 216.0
1089.812866 192.0
1089.944214 184.0
1090.141357 68.0
1090.202637 184.0
1090.962891 124.0
1091.252197 140.0
1091.410034 64.0
1091.508667 144.0
1091.986084 124.0
1092.054443 56.0
1092.172852 64.0
1092.508301 88.0
1092.732056 204.0
1092.837891 164.0
1093.018799 176.0
1093.396606 192.0
1093.442627 180.0
1093.541382 172.0
1093.587524 136.0
1093.77832 136.0
1093.956055 184.0
1094.614502 164.0
1094.858154 120.0
1094.943726 172.0
1095.180786 156.0
1095.734131 164.0
1096.21521 124.0
1096.465576 32.0
1096.59082 116.0
1096.781982 144.0
1097.058838 104.0
1097.487305 132.0
1098.519287 192.0
1098.661255 232.0
1098.865845 80.0
1099.136353 188.0
1099.261719 76.0
1099.327637 128.0
1099.552002 124.0
1100.647827 228.0
1100.942993 80.0
1101.116699 72.0
1101.516602 164.0
1101.916016 88.0
1102.09436 124.0
1102.229614 112.0
1102.391724 136.0
1102.530518 60.0
1102.876587 112.0
1103.092285 220.0
1103.151855 136.0
1103.60144 124.0
1103.660889 104.0
1104.540405 176.0
1104.855469 136.0
1105.235107 48.0
1105.393921 168.0
1105.804199 152.0
1106.095459 168.0
1106.141724 224.0
1106.307251 144.0
1106.651489 128.0
1107.081909 140.0
1107.257446 148.0
1107.419678 196.0
1107.730957 140.0
1107.949585 140.0
1108.102051 148.0
1108.373657 192.0
1108.869385 152.0
1109.765503 160.0
1109.845093 180.0
1110.110352 76.0
1110.753662 32.0
1110.98584 260.0
1111.067017 204.0
1111.200928 208.0
1111.257812 104.0
1111.43042 108.0
1111.602905 148.0
1111.667847 176.0
1111.788696 156.0
1111.848389 48.0
1112.127197 68.0
1112.611816 52.0
1113.46936 232.0
1113.740601 124.0
1114.08606 152.0
1114.338501 136.0
1114.68396 224.0
1114.856812 200.0
1114.989746 216.0
1115.508667 52.0
1115.927002 356.0
1116.085327 168.0
1116.478882 116.0
1117.370239 168.0
1117.65625 232.0
1118.293945 204.0
1119.034058 156.0
1119.080688 144.0
1119.819824 140.0
1120.106201 168.0
1120.479248 84.0
1120.545898 212.0
1120.665771 164.0
1120.910645 228.0
1121.172241 48.0
1121.312134 100.0
1121.425537 132.0
1121.498779 104.0
1121.54541 60.0
1121.80542 140.0
1122.378784 88.0
1122.532104 124.0
1122.598877 132.0
1123.064209 128.0
1123.319214 156.0
1123.792847 148.0
1123.839478 40.0
1124.186523 144.0
1124.440063 140.0
1124.947388 252.0
1125.120972 124.0
1125.534912 52.0
1125.743774 100.0
1125.828735 144.0
1125.942261 92.0
1126.022339 108.0
1126.075806 144.0
1126.239502 140.0
1126.369751 140.0
1127.305054 148.0
1127.401978 184.0
1127.679321 184.0
1128.414551 268.0
1128.649902 168.0
1128.963257 148.0
1129.477905 252.0
1129.91272 116.0
1130.534912 104.0
1130.595215 120.0
1131.170776 176.0
1131.458618 96.0
1131.780029 144.0
1131.826904 180.0
1132.10144 168.0
1132.282227 164.0
1132.41626 68.0
1132.523315 204.0
1132.78186 144.0
1133.15979 252.0
1133.642212 36.0
1133.95105 176.0
1134.40625 148.0
1134.7146 136.0
1134.87561 160.0
1134.982788 68.0
1135.257446 148.0
1135.814453 168.0
1135.995483 108.0
1136.163208 232.0
1136.310791 176.0
1136.391357 60.0
1136.733521 116.0
1136.868164 128.0
1137.156372 64.0
1137.515381 148.0
1137.807495 232.0
1138.713989 156.0
1138.98877 232.0
1139.184204 180.0
1139.338989 184.0
1139.392456 108.0
1139.735107 136.0
1140.124756 36.0
1140.352051 188.0
1140.501221 52.0
1140.696045 196.0
1140.864136 188.0
1140.944824 172.0
1141.005371 160.0
1141.281006 40.0
1141.422241 208.0
1141.887695 228.0
1141.987061 112.0
1142.03418 128.0
1142.336914 128.0
1142.538696 188.0
1142.713623 84.0
1142.942383 132.0
1143.379761 88.0
1143.447021 184.0
1143.702759 96.0
1143.850952 208.0
1144.288452 140.0
1144.436646 48.0
1144.537598 160.0
1144.759766 64.0
1144.982056 132.0
1145.06958 168.0
1145.136963 200.0
1145.345703 148.0
1145.547852 120.0
1146.005981 172.0
1146.160889 224.0
1146.315918 176.0
1146.457397 88.0
1146.518066 156.0
1146.585449 124.0
1146.77478 200.0
1147.090942 184.0
1147.171875 148.0
1147.252686 60.0
1147.596558 328.0
1147.778564 100.0
1148.109497 120.0
1148.304565 84.0
1148.426025 192.0
1148.562622 180.0
1148.614868 124.0
1148.662109 160.0
1148.947632 212.0
1149.201782 116.0
1149.269287 192.0
1149.373779 172.0
1149.491943 184.0
1149.586426 180.0
1149.822632 104.0
1150.283081 168.0
1150.311035 124.0
1150.652832 80.0
1150.855469 140.0
1150.916138 152.0
1151.125488 212.0
1151.226807 176.0
1151.301025 164.0
1151.571289 160.0
1151.832642 204.0
1152.159668 148.0
1152.361572 120.0
1153.037354 136.0
1153.101318 192.0
1153.375244 84.0
1153.523926 64.0
1153.726807 208.0
1154.13916 192.0
1154.361694 136.0
1155.083008 152.0
1155.225342 204.0
1155.28894 228.0
1155.491821 60.0
1155.68811 184.0
1155.877563 36.0
1156.533936 180.0
1156.621948 132.0
1156.682861 108.0
1156.745972 232.0
1156.802002 176.0
1156.946899 196.0
1157.095825 216.0
1157.30896 136.0
1157.915161 96.0
1158.070923 244.0
1158.249146 204.0
1158.375732 180.0
1158.463867 152.0
1158.671509 184.0
1158.782227 128.0
1158.944824 164.0
1159.297241 188.0
1159.450317 252.0
1159.615723 152.0
1159.869263 188.0
1160.10376 124.0
1160.354614 164.0
1160.585083 176.0
1160.835938 140.0
1161.005493 192.0
1161.114014 144.0
1161.643066 128.0
1161.744873 200.0
1161.894043 128.0
1162.274048 152.0
1162.341919 128.0
1162.470825 128.0
1162.640503 88.0
1162.708374 248.0
1162.986572 260.0
1163.061279 104.0
1163.408447 200.0
1163.563599 164.0
1163.740112 152.0
1163.848755 92.0
1163.998169 120.0
1164.283325 156.0
1164.378418 164.0
1164.439575 184.0
1164.493896 172.0
1164.670532 92.0
1165.050903 176.0
1165.130859 340.0
1165.326172 180.0
1165.471924 200.0
1165.523071 192.0
1165.573975 124.0
1165.782593 212.0
1165.873047 72.0
1166.219604 48.0
1166.362427 100.0
1166.45752 176.0
1166.545898 184.0
1166.620728 96.0
1166.668213 164.0
1166.885864 160.0
1166.953857 132.0
1167.069336 168.0
1167.457031 124.0
1167.54541 180.0
1167.606567 148.0
1167.73584 160.0
1167.831055 228.0
1168.06665 156.0
1168.456909 148.0
1168.51123 176.0
1168.701782 136.0
1168.769775 120.0
1168.879395 168.0
1169.082886 144.0
1169.212158 296.0
1169.409546 152.0
1169.851929 148.0
1170.015381 132.0
1170.137817 108.0
1170.274048 112.0
1170.362549 256.0
1170.512329 140.0
1170.689453 108.0
1171.217773 116.0
1171.31604 156.0
1171.404541 264.0
1171.452271 128.0
1171.581665 120.0
1171.639771 224.0
1171.806519 80.0
1171.888184 168.0
1171.935913 152.0
1172.085815 56.0
1172.705933 120.0
1173.080933 156.0
1173.237671 144.0
1173.2854 96.0
1173.489868 180.0
1173.789917 80.0
1173.87854 140.0
1174.424194 152.0
1174.744751 116.0
1175.278442 72.0
1175.392944 112.0
1175.478027 224.0
1175.59082 140.0
1175.754517 280.0
1175.805054 196.0
1176.088989 64.0
1176.177734 176.0
1176.319702 120.0
1176.553223 120.0
1177.01062 68.0
1177.119873 164.0
1177.176514 188.0
1177.304199 148.0
1177.402954 124.0
1177.84375 120.0
1177.925903 168.0
1178.021362 128.0
1178.144409 112.0
1178.649902 116.0
1179.018921 176.0
1179.223999 144.0
1179.613647 76.0
1179.839233 68.0
1180.213013 196.0
1180.659668 72.0
1180.70752 124.0
1181.200073 128.0
1181.261597 144.0
1181.398438 132.0
1181.495361 200.0
1181.569458 108.0
1181.907227 184.0
1181.97998 188.0
1182.486328 64.0
1182.855957 100.0
1182.999756 56.0
1183.109985 116.0
1183.18457 100.0
1183.321411 160.0
1183.626953 148.0
1183.780273 220.0
1184.143188 124.0
1184.595215 216.0
1184.94458 88.0
1185.067993 156.0
1185.120728 176.0
1185.321533 176.0
1185.41272 152.0
1185.540771 180.0
1185.58606 192.0
1185.669312 144.0
1185.842285 76.0
1186.027344 204.0
1186.157593 148.0
1186.760864 152.0
1186.84314 160.0
1187.206543 136.0
1187.480957 132.0
1187.528931 116.0
1188.118896 168.0
1188.366943 224.0
1188.567139 176.0
1188.729492 224.0
1188.859863 160.0
1188.92749 140.0
1189.312866 236.0
1189.450073 132.0
1189.576538 124.0
1189.676636 224.0
1189.772705 44.0
1189.841431 120.0
1189.951294 180.0
1190.022705 204.0
1190.136597 184.0
1190.315186 164.0
1190.404419 244.0
1190.692871 176.0
1190.782104 160.0
1191.09436 148.0
1191.210083 180.0
1191.290405 44.0
1191.372803 60.0
1191.585815 180.0
1192.053101 148.0
1192.183594 140.0
1192.252319 72.0
1192.547852 84.0
1192.802246 72.0
1192.864014 100.0
1193.242188 136.0
1193.365967 116.0
1193.510254 188.0
1193.579102 148.0
1193.984741 80.0
1194.142944 176.0
1194.445557 168.0
1194.658813 48.0
1195.188599 76.0
1195.29187 120.0
1195.360596 100.0
1195.456909 108.0
1195.567017 128.0
1195.62207 176.0
1196.138306 144.0
1196.220947 72.0
1196.475586 92.0
1196.530762 72.0
1196.578857 52.0
1196.881836 92.0
1196.957642 244.0
1197.235962 176.0
1197.288086 116.0
1197.784058 68.0
1198.142212 104.0
1199.119141 140.0
1199.182739 92.0
1199.269775 148.0
1199.605835 208.0
1199.713501 144.0
1199.803101 132.0
1199.878906 128.0
1199.996094 172.0
1200.189209 184.0
1200.4375 212.0
1201.056274 144.0
1201.133667 156.0
1201.15979 148.0
1201.727295 108.0
1202.099854 68.0
1202.189575 144.0
1202.50708 172.0
1202.651978 172.0
1202.962646 136.0
1203.009766 260.0
1203.321655 212.0
1203.404419 112.0
1203.480469 188.0
1203.680664 64.0
1203.742798 144.0
1204.039795 136.0
1204.212402 80.0
1204.33667 144.0
1204.571533 132.0
1204.619873 76.0
1204.682129 88.0
1204.778809 124.0
1204.92395 208.0
1205.30603 208.0
1205.348755 124.0
1205.55957 120.0
1205.61853 160.0
1205.726929 184.0
1205.925903 116.0
1205.988037 200.0
1206.361328 144.0
1206.43042 152.0
1206.630981 132.0
1206.817627 220.0
1206.935181 40.0
1207.197876 108.0
1207.336182 168.0
1207.391602 212.0
1207.508423 116.0
1207.868774 44.0
1208.00708 100.0
1208.090088 108.0
1208.581299 120.0
1208.698975 124.0
1209.231812 96.0
1209.314941 112.0
1209.529419 168.0
1209.640259 220.0
1209.917114 52.0
1210.027832 128.0
1210.263306 136.0
1210.608032 204.0
1210.74646 168.0
1210.935059 160.0
1211.170532 160.0
1211.225952 112.0
1211.364502 132.0
1211.482178 144.0
1211.835571 204.0
1211.904785 196.0
1212.061646 152.0
1212.147339 176.0
1212.216675 56.0
1212.292847 168.0
1212.888916 152.0
1213.193848 212.0
1213.353394 60.0
1213.561401 52.0
1213.686279 156.0
1213.755493 52.0
1213.89917 128.0
1213.963501 136.0
1214.116089 156.0
1214.331055 176.0
1214.712524 132.0
1214.837402 172.0
1215.163452 104.0
1215.385498 148.0
1215.511108 192.0
1215.864258 116.0
1216.735596 176.0
1217.113892 144.0
1217.308228 104.0
1217.405518 180.0
1217.690186 124.0
1217.794434 104.0
1217.994507 132.0
1218.093018 156.0
1218.238892 180.0
1218.294556 148.0
1218.840088 80.0
1219.261108 272.0
1219.33374 144.0
1219.399292 192.0
1219.614746 168.0
1219.718994 156.0
1219.7677 100.0
1219.983154 116.0
1220.19873 80.0
1220.358643 176.0
1220.428101 196.0
1220.496338 120.0
1220.588135 164.0
1220.748047 148.0
1220.84375 132.0
1220.895386 208.0
1221.053955 100.0
1221.130493 116.0
1221.210571 136.0
1221.346069 176.0
1221.401733 132.0
1221.526978 36.0
1221.888672 208.0
1222.041748 184.0
1222.180908 116.0
1222.285278 112.0
1222.354858 160.0
1222.46106 156.0
1222.661133 136.0
1222.919189 172.0
1222.974243 148.0
1223.119995 136.0
1223.144775 128.0
1223.164673 200.0
1223.370972 204.0
1223.468506 116.0
1223.59375 184.0
1223.795654 176.0
1223.907715 160.0
1224.060303 168.0
1224.255005 116.0
1224.457275 144.0
1224.99353 172.0
1225.17395 144.0
1225.85022 236.0
1226.065308 128.0
1226.110596 152.0
1226.200317 160.0
1226.749634 132.0
1226.861206 88.0
1226.930908 160.0
1227.098145 172.0
1227.181885 200.0
1227.753662 132.0
1227.858276 148.0
1227.974487 164.0
1228.063354 224.0
1228.213135 136.0
1228.395264 128.0
1228.472046 136.0
1228.792969 208.0
1228.953491 172.0
1229.083984 212.0
1229.332275 96.0
1229.420898 120.0
1229.539551 96.0
1229.686157 156.0
1230.042847 124.0
1230.178467 160.0
1230.300293 192.0
1230.323853 188.0
1230.49585 168.0
1230.71228 168.0
1230.872925 140.0
1231.021729 208.0
1231.093262 212.0
1231.152222 260.0
1231.333862 148.0
1231.494507 120.0
1231.815796 140.0
1231.997437 100.0
1232.332764 160.0
1232.50769 164.0
1233.312012 168.0
1233.541748 68.0
1233.821411 208.0
1233.882202 160.0
1234.052124 136.0
1234.268188 128.0
1234.324829 236.0
1234.485596 72.0
1234.699097 144.0
1234.793335 28.0
1234.926025 156.0
1235.028687 176.0
1235.27063 144.0
1235.327148 196.0
1235.419678 172.0
1235.576782 176.0
1235.793579 200.0
1235.877563 100.0
1235.982788 120.0
1236.248779 100.0
1236.33606 140.0
1236.451416 128.0
1236.731323 180.0
1237.228394 48.0
1237.704468 152.0
1237.858521 116.0
1237.928467 152.0
1238.012573 188.0
1238.232544 116.0
1238.332764 124.0
1238.579834 264.0
1238.755005 192.0
1238.803467 168.0
1239.028198 164.0
1239.084229 64.0
1239.250854 236.0
1239.344971 144.0
1239.539673 156.0
1239.672729 200.0
1239.869019 132.0
1239.995117 168.0
1240.534912 148.0
1240.640015 116.0
1240.780273 188.0
1240.86438 184.0
1241.039673 120.0
1241.383179 180.0
1241.428955 100.0
1241.571289 224.0
1241.684814 148.0
1241.825073 116.0
1242.021484 100.0
1242.175781 268.0
1242.512451 184.0
1242.708984 60.0
1242.765015 208.0
1242.94751 188.0
1243.071777 164.0
1243.129883 148.0
1243.277344 172.0
1243.557983 144.0
1243.736328 176.0
1243.930054 116.0
1244.161743 36.0
1244.266968 120.0
1244.519775 176.0
1244.723389 156.0
1244.955078 232.0
1245.033813 168.0
1245.214966 192.0
1245.57312 104.0
1246.402222 176.0
1246.641113 212.0
1246.704346 168.0
1246.795654 92.0
1247.301758 156.0
1247.618652 176.0
1247.723511 116.0
1247.850098 176.0
1247.90625 168.0
1247.962524 92.0
1248.124268 176.0
1248.454712 216.0
1248.588379 80.0
1248.911865 164.0
1249.045776 164.0
1249.101807 128.0
1249.341064 140.0
1249.404297 164.0
1249.57312 212.0
1249.629395 140.0
1249.831299 156.0
1250.008057 228.0
1250.297974 328.0
1250.607544 124.0
1250.65686 140.0
1250.788818 108.0
1251.12854 116.0
1251.219971 176.0
1251.614258 164.0
1251.872437 192.0
1251.931152 72.0
1252.121338 76.0
1252.611938 172.0
1253.107544 144.0
1253.206177 128.0
1253.614868 336.0
1253.769897 196.0
1253.879761 168.0
1254.446533 132.0
1255.250244 108.0
1255.736816 100.0
1255.907104 116.0
1255.983643 172.0
1256.157104 148.0
1256.491577 156.0
1256.752686 164.0
1256.85144 92.0
1257.161865 152.0
1257.465332 72.0
1257.571167 128.0
1257.698242 116.0
1257.775879 232.0
1257.959473 104.0
1258.022949 128.0
1258.248901 176.0
1258.467773 112.0
1258.609009 152.0
1258.693726 160.0
1258.870239 216.0
1259.463501 132.0
1259.5271 128.0
1259.727295 220.0
1259.837891 136.0
1259.894409 132.0
1259.986206 372.0
1260.261719 164.0
1260.367798 148.0
1260.633179 236.0
1260.735229 252.0
1260.798584 168.0
1260.982544 236.0
1261.123901 72.0
1261.258179 164.0
1261.364258 200.0
1261.491455 120.0
1261.713257 200.0
1261.79541 160.0
1262.134766 124.0
1262.304565 88.0
1262.361084 112.0
1262.859985 196.0
1263.134033 208.0
1263.202759 168.0
1263.344238 104.0
1263.492798 136.0
1263.598877 104.0
1263.712158 176.0
1263.860718 200.0
1263.966797 192.0
1264.271118 64.0
1264.363159 216.0
1264.419678 156.0
1264.71814 164.0
1264.83728 172.0
1265.014282 152.0
1265.332886 56.0
1265.417847 132.0
1265.566528 140.0
1265.71521 100.0
1265.887573 156.0
1266.040894 48.0
1266.218018 164.0
1266.267578 124.0
1266.469482 100.0
1266.565063 176.0
1266.749146 144.0
1266.79834 136.0
1266.950073 168.0
1267.110474 160.0
1267.195557 104.0
1267.287598 68.0
1267.535645 152.0
1267.648926 84.0
1267.698608 152.0
1267.861572 116.0
1268.010376 220.0
1268.315186 124.0
1268.563232 120.0
1268.662476 52.0
1268.740479 148.0
1268.811401 92.0
1268.981567 200.0
1269.029419 184.0
1269.173218 100.0
1269.279297 156.0
1269.506226 248.0
1269.690674 164.0
1270.116211 124.0
1270.243896 168.0
1270.814209 196.0
1270.875244 108.0
1270.95874 324.0
1271.137817 128.0
1271.260132 148.0
1271.610596 172.0
1271.705566 64.0
1271.797852 32.0
1271.989502 96.0
1272.17395 60.0
1272.379761 160.0
1272.509399 136.0
1272.663818 136.0
1272.855591 56.0
1273.064087 184.0
1273.175171 176.0
1273.274414 160.0
1273.430786 132.0
1273.658081 136.0
1273.714966 184.0
1273.856934 232.0
1274.169556 100.0
1274.247681 144.0
1274.546875 180.0
1274.66687 116.0
1274.837524 164.0
1274.958252 148.0
1275.072021 152.0
1275.221191 192.0
1275.398926 112.0
1275.491333 100.0
1275.58374 128.0
1275.69751 132.0
1276.102661 260.0
1276.287598 128.0
1276.42981 180.0
1276.522217 120.0
1276.579102 76.0
1277.254761 140.0
1277.823853 80.0
1277.9021 112.0
1278.101318 68.0
1278.419434 152.0
1278.734741 104.0
1278.962402 152.0
1279.211548 152.0
1279.403809 144.0
1279.467896 176.0
1279.738403 172.0
1280.421997 108.0
1280.62854 204.0
1280.67627 132.0
1281.23877 216.0
1281.526123 120.0
1281.982178 40.0
1282.260132 116.0
1282.375977 120.0
1282.488159 84.0
1282.770386 188.0
1282.9729 104.0
1283.186768 112.0
1283.258057 116.0
1283.404053 180.0
1283.474976 124.0
1283.728638 132.0
1284.063843 148.0
1284.227905 140.0
1284.391968 176.0
1284.648682 116.0
1284.912354 156.0
1285.504395 220.0
1285.562012 144.0
1285.854614 204.0
1285.910156 112.0
1286.125854 144.0
1286.21521 152.0
1286.618408 152.0
1286.903931 76.0
1286.973877 152.0
1287.310913 148.0
1287.775146 44.0
1288.003662 212.0
1288.146606 164.0
1288.325195 112.0
1288.4823 88.0
1288.59668 220.0
1288.703735 128.0
1288.825317 140.0
1288.921143 208.0
1289.077148 176.0
1289.355713 172.0
1289.518433 100.0
1290.08313 256.0
1290.176025 44.0
1290.533569 256.0
1290.748047 48.0
1291.005493 160.0
1291.520386 144.0
1291.624268 116.0
1291.749268 80.0
1291.956787 184.0
1292.228638 140.0
1292.394043 216.0
1292.588745 140.0
1292.643555 88.0
1292.729492 96.0
1292.92688 124.0
1293.051514 52.0
1293.115967 128.0
1293.180298 148.0
1293.644043 152.0
1293.721436 168.0
1293.767334 208.0
1293.932007 152.0
1294.082275 88.0
1294.218384 172.0
1294.332886 168.0
1294.640869 124.0
1294.898682 116.0
1294.94873 204.0
1295.079712 188.0
1295.364258 148.0
1295.481934 104.0
1295.630493 160.0
1295.828125 144.0
1295.901489 216.0
1295.965942 44.0
1296.030518 168.0
1296.248413 116.0
1296.345703 180.0
1296.474731 136.0
1296.969238 404.0
1297.040894 172.0
1297.370728 152.0
1297.522827 180.0
1297.635986 156.0
1297.779297 160.0
1297.897461 188.0
1298.05188 128.0
1298.919678 176.0
1298.980957 124.0
1299.070557 96.0
1299.163574 48.0
1299.242432 156.0
1299.356812 128.0
1299.507935 196.0
1299.593994 136.0
1299.721069 124.0
1299.816406 80.0
1300.038818 64.0
1300.376221 176.0
1300.447876 96.0
1300.605835 124.0
1301.158569 280.0
1301.438599 120.0
1301.488892 164.0
1301.812012 144.0
1301.883789 172.0
1302.113647 156.0
1302.350586 288.0
1302.408081 44.0
1302.774414 228.0
1302.824707 188.0
1303.651001 236.0
1304.319336 152.0
1304.5625 68.0
1304.693237 208.0
1305.376221 156.0
1305.498413 144.0
1305.591919 140.0
1305.714233 120.0
1305.783203 120.0
1305.879639 80.0
1305.95874 160.0
1306.051514 124.0
1306.217651 116.0
1306.303955 108.0
1306.440674 68.0
1306.591797 92.0
1306.685303 148.0
1306.843628 144.0
1307.311279 180.0
1307.376099 176.0
1307.433594 220.0
1307.671143 224.0
1308.081421 136.0
1308.340576 268.0
1308.412598 168.0
1308.678955 76.0
1309.067749 112.0
1309.146973 72.0
1309.528687 272.0
1309.780396 228.0
1309.924805 200.0
1310.004028 124.0
1310.07605 48.0
1310.256226 204.0
1310.532471 68.0
1310.665283 232.0
1310.883057 184.0
1310.981567 148.0
1311.151123 192.0
1311.229004 48.0
1311.394775 180.0
1311.51001 76.0
1311.783936 160.0
1311.884888 104.0
1311.964233 108.0
1312.202271 188.0
1312.46167 312.0
1312.519287 156.0
1312.692749 148.0
1312.858276 196.0
1312.951538 140.0
1313.165649 188.0
1313.387207 176.0
1313.414917 156.0
1313.608398 152.0
1313.673218 40.0
1314.30249 148.0
1314.44165 200.0
1314.748291 196.0
1314.813232 160.0
1315.484497 120.0
1315.585571 200.0
1315.867188 200.0
1316.30249 200.0
1316.473633 72.0
1317.036987 164.0
1317.166992 208.0
1317.267456 168.0
1317.549927 156.0
1317.624268 132.0
1317.730469 188.0
1317.853271 196.0
1318.229126 228.0
1318.431396 68.0
1318.590454 148.0
1318.669922 176.0
1318.77832 352.0
1318.886719 104.0
1319.024048 140.0
1319.089111 144.0
1319.154175 104.0
1319.262573 32.0
1319.371094 124.0
1319.465088 136.0
1319.537476 336.0
1319.71814 132.0
1320.213989 136.0
1320.287842 164.0
1320.564941 152.0
1320.636475 128.0
1320.766724 168.0
1320.838379 188.0
1321.034302 124.0
1321.157349 96.0
1321.37439 132.0
1321.461182 148.0
1321.538696 208.0
1321.686523 200.0
1321.80127 52.0
1321.98645 136.0
1322.016846 80.0
1322.029907 200.0
1322.126831 184.0
1322.192749 112.0
1322.459839 184.0
1322.713135 196.0
1322.923096 268.0
1322.99292 172.0
1323.104004 164.0
1323.176392 144.0
1323.285034 220.0
1323.400879 180.0
1323.704956 160.0
1323.828125 64.0
1324.081543 172.0
1324.197388 60.0
1324.291626 116.0
1324.574097 156.0
1324.697266 140.0
1324.747925 116.0
1324.856567 120.0
1325.204346 176.0
1325.273682 196.0
1325.719604 180.0
1325.933105 176.0
1326.029175 200.0
1326.182617 240.0
1326.537842 148.0
1326.740723 156.0
1326.921997 136.0
1327.160645 168.0
1327.333374 192.0
1327.458618 140.0
1327.542969 132.0
1328.075073 160.0
1328.328857 136.0
1328.695312 124.0
1328.858521 148.0
1328.994629 176.0
1329.0979 168.0
1329.309082 152.0
1329.576904 232.0
1329.736572 112.0
1329.787354 148.0
1329.897339 176.0
1329.976074 124.0
1330.053101 196.0
1330.14209 176.0
1330.491455 132.0
1330.587891 128.0
1330.671021 152.0
1330.87207 212.0
1331.057739 164.0
1331.351318 188.0
1331.512695 136.0
1331.740356 144.0
1331.814453 104.0
1331.95105 128.0
1332.444946 132.0
1332.738037 148.0
1332.975464 132.0
1333.120728 152.0
1333.349731 356.0
1333.439697 144.0
1333.658569 184.0
1333.723999 344.0
1333.949341 240.0
1334.064453 152.0
1334.36731 156.0
1334.494507 168.0
1334.567261 92.0
1334.640015 156.0
1334.719971 112.0
1334.798462 224.0
1334.91626 152.0
1335.018066 128.0
1335.147949 136.0
1335.472534 232.0
1335.55188 100.0
1335.839966 208.0
1336.122925 192.0
1336.2323 128.0
1336.429199 204.0
1336.569702 148.0
1336.640259 56.0
1336.800293 100.0
1337.260376 112.0
1337.3927 212.0
1337.600952 188.0
1337.819336 76.0
1338.044067 168.0
1338.194946 176.0
1338.253418 88.0
1338.266724 160.0
1338.569214 204.0
1338.64209 188.0
1338.890015 132.0
1339.057129 112.0
1339.137939 148.0
1339.450439 152.0
1339.519409 76.0
1339.712646 196.0
1339.770996 152.0
1339.953125 176.0
1340.055054 76.0
1340.200806 172.0
1340.259155 164.0
1340.448608 172.0
1340.528687 148.0
1340.601562 128.0
1340.71814 184.0
1340.856689 196.0
1341.085693 160.0
1341.153442 144.0
1341.329346 104.0
1341.498047 160.0
1342.037598 120.0
1342.197998 144.0
1342.329224 204.0
1342.434204 188.0
1342.540649 112.0
1342.642822 140.0
1342.883423 148.0
1343.000122 176.0
1343.364868 116.0
1343.525391 140.0
1343.612915 168.0
1343.93396 144.0
1343.99231 152.0
1344.192749 140.0
1344.378174 128.0
1344.57605 164.0
1344.866943 128.0
1345.006714 208.0
1345.101562 116.0
1345.388672 124.0
1345.470215 300.0
1345.583374 132.0
1345.641846 108.0
1345.744019 168.0
1346.006836 252.0
1346.204102 168.0
1346.262451 96.0
1346.342773 116.0
1346.469727 156.0
1346.554199 208.0
1346.715332 92.0
1346.904175 180.0
1347.241211 176.0
1347.320801 168.0
1347.377808 208.0
1347.455566 324.0
1347.515625 192.0
1347.577271 108.0
1347.628418 128.0
1347.692139 160.0
1347.767212 228.0
1347.906128 124.0
1348.008423 180.0
1348.125244 140.0
1348.335205 164.0
1348.549194 140.0
1348.673462 200.0
1348.761108 132.0
1349.097412 176.0
1349.210205 132.0
1349.389771 144.0
1349.492188 128.0
1349.996704 156.0
1350.12085 140.0
1350.238037 96.0
1350.568237 136.0
1350.735352 188.0
1350.860107 172.0
1351.015015 196.0
1351.188965 116.0
1351.291382 152.0
1351.37915 192.0
1351.43042 100.0
1351.488892 164.0
1351.759644 80.0
1352.067017 112.0
1352.337769 92.0
1352.491455 152.0
1352.572021 216.0
1352.659912 120.0
1352.718384 192.0
1353.318726 168.0
1353.391968 144.0
1353.687622 132.0
1353.809326 212.0
1353.919189 112.0
1354.051025 172.0
1354.159302 148.0
1354.219482 108.0
1354.293091 152.0
1354.519775 188.0
1354.578369 152.0
1354.629639 156.0
1354.680908 180.0
1354.944702 128.0
1355.032593 144.0
1355.330322 132.0
1355.484375 128.0
1355.772583 36.0
1355.985229 184.0
1356.05542 124.0
1356.112671 132.0
1356.373657 188.0
1356.457886 160.0
1356.608154 212.0
1356.923462 128.0
1357.070068 184.0
1357.13855 132.0
1357.404785 176.0
1357.45874 52.0
1357.561401 164.0
1357.737305 132.0
1357.91333 100.0
1358.125244 168.0
1358.390137 104.0
1358.485474 48.0
1358.595581 188.0
1358.781616 188.0
1359.013672 180.0
1359.285156 220.0
1359.550659 92.0
1359.64917 192.0
1359.886963 212.0
1360.004395 120.0
1360.30542 60.0
1360.449829 152.0
1360.657715 220.0
1360.800903 148.0
1361.120117 196.0
1361.193726 204.0
1361.267212 260.0
1361.355225 120.0
1361.424072 160.0
1361.480103 168.0
1361.634399 104.0
1361.898804 120.0
1361.986938 88.0
1362.082397 80.0
1362.221924 104.0
1362.356445 152.0
1362.780273 116.0
1363.022705 188.0
1363.31665 220.0
1363.842896 184.0
1363.978149 56.0
1364.055298 92.0
1364.242798 124.0
1364.432739 168.0
1364.529541 172.0
1364.738647 220.0
1365.095703 248.0
1365.161865 180.0
1365.463379 148.0
1365.522217 172.0
1365.588379 192.0
1365.976929 160.0
1366.04541 176.0
1366.162109 152.0
1366.415161 116.0
1366.56897 80.0
1366.682129 196.0
1366.953491 184.0
1367.111328 96.0
1367.17749 92.0
1367.236328 152.0
1367.567627 200.0
1367.796387 180.0
1367.957642 40.0
1368.188843 208.0
1368.266846 180.0
1368.465698 128.0
1368.531982 108.0
1368.693604 168.0
1368.804321 92.0
1368.865723 132.0
1369.032593 168.0
1369.164062 260.0
1369.459839 128.0
1369.518677 148.0
1369.695435 100.0
1369.769165 92.0
1369.902466 84.0
1369.982788 184.0
1370.078491 76.0
1370.189087 104.0
1370.358521 256.0
1370.468994 144.0
1370.52063 56.0
1370.645874 152.0
1370.770996 196.0
1370.881714 92.0
1370.999512 148.0
1371.213257 136.0
1371.375488 192.0
1371.544922 108.0
1371.633423 140.0
1371.736572 92.0
1371.832397 144.0
1371.935669 140.0
1372.034912 148.0
1372.153564 136.0
1372.177979 32.0
1372.326416 196.0
1372.547607 156.0
1372.620972 160.0
1372.702393 192.0
1372.860352 180.0
1373.085938 156.0
1373.270264 164.0
1373.388306 204.0
1373.439331 164.0
1373.823486 48.0
1373.875122 196.0
1374.356812 152.0
1374.44519 136.0
1374.59082 176.0
1374.716309 328.0
1374.787842 244.0
1374.971924 144.0
1375.015503 144.0
1375.143799 120.0
1375.206543 196.0
1375.336182 148.0
1375.578613 200.0
1375.668335 140.0
1375.749634 152.0
1375.865112 168.0
1375.879517 108.0
1376.037476 96.0
1376.148315 116.0
1376.222046 52.0
1376.450928 108.0
1376.554321 76.0
1376.651367 176.0
1376.844482 180.0
1377.006714 144.0
1377.108276 176.0
1377.196899 220.0
1377.292358 164.0
1377.413086 152.0
1377.482544 288.0
1377.743164 212.0
1377.876465 144.0
1377.942993 204.0
1378.061157 176.0
1378.112915 84.0
1378.204712 180.0
1378.312378 60.0
1378.742432 208.0
1378.844482 172.0
1378.976929 148.0
1379.099487 144.0
1379.236206 120.0
1379.443115 176.0
1379.58252 184.0
1379.768433 112.0
1379.908936 200.0
1380.012451 92.0
1380.175049 164.0
1380.27124 180.0
1380.411743 104.0
1380.507812 140.0
1380.766602 156.0
1380.936768 240.0
1381.003296 72.0
1381.306641 132.0
1381.36853 172.0
1381.498901 80.0
1381.550659 160.0
1381.61377 356.0
1381.720825 180.0
1381.95752 164.0
1382.068604 112.0
1382.135498 220.0
1382.223999 112.0
1382.597168 156.0
1382.677124 100.0
1382.779053 184.0
1382.847656 208.0
1382.918213 196.0
1383.015869 120.0
1383.11377 196.0
1383.237915 156.0
1383.371338 124.0
1383.47998 160.0
1383.77832 76.0
1383.867188 136.0
1384.067017 112.0
1384.118896 104.0
1384.275024 188.0
1384.459595 188.0
1384.585449 88.0
1384.77063 140.0
1384.822388 116.0
1384.946411 156.0
1385.078857 132.0
1385.244629 112.0
1385.338989 120.0
1385.452026 212.0
1385.726196 116.0
1385.933594 164.0
1386.000366 128.0
1386.274536 160.0
1386.48938 176.0
1386.63501 136.0
1386.699829 144.0
1386.756226 148.0
1387.37146 96.0
1387.529175 156.0
1387.779175 40.0
1387.868164 104.0
1388.098022 32.0
1388.157349 84.0
1388.290894 164.0
1388.528198 92.0
1388.68396 164.0
1388.772949 80.0
1388.847046 72.0
1388.965698 152.0
1389.143799 168.0
1389.299561 104.0
1389.395996 72.0
1389.514648 148.0
1390.152832 96.0
1390.26416 172.0
1390.338379 108.0
1390.434814 172.0
1390.482666 132.0
1390.687134 176.0
1390.835571 84.0
1391.08252 136.0
1391.266479 188.0
1391.328247 112.0
1391.585327 152.0
1391.800659 96.0
1391.879639 272.0
1392.179443 96.0
1392.345337 216.0
1392.536865 124.0
1392.735962 172.0
1392.900391 180.0
1393.026123 48.0
1393.367798 200.0
1393.427246 152.0
1393.646729 200.0
1393.798828 136.0
1393.939941 116.0
1394.058838 152.0
1394.11084 236.0
1394.326416 108.0
1394.764893 40.0
1394.890015 188.0
1395.047363 188.0
1395.106812 52.0
1395.326782 248.0
1395.508301 228.0
1395.73877 196.0
1395.954468 184.0
1396.281616 144.0
1396.348633 72.0
1396.5271 44.0
1396.742798 132.0
1396.839478 144.0
1396.928711 124.0
1396.99939 168.0
1397.092407 164.0
1397.233765 88.0
1397.285889 136.0
1397.57605 120.0
1397.918335 96.0
1398.186157 96.0
1398.297852 88.0
1398.550903 144.0
1398.603027 64.0
1398.759277 148.0
1398.818848 112.0
1398.873657 132.0
1398.97522 176.0
1399.094238 156.0
1399.146362 184.0
1399.258057 232.0
1399.466553 180.0
1399.533569 120.0
1399.585693 48.0
1399.81189 52.0
1399.920776 116.0
1400.044189 120.0
1400.11438 192.0
1400.166504 172.0
1400.240967 116.0
1400.397339 148.0
1400.471802 80.0
1400.588257 272.0
1400.658081 188.0
1400.717651 168.0
1400.874146 156.0
1401.142334 164.0
1401.231689 192.0
1401.35083 228.0
1401.417969 144.0
1401.53064 160.0
1401.641479 184.0
1401.708496 144.0
1401.798706 168.0
1401.857544 64.0
1401.96936 212.0
1402.05127 192.0
1402.166748 132.0
1402.304688 136.0
1402.401611 64.0
1402.457397 188.0
1402.637207 124.0
1402.707275 160.0
1402.863892 212.0
1403.139648 128.0
1403.221558 132.0
1403.330322 212.0
1403.474609 164.0
1403.683838 68.0
1403.911011 232.0
1404.384888 92.0
1404.556396 132.0
1404.699585 152.0
1404.78772 128.0
1404.877197 168.0
1405.25769 104.0
1405.526245 124.0
1405.593506 96.0
1405.686401 160.0
1405.929199 64.0
1406.009277 168.0
1406.138184 132.0
1406.339722 60.0
1406.518921 72.0
1406.727905 160.0
1406.817505 284.0
1406.949951 140.0
1406.996582 212.0
1407.081665 92.0
1407.144531 184.0
1407.307007 196.0
1407.474487 148.0
1407.604248 140.0
1407.834473 232.0
1407.880371 160.0
1407.989136 144.0
1408.135986 116.0
1408.236206 144.0
1408.564819 192.0
1408.78894 152.0
1409.208496 208.0
1409.311401 180.0
1409.401367 152.0
1409.422729 148.0
1409.61084 68.0
1409.782715 112.0
1409.842407 172.0
1409.924683 144.0
1410.021851 40.0
1410.081543 160.0
1410.208618 152.0
1410.425415 244.0
1410.530029 272.0
1410.582397 80.0
1410.776733 104.0
1410.914062 184.0
1411.008423 140.0
1411.068237 112.0
1411.285156 156.0
1411.385132 212.0
1411.516968 100.0
1411.763672 128.0
1412.198364 284.0
1412.354492 60.0
1412.436768 152.0
1412.514038 148.0
1412.571411 184.0
1412.693726 196.0
1412.795898 136.0
1413.005371 116.0
1413.072632 100.0
1413.203857 296.0
1413.349487 108.0
1413.708618 152.0
1413.925659 148.0
1414.015503 164.0
1414.135254 232.0
1414.217529 80.0
1414.299927 208.0
1414.412231 124.0
1414.591797 276.0
1414.766968 152.0
1414.853882 68.0
1415.160767 136.0
1415.258179 136.0
1415.39563 152.0
1415.520264 132.0
1415.9021 188.0
1415.984497 108.0
1416.10437 136.0
1416.365723 116.0
1416.516357 124.0
1416.650391 152.0
1416.748535 144.0
1416.801025 136.0
1416.883423 164.0
1416.995728 132.0
1417.108154 80.0
1417.217529 236.0
1417.390381 196.0
1417.625122 168.0
1417.767578 212.0
1417.853882 108.0
1417.954956 176.0
1418.043213 132.0
1418.098999 160.0
1418.224731 116.0
1418.299683 184.0
1418.404663 108.0
1418.479614 280.0
1418.562012 104.0
1418.644531 96.0
1418.719727 128.0
1418.929321 124.0
1419.019287 212.0
1419.296509 112.0
1419.401733 92.0
1419.491699 336.0
1419.761719 188.0
1419.827148 148.0
1420.046631 128.0
1420.121704 80.0
1420.234131 164.0
1420.310547 168.0
1420.381348 116.0
1420.470581 236.0
1420.654175 168.0
1420.796753 160.0
1420.856812 100.0
1420.936157 200.0
1421.363647 284.0
1421.438599 96.0
1421.603882 192.0
1421.704712 312.0
1421.869751 32.0
1421.92981 124.0
1422.016602 168.0
1422.089478 368.0
1422.147583 192.0
1422.197998 136.0
1422.263916 244.0
1422.372681 176.0
1422.425171 108.0
1422.567871 144.0
1422.739136 188.0
1422.807983 144.0
1423.018311 84.0
1423.175049 144.0
1423.281006 140.0
1423.382324 116.0
1423.498779 184.0
1423.629028 176.0
1423.686523 112.0
1423.844238 168.0
1423.903442 180.0
1424.062012 88.0
1424.347412 184.0
1424.452637 96.0
1424.542725 132.0
1424.679077 188.0
1424.940918 228.0
1425.320068 104.0
1425.677246 196.0
1425.93042 176.0
1426.045532 124.0
1426.120728 124.0
1426.320068 240.0
1426.428833 128.0
1426.498901 228.0
1426.594238 188.0
1426.707031 384.0
1426.834839 128.0
1427.015259 212.0
1427.346069 204.0
1427.542236 104.0
1427.707031 156.0
1427.890747 196.0
1428.233643 172.0
1428.29126 180.0
1428.399048 148.0
1428.474243 212.0
1428.677368 196.0
1428.933105 188.0
1428.993286 180.0
1429.173828 124.0
1429.249146 128.0
1429.482422 76.0
1429.542603 164.0
1429.603149 204.0
1429.881226 120.0
1430.012573 132.0
1430.087891 116.0
1430.2323 136.0
1430.304932 228.0
1430.415649 124.0
1430.47583 132.0
1430.626465 128.0
1430.957642 132.0
1431.06311 184.0
1431.153442 164.0
1431.213623 136.0
1431.311523 180.0
1431.537476 148.0
1431.622192 92.0
1431.966675 136.0
1432.144775 136.0
1432.253052 160.0
1432.328247 80.0
1432.426147 72.0
1432.494019 168.0
1432.800537 172.0
1433.144653 384.0
1433.224731 104.0
1433.36792 168.0
1433.450806 132.0
1433.684448 144.0
1433.744751 96.0
1433.842651 176.0
1434.019165 136.0
1434.136597 108.0
1434.257202 224.0
1434.445679 188.0
1434.551147 232.0
1434.64917 152.0
1435.04126 40.0
1435.2146 140.0
1435.372925 140.0
1435.455933 92.0
1435.689697 120.0
1435.878174 96.0
1436.247803 380.0
1436.389771 240.0
1436.496704 184.0
1436.904053 176.0
1436.982422 192.0
1437.092651 144.0
1437.537842 48.0
1437.624512 132.0
1437.762451 164.0
1438.171875 72.0
1438.285034 204.0
1438.37561 304.0
1438.435791 168.0
1438.753052 204.0
1438.862305 160.0
1439.100342 152.0
1439.53833 96.0
1439.855469 136.0
1439.923462 44.0
1440.044312 124.0
1440.161743 148.0
1440.23584 124.0
1440.437134 108.0
1440.61084 136.0
1440.799683 180.0
1440.897095 144.0
1441.088501 176.0
1441.434326 192.0
1441.547729 36.0
1441.645874 216.0
1441.744141 248.0
1441.948242 108.0
1442.001099 172.0
1442.099365 144.0
1442.172729 216.0
1442.33374 152.0
1442.390869 112.0
1442.484863 196.0
1442.537842 136.0
1442.765503 160.0
1442.856567 168.0
1443.004395 192.0
1443.077148 204.0
1443.292725 172.0
1443.399658 136.0
1443.697632 152.0
1443.845825 132.0
1444.00354 168.0
1444.027954 144.0
1444.051514 180.0
1444.151733 204.0
1444.231567 140.0
1444.48877 140.0
1444.659058 160.0
1444.798828 216.0
1445.031128 148.0
1445.192261 184.0
1445.264526 180.0
1445.461914 172.0
1445.664551 148.0
1445.81543 148.0
1445.92627 380.0
1446.012085 168.0
1446.100342 128.0
1446.15332 104.0
1446.308228 184.0
1446.380493 80.0
1446.997681 120.0
1447.122314 136.0
1447.285034 164.0
1447.735718 84.0
1447.889526 124.0
1447.978027 116.0
1448.243042 180.0
1448.652466 192.0
1448.94043 156.0
1449.131958 140.0
1449.197632 172.0
1449.318848 204.0
1449.371826 88.0
1449.477905 204.0
1450.129639 144.0
1450.228149 88.0
1450.311523 120.0
1450.622314 156.0
1450.711914 124.0
1450.813721 216.0
1451.009033 236.0
1451.137817 44.0
1451.240845 164.0
1451.380493 172.0
1451.470337 160.0
1451.654663 152.0
1451.803223 288.0
1451.987183 224.0
1452.176758 144.0
1452.343628 92.0
1452.396729 184.0
1452.653687 132.0
1453.132568 116.0
1453.256592 116.0
1453.352539 108.0
1453.667236 136.0
1453.762329 176.0
1453.885498 180.0
1454.073486 152.0
1454.248047 152.0
1454.36377 176.0
1454.37854 216.0
1454.453003 88.0
1454.635132 168.0
1454.683594 84.0
1454.756592 112.0
1454.88562 164.0
1455.158936 120.0
1455.219727 132.0
1455.415405 144.0
1455.675293 124.0
1455.816528 204.0
1455.924438 116.0
1456.320801 200.0
1456.449951 96.0
1456.518311 148.0
1456.609497 196.0
1456.753784 172.0
1456.937622 140.0
1457.034912 180.0
1457.266479 256.0
1457.391968 176.0
1457.541016 276.0
1457.688354 188.0
1458.212646 92.0
1458.273438 184.0
1458.653564 172.0
1458.831543 184.0
1459.001099 204.0
1459.106201 424.0
1459.276855 172.0
1459.520142 112.0
1459.815918 152.0
1459.991699 184.0
1460.120972 144.0
1460.227417 180.0
1460.356689 124.0
1460.478394 172.0
1460.661011 124.0
1460.721802 156.0
1460.795776 156.0
1460.843506 208.0
1460.925537 188.0
1461.064941 76.0
1461.14209 228.0
1461.28479 36.0
1461.338013 136.0
1461.44458 192.0
1461.668335 128.0
1461.847778 132.0
1461.901123 100.0
1461.969238 144.0
1461.994263 132.0
1462.091309 176.0
1462.403442 184.0
1462.502319 176.0
1462.567139 120.0
1462.624146 132.0
1462.7771 168.0
1463.125244 168.0
1463.248291 144.0
1463.408203 128.0
1463.491943 176.0
1463.758423 168.0
1464.058472 152.0
1464.154419 52.0
1464.252075 272.0
1464.367676 188.0
1464.661865 124.0
1464.779053 160.0
1464.946777 192.0
1465.129395 172.0
1465.197998 96.0
1465.327515 124.0
1465.723755 132.0
1465.891357 180.0
1466.203857 188.0
1466.302856 80.0
1466.473145 156.0
1466.562012 124.0
1466.787354 176.0
1466.856567 112.0
1466.874512 144.0
1467.171875 148.0
1467.343994 132.0
1467.604614 220.0
1467.728394 220.0
1467.789429 32.0
1468.155396 60.0
1468.407715 136.0
1468.513916 132.0
1468.600708 220.0
1468.678467 88.0
1468.81897 112.0
1468.895264 184.0
1468.958374 148.0
1469.045654 272.0
1469.131714 76.0
1469.223267 152.0
1469.272461 128.0
1469.396606 152.0
1469.543701 160.0
1469.612427 224.0
1469.708496 160.0
1470.151001 128.0
1470.21521 76.0
1470.473022 208.0
1470.619629 152.0
1470.711304 140.0
1470.772339 544.0
1470.890015 144.0
1470.970825 308.0
1471.05481 64.0
1471.192139 208.0
1471.352539 148.0
1471.528076 100.0
1471.627319 56.0
1471.772461 152.0
1471.829712 136.0
1471.919189 220.0
1472.022827 156.0
1472.421509 148.0
1472.528442 200.0
1472.597168 184.0
1472.650635 176.0
1472.757568 180.0
1472.912964 160.0
1472.951416 84.0
1472.975708 192.0
1473.147095 116.0
1473.200562 200.0
1473.261719 96.0
1473.40686 52.0
1473.716553 148.0
1473.846069 152.0
1473.969971 152.0
1474.041016 128.0
1474.112915 196.0
1474.193848 192.0
1474.341797 152.0
1474.438354 160.0
1474.552979 144.0
1474.783325 88.0
1474.925659 288.0
1475.256226 172.0
1475.35376 148.0
1475.461304 196.0
1475.711914 140.0
1476.071045 416.0
1476.227295 144.0
1476.280762 208.0
1476.762573 420.0
1476.969116 236.0
1477.114502 172.0
1477.213867 200.0
1477.313354 180.0
1477.374512 128.0
1477.652222 164.0
1477.802612 160.0
1477.943726 132.0
1478.047852 84.0
1478.18457 60.0
1478.441162 204.0
1478.529907 72.0
1478.621704 84.0
1478.736572 168.0
1479.004395 112.0
1479.272339 148.0
1479.432861 236.0
1479.624512 152.0
1479.816162 116.0
1479.930786 48.0
1480.035156 316.0
1480.152832 120.0
1480.252319 76.0
1480.374878 136.0
1480.428467 152.0
1480.543335 152.0
1480.710571 296.0
1480.845581 172.0
1481.033447 164.0
1481.140747 136.0
1481.263306 216.0
1481.398071 192.0
1481.523682 136.0
1481.730591 140.0
1481.991089 120.0
1482.052368 192.0
1482.205566 132.0
1482.271118 180.0
1482.384033 356.0
1482.611694 136.0
1482.690552 212.0
1482.818726 184.0
1482.902954 128.0
1483.063965 100.0
1483.132935 128.0
1483.305176 148.0
1483.408813 80.0
1483.615845 108.0
1483.681396 44.0
1483.780273 152.0
1484.006836 68.0
1484.114136 164.0
1484.259888 200.0
1484.466919 188.0
1484.66626 124.0
1484.75061 196.0
1484.845337 124.0
1484.884521 168.0
1484.99231 140.0
1485.06665 160.0
1485.134155 264.0
1485.379517 128.0
1485.433228 112.0
1485.655762 160.0
1485.896484 168.0
1485.977905 176.0
1486.082031 152.0
1486.131348 204.0
1486.269531 112.0
1486.344727 176.0
1486.489258 192.0
1486.576416 40.0
1486.745239 64.0
1486.852661 220.0
1487.105957 152.0
1487.169922 176.0
1487.306519 212.0
1487.374268 76.0
1487.459106 168.0
1487.582153 128.0
1487.646606 128.0
1488.1875 172.0
1488.280518 160.0
1488.388062 132.0
1488.498657 168.0
1488.572266 100.0
1488.765015 224.0
1488.956299 96.0
1489.040771 188.0
1489.140625 132.0
1489.202026 92.0
1489.326294 132.0
1489.455444 144.0
1489.568848 164.0
1489.639893 112.0
1489.762817 136.0
1489.924072 144.0
1490.008545 172.0
1490.108521 172.0
1490.275513 180.0
1490.307739 132.0
1490.324463 168.0
1490.446167 156.0
1490.500366 168.0
1490.655884 168.0
1490.713745 144.0
1490.869141 148.0
1491.030518 140.0
1491.245728 140.0
1491.394897 140.0
1492.398804 100.0
1492.719116 152.0
1492.880371 160.0
1493.0448 132.0
1493.137085 348.0
1493.22168 44.0
1493.337036 128.0
1493.521606 196.0
1493.687256 120.0
1493.744751 120.0
1493.840942 108.0
1493.872192 56.0
1493.901123 84.0
1494.164795 144.0
1494.244751 96.0
1494.344727 196.0
1494.444824 60.0
1494.558594 356.0
1494.706421 104.0
1494.802612 128.0
1494.952637 32.0
1495.00647 76.0
1495.252808 176.0
1495.329712 152.0
1495.510864 204.0
1495.7146 80.0
1495.837769 120.0
1495.891602 48.0
1495.978271 152.0
1496.040894 144.0
1496.14563 156.0
1496.207275 92.0
1496.345825 56.0
1496.513428 136.0
1496.525757 284.0
1496.67688 116.0
1496.830933 128.0
1496.934692 292.0
1497.06189 156.0
1497.269775 172.0
1497.393066 192.0
1497.453857 112.0
1497.539429 152.0
1497.624146 132.0
1497.755005 100.0
1497.928467 248.0
1498.024658 192.0
1498.15564 140.0
1498.4021 160.0
1498.479126 164.0
1498.699463 208.0
1498.97998 168.0
1499.164062 276.0
1499.396118 104.0
1499.428833 208.0
1499.589966 112.0
1499.729858 352.0
1499.881714 360.0
1499.981934 156.0
1500.094849 144.0
1500.259399 108.0
1500.34082 184.0
1500.407593 112.0
1500.513794 104.0
1500.601807 160.0
1500.883911 192.0
1500.96875 132.0
1501.061279 100.0
1501.132812 220.0
1501.187866 104.0
1501.273682 148.0
1501.377441 152.0
1501.615845 140.0
1501.636963 128.0
1501.732178 172.0
1501.786133 204.0
1501.863281 104.0
1502.093262 224.0
1502.40332 144.0
1502.457275 260.0
1502.572998 180.0
1502.804443 108.0
1503.059082 120.0
1503.190308 180.0
1503.383179 104.0
1503.560669 40.0
1503.784546 116.0
1503.954712 84.0
1504.039185 40.0
1504.098511 212.0
1504.199585 108.0
1504.448364 220.0
1504.571899 116.0
1504.779175 212.0
1504.919312 132.0
1505.131226 184.0
