>compound MLS001158933-01!N-cyclopropyl-3-(7-methoxy-4-methyl-2-oxochromen-3-yl)propanamide
>formula C17H19NO4
>ionization [M+H]+
>parentmass 302.139
#inchi InChI=1S/C17H19NO4/c1-10-13-6-5-12(21-2)9-15(13)22-17(20)14(10)7-8-16(19)18-11-3-4-11/h5-6,9,11H,3-4,7-8H2,1-2H3,(H,18,19)
#inchikey WAXVGUHXLGWVHX
#Ion_Source LC-ESI
#Instrument qTof
#Compound_Source NIH Natural Product Library
#PI Dorrestein
#Data_Collector VVP/LMS
#Scan -1
#Precursor_MZ 302.139
#ExactMass 301.131
#Charge 1
#CAS_Number N/A
#Pubmed_ID N/A
#Smiles COc1ccc2c(C)c(CCC(=O)NC3CC3)c(=O)oc2c1
#INCHI_AUX N/A
#Library_Class 1
#SpectrumID CCMSLIB00000079919
#IonMode Positive
#UpdateWorkflowName UPDATE-SINGLE-ANNOTATED-GOLD
#LibraryQualityString Gold
#TaskID b1d8e8f6646f4e71acdff9ca3d919d08
##Scan# 1822
#SpectrumFile p1-G12_GG12_01_17956.mzXML
#LibraryName NIH_Natural_Products_Library.mgf
#MQScore -1
#Organism NIH_Natural_Products_Library
#TIC_Query 0
#RT_Query -1
#MZErrorPPM -1
#SharedPeaks 0
#MassDiff 0
#LibMZ -1
#SpecMZ 302.139
#SpecCharge 0
#internalFilename spec-00000.mgf

>collision 10
94.960472 160.0
94.989571 180.0
95.090462 164.0
95.146759 80.0
95.195297 144.0
95.232498 208.0
95.267349 124.0
95.403198 204.0
95.426529 172.0
95.44014 240.0
95.465416 132.0
95.515984 176.0
95.552948 124.0
95.599327 220.0
95.716438 140.0
95.755386 140.0
95.84877 188.0
95.866432 148.0
95.959999 136.0
95.982025 228.0
96.004982 228.0
96.104332 216.0
96.17292 136.0
96.285873 128.0
96.364868 100.0
96.389412 164.0
96.414818 160.0
96.45977 132.0
96.487961 180.0
96.512558 56.0
96.532112 212.0
96.588829 148.0
96.6436 172.0
96.669044 96.0
96.733627 64.0
96.762993 176.0
96.795456 180.0
96.825653 152.0
96.839363 144.0
96.888336 196.0
96.915764 144.0
96.936859 136.0
96.940483 104.0
96.982399 148.0
97.029442 140.0
97.060814 116.0
97.096115 108.0
97.119652 188.0
97.149071 132.0
97.174576 144.0
97.201012 220.0
97.290367 132.0
97.342339 136.0
97.363022 164.0
97.38855 144.0
97.465172 252.0
97.622429 180.0
97.644058 136.0
97.697166 140.0
97.712906 80.0
97.808838 144.0
97.920891 188.0
97.955048 196.0
97.97081 124.0
98.232994 124.0
98.256668 140.0
98.301521 164.0
98.306473 216.0
98.347443 124.0
98.448128 108.0
98.499481 100.0
98.568634 128.0
98.604202 136.0
98.66214 204.0
98.682831 196.0
98.716888 152.0
98.772263 164.0
98.790886 136.0
98.809853 128.0
98.8237 148.0
98.85704 132.0
98.930573 136.0
98.944435 128.0
98.984032 216.0
99.011757 116.0
99.029579 224.0
99.056747 168.0
99.128639 200.0
99.172241 128.0
99.198006 140.0
99.338799 124.0
99.426102 192.0
99.481575 156.0
99.539261 80.0
99.580963 132.0
99.739914 120.0
99.75383 76.0
99.769737 116.0
99.801544 120.0
99.904968 236.0
99.996498 224.0
100.077881 172.0
100.12989 124.0
100.179688 156.0
100.205582 120.0
100.244797 128.0
100.27533 72.0
100.448799 132.0
100.462761 96.0
100.565132 160.0
100.653297 232.0
100.688316 196.0
100.704292 92.0
100.738251 212.0
100.860146 132.0
101.130173 116.0
101.166199 176.0
101.196228 120.0
101.220261 132.0
101.294357 164.0
101.340439 160.0
101.364487 184.0
101.44265 160.0
101.478737 144.0
101.494774 88.0
101.564964 144.0
101.603081 52.0
101.623146 188.0
101.641205 136.0
101.691376 68.0
101.719475 144.0
101.743561 152.0
101.767654 84.0
101.785728 124.0
101.96537 160.0
101.989517 192.0
102.014771 164.0
102.028839 100.0
102.042915 312.0
102.108818 176.0
102.201805 228.0
102.219917 176.0
102.278282 160.0
102.298409 176.0
102.427292 176.0
102.45549 124.0
102.505371 196.0
102.563431 188.0
102.677216 172.0
102.717552 188.0
102.772026 72.0
102.796432 188.0
102.851929 176.0
102.945625 116.0
102.970512 148.0
103.054344 892.0
103.157906 184.0
103.180008 68.0
103.228539 60.0
103.268982 72.0
103.303368 60.0
103.552338 56.0
103.63945 328.0
103.720512 148.0
103.781326 140.0
103.829994 184.0
103.864479 76.0
103.898964 212.0
103.91925 180.0
103.951714 208.0
104.000427 144.0
104.034935 196.0
104.061043 472.0
104.083664 160.0
104.162865 144.0
104.189278 176.0
104.225426 212.0
104.256325 84.0
104.391373 168.0
104.414902 132.0
104.441345 56.0
104.467789 256.0
104.578857 48.0
104.667244 148.0
104.704216 128.0
104.746674 192.0
104.776566 148.0
104.799637 128.0
104.934158 128.0
105.034042 180.0
105.06678 432.0
105.127983 164.0
105.163841 140.0
105.199371 180.0
105.225914 228.0
105.250412 56.0
105.289215 228.0
105.307594 148.0
105.332108 204.0
105.397484 204.0
105.471054 148.0
105.493538 192.0
105.509895 220.0
105.567146 188.0
105.682892 252.0
105.781975 176.0
105.812683 148.0
105.843399 116.0
105.877327 232.0
105.97039 120.0
106.003174 92.0
106.040062 152.0
106.077995 244.0
106.123184 160.0
106.154861 152.0
106.271782 32.0
106.344528 160.0
106.409294 212.0
106.450706 168.0
106.474876 184.0
106.48098 172.0
106.573608 96.0
106.668144 220.0
106.682533 212.0
106.742157 128.0
106.798615 204.0
106.830597 160.0
106.974648 140.0
107.022171 148.0
107.050117 1716.0
107.090302 48.0
107.116325 160.0
107.128036 248.0
107.155876 48.0
107.19709 64.0
107.223877 124.0
107.240364 188.0
107.280014 256.0
107.302208 196.0
107.376442 132.0
107.423882 156.0
107.498161 236.0
107.584846 240.0
107.623322 208.0
107.661247 68.0
107.737625 384.0
107.751358 160.0
107.795525 48.0
107.850235 208.0
107.927811 184.0
107.988754 128.0
108.022263 168.0
108.066811 168.0
108.116058 60.0
108.174011 100.0
108.206833 136.0
108.260971 172.0
108.309639 108.0
108.382622 248.0
108.426704 160.0
108.459869 164.0
108.47438 148.0
108.522057 136.0
108.561455 144.0
108.760033 148.0
108.888069 164.0
108.905312 180.0
108.937134 88.0
108.97245 160.0
108.997566 184.0
109.030632 140.0
109.057655 128.0
109.088829 212.0
109.110374 244.0
109.128334 192.0
109.211517 216.0
109.230232 180.0
109.330109 148.0
109.40712 120.0
109.525818 52.0
109.552895 152.0
109.615402 176.0
109.652008 212.0
109.825966 156.0
109.905243 116.0
109.924965 168.0
109.948273 152.0
109.986633 160.0
110.045677 168.0
110.073357 192.0
110.139061 132.0
110.189194 124.0
110.239342 260.0
110.293556 132.0
110.423317 116.0
110.450867 184.0
110.496529 96.0
110.523727 48.0
110.613724 172.0
110.726784 36.0
110.747734 180.0
110.835716 52.0
110.873436 152.0
110.919548 88.0
110.9468 196.0
110.975227 136.0
111.017517 220.0
111.06633 108.0
111.081017 172.0
111.215118 44.0
111.246796 120.0
111.303482 192.0
111.343796 200.0
111.385384 32.0
111.465225 184.0
111.486237 248.0
111.513557 220.0
111.671249 188.0
111.749077 176.0
111.824837 228.0
111.869041 48.0
112.029083 164.0
112.055054 184.0
112.216652 132.0
112.395935 188.0
112.419151 172.0
112.44236 160.0
112.478241 132.0
112.566917 248.0
112.604927 44.0
112.729576 160.0
112.784523 152.0
112.813309 208.0
112.875435 140.0
112.974838 104.0
113.00869 116.0
113.063705 264.0
113.080635 116.0
113.171669 184.0
113.245781 36.0
113.264847 128.0
113.324684 148.0
113.38562 140.0
113.400452 80.0
113.428009 176.0
113.466164 44.0
113.559471 164.0
113.59977 128.0
113.65493 236.0
113.695198 160.0
113.724968 184.0
113.765297 232.0
113.848106 164.0
113.87571 208.0
113.922447 112.0
114.032936 176.0
114.134979 28.0
114.222176 40.0
114.290253 132.0
114.317917 208.0
114.334938 180.0
114.354095 204.0
114.374611 332.0
114.437119 172.0
114.496742 160.0
114.542274 180.0
114.660782 204.0
114.682098 224.0
114.711937 80.0
114.731125 120.0
114.756706 176.0
114.778969 188.0
114.834175 184.0
114.884674 216.0
114.940147 84.0
114.959061 148.0
115.016975 172.0
115.053864 6588.0
115.087425 120.0
115.122719 68.0
115.142944 292.0
115.170609 164.0
115.249756 172.0
115.288223 324.0
115.330963 176.0
115.384407 208.0
115.452827 100.0
115.516998 84.0
115.576904 144.0
115.602577 140.0
115.645386 176.0
115.760292 208.0
115.808105 188.0
115.831665 68.0
115.865944 228.0
115.889069 184.0
115.95594 112.0
116.033112 124.0
116.060875 4752.0
116.146767 104.0
116.186745 136.0
116.31707 164.0
116.402161 160.0
116.432228 124.0
116.45813 132.0
116.556824 228.0
116.621292 136.0
116.705132 132.0
116.721428 60.0
116.742805 148.0
116.769646 68.0
116.810516 52.0
116.841301 128.0
116.864868 228.0
116.884773 116.0
116.911636 72.0
116.965965 148.0
117.014961 132.0
117.067726 4456.0
117.20665 108.0
117.238045 232.0
117.2938 156.0
117.32222 168.0
117.394966 212.0
117.514549 100.0
117.538719 276.0
117.553825 48.0
117.57325 40.0
117.740021 192.0
117.798264 204.0
117.860451 88.0
117.886215 156.0
117.959869 140.0
117.977158 212.0
118.018242 120.0
118.049011 324.0
118.074265 532.0
118.137192 136.0
118.173965 136.0
118.233871 172.0
118.288666 184.0
118.347122 224.0
118.391136 160.0
118.433746 136.0
118.503593 164.0
118.581078 108.0
118.672043 104.0
118.787071 172.0
118.823944 112.0
118.845642 152.0
118.86734 108.0
118.908577 108.0
118.991066 160.0
119.012772 120.0
119.047386 860.0
119.084999 1024.0
119.109932 452.0
119.271301 216.0
119.293037 52.0
119.338875 140.0
119.391846 108.0
119.432205 212.0
119.462654 144.0
119.495293 116.0
119.512695 92.0
119.530106 120.0
119.544716 84.0
119.580154 64.0
119.619339 44.0
119.673019 164.0
119.773941 140.0
119.817505 104.0
119.848007 152.0
119.989677 104.0
120.051743 156.0
120.087807 156.0
120.213158 184.0
120.29023 260.0
120.332214 80.0
120.453568 168.0
120.503365 176.0
120.524422 168.0
120.596535 252.0
120.615997 204.0
120.642441 148.0
120.808411 76.0
120.830521 152.0
120.854584 144.0
120.885223 180.0
120.982254 108.0
121.014366 68.0
121.063683 644.0
121.128242 128.0
121.204926 48.0
121.239143 148.0
121.347397 68.0
121.39344 264.0
121.497597 172.0
121.696251 212.0
121.729752 140.0
121.819237 140.0
121.871964 172.0
121.900528 88.0
121.997238 136.0
122.067596 152.0
122.10498 160.0
122.19297 152.0
122.310638 136.0
122.501175 80.0
122.551849 220.0
122.567268 140.0
122.587105 132.0
122.614159 116.0
122.655426 192.0
122.697311 172.0
122.789925 124.0
122.809357 168.0
122.875954 192.0
122.904633 152.0
122.939941 144.0
122.955391 140.0
123.09668 36.0
123.140846 136.0
123.227524 64.0
123.339699 144.0
123.397179 180.0
123.478996 168.0
123.547569 192.0
123.647141 164.0
123.675911 232.0
123.717972 176.0
123.815399 196.0
123.867332 116.0
123.928368 52.0
123.952744 176.0
124.087952 152.0
124.10347 92.0
124.143051 160.0
124.216576 328.0
124.303101 108.0
124.371902 204.0
124.394096 128.0
124.420738 92.0
124.502892 144.0
124.584579 160.0
124.693665 212.0
124.749527 92.0
124.805107 128.0
124.822899 152.0
124.840683 172.0
124.894066 128.0
125.038689 152.0
125.085426 172.0
125.241295 192.0
125.301445 56.0
125.341545 132.0
125.432922 168.0
125.470818 172.0
125.50872 216.0
125.573395 104.0
125.589005 208.0
125.635849 172.0
125.776436 180.0
125.796524 132.0
125.827568 84.0
125.914871 260.0
125.943901 116.0
126.029671 236.0
126.048904 120.0
126.102539 180.0
126.323906 204.0
126.478302 156.0
126.496208 156.0
126.592484 204.0
126.720161 144.0
126.794106 108.0
126.909836 160.0
126.933098 136.0
126.991409 144.0
127.052673 2700.0
127.14621 112.0
127.189209 152.0
127.233757 108.0
127.285393 56.0
127.404434 72.0
127.424652 60.0
127.459549 204.0
127.483078 48.0
127.543755 332.0
127.611687 148.0
127.640427 400.0
127.784866 204.0
127.813629 128.0
127.905907 296.0
127.928413 244.0
127.995956 80.0
128.034241 168.0
128.060883 5516.0
128.157272 188.0
128.190262 108.0
128.241516 156.0
128.26857 96.0
128.286591 132.0
128.302383 136.0
128.367767 200.0
128.425659 228.0
128.478287 144.0
128.606903 84.0
128.645508 120.0
128.661087 184.0
128.694946 60.0
128.712433 216.0
128.750275 296.0
128.794312 92.0
128.880157 120.0
128.995422 156.0
129.020294 80.0
129.038376 140.0
129.068146 4172.0
129.12204 104.0
129.171799 72.0
129.26683 140.0
129.305298 68.0
129.3302 160.0
129.364456 212.0
129.500015 216.0
129.567963 116.0
129.615555 76.0
129.812363 160.0
129.821701 132.0
130.023743 48.0
130.077103 1168.0
130.141785 104.0
130.241699 40.0
130.297806 212.0
130.373474 152.0
130.398483 136.0
130.434845 204.0
130.459854 172.0
130.48941 164.0
130.578094 164.0
130.594009 80.0
130.60994 144.0
130.889526 136.0
130.9263 140.0
130.960464 120.0
130.990067 180.0
131.008301 148.0
131.048248 2268.0
131.081024 364.0
131.127777 184.0
131.179214 176.0
131.277252 236.0
131.469864 212.0
131.541916 188.0
131.622864 160.0
131.678909 156.0
131.793137 160.0
131.889114 68.0
131.92569 156.0
131.9897 132.0
132.019394 356.0
132.056595 10128.0
132.202438 136.0
132.240997 184.0
132.268646 208.0
132.312317 132.0
132.343857 144.0
132.364975 140.0
132.392456 92.0
132.435516 184.0
132.486359 76.0
132.575729 328.0
132.750366 196.0
132.83252 60.0
132.857758 44.0
132.889877 100.0
132.912811 160.0
132.956421 144.0
133.060104 2152.0
133.091003 184.0
133.119415 180.0
133.206573 164.0
133.214279 236.0
133.231949 104.0
133.271011 104.0
133.388214 88.0
133.411209 220.0
133.482483 108.0
133.503174 132.0
133.606689 84.0
133.661469 128.0
133.702209 136.0
133.721741 68.0
133.795395 192.0
133.889801 60.0
134.04184 136.0
134.063278 180.0
134.091537 92.0
134.154785 220.0
134.251617 76.0
134.410782 168.0
134.429245 48.0
134.463867 32.0
134.480972 120.0
134.528488 236.0
134.553894 84.0
134.613922 152.0
134.650879 76.0
134.67482 108.0
134.710922 208.0
134.777924 228.0
134.799927 160.0
134.842514 152.0
134.900421 104.0
134.923538 136.0
135.046158 148.0
135.077225 632.0
135.191849 124.0
135.210358 128.0
135.55542 104.0
135.701447 180.0
135.773331 132.0
135.875977 252.0
135.914841 244.0
135.942673 128.0
135.965607 184.0
136.003021 184.0
136.107498 156.0
136.23291 132.0
136.2724 160.0
136.39093 196.0
136.414169 128.0
136.442734 180.0
136.474609 220.0
136.632767 184.0
136.709549 144.0
136.742142 180.0
136.846893 72.0
136.942368 148.0
136.98494 172.0
137.067841 168.0
137.152069 108.0
137.259308 180.0
137.338608 160.0
137.359589 164.0
137.487915 120.0
137.625641 116.0
137.882599 140.0
137.937759 180.0
138.008835 184.0
138.067291 140.0
138.181915 136.0
138.224808 200.0
138.270828 228.0
138.33374 156.0
138.337082 224.0
138.483887 156.0
138.518326 172.0
138.526596 120.0
138.586975 160.0
138.626434 152.0
138.715866 164.0
138.786194 104.0
138.882355 84.0
138.92926 92.0
138.966797 100.0
139.024551 208.0
139.058319 200.0
139.074753 188.0
139.121704 160.0
139.152222 148.0
139.257889 276.0
139.349503 120.0
139.373001 184.0
139.38945 232.0
139.410599 112.0
139.629242 120.0
139.756271 168.0
139.826859 176.0
139.844498 152.0
139.928085 108.0
140.009323 104.0
140.040543 180.0
140.15184 164.0
140.205795 164.0
140.309753 144.0
140.401703 164.0
140.643967 128.0
140.66832 152.0
140.689575 152.0
140.708466 232.0
140.774567 60.0
140.807983 136.0
140.847794 144.0
140.954102 128.0
141.024994 172.0
141.069138 796.0
141.114395 172.0
141.138474 132.0
141.240494 144.0
141.293045 204.0
141.36792 108.0
141.429718 184.0
141.512314 128.0
141.71109 216.0
141.810791 152.0
141.848724 36.0
141.872421 188.0
141.910355 44.0
142.002838 56.0
142.03743 412.0
142.076324 268.0
142.104843 212.0
142.120422 188.0
142.154678 32.0
142.187897 184.0
142.31134 52.0
142.370712 184.0
142.421768 144.0
142.472046 192.0
142.546494 88.0
142.74855 224.0
142.805634 188.0
142.827042 108.0
142.998352 116.0
143.019775 176.0
143.049545 1100.0
143.077057 160.0
143.17775 192.0
143.219772 140.0
143.23645 180.0
143.285049 120.0
143.307922 140.0
143.331757 92.0
143.46283 80.0
143.479523 36.0
143.53595 132.0
143.689392 160.0
143.753815 228.0
143.815872 124.0
143.866501 188.0
143.897507 140.0
143.95195 88.0
144.05658 11868.0
144.128723 172.0
144.176514 116.0
144.214752 240.0
144.300812 40.0
144.473007 164.0
144.5065 180.0
144.571106 164.0
144.598679 180.0
144.626144 128.0
144.767593 404.0
144.7966 124.0
144.851227 40.0
144.937485 108.0
144.968567 140.0
145.062347 2632.0
145.119812 196.0
145.162231 304.0
145.26593 136.0
145.289932 116.0
145.316315 92.0
145.342712 100.0
145.381104 192.0
145.450714 144.0
145.479507 216.0
145.517929 148.0
145.534729 148.0
145.610382 104.0
145.774673 108.0
145.899918 128.0
145.943207 116.0
145.962433 96.0
146.033051 44.0
146.07283 2296.0
146.233795 156.0
146.375031 224.0
146.460617 136.0
146.514023 208.0
146.537704 128.0
146.569016 132.0
146.611237 108.0
146.760986 188.0
146.804611 136.0
146.81105 100.0
146.82077 176.0
146.851456 180.0
146.872787 28.0
146.966873 128.0
147.043411 324.0
147.079117 9988.0
147.155731 196.0
147.180588 108.0
147.251724 160.0
147.27829 40.0
147.319366 116.0
147.336273 44.0
147.370102 72.0
147.394302 188.0
147.437759 156.0
147.469177 136.0
147.521988 80.0
147.575546 156.0
147.594879 52.0
147.686783 168.0
147.75209 104.0
147.773865 228.0
147.795425 180.0
148.032867 132.0
148.081757 592.0
148.107941 176.0
148.129745 40.0
148.158813 40.0
148.250885 164.0
148.430267 140.0
148.464218 140.0
148.563675 140.0
148.64859 156.0
148.755386 76.0
148.840347 136.0
148.973938 116.0
149.003143 180.0
149.059326 748.0
149.085251 364.0
149.114868 108.0
149.161041 132.0
149.18779 48.0
149.205887 252.0
149.245056 152.0
149.328812 144.0
149.401794 100.0
149.434479 216.0
149.562393 52.0
149.583893 144.0
149.869904 236.0
149.896057 220.0
149.961853 224.0
149.987961 148.0
150.060898 276.0
150.108124 116.0
150.132507 116.0
150.176407 148.0
150.215744 160.0
150.314423 176.0
150.381363 232.0
150.54982 132.0
150.601105 120.0
150.684158 188.0
150.852783 128.0
150.885681 172.0
150.91391 144.0
150.975037 128.0
151.039474 212.0
151.100494 180.0
151.251511 184.0
151.282501 188.0
151.393524 164.0
151.572342 148.0
151.599289 184.0
151.635193 240.0
151.678085 248.0
151.707138 132.0
151.731659 144.0
151.763535 396.0
151.81012 140.0
151.915146 136.0
151.939056 276.0
151.967102 232.0
151.991638 120.0
152.023544 144.0
152.045624 120.0
152.062805 112.0
152.144485 140.0
152.165909 128.0
152.296066 48.0
152.330444 52.0
152.461456 328.0
152.527039 180.0
152.554077 164.0
152.573746 56.0
152.672089 236.0
152.691772 100.0
152.713898 168.0
152.834442 112.0
152.851669 112.0
152.932877 104.0
153.048584 152.0
153.102768 128.0
153.15448 156.0
153.235779 192.0
153.307236 296.0
153.462524 96.0
153.741272 140.0
153.802963 184.0
153.819901 84.0
153.906662 228.0
153.990616 100.0
154.044968 164.0
154.081177 324.0
154.126312 212.0
154.198151 172.0
154.233505 132.0
154.257477 144.0
154.31929 164.0
154.358841 124.0
154.62735 204.0
154.702759 200.0
154.73494 172.0
154.815048 276.0
155.014832 128.0
155.06044 1548.0
155.178421 120.0
155.292496 104.0
155.361954 156.0
155.42894 64.0
155.456238 132.0
155.528214 208.0
155.632477 124.0
155.657303 172.0
155.699524 144.0
155.977798 116.0
156.025314 176.0
156.061371 448.0
156.102112 120.0
156.206573 188.0
156.296127 156.0
156.340408 192.0
156.37825 160.0
156.429749 116.0
156.458649 204.0
156.50766 212.0
156.567703 216.0
156.744339 76.0
156.819107 112.0
156.881424 156.0
156.9263 168.0
156.954926 116.0
156.976166 172.0
157.006088 120.0
157.064072 876.0
157.193451 152.0
157.220642 180.0
157.340454 120.0
157.357925 208.0
157.43338 200.0
157.475296 88.0
157.577713 144.0
157.744202 220.0
157.788284 172.0
157.845154 40.0
157.870163 152.0
157.916702 172.0
157.952698 172.0
158.023422 328.0
158.070984 3676.0
158.166153 196.0
158.250504 104.0
158.268036 68.0
158.400772 116.0
158.521027 224.0
158.538483 116.0
158.568649 188.0
158.586197 200.0
158.699005 188.0
158.82341 144.0
158.85788 160.0
158.884598 256.0
158.947327 116.0
158.98497 172.0
159.04158 896.0
159.078796 3084.0
159.112976 136.0
159.182556 152.0
159.233505 116.0
159.251083 32.0
159.281235 44.0
159.328964 152.0
159.34906 184.0
159.374191 208.0
159.393723 232.0
159.434494 60.0
159.460968 180.0
159.630569 192.0
159.727646 188.0
159.914185 152.0
159.946243 120.0
159.980301 160.0
160.021896 172.0
160.051422 12368.0
160.123825 32.0
160.31781 172.0
160.44426 120.0
160.484177 80.0
160.529572 160.0
160.55983 140.0
160.726334 156.0
160.774277 168.0
160.827271 84.0
160.84494 160.0
160.877029 192.0
161.056519 2224.0
161.094116 1712.0
161.120193 180.0
161.195999 176.0
161.221268 84.0
161.347656 52.0
161.413391 64.0
161.481674 44.0
161.532257 216.0
161.767593 52.0
161.815704 236.0
161.848511 188.0
162.003113 112.0
162.064606 176.0
162.098495 532.0
162.127258 124.0
162.195694 124.0
162.34021 60.0
162.370636 144.0
162.430023 204.0
162.464493 52.0
162.53299 76.0
162.725891 184.0
162.796997 156.0
162.817307 180.0
163.002747 160.0
163.033173 136.0
163.104416 116.0
163.160339 152.0
163.2061 96.0
163.317993 76.0
163.422302 80.0
163.44989 128.0
163.776154 160.0
163.799423 236.0
163.890793 148.0
163.918823 176.0
164.104904 144.0
164.233612 172.0
164.369644 156.0
164.436523 140.0
164.676514 148.0
164.764435 144.0
164.924362 176.0
164.980591 96.0
165.05986 128.0
165.095657 48.0
165.116119 168.0
165.141693 184.0
165.443634 148.0
165.556305 168.0
165.587036 124.0
165.61264 164.0
165.707428 88.0
165.725357 208.0
165.822739 64.0
166.286957 212.0
166.314224 176.0
166.502625 100.0
166.533371 144.0
166.558167 172.0
166.576492 184.0
166.7724 188.0
166.79039 124.0
166.993515 184.0
167.01152 140.0
167.155594 176.0
167.227646 68.0
167.266251 76.0
167.345596 224.0
167.423309 144.0
167.51088 196.0
167.544373 160.0
167.771164 164.0
167.838196 132.0
167.858826 128.0
167.887192 96.0
167.967148 148.0
168.004013 220.0
168.220032 144.0
168.36203 128.0
168.48085 172.0
168.563538 148.0
168.584137 140.0
168.710861 124.0
168.759979 168.0
168.785843 188.0
168.816864 36.0
168.837555 60.0
168.985001 132.0
169.018631 52.0
169.065216 288.0
169.160034 328.0
169.189453 100.0
169.233475 128.0
169.287842 208.0
169.362961 180.0
169.441513 196.0
169.529877 204.0
169.561691 164.0
169.702438 144.0
169.865814 164.0
170.094177 164.0
170.130508 168.0
170.174652 100.0
170.195419 64.0
170.268127 180.0
170.338257 128.0
170.369431 156.0
170.392822 168.0
170.436981 156.0
170.478561 108.0
170.50975 156.0
170.58252 144.0
170.615967 148.0
170.912827 148.0
170.998703 140.0
171.055954 180.0
171.079819 324.0
171.118439 124.0
171.141876 128.0
171.199158 160.0
171.25386 240.0
171.412766 188.0
171.472717 108.0
171.631729 200.0
171.720398 96.0
171.76474 56.0
171.798645 168.0
171.88089 192.0
171.960434 152.0
172.025681 104.0
172.054398 152.0
172.086929 104.0
172.117065 172.0
172.153625 144.0
172.205856 168.0
172.263321 144.0
172.354752 112.0
172.377121 196.0
172.479538 172.0
172.493942 172.0
172.529877 64.0
172.57431 260.0
172.596207 188.0
172.639694 112.0
172.710312 172.0
173.021713 204.0
173.060516 156.0
173.092407 152.0
173.178818 140.0
173.325531 172.0
173.379013 180.0
173.438217 160.0
173.625687 200.0
173.686005 216.0
173.755524 184.0
173.785675 220.0
173.849991 180.0
173.928726 116.0
174.010101 140.0
174.06601 3336.0
174.10463 120.0
174.125183 136.0
174.191315 48.0
174.254364 252.0
174.346832 104.0
174.374222 72.0
174.425171 92.0
174.618973 136.0
174.640793 152.0
174.730591 124.0
174.749435 204.0
174.777588 176.0
174.864426 128.0
174.899231 180.0
174.922333 296.0
174.945099 372.0
174.994003 188.0
175.018173 180.0
175.046021 340.0
175.074722 60088.0
175.123352 124.0
175.142471 128.0
175.17424 152.0
175.229538 160.0
175.254288 96.0
175.288269 68.0
175.311874 144.0
175.345688 132.0
175.380112 76.0
175.401443 100.0
175.459747 40.0
175.47821 116.0
175.508255 220.0
175.524002 232.0
175.544128 176.0
175.567703 68.0
175.633041 140.0
175.675995 92.0
175.694473 304.0
175.718216 44.0
175.745834 152.0
175.779953 72.0
175.794525 52.0
175.818481 64.0
175.846436 116.0
175.87677 48.0
175.934616 68.0
176.003265 112.0
176.027039 172.0
176.077667 6816.0
176.153488 68.0
176.182465 52.0
176.222488 32.0
176.277985 104.0
176.391632 188.0
176.459 140.0
176.510605 72.0
176.555145 256.0
176.582001 44.0
176.616394 52.0
176.740723 68.0
176.793655 52.0
176.870407 124.0
176.904953 84.0
176.992188 108.0
177.057098 492.0
177.077484 392.0
177.148453 88.0
177.169647 184.0
177.233231 156.0
177.253525 152.0
177.283569 64.0
177.302124 132.0
177.375259 108.0
177.406219 160.0
177.445267 260.0
177.516861 96.0
177.592255 140.0
177.62825 72.0
177.656067 132.0
177.72641 96.0
177.74498 140.0
177.763565 40.0
177.820892 192.0
177.8591 200.0
177.898773 140.0
177.952423 212.0
178.066208 68.0
178.119324 160.0
178.19902 52.0
178.291199 116.0
178.331894 40.0
178.363785 116.0
178.386887 192.0
178.475449 176.0
178.498459 116.0
178.623871 104.0
178.717499 116.0
178.75209 104.0
178.850327 48.0
178.919769 92.0
178.949051 136.0
179.000076 172.0
179.031601 124.0
179.063553 180.0
179.204742 188.0
179.252701 196.0
179.298004 164.0
179.345978 36.0
179.471283 184.0
179.551285 92.0
179.612625 172.0
179.715714 136.0
179.812729 216.0
179.980911 100.0
180.098419 76.0
180.1465 152.0
180.229324 152.0
180.445816 344.0
180.513214 192.0
180.546066 140.0
180.667801 132.0
180.73201 160.0
180.8172 168.0
180.954163 160.0
180.983612 128.0
181.254898 128.0
181.291656 192.0
181.331863 196.0
181.423004 144.0
181.474564 120.0
181.54097 208.0
181.648254 116.0
181.718002 192.0
181.771667 148.0
181.836075 60.0
181.916595 188.0
182.018631 148.0
182.093826 160.0
182.171722 148.0
182.246948 116.0
182.335617 152.0
182.386536 208.0
182.528473 184.0
182.561447 272.0
182.580276 68.0
182.771255 140.0
182.921982 184.0
182.95697 132.0
182.989273 64.0
183.096985 132.0
183.167023 88.0
183.196655 124.0
183.247833 252.0
183.29364 136.0
183.412231 44.0
183.490402 132.0
183.520065 36.0
183.660294 40.0
183.689957 152.0
183.749969 196.0
183.795181 148.0
183.849091 172.0
183.892334 224.0
183.978714 168.0
184.040802 116.0
184.156937 80.0
184.278488 180.0
184.36496 212.0
184.383881 148.0
184.408203 164.0
184.437927 72.0
184.567703 136.0
184.633179 188.0
184.667328 124.0
184.721863 132.0
184.813232 196.0
184.846313 72.0
184.94104 124.0
184.965317 132.0
185.01413 156.0
185.056961 160.0
185.111603 164.0
185.144089 136.0
185.195557 216.0
185.390625 160.0
185.667267 172.0
185.702393 52.0
185.737656 192.0
185.783768 212.0
185.813614 232.0
186.14476 152.0
186.215363 176.0
186.487869 188.0
186.587646 172.0
186.631149 144.0
186.659302 220.0
186.678314 264.0
186.750793 172.0
186.862808 180.0
186.94397 72.0
187.033783 128.0
187.077332 136.0
187.346939 136.0
187.458649 124.0
187.643997 184.0
187.742538 168.0
187.776459 180.0
187.845795 92.0
188.041428 276.0
188.10231 180.0
188.230621 64.0
188.341858 220.0
188.501053 124.0
188.531113 172.0
188.63269 172.0
188.667786 176.0
188.819748 124.0
188.864731 160.0
188.965881 160.0
189.020615 168.0
189.089737 5540.0
189.191162 64.0
189.231369 128.0
189.290176 168.0
189.448273 100.0
189.469635 72.0
189.527176 104.0
189.573761 156.0
189.850632 96.0
189.922638 176.0
189.9823 152.0
190.093201 476.0
190.141449 176.0
190.16008 184.0
190.199081 156.0
190.286926 164.0
190.347336 164.0
190.580811 128.0
190.687988 164.0
190.723709 184.0
190.762192 220.0
190.797943 72.0
190.819931 104.0
190.976685 96.0
191.012436 100.0
191.094421 112.0
191.210541 136.0
191.270096 192.0
191.304123 96.0
191.383972 44.0
191.430786 116.0
191.527176 120.0
191.574005 136.0
191.601547 148.0
191.700745 32.0
191.791687 164.0
191.868881 136.0
191.888184 156.0
191.921265 128.0
192.009506 328.0
192.03157 148.0
192.081223 84.0
192.117081 148.0
192.18605 176.0
192.288162 96.0
192.404099 200.0
192.486923 92.0
192.547684 176.0
192.639328 200.0
192.666458 156.0
192.6996 152.0
192.782501 140.0
192.818436 100.0
193.042358 136.0
193.083832 148.0
193.108734 176.0
193.200012 96.0
193.249817 128.0
193.28302 160.0
193.318985 192.0
193.357727 140.0
193.598587 108.0
193.723221 112.0
193.765366 188.0
193.774826 172.0
193.803574 160.0
193.944901 156.0
194.08075 116.0
194.127884 144.0
194.288757 172.0
194.383102 172.0
194.577393 172.0
194.629944 108.0
194.957932 56.0
194.982941 48.0
195.099686 160.0
195.12471 36.0
195.260956 136.0
195.380569 36.0
195.472382 88.0
195.605972 144.0
195.683929 148.0
195.749115 156.0
195.968018 124.0
196.037674 132.0
196.179825 92.0
196.241165 156.0
196.34433 180.0
196.575882 208.0
196.623322 152.0
196.788025 192.0
196.810349 84.0
196.910889 184.0
196.958374 120.0
197.563553 212.0
197.623718 80.0
197.654495 128.0
197.710464 36.0
197.825226 124.0
197.94281 188.0
197.969254 164.0
198.197723 124.0
198.337845 140.0
198.399521 192.0
198.508865 196.0
198.578979 116.0
198.646286 252.0
198.67189 164.0
198.730453 136.0
198.758514 144.0
198.820694 128.0
198.896027 108.0
198.959808 152.0
199.042023 204.0
199.072906 80.0
199.171204 104.0
199.227386 232.0
199.297623 164.0
199.325729 132.0
199.439117 196.0
199.507339 180.0
199.570267 44.0
199.598389 168.0
199.640564 172.0
199.668686 148.0
199.81778 60.0
199.88414 204.0
199.924606 112.0
199.95285 72.0
200.031662 120.0
200.133011 164.0
200.186508 136.0
200.420303 52.0
200.45694 148.0
200.479477 204.0
200.606369 200.0
200.68808 212.0
200.843185 216.0
200.86293 104.0
200.908066 112.0
200.96167 132.0
201.053986 128.0
201.088654 64.0
201.122528 152.0
201.16188 140.0
201.184631 100.0
201.215683 304.0
201.246735 148.0
201.291916 76.0
201.431641 116.0
201.468506 100.0
201.605484 144.0
201.647202 68.0
201.748108 304.0
201.809006 176.0
201.835083 160.0
201.868378 156.0
201.998489 88.0
202.028061 148.0
202.059967 612.0
202.088135 64.0
202.136368 120.0
202.156265 188.0
202.212265 108.0
202.231659 172.0
202.262512 92.0
202.306259 216.0
202.349518 200.0
202.378311 184.0
202.398743 304.0
202.42868 100.0
202.463043 244.0
202.490204 188.0
202.542404 216.0
202.577759 152.0
202.604294 168.0
202.625061 192.0
202.694061 268.0
202.729324 160.0
202.754105 272.0
202.788849 248.0
202.824081 588.0
202.864349 416.0
202.901123 324.0
202.919601 440.0
202.929993 152.0
202.94928 328.0
202.95697 432.0
202.969284 244.0
202.989334 720.0
203.070129 279024.0
203.170334 168.0
203.214828 80.0
203.228973 116.0
203.265396 220.0
203.314575 100.0
203.322769 52.0
203.340698 108.0
203.391968 52.0
203.411087 196.0
203.449066 172.0
203.496338 392.0
203.537354 3368.0
203.577118 380.0
203.623505 112.0
203.679855 168.0
203.71936 144.0
203.729523 88.0
203.75267 144.0
203.790436 60.0
203.818222 228.0
203.852646 120.0
203.875778 216.0
203.907578 80.0
203.950684 188.0
203.970673 56.0
203.988098 204.0
204.072601 42980.0
204.144211 52.0
204.156631 84.0
204.16774 128.0
204.199295 92.0
204.223282 160.0
204.242401 236.0
204.322845 160.0
204.344635 64.0
204.384476 84.0
204.425812 68.0
204.454529 84.0
204.477081 108.0
204.532333 96.0
204.560791 88.0
204.588654 196.0
204.617523 136.0
204.657715 128.0
204.718506 216.0
204.776443 52.0
204.795166 116.0
204.834122 116.0
204.901245 44.0
204.931152 48.0
204.983002 184.0
205.010147 200.0
205.074051 3268.0
205.121765 104.0
205.187317 136.0
205.236771 36.0
205.261078 176.0
205.283264 264.0
205.31456 80.0
205.355911 144.0
205.394119 256.0
205.428528 244.0
205.440048 212.0
205.494263 100.0
205.570999 352.0
205.635864 228.0
205.678024 88.0
205.682983 76.0
205.712662 256.0
205.75058 80.0
205.786804 84.0
205.813187 152.0
205.875076 44.0
205.915314 60.0
205.943878 44.0
205.996246 60.0
206.023849 140.0
206.076263 324.0
206.115921 36.0
206.180954 104.0
206.21817 104.0
206.302124 108.0
206.335358 80.0
206.383118 40.0
206.415848 80.0
206.469757 104.0
206.492249 116.0
206.534592 96.0
206.56987 88.0
206.612778 88.0
206.677734 68.0
206.685425 112.0
206.727066 148.0
206.787323 128.0
206.841705 92.0
206.878922 68.0
207.036407 100.0
207.142181 60.0
207.285629 88.0
207.391663 88.0
207.497742 48.0
207.589493 76.0
207.641113 132.0
208.249573 80.0
208.318512 140.0
208.373093 68.0
208.450668 188.0
208.624649 36.0
208.666245 88.0
208.847412 52.0
208.919327 84.0
209.099686 88.0
209.185257 156.0
209.227264 60.0
209.486435 88.0
209.653549 88.0
209.682373 124.0
210.447433 92.0
210.721191 160.0
210.848343 96.0
210.937943 136.0
210.969742 120.0
211.403595 212.0
211.426743 132.0
211.649643 116.0
211.829208 28.0
211.936401 156.0
212.495987 124.0
212.533707 72.0
212.646881 44.0
212.716537 104.0
213.018539 44.0
213.079559 68.0
213.102798 32.0
213.178009 68.0
213.399261 60.0
213.524292 44.0
213.719193 36.0
213.867615 64.0
214.138397 40.0
214.167526 124.0
214.24617 132.0
214.549255 212.0
214.721298 136.0
214.797134 112.0
214.928421 84.0
215.071411 308.0
215.144394 132.0
215.349289 72.0
215.456879 60.0
215.497772 100.0
215.653976 124.0
215.772507 108.0
215.901169 96.0
215.962585 176.0
216.044495 112.0
216.237183 192.0
216.325424 76.0
216.679779 76.0
216.758896 96.0
216.843872 112.0
216.873184 108.0
216.899567 196.0
216.969925 120.0
217.032608 176.0
217.084915 33160.0
217.18399 52.0
217.236786 96.0
217.279282 148.0
217.335739 88.0
217.386429 60.0
217.46524 56.0
217.489151 28.0
217.576477 80.0
217.603638 60.0
217.696808 148.0
217.797455 60.0
217.831161 84.0
217.87677 72.0
217.897339 44.0
217.991364 108.0
218.033936 212.0
218.087433 4248.0
218.255905 108.0
218.431427 124.0
218.50592 32.0
218.567703 52.0
218.600067 76.0
218.779617 40.0
218.800217 80.0
218.944504 80.0
218.971008 28.0
219.082199 144.0
219.09584 148.0
219.17276 68.0
219.26857 28.0
219.33194 104.0
219.445435 92.0
219.505096 188.0
219.58812 108.0
219.628281 92.0
219.648926 108.0
219.678421 96.0
219.707932 112.0
219.772842 124.0
219.825058 132.0
219.844116 52.0
219.853928 100.0
219.882019 108.0
220.020752 68.0
220.103424 128.0
220.43721 76.0
220.522919 108.0
220.703247 80.0
221.046371 164.0
221.875702 76.0
222.044724 72.0
222.480911 104.0
223.726532 72.0
224.104782 96.0
224.784622 44.0
225.053268 124.0
225.872131 192.0
225.997772 44.0
226.836334 172.0
227.541321 52.0
228.37973 88.0
229.017822 124.0
229.304062 88.0
229.364334 120.0
229.753342 60.0
229.937408 48.0
230.027954 172.0
230.221191 60.0
231.055435 80.0
231.134109 92.0
231.400467 116.0
231.939697 104.0
232.485626 64.0
232.676849 64.0
234.014603 120.0
235.435577 72.0
236.340393 116.0
237.753052 40.0
239.037598 68.0
239.752029 108.0
240.051056 64.0
240.884384 144.0
241.038864 192.0
241.261398 76.0
242.07489 148.0
242.103012 88.0
242.958496 72.0
244.094238 192.0
244.496567 88.0
244.58371 64.0
244.882629 68.0
245.010345 120.0
245.03215 108.0
245.07933 5028.0
245.18483 44.0
245.512177 44.0
245.624451 44.0
245.807541 240.0
245.858459 68.0
245.902145 76.0
246.083282 716.0
247.09584 156.0
247.527786 68.0
247.913086 88.0
249.479324 124.0
252.996826 84.0
253.547974 48.0
254.718765 92.0
257.074799 64.0
257.371674 72.0
257.394012 36.0
257.997894 84.0
258.958313 76.0
260.304779 56.0
261.932159 56.0
263.160889 60.0
263.34494 152.0
265.192413 64.0
266.16153 72.0
267.137451 76.0
269.066711 48.0
271.025848 112.0
272.075378 64.0
272.650208 44.0
272.863861 104.0
273.953186 44.0
274.599243 36.0
274.622314 80.0
276.323578 136.0
278.514801 72.0
280.351349 56.0
282.531708 96.0
284.133087 88.0
285.200958 92.0
285.648163 68.0
285.863495 120.0
287.116699 48.0
287.342682 80.0
294.724152 108.0
297.477722 84.0
297.608185 100.0
299.158722 92.0
299.589203 68.0
300.078583 72.0
303.099487 92.0
305.550781 76.0
307.257904 92.0
307.352112 44.0
310.335693 60.0
311.304169 72.0
312.569641 72.0
318.356445 36.0
319.74649 100.0
320.558441 92.0
326.084076 60.0
328.24408 56.0
330.259277 72.0
331.247467 40.0
332.345947 72.0
335.112915 80.0
337.862061 120.0
338.780945 80.0
338.810242 88.0
340.071686 96.0
348.844604 144.0
349.785736 28.0
350.888428 152.0
351.753906 104.0
354.184448 40.0
355.181519 88.0
355.943359 68.0
358.86322 48.0
361.507324 80.0
364.79953 64.0
365.145538 68.0
365.914185 84.0
365.952271 80.0
367.839386 132.0
369.719849 48.0
370.213715 84.0
371.252228 136.0
372.000427 100.0
378.345886 68.0
380.000763 68.0
383.750122 40.0
384.510803 64.0
387.255432 96.0
389.577576 68.0
395.627075 60.0
399.723114 32.0
402.517426 68.0
410.531189 40.0
415.413086 68.0
417.911621 56.0
419.283936 52.0
424.664368 60.0
424.705383 96.0
427.079468 60.0
427.762512 80.0
427.890137 116.0
432.319153 52.0
433.971924 68.0
437.153717 88.0
444.575592 108.0
450.178741 68.0
454.25885 88.0
461.255219 48.0
461.708435 48.0
463.437805 108.0
464.042145 80.0
464.921509 52.0
467.426819 44.0
473.6091 116.0
475.221771 132.0
482.005646 104.0
487.874359 92.0
487.993073 52.0
492.223053 96.0
496.42691 60.0
502.89566 80.0
510.583923 56.0
510.768341 84.0
517.863892 72.0
523.836975 48.0
524.705139 20.0
525.355042 64.0
525.578552 100.0
526.267761 64.0
532.325806 108.0
533.217041 64.0
534.039978 64.0
547.568848 72.0
547.792419 64.0
549.872009 76.0
558.356689 48.0
559.952148 72.0
585.856567 88.0
589.243286 228.0
589.431702 36.0
589.489685 88.0
590.509766 40.0
593.769226 120.0
597.869568 48.0
603.694397 44.0
605.049744 112.0
607.156738 104.0
622.325928 68.0
626.209717 128.0
631.230225 56.0
645.825134 68.0
651.858154 100.0
654.452332 68.0
658.138794 72.0
665.342529 44.0
671.316223 76.0
672.471863 96.0
674.734436 216.0
675.56189 72.0
676.203491 44.0
700.399841 84.0
704.556641 64.0
711.186462 52.0
718.391357 104.0
719.896484 188.0
721.809509 80.0
725.530701 120.0
725.970337 80.0
727.751831 168.0
728.34259 164.0
731.574341 60.0
735.309753 64.0
736.557007 124.0
740.332153 104.0
740.976746 84.0
745.904297 52.0
760.148132 100.0
764.384888 60.0
766.813477 92.0
769.383972 48.0
772.682617 156.0
775.125122 104.0
784.127869 124.0
789.123962 76.0
791.619507 236.0
795.544312 100.0
797.324829 40.0
803.135254 140.0
807.246765 52.0
810.461914 116.0
810.932312 72.0
813.297485 56.0
817.229431 188.0
817.417786 40.0
819.718323 88.0
828.906982 240.0
833.083862 132.0
847.408936 56.0
850.94104 60.0
852.561646 104.0
853.404541 160.0
863.171265 160.0
868.401001 80.0
870.40802 64.0
875.07074 160.0
879.551086 156.0
881.777771 232.0
883.918579 144.0
885.653198 72.0
885.937561 112.0
887.626709 156.0
890.095215 168.0
912.52594 88.0
914.204163 72.0
914.414795 208.0
920.1474 160.0
922.545776 176.0
923.859863 228.0
925.334778 148.0
927.552002 108.0
927.752014 152.0
933.641785 72.0
936.971313 148.0
938.915771 196.0
939.537964 176.0
939.873535 152.0
941.124817 52.0
942.847412 72.0
944.015076 32.0
944.999878 108.0
951.306152 84.0
951.723633 44.0
952.171936 48.0
957.688843 120.0
961.517639 188.0
966.851135 124.0
970.419067 184.0
975.839355 60.0
976.666443 164.0
977.960632 84.0
980.613953 104.0
985.012817 172.0
988.282532 60.0
991.093872 164.0
991.275574 172.0
994.84436 140.0
1000.886353 208.0
1001.157104 104.0
1003.967773 168.0
1004.939209 52.0
1008.703186 92.0
1011.252258 172.0
1014.045349 168.0
1015.655823 32.0
1017.470703 128.0
1018.505798 200.0
1020.552124 76.0
1020.920959 220.0
1021.223022 212.0
1022.766052 164.0
1028.92395 248.0
1029.211304 80.0
1029.460327 160.0
1032.105835 224.0
1032.892456 220.0
1033.065186 84.0
1040.467041 148.0
1042.599609 48.0
1043.158813 80.0
1045.899048 128.0
1051.093506 116.0
1051.932495 68.0
1058.488281 128.0
1062.720947 244.0
1064.39563 140.0
1064.785278 108.0
1066.922974 104.0
1069.108521 40.0
1072.15625 172.0
1085.990723 176.0
1088.714355 136.0
1089.955933 104.0
1090.35022 96.0
1091.32312 84.0
1091.835938 72.0
1092.052979 40.0
1095.969971 172.0
1096.806885 124.0
1098.224609 160.0
1099.181152 132.0
1099.398926 64.0
1099.610107 140.0
1100.930542 192.0
1103.267456 64.0
1103.447998 56.0
1106.312622 176.0
1106.789307 160.0
1106.994629 192.0
1107.425049 32.0
1107.504517 128.0
1109.810791 172.0
1114.762573 176.0
1116.936646 128.0
1117.435669 80.0
1121.557739 84.0
1124.214233 140.0
1124.432373 200.0
1124.579224 32.0
1125.593994 116.0
1126.061523 96.0
1129.797974 20.0
1130.253052 168.0
1130.319946 148.0
1130.493896 88.0
1131.457764 140.0
1131.625122 168.0
1131.819336 164.0
1134.216064 80.0
1134.438965 96.0
1138.209473 108.0
1139.908936 128.0
1141.246582 176.0
1141.750977 204.0
1146.241089 164.0
1149.673462 88.0
1149.720703 152.0
1150.253906 132.0
1157.752075 180.0
1159.113647 160.0
1159.222168 148.0
1159.845581 48.0
1162.029297 252.0
1162.734985 48.0
1164.126709 188.0
1165.002808 160.0
1166.382324 172.0
1168.116333 156.0
1168.69458 136.0
1172.923706 44.0
1174.082764 128.0
1174.560181 216.0
1175.351685 208.0
1176.798706 176.0
1176.989868 176.0
1177.604492 164.0
1180.66626 176.0
1182.445068 68.0
1184.334717 176.0
1185.732422 140.0
1188.152954 128.0
1188.38623 180.0
1189.745117 176.0
1191.132324 124.0
1192.052979 48.0
1192.121704 196.0
1192.197266 200.0
1192.380615 240.0
1193.200806 160.0
1193.874634 124.0
1193.936523 136.0
1194.087891 140.0
1194.665649 60.0
1195.470703 180.0
1197.177856 100.0
1197.969971 180.0
1198.176636 192.0
1198.362671 108.0
1198.762329 100.0
1202.01709 32.0
1202.479492 84.0
1203.066284 148.0
1203.542603 48.0
1204.115723 88.0
1204.564697 180.0
1205.386841 212.0
1206.064209 172.0
1206.866089 260.0
1209.24585 92.0
1211.177612 228.0
1211.551636 144.0
1211.988159 168.0
1212.050537 128.0
1213.069336 164.0
1213.28418 168.0
1214.019165 84.0
1215.455078 140.0
1216.072754 96.0
1217.767822 144.0
1219.42041 136.0
1220.289429 100.0
1222.014282 248.0
1223.106812 40.0
1223.246094 140.0
1223.454102 164.0
1224.638672 56.0
1225.129639 216.0
1225.467651 196.0
1225.718506 188.0
1225.77417 172.0
1227.342651 160.0
1227.530884 48.0
1228.639893 92.0
1230.789551 224.0
1231.19458 160.0
1233.800903 208.0
1235.52124 148.0
1235.759155 268.0
1236.094971 144.0
1237.796021 172.0
1238.587402 124.0
1239.946655 156.0
1240.191895 164.0
1240.332153 200.0
1240.745728 136.0
1241.341675 72.0
1241.706421 84.0
1242.934082 64.0
1243.327026 224.0
1243.550781 136.0
1244.176392 224.0
1246.16394 92.0
1247.351562 112.0
1247.463989 68.0
1247.688965 136.0
1248.483521 188.0
1248.645264 92.0
1251.446045 216.0
1251.931885 184.0
1252.36145 160.0
1252.78418 32.0
1253.59436 120.0
1254.68689 132.0
1255.243896 184.0
1255.575317 164.0
1255.829224 172.0
1257.684937 116.0
1257.953125 148.0
1260.177734 136.0
1260.552246 100.0
1260.842041 180.0
1261.110596 204.0
1262.899414 92.0
1264.420532 144.0
1264.717896 64.0
1265.100098 180.0
1265.524902 132.0
1265.758545 108.0
1267.012207 196.0
1267.408936 224.0
1267.862427 148.0
1268.883179 64.0
1270.273193 80.0
1271.635498 136.0
1272.139526 168.0
1273.481567 208.0
1273.630737 204.0
1273.957397 188.0
1274.838501 112.0
1276.964233 236.0
1277.739502 196.0
1278.116577 64.0
1278.956421 148.0
1279.432495 168.0
1280.266357 88.0
1280.536987 76.0
1280.73645 188.0
1281.847412 204.0
1282.296875 160.0
1284.921021 220.0
1286.30542 128.0
1286.855103 128.0
1287.819214 88.0
1289.262329 172.0
1289.390991 148.0
1290.584839 228.0
1291.643188 184.0
1291.721924 40.0
1292.058105 128.0
1292.888184 140.0
1293.274658 160.0
1293.360474 124.0
1293.797241 148.0
1295.55896 152.0
1298.175049 232.0
1299.293945 204.0
1301.569824 256.0
1301.856445 116.0
1303.695557 60.0
1304.831177 212.0
1305.787598 164.0
1306.118408 152.0
1307.240723 112.0
1309.335693 172.0
1312.549683 140.0
1312.643433 156.0
1313.674805 152.0
1313.920044 164.0
1315.074707 156.0
1315.341675 220.0
1316.106934 140.0
1316.720825 172.0
1316.814697 172.0
1317.421387 124.0
1320.73938 32.0
1321.983765 140.0
1323.648682 192.0
1325.032104 184.0
1326.967285 96.0
1327.73584 160.0
1328.468506 156.0
1328.598999 64.0
1329.21582 128.0
1329.658447 192.0
1329.99231 84.0
1330.449585 176.0
1330.965088 212.0
1331.153931 132.0
1331.546021 152.0
1332.730103 156.0
1333.108032 136.0
1333.158936 184.0
1334.023804 204.0
1334.758179 152.0
1334.990845 184.0
1335.20166 144.0
1337.348022 196.0
1337.879395 192.0
1338.025024 204.0
1339.029907 148.0
1340.392212 256.0
1340.639893 160.0
1340.785645 144.0
1341.215698 140.0
1341.565552 172.0
1341.942017 164.0
1342.294678 136.0
1342.768677 224.0
1343.038574 188.0
1343.169922 44.0
1343.571045 152.0
1344.446655 164.0
1345.204346 160.0
1345.724121 192.0
1345.775269 192.0
1345.848267 216.0
1346.125977 192.0
1346.870605 120.0
1347.805786 176.0
1348.171143 148.0
1348.741211 196.0
1350.123047 136.0
1350.790161 168.0
1351.117798 80.0
1352.252075 196.0
1353.679565 88.0
1354.038452 100.0
1354.126343 44.0
1354.675659 188.0
1355.496338 128.0
1355.906616 144.0
1357.53418 112.0
1358.392456 164.0
1359.529541 44.0
1359.69104 64.0
1361.203247 196.0
1361.541016 44.0
1361.73938 188.0
1362.091919 136.0
1363.678955 92.0
1363.914185 68.0
1363.980347 180.0
1364.053833 232.0
1364.333252 212.0
1364.436157 160.0
1365.092041 156.0
1365.113892 188.0
1366.694092 180.0
1367.326904 160.0
1367.614014 156.0
1370.714478 168.0
1371.930298 184.0
1373.169434 108.0
1375.154053 136.0
1375.382935 152.0
1375.537842 148.0
1375.64856 136.0
1375.95874 156.0
1376.217041 176.0
1376.556763 124.0
1376.836304 204.0
1377.22876 200.0
1377.635132 180.0
1377.775513 108.0
1377.945435 120.0
1378.817261 112.0
1379.179443 168.0
1379.63855 180.0
1380.61377 180.0
1381.464355 220.0
1381.649292 228.0
1381.767578 188.0
1381.945312 140.0
1382.448486 68.0
1383.647583 152.0
1384.06958 136.0
1385.439697 160.0
1385.69165 136.0
1386.232544 204.0
1389.791748 200.0
1390.845581 152.0
1391.818115 140.0
1392.241455 232.0
1395.667114 144.0
1396.519775 236.0
1396.574341 180.0
1397.199219 108.0
1397.33313 140.0
1397.987915 132.0
1398.427002 80.0
1399.417114 104.0
1399.499023 148.0
1400.02771 128.0
1400.65332 180.0
1403.134888 196.0
1403.984985 132.0
1407.566895 148.0
1408.440674 112.0
1408.769287 196.0
1409.389404 196.0
1409.807861 52.0
1409.979858 120.0
1410.301147 196.0
1410.64502 208.0
1410.802002 44.0
1411.175781 136.0
1412.45459 212.0
1416.721558 156.0
1416.848877 188.0
1417.837891 108.0
1417.995361 164.0
1419.697144 156.0
1420.014404 132.0
1420.7323 88.0
1422.067871 140.0
1422.278076 48.0
1422.973022 132.0
1423.381714 144.0
1423.802246 192.0
1424.125122 116.0
1424.418091 236.0
1424.59082 56.0
1425.748047 176.0
1426.131348 140.0
1426.409424 212.0
1427.281494 120.0
1427.860596 144.0
1428.811523 224.0
1429.259766 244.0
1430.018433 156.0
1430.825317 104.0
1431.01355 80.0
1431.307129 144.0
1431.992432 224.0
1433.039551 212.0
1433.476562 140.0
1434.135132 176.0
1434.355835 164.0
1434.893555 132.0
1436.462158 172.0
1436.582886 156.0
1436.801636 124.0
1437.367554 84.0
1438.416626 404.0
1439.239502 200.0
1439.556641 216.0
1440.228882 172.0
1440.470581 144.0
1441.142944 104.0
1441.233643 200.0
1441.414917 148.0
1441.603882 160.0
1441.664307 260.0
1441.724731 156.0
1442.759399 180.0
1442.851074 140.0
1442.964478 148.0
1443.539062 212.0
1444.363403 80.0
1444.703857 136.0
1445.218262 72.0
1445.619385 140.0
1446.14917 184.0
1446.724365 228.0
1446.785034 136.0
1447.004517 120.0
1447.0802 192.0
1447.193848 152.0
1447.481567 164.0
1447.617798 44.0
1448.276733 148.0
1449.716187 120.0
1449.845093 84.0
1449.958008 168.0
1450.361206 148.0
1451.808594 196.0
1452.165039 176.0
1452.771851 64.0
1452.855225 104.0
1453.469849 168.0
1453.667358 172.0
1454.972656 128.0
1455.853394 80.0
1456.309082 240.0
1456.620483 128.0
1457.851318 160.0
1458.185791 212.0
1458.581055 160.0
1458.755859 108.0
1459.280396 124.0
1460.991577 124.0
1461.478516 132.0
1461.539429 128.0
1462.338379 204.0
1463.27478 164.0
1463.754395 200.0
1463.89917 168.0
1465.094971 180.0
1465.552002 164.0
1466.214966 216.0
1466.298828 140.0
1466.91626 120.0
1467.167847 152.0
1468.067505 124.0
1468.761597 204.0
1469.028564 76.0
1470.165405 228.0
1470.730225 168.0
1471.208252 248.0
1472.226562 184.0
1472.28772 332.0
1472.845215 204.0
1473.173706 148.0
1474.044678 216.0
1474.8396 168.0
1474.893066 92.0
1475.198853 168.0
1475.344116 144.0
1475.741577 180.0
1477.799072 112.0
1478.732666 108.0
1479.130615 204.0
1479.299072 192.0
1480.363281 136.0
1481.037231 176.0
1481.351318 168.0
1481.420288 208.0
1481.768066 184.0
1482.094482 212.0
1482.337646 180.0
1482.508301 76.0
1485.1073 160.0
1485.759277 76.0
1486.127563 40.0
1487.040771 164.0
1487.163574 212.0
1488.868042 332.0
1489.7052 156.0
1490.389038 128.0
1490.811646 96.0
1491.134399 148.0
1491.303467 168.0
1491.380371 180.0
1491.872314 176.0
1492.033813 128.0
1492.410522 172.0
1492.841064 180.0
1493.133301 92.0
1493.94104 100.0
1494.44104 228.0
1494.941162 136.0
1495.241333 76.0
1495.641602 148.0
1495.89563 176.0
1496.365234 104.0
1496.735718 164.0
1497.027344 132.0
1497.112061 204.0
1497.628174 148.0
1497.967041 204.0
1498.19043 164.0
1498.521729 156.0
1498.668091 132.0
1499.32312 192.0
1499.469604 168.0
1499.577393 196.0
1500.163208 152.0
1500.849487 188.0
1501.358398 116.0
1502.199097 200.0
1502.32251 144.0
1502.854858 136.0
1503.05542 156.0
1503.194336 160.0
1503.526245 232.0
1503.788574 136.0
