>compound MLS000860077-01!R(+)-SCH-23390 hydrochloride
>formula C17H18ClNO
>ionization [M+H]+
>parentmass 288.114746
#inchi InChI=1S/C17H18ClNO/c1-19-8-7-13-9-16(18)17(20)10-14(13)15(11-19)12-5-3-2-4-6-12/h2-6,9-10,15,20H,7-8,11H2,1H3/t15-/m1/s1
#inchikey GOTMKOSCLKVOGG
#origInchi InChI=1S/C17H18ClNO.ClH/c1-19-8-7-13-9-16(18)17(20)10-14(13)15(11-19)12-5-3-2-4-6-12;/h2-6,9-10,15,20H,7-8,11H2,1H3;1H/t15-;/m1./s1
#Ion_Source LC-ESI
#Instrument qTof
#Compound_Source NIH Pharmacologically Active Library
#PI Dorrestein
#Data_Collector VP/LMS
#Scan -1
#Precursor_MZ 288.117
#ExactMass 287.108
#Charge 1
#CAS_Number N/A
#Pubmed_ID N/A
#Smiles CN1CCc2cc(Cl)c(O)cc2[C@H](C1)c3ccccc3.Cl
#INCHI_AUX N/A
#Library_Class 1
#SpectrumID CCMSLIB00000085887
#IonMode Positive
#UpdateWorkflowName UPDATE-SINGLE-ANNOTATED-GOLD
#LibraryQualityString Gold
#TaskID d252d724072548979f1f6f1ced849daf
##Scan# 1432
#SpectrumFile p4-G07_GG7_01_18403.mzXML
#LibraryName Pharm_Active_Library.mgf
#MQScore -1
#Organism Pharm_Active_Library
#TIC_Query 0
#RT_Query -1
#MZErrorPPM -1
#SharedPeaks 0
#MassDiff 0
#LibMZ -1
#SpecMZ 288.117
#SpecCharge 0
#internalFilename spec-00000.mgf

>collision 10
44.991768 172.0
45.161484 140.0
45.231068 80.0
45.26186 132.0
45.273911 164.0
45.285965 116.0
45.33152 192.0
45.342239 140.0
45.397209 160.0
45.450867 164.0
45.475555 292.0
45.512615 100.0
45.522015 128.0
45.685997 220.0
45.751392 196.0
45.7883 180.0
45.850277 180.0
45.925781 52.0
45.941971 204.0
46.029705 200.0
46.052662 156.0
46.062119 168.0
46.224365 236.0
46.263618 176.0
46.300179 208.0
46.378765 192.0
46.408588 136.0
46.424862 160.0
46.469627 132.0
46.485912 32.0
46.510342 216.0
46.561939 172.0
46.722282 92.0
46.725864 88.0
46.731033 144.0
46.778137 204.0
46.797653 200.0
46.803822 176.0
46.874844 164.0
46.914368 100.0
46.929367 176.0
47.027592 100.0
47.060356 192.0
47.091766 164.0
47.116356 160.0
47.180592 204.0
47.191528 128.0
47.320145 120.0
47.354382 184.0
47.419067 228.0
47.470875 152.0
47.482735 44.0
47.510654 252.0
47.631462 156.0
47.643826 148.0
47.84462 164.0
47.910728 108.0
47.983772 136.0
48.001701 152.0
48.056877 116.0
48.087826 204.0
48.116226 172.0
48.131413 88.0
48.167324 184.0
48.320145 96.0
48.430145 136.0
48.454792 192.0
48.572922 228.0
48.631203 168.0
48.640919 200.0
48.688946 156.0
48.749256 184.0
48.775661 176.0
48.818592 192.0
48.853539 68.0
48.895283 168.0
48.948185 132.0
48.988579 132.0
49.017838 168.0
49.081963 116.0
49.093117 136.0
49.133568 144.0
49.215919 192.0
49.253628 252.0
49.27179 128.0
49.343071 140.0
49.369637 220.0
49.40041 224.0
49.411602 168.0
49.43499 168.0
49.505386 164.0
49.520794 68.0
49.635715 132.0
49.653946 224.0
49.697433 144.0
49.78447 176.0
49.814873 160.0
49.842064 144.0
49.878609 240.0
49.917976 144.0
49.99535 208.0
50.050251 180.0
50.124912 112.0
50.134777 156.0
50.171425 108.0
50.243351 208.0
50.335766 156.0
50.460251 176.0
50.506111 168.0
50.551388 220.0
50.569439 164.0
50.609554 220.0
50.654747 128.0
50.683083 148.0
50.814949 136.0
50.966881 120.0
51.03511 188.0
51.070663 84.0
51.13327 148.0
51.160316 96.0
51.188793 148.0
51.205883 232.0
51.220127 112.0
51.235798 132.0
51.261337 160.0
51.322742 116.0
51.355541 168.0
51.40976 168.0
51.541138 200.0
51.562576 132.0
51.572578 152.0
51.61404 160.0
51.682701 116.0
51.702164 180.0
51.798672 136.0
51.899235 192.0
51.956367 120.0
51.982193 216.0
52.000851 168.0
52.052467 164.0
52.079823 172.0
52.168919 248.0
52.207741 196.0
52.232193 196.0
52.283993 152.0
52.349052 208.0
52.419365 188.0
52.451073 128.0
52.48135 32.0
52.517403 136.0
52.526997 148.0
52.640079 140.0
52.745552 136.0
52.838108 112.0
52.910477 184.0
52.942333 172.0
53.022015 116.0
53.03796 136.0
53.058254 216.0
53.155437 180.0
53.21545 236.0
53.229473 144.0
53.261425 136.0
53.271595 124.0
53.316639 188.0
53.363155 132.0
53.496292 228.0
53.502327 116.0
53.504841 188.0
53.52467 152.0
53.54797 60.0
53.622402 188.0
53.657265 120.0
53.753536 160.0
53.886993 200.0
53.896641 164.0
53.959492 112.0
53.974113 108.0
54.001904 104.0
54.028297 188.0
54.086769 152.0
54.171703 128.0
54.186356 148.0
54.310966 224.0
54.34354 172.0
54.35498 124.0
54.397541 144.0
54.415462 176.0
54.43425 184.0
54.454811 288.0
54.468288 160.0
54.488598 232.0
54.540031 72.0
54.75518 180.0
54.793156 92.0
54.838837 136.0
54.865372 108.0
54.965672 172.0
55.015854 140.0
55.076401 176.0
55.126637 128.0
55.139938 156.0
55.154716 132.0
55.169498 152.0
55.247883 192.0
55.299675 156.0
55.355934 184.0
55.42704 160.0
55.538235 36.0
55.618362 208.0
55.633205 180.0
55.701519 192.0
55.725288 176.0
55.747578 176.0
55.802433 164.0
55.827763 124.0
55.895412 208.0
55.933498 196.0
55.967587 208.0
56.080967 52.0
56.109291 216.0
56.22105 156.0
56.294868 184.0
56.396214 260.0
56.405991 200.0
56.472057 156.0
56.545486 168.0
56.696716 160.0
56.801712 160.0
56.857231 100.0
56.891754 160.0
56.923286 80.0
56.962337 188.0
56.995392 148.0
57.008915 172.0
57.03146 72.0
57.073555 156.0
57.224026 28.0
57.234566 224.0
57.315907 148.0
57.331833 168.0
57.353584 160.0
57.386753 156.0
57.469711 100.0
57.513115 216.0
57.60408 132.0
57.636829 148.0
57.66478 212.0
57.725151 196.0
57.744701 140.0
57.813164 244.0
57.867237 172.0
57.882378 152.0
57.902687 204.0
57.929329 228.0
57.976303 176.0
58.035423 156.0
58.089882 128.0
58.108227 240.0
58.143131 164.0
58.208412 284.0
58.260052 164.0
58.273727 156.0
58.287403 196.0
58.37101 156.0
58.439461 128.0
58.462288 168.0
58.508686 116.0
58.531406 188.0
58.632862 116.0
58.690788 148.0
58.718239 164.0
58.829632 64.0
58.863224 128.0
59.008553 184.0
59.068031 140.0
59.087917 152.0
59.11087 192.0
59.128262 176.0
59.16291 140.0
59.21957 136.0
59.270126 176.0
59.36977 184.0
59.417324 176.0
59.452618 152.0
59.475639 140.0
59.495598 132.0
59.557022 132.0
59.576992 136.0
59.612999 212.0
59.654217 64.0
59.722408 188.0
59.739952 188.0
59.758415 256.0
59.862511 224.0
59.978645 108.0
60.060371 156.0
60.14798 160.0
60.16655 184.0
60.188469 136.0
60.208546 156.0
60.284245 136.0
60.363384 208.0
60.48996 140.0
60.548798 104.0
60.584427 180.0
60.635563 144.0
60.651062 172.0
60.691326 132.0
60.697479 128.0
60.733246 68.0
60.897778 172.0
60.910206 196.0
60.949047 208.0
60.972355 200.0
60.989075 148.0
61.125496 136.0
61.214405 164.0
61.258663 132.0
61.348015 168.0
61.420788 96.0
61.472275 100.0
61.487881 172.0
61.526905 148.0
61.734726 224.0
61.783218 164.0
61.82077 236.0
61.897476 60.0
61.942898 192.0
61.955944 220.0
61.972668 44.0
62.011845 200.0
62.025951 40.0
62.347721 180.0
62.509701 208.0
62.602585 168.0
62.615181 236.0
62.643536 76.0
62.668743 52.0
62.684502 132.0
62.741245 160.0
62.798016 140.0
62.81221 120.0
63.039185 200.0
63.110706 72.0
63.245182 248.0
63.28001 208.0
63.31485 160.0
63.329105 200.0
63.370293 192.0
63.422592 108.0
63.495529 176.0
63.523476 200.0
63.59866 196.0
63.609772 168.0
63.636761 176.0
63.754314 160.0
63.770206 156.0
63.795639 116.0
63.991333 244.0
64.112099 212.0
64.136307 224.0
64.212112 216.0
64.490662 160.0
64.525833 228.0
64.565811 220.0
64.616997 120.0
64.66021 76.0
64.70343 180.0
64.72905 144.0
64.746666 104.0
64.767487 188.0
64.823563 116.0
64.900505 80.0
64.982307 240.0
65.00798 168.0
65.030449 196.0
65.073799 156.0
65.111839 232.0
65.176598 188.0
65.307175 184.0
65.348648 312.0
65.395775 140.0
65.454887 256.0
65.475822 64.0
65.522537 176.0
65.535423 156.0
65.559593 212.0
65.575714 60.0
65.645042 200.0
65.785416 60.0
65.822548 196.0
65.837082 116.0
65.849327 180.0
65.880699 148.0
65.949196 124.0
66.066612 88.0
66.262306 156.0
66.461952 168.0
66.479805 180.0
66.538239 184.0
66.551231 204.0
66.606445 180.0
66.66494 100.0
66.68119 128.0
66.716049 160.0
66.77243 140.0
66.813629 144.0
66.857422 168.0
66.953606 52.0
67.050652 128.0
67.135429 248.0
67.230049 312.0
67.264473 184.0
67.295822 180.0
67.337807 36.0
67.463631 152.0
67.594482 120.0
67.630486 176.0
67.675362 172.0
67.710716 164.0
67.735283 228.0
67.74839 168.0
68.084656 216.0
68.137222 192.0
68.152008 92.0
68.196381 132.0
68.342751 112.0
68.444801 296.0
68.621109 144.0
68.723373 96.0
68.893433 220.0
68.923172 160.0
69.017395 168.0
69.066849 164.0
69.11499 180.0
69.275589 164.0
69.297569 164.0
69.357895 144.0
69.389946 176.0
69.443016 184.0
69.461861 220.0
69.504395 160.0
69.539246 152.0
69.643852 172.0
69.711975 68.0
69.730423 196.0
69.839996 32.0
69.858292 156.0
69.909874 136.0
70.003098 92.0
70.036407 92.0
70.098869 252.0
70.212006 80.0
70.26313 216.0
70.334892 164.0
70.378296 128.0
70.461815 180.0
70.505928 200.0
70.592194 140.0
70.612259 148.0
70.674156 276.0
70.707626 100.0
70.781288 252.0
70.831535 200.0
71.002846 156.0
71.051147 152.0
71.126671 160.0
71.160553 176.0
71.219025 112.0
71.274467 184.0
71.37532 144.0
71.39901 144.0
71.430824 216.0
71.469521 132.0
71.518326 144.0
71.530113 164.0
71.54863 164.0
71.592407 152.0
71.624413 296.0
71.754173 180.0
71.868874 120.0
71.94651 136.0
71.985344 204.0
72.074875 236.0
72.088394 112.0
72.186447 180.0
72.233803 96.0
72.60305 152.0
72.637329 212.0
72.732002 172.0
72.776146 164.0
72.86277 148.0
72.917145 156.0
73.007256 172.0
73.078697 216.0
73.202965 168.0
73.296654 148.0
73.36142 196.0
73.407455 144.0
73.62249 68.0
73.655434 220.0
73.860069 36.0
73.885727 180.0
73.937065 160.0
73.966164 212.0
74.011589 316.0
74.058632 168.0
74.079185 152.0
74.122017 184.0
74.154579 160.0
74.274605 152.0
74.28833 200.0
74.386147 132.0
74.42907 176.0
74.496056 172.0
74.54245 200.0
74.587135 220.0
74.61808 100.0
74.640434 216.0
74.843483 196.0
74.953728 120.0
74.991638 200.0
75.08992 132.0
75.115791 216.0
75.197372 156.0
75.277061 156.0
75.348862 140.0
75.457748 196.0
75.49752 64.0
75.597855 188.0
75.632477 164.0
75.663635 120.0
75.710388 152.0
75.73983 484.0
75.779678 168.0
75.826469 168.0
75.85247 168.0
75.946106 160.0
76.006416 204.0
76.065025 140.0
76.129753 148.0
76.152657 80.0
76.203041 92.0
76.460403 96.0
76.486511 124.0
76.596222 180.0
76.692062 96.0
76.707748 108.0
76.749588 164.0
76.779236 184.0
76.796677 188.0
76.814125 256.0
76.967712 140.0
76.997398 208.0
77.041069 144.0
77.083 84.0
77.121452 224.0
77.152916 120.0
77.17215 76.0
77.184395 192.0
77.256104 140.0
77.2911 120.0
77.310158 184.0
77.336601 240.0
77.490707 220.0
77.650055 200.0
77.674789 124.0
77.766037 56.0
77.785347 136.0
77.846794 168.0
77.98735 124.0
78.057678 96.0
78.133934 136.0
78.170265 196.0
78.219543 152.0
78.301315 264.0
78.374527 200.0
78.405281 232.0
78.429161 132.0
78.459129 208.0
78.494865 136.0
78.549072 160.0
78.6073 196.0
78.672607 136.0
78.690262 140.0
78.728569 208.0
78.733276 144.0
78.738724 260.0
78.7556 136.0
78.799767 116.0
78.843948 196.0
78.870461 164.0
78.895203 116.0
78.939407 112.0
79.006622 192.0
79.052628 52.0
79.118126 84.0
79.16246 200.0
79.206665 164.0
79.235016 164.0
79.281082 144.0
79.438896 60.0
79.451309 228.0
79.639481 148.0
79.69278 72.0
79.762093 152.0
79.827873 112.0
79.859886 72.0
79.939949 116.0
80.064568 200.0
80.287346 160.0
80.323021 168.0
80.467575 164.0
80.505074 176.0
80.521149 152.0
80.571167 104.0
80.905609 164.0
80.965294 168.0
81.032768 148.0
81.168999 160.0
81.21563 156.0
81.233566 144.0
81.251511 44.0
81.285599 188.0
81.321495 164.0
81.384331 160.0
81.459763 92.0
81.475929 160.0
81.495689 116.0
81.595795 144.0
81.733047 144.0
81.788841 240.0
81.805038 68.0
81.824844 184.0
81.868469 212.0
81.898682 144.0
81.913086 188.0
81.95813 220.0
82.059067 48.0
82.096207 168.0
82.125793 172.0
82.183525 124.0
82.206985 168.0
82.282799 148.0
82.304466 232.0
82.320717 208.0
82.416458 192.0
82.436333 160.0
82.470673 112.0
82.501404 80.0
82.591827 212.0
82.613533 176.0
82.633575 208.0
82.691345 56.0
82.796356 112.0
82.943115 56.0
83.060982 144.0
83.093643 212.0
83.122673 144.0
83.155342 68.0
83.238617 184.0
83.262459 128.0
83.347847 208.0
83.414001 180.0
83.45327 176.0
83.564224 216.0
83.591911 224.0
83.640656 224.0
83.698921 112.0
83.751732 76.0
83.782707 76.0
83.80928 220.0
83.861061 248.0
83.955872 36.0
84.078102 184.0
84.163902 136.0
84.180344 136.0
84.220207 208.0
84.331985 220.0
84.34478 120.0
84.384995 200.0
84.505714 156.0
84.63018 160.0
84.653984 168.0
84.868385 184.0
84.939911 172.0
84.985779 176.0
85.057358 168.0
85.110107 164.0
85.129433 176.0
85.160179 92.0
85.304192 232.0
85.402809 156.0
85.439598 120.0
85.559227 204.0
85.579483 260.0
85.5979 236.0
85.666046 120.0
85.691841 60.0
85.758179 144.0
85.776611 76.0
85.913078 160.0
85.949982 200.0
85.962898 176.0
86.044121 188.0
86.105057 128.0
86.130913 168.0
86.147545 176.0
86.18634 160.0
86.217758 132.0
86.317589 176.0
86.397118 224.0
86.426727 200.0
86.504456 152.0
86.597046 348.0
86.72422 132.0
86.810181 148.0
86.823158 88.0
86.889938 172.0
87.029144 148.0
87.083 144.0
87.12265 200.0
87.193169 192.0
87.227936 68.0
87.261406 200.0
87.317192 80.0
87.346954 144.0
87.382088 124.0
87.441849 200.0
87.516312 156.0
87.588951 172.0
87.613167 144.0
87.77346 256.0
87.792107 168.0
87.836876 264.0
87.993637 180.0
88.105698 64.0
88.118774 128.0
88.131859 136.0
88.272057 200.0
88.333778 88.0
88.367455 112.0
88.382423 236.0
88.540558 212.0
88.592117 184.0
88.708313 72.0
88.81707 200.0
88.835022 204.0
89.000999 160.0
89.079094 192.0
89.134369 136.0
89.160675 160.0
89.312973 124.0
89.48423 120.0
89.514359 112.0
89.538841 124.0
89.670731 220.0
89.697121 136.0
89.79705 172.0
89.841522 172.0
89.859306 204.0
89.921577 100.0
89.987656 184.0
90.014091 168.0
90.04808 128.0
90.093422 248.0
90.212479 172.0
90.337296 156.0
90.401627 132.0
90.449387 188.0
90.473557 176.0
90.596313 220.0
90.613708 184.0
90.706566 200.0
90.805168 80.0
90.827217 148.0
90.877258 100.0
90.911415 156.0
90.949371 124.0
90.974052 132.0
91.021523 164.0
91.054489 14084.0
91.113808 136.0
91.17569 52.0
91.205811 236.0
91.221016 164.0
91.264748 148.0
91.278053 160.0
91.291367 68.0
91.367912 216.0
91.415024 108.0
91.434052 104.0
91.531143 228.0
91.552872 108.0
91.569107 60.0
91.58638 140.0
91.624481 232.0
91.752174 180.0
91.776955 304.0
91.878044 228.0
91.927658 108.0
92.058746 1156.0
92.114769 212.0
92.214134 168.0
92.292519 184.0
92.414932 176.0
92.428329 128.0
92.454254 124.0
92.491486 172.0
92.569984 136.0
92.621696 52.0
92.641754 168.0
92.727081 176.0
92.849846 208.0
92.939957 120.0
92.964897 140.0
93.040977 208.0
93.218391 204.0
93.239532 56.0
93.260674 176.0
93.359779 236.0
93.381813 76.0
93.462616 404.0
93.614685 212.0
93.651283 136.0
93.788094 212.0
93.844002 216.0
93.870995 176.0
94.025566 164.0
94.040627 160.0
94.073586 156.0
94.166275 128.0
94.243172 108.0
94.260941 168.0
94.326653 144.0
94.423508 92.0
94.516197 184.0
94.593201 132.0
94.705925 152.0
94.825623 108.0
94.882271 224.0
95.023857 140.0
95.054993 176.0
95.105362 136.0
95.122833 160.0
95.151955 72.0
95.206329 224.0
95.231575 152.0
95.255775 224.0
95.352043 76.0
95.36953 84.0
95.387032 116.0
95.416191 200.0
95.443413 152.0
95.597092 80.0
95.630173 132.0
95.754784 208.0
95.947701 84.0
95.966805 176.0
96.076424 192.0
96.172432 180.0
96.268272 196.0
96.286766 196.0
96.349754 68.0
96.421295 176.0
96.498291 208.0
96.523293 188.0
96.574562 136.0
96.588257 44.0
96.65477 124.0
96.768303 216.0
96.793755 144.0
96.834885 236.0
96.854469 132.0
96.923042 68.0
96.939255 204.0
97.040649 196.0
97.087715 180.0
97.105362 188.0
97.134789 168.0
97.173981 184.0
97.179077 160.0
97.2015 152.0
97.275848 136.0
97.315346 176.0
97.370636 204.0
97.521622 128.0
97.759598 68.0
97.828491 212.0
97.995895 220.0
98.064568 204.0
98.097992 180.0
98.250237 220.0
98.305489 188.0
98.331146 112.0
98.3647 104.0
98.627426 160.0
98.688713 132.0
98.716393 92.0
98.767815 136.0
98.831123 80.0
98.850319 160.0
98.926132 208.0
98.971664 152.0
99.082588 204.0
99.153923 128.0
99.195549 136.0
99.304611 148.0
99.530853 164.0
99.572556 96.0
99.817001 156.0
99.852798 140.0
99.90332 80.0
99.994057 176.0
100.091606 164.0
100.115509 188.0
100.129448 172.0
100.161316 132.0
100.197174 44.0
100.221085 164.0
100.258949 124.0
100.386543 180.0
100.448372 140.0
100.516205 188.0
100.544144 188.0
100.565826 144.0
100.614014 140.0
100.629982 128.0
100.749817 184.0
100.801765 160.0
100.925705 200.0
101.009705 352.0
101.0336 144.0
101.065727 116.0
101.316002 112.0
101.410187 164.0
101.488365 156.0
101.572601 164.0
101.654861 56.0
101.693001 128.0
102.001442 180.0
102.046303 1148.0
102.077972 168.0
102.124069 212.0
102.145111 140.0
102.414848 124.0
102.455139 92.0
102.471252 124.0
102.590164 120.0
102.652672 124.0
102.697037 168.0
102.711159 76.0
102.761597 72.0
102.888748 172.0
102.919037 144.0
102.953362 172.0
102.994598 184.0
103.014862 188.0
103.053436 3476.0
103.117012 100.0
103.135208 112.0
103.238319 180.0
103.254501 72.0
103.303047 164.0
103.33744 144.0
103.373863 264.0
103.404221 164.0
103.454826 40.0
103.475075 152.0
103.495323 76.0
103.541901 116.0
103.578354 112.0
103.616798 168.0
103.675613 196.0
103.695877 60.0
103.730339 40.0
103.839836 184.0
103.870262 160.0
103.951416 168.0
104.020432 116.0
104.038696 124.0
104.056564 476.0
104.089462 132.0
104.225563 108.0
104.266205 184.0
104.343452 152.0
104.418694 136.0
104.502098 160.0
104.53669 120.0
104.569252 192.0
104.624214 124.0
104.85228 108.0
104.887222 188.0
104.921661 236.0
104.97876 116.0
105.003448 188.0
105.034721 436.0
105.069893 10704.0
105.09594 216.0
105.139931 188.0
105.233833 104.0
105.284882 108.0
105.304184 124.0
105.389069 132.0
105.452415 64.0
105.472855 156.0
105.50148 180.0
105.642586 120.0
105.693741 168.0
105.738762 148.0
105.81041 96.0
105.830887 132.0
105.880035 160.0
105.990654 112.0
106.071251 1156.0
106.140297 200.0
106.22644 108.0
106.341347 128.0
106.390617 172.0
106.452217 116.0
106.530266 48.0
106.550812 100.0
106.57547 284.0
106.894196 140.0
106.920952 28.0
106.964172 120.0
107.02594 116.0
107.048538 788.0
107.075195 144.0
107.231949 172.0
107.283485 92.0
107.3041 112.0
107.341217 100.0
107.355652 128.0
107.403091 196.0
107.464981 192.0
107.518639 140.0
107.54026 184.0
107.694138 156.0
107.731316 148.0
107.768509 188.0
107.785042 156.0
107.803635 160.0
107.844971 128.0
107.969025 168.0
107.98764 136.0
108.049706 212.0
108.069237 100.0
108.178017 364.0
108.20079 172.0
108.291908 104.0
108.378387 204.0
108.414581 172.0
108.721085 180.0
108.762077 144.0
108.802032 116.0
108.825569 192.0
108.937027 152.0
108.964035 168.0
109.117836 52.0
109.165665 160.0
109.201019 84.0
109.24678 188.0
109.280075 236.0
109.295059 176.0
109.453682 296.0
109.484077 96.0
109.521568 56.0
109.544609 196.0
109.567398 216.0
109.581978 160.0
109.602821 156.0
110.01162 192.0
110.059639 144.0
110.07634 156.0
110.106125 216.0
110.222572 140.0
110.28109 128.0
110.331261 148.0
110.391899 196.0
110.440002 192.0
110.481842 244.0
110.531853 208.0
110.638802 120.0
110.668114 112.0
110.76445 108.0
110.829399 196.0
110.8797 132.0
110.925812 184.0
110.9869 116.0
111.227882 152.0
111.261475 60.0
111.278267 136.0
111.440002 140.0
111.488335 192.0
111.505142 164.0
111.624977 192.0
111.755394 168.0
111.786957 40.0
111.877472 200.0
111.955376 152.0
111.999611 188.0
112.064919 180.0
112.123924 132.0
112.284157 36.0
112.311577 168.0
112.385414 168.0
112.412849 116.0
112.486717 200.0
112.573288 204.0
112.613419 200.0
112.653549 68.0
112.716934 136.0
112.765549 136.0
112.839531 232.0
112.915665 144.0
112.941048 132.0
113.002808 184.0
113.010674 184.0
113.116676 140.0
113.142906 236.0
113.209267 176.0
113.286095 112.0
113.334824 156.0
113.425957 184.0
113.504402 144.0
113.555305 164.0
113.580757 240.0
113.638039 64.0
113.693207 200.0
113.742027 212.0
113.971397 80.0
114.014046 60.0
114.077667 136.0
114.175484 184.0
114.341087 148.0
114.420273 208.0
114.498978 160.0
114.565018 160.0
114.58419 332.0
114.677956 76.0
114.729118 176.0
114.751633 196.0
114.767494 240.0
114.793083 148.0
114.851112 172.0
114.867348 156.0
114.871933 128.0
114.908272 192.0
114.928474 196.0
114.950943 184.0
114.995735 176.0
115.011856 332.0
115.054146 10408.0
115.091827 176.0
115.151627 156.0
115.187943 52.0
115.211731 144.0
115.237076 52.0
115.258446 64.0
115.296356 136.0
115.346069 124.0
115.41758 104.0
115.457939 176.0
115.487206 64.0
115.52581 160.0
115.5578 160.0
115.598457 80.0
115.696915 184.0
115.7248 176.0
115.816841 96.0
115.840401 144.0
115.85968 96.0
115.91539 212.0
115.990791 224.0
116.061356 3176.0
116.099754 188.0
116.292854 56.0
116.381592 132.0
116.53553 216.0
116.556595 144.0
116.726837 196.0
116.819321 80.0
116.847801 168.0
116.931213 44.0
116.965652 184.0
117.028091 188.0
117.067734 1564.0
117.103462 144.0
117.193947 160.0
117.625282 196.0
117.668465 40.0
117.726761 188.0
117.787239 148.0
117.823967 144.0
117.839088 136.0
117.983894 120.0
118.043839 332.0
118.065765 808.0
118.254295 32.0
118.401527 64.0
118.451347 80.0
118.566185 252.0
118.607368 120.0
118.691917 128.0
118.715775 44.0
118.853195 196.0
118.880653 148.0
118.979752 220.0
119.009392 156.0
119.04908 1328.0
119.072899 1208.0
119.099937 172.0
119.113602 96.0
119.147728 180.0
119.180321 44.0
119.22242 172.0
119.320419 140.0
119.360741 168.0
119.441216 200.0
119.460793 156.0
119.504303 72.0
119.543472 212.0
119.619339 56.0
119.652306 152.0
119.687668 184.0
119.704567 200.0
119.861412 212.0
120.056717 4344.0
120.075813 588.0
120.105591 48.0
120.240875 176.0
120.330376 124.0
120.345657 212.0
120.511665 188.0
120.540962 180.0
120.570663 160.0
120.655914 200.0
120.87027 120.0
120.946442 144.0
121.064804 1128.0
121.104523 200.0
121.146149 64.0
121.20092 204.0
121.257904 104.0
121.279816 164.0
121.317085 140.0
121.396019 124.0
121.457436 216.0
121.558357 160.0
121.582497 128.0
121.606644 124.0
121.637375 232.0
121.663712 208.0
121.692261 168.0
121.742142 184.0
121.830627 168.0
121.848198 128.0
121.894341 136.0
121.951485 124.0
121.971268 164.0
122.016357 188.0
122.041618 176.0
122.069023 328.0
122.087799 132.0
122.231834 228.0
122.250603 208.0
122.351852 104.0
122.602966 156.0
122.865517 184.0
123.112511 156.0
123.468414 108.0
123.53698 176.0
123.574593 100.0
123.629913 144.0
123.897842 104.0
124.026375 180.0
124.552277 208.0
124.583374 564.0
124.647812 136.0
124.687813 84.0
124.734489 84.0
124.814529 176.0
125.014206 1344.0
125.039223 52.0
125.235161 148.0
125.302292 204.0
125.348778 164.0
125.377754 192.0
125.562645 172.0
125.638641 208.0
125.703354 188.0
125.736824 232.0
125.792633 204.0
125.870773 224.0
125.986923 212.0
126.013992 272.0
126.043694 184.0
126.080772 104.0
126.170181 120.0
126.21405 116.0
126.349106 132.0
126.403923 160.0
126.427422 48.0
126.449799 140.0
126.624443 132.0
126.667 156.0
126.745415 180.0
126.763344 56.0
126.787994 196.0
126.891113 168.0
126.98275 148.0
127.01207 500.0
127.030373 1544.0
127.052383 484.0
127.100899 212.0
127.12664 60.0
127.155815 212.0
127.209686 48.0
127.255791 60.0
127.312973 156.0
127.328697 92.0
127.38485 84.0
127.557884 116.0
127.587112 156.0
127.713043 232.0
127.801743 196.0
127.839035 132.0
127.85479 176.0
127.918411 136.0
127.993568 136.0
128.034897 116.0
128.061005 4168.0
128.120178 144.0
128.190353 92.0
128.211243 204.0
128.300797 136.0
128.316574 160.0
128.332367 28.0
128.350403 160.0
128.386475 164.0
128.420319 128.0
128.479874 188.0
128.539886 140.0
128.578247 32.0
128.664032 68.0
128.727249 184.0
128.78598 148.0
128.864273 200.0
128.955429 52.0
129.012375 336.0
129.029938 688.0
129.069351 8480.0
129.149292 168.0
129.317337 36.0
129.453171 44.0
129.507523 44.0
129.523392 56.0
129.67746 184.0
129.695023 140.0
129.812088 148.0
129.89061 192.0
129.929184 140.0
129.956406 160.0
130.001785 272.0
130.032364 348.0
130.072968 836.0
130.125458 184.0
130.168991 116.0
130.467438 220.0
130.532745 220.0
130.565216 144.0
130.642548 108.0
130.71991 56.0
130.77681 264.0
130.81778 156.0
130.876984 84.0
130.895203 92.0
130.984024 96.0
131.025024 64.0
131.049011 7220.0
131.081161 664.0
131.111618 128.0
131.145813 108.0
131.170883 132.0
131.248398 40.0
131.273483 56.0
131.389603 156.0
131.417191 136.0
131.510757 148.0
131.600098 92.0
131.638611 196.0
131.665695 200.0
131.695709 160.0
131.72998 68.0
131.812225 92.0
131.879562 156.0
131.931076 68.0
131.972244 244.0
132.015686 100.0
132.05574 6628.0
132.080215 1248.0
132.125473 72.0
132.157516 148.0
132.184296 164.0
132.200989 72.0
132.235321 136.0
132.262787 76.0
132.297119 176.0
132.322311 176.0
132.352081 96.0
132.370392 176.0
132.411621 212.0
132.427658 76.0
132.555954 216.0
132.636169 200.0
132.65535 184.0
132.684174 136.0
132.831085 156.0
132.865494 132.0
132.892517 216.0
132.999588 184.0
133.058975 988.0
133.089859 1080.0
133.117981 192.0
133.181427 64.0
133.287979 160.0
133.361511 96.0
133.478775 160.0
133.598068 60.0
133.621384 124.0
133.706528 160.0
133.83313 28.0
133.897614 204.0
133.932159 164.0
133.959808 160.0
133.980545 96.0
133.998978 104.0
134.031235 196.0
134.068466 512.0
134.095139 4020.0
134.125565 324.0
134.171829 60.0
134.197189 32.0
134.245621 132.0
134.275604 28.0
134.314819 96.0
134.389587 136.0
134.494797 124.0
134.527115 152.0
134.698013 184.0
134.910614 224.0
134.977661 184.0
135.014664 80.0
135.040771 152.0
135.097763 416.0
135.158096 172.0
135.241409 168.0
135.280762 208.0
135.313171 160.0
135.438232 100.0
135.468353 136.0
135.605057 76.0
135.753448 36.0
135.85318 112.0
135.875153 204.0
135.936707 132.0
135.952957 132.0
135.987762 48.0
136.055084 100.0
136.175842 168.0
136.24321 160.0
136.50354 56.0
136.929428 108.0
136.983002 88.0
137.012833 1044.0
137.066879 132.0
137.085526 104.0
137.386307 160.0
137.491318 132.0
137.596359 148.0
137.629044 184.0
137.727127 292.0
137.890686 56.0
138.022827 168.0
138.070724 168.0
138.150253 104.0
138.220444 212.0
138.288315 156.0
138.445175 168.0
138.506073 160.0
138.524811 168.0
138.660721 136.0
138.707596 184.0
138.918655 352.0
138.946808 36.0
139.007599 296.0
139.027725 412.0
139.054749 152.0
139.219101 184.0
139.390594 160.0
139.437592 128.0
139.46814 104.0
139.755066 196.0
139.808105 236.0
139.875092 232.0
139.959854 164.0
140.030502 132.0
140.056091 144.0
140.091751 112.0
140.230774 140.0
140.393448 40.0
140.431198 160.0
140.447708 60.0
140.624664 76.0
140.650635 140.0
140.669525 148.0
140.77388 200.0
140.937256 144.0
140.967117 136.0
141.00975 14632.0
141.07132 492.0
141.110611 124.0
141.286331 148.0
141.307632 144.0
141.324188 48.0
141.378616 52.0
141.461456 188.0
141.515854 156.0
141.539597 88.0
141.594055 180.0
141.633728 188.0
141.72673 120.0
141.767014 160.0
141.876984 244.0
141.943207 148.0
142.012909 1236.0
142.072433 320.0
142.122345 128.0
142.25087 144.0
142.283035 168.0
142.405228 40.0
142.521637 124.0
142.604813 128.0
142.661865 168.0
142.680878 44.0
142.704651 212.0
142.726059 40.0
142.854492 104.0
142.902069 120.0
142.921112 68.0
142.964661 92.0
143.006485 4308.0
143.048355 3776.0
143.11467 184.0
143.173447 40.0
143.249664 108.0
143.297318 132.0
143.341583 104.0
143.406937 236.0
143.439163 140.0
143.468918 80.0
143.573837 192.0
143.610474 156.0
143.666855 152.0
143.687424 200.0
143.747986 100.0
143.800491 152.0
143.833008 212.0
143.867325 132.0
143.891205 148.0
143.922241 64.0
143.970001 156.0
144.003693 224.0
144.023804 204.0
144.056717 28844.0
144.128799 152.0
144.168655 108.0
144.227615 144.0
144.259125 68.0
144.306946 56.0
144.361938 44.0
144.451736 24.0
144.488708 52.0
144.554352 84.0
144.582031 116.0
144.605972 32.0
144.649063 120.0
144.679535 152.0
144.847809 36.0
144.946045 88.0
145.005966 40.0
145.061844 3252.0
145.142609 68.0
145.193527 68.0
145.264923 36.0
145.380096 104.0
145.423309 80.0
145.843643 48.0
145.980698 64.0
146.008026 192.0
146.069275 1816.0
146.113617 136.0
146.293488 92.0
146.427246 212.0
146.452423 180.0
146.601791 56.0
146.681335 120.0
146.747101 160.0
146.98764 80.0
147.068695 1756.0
147.099152 136.0
147.15419 32.0
147.22905 108.0
147.262863 180.0
147.299103 84.0
147.347412 112.0
147.593964 68.0
147.618134 248.0
147.65683 72.0
147.944794 56.0
148.002899 88.0
148.050568 140.0
148.074875 988.0
148.242722 48.0
148.339676 176.0
148.378464 124.0
148.426956 108.0
148.49971 72.0
148.528809 88.0
148.661346 232.0
148.7108 132.0
148.812759 124.0
148.832184 336.0
148.897751 104.0
149.010696 200.0
149.081741 536.0
149.232422 212.0
149.315796 40.0
149.342545 140.0
149.602921 172.0
149.6297 176.0
149.688141 28.0
149.744156 128.0
149.764572 136.0
149.851349 92.0
149.97319 72.0
150.051208 188.0
150.079102 200.0
150.115311 152.0
150.260956 168.0
150.446442 136.0
150.661362 116.0
150.693115 92.0
150.737106 156.0
150.876434 40.0
150.947342 124.0
151.029572 652.0
151.128357 144.0
151.243378 180.0
151.304581 164.0
151.321716 168.0
151.363342 220.0
151.505402 156.0
151.708817 120.0
151.831421 192.0
151.999161 328.0
152.022781 216.0
152.060791 924.0
152.081375 164.0
152.184784 208.0
152.328537 172.0
152.383743 152.0
152.427979 156.0
152.48941 276.0
152.587738 136.0
152.651672 120.0
152.718079 104.0
152.845001 220.0
152.870621 140.0
152.89769 112.0
153.007584 872.0
153.042725 168.0
153.067551 1076.0
153.134048 104.0
153.190704 152.0
153.299118 92.0
153.426941 192.0
153.575256 44.0
153.612259 172.0
153.70108 168.0
153.752899 80.0
154.01561 236.0
154.075439 312.0
154.234543 184.0
154.281509 64.0
154.390305 120.0
154.444733 104.0
154.605545 296.0
154.637726 152.0
154.791214 220.0
154.954315 128.0
154.986679 128.0
155.025055 15360.0
155.061325 564.0
155.109863 44.0
155.210846 176.0
155.242249 44.0
155.37001 100.0
155.445663 60.0
155.463043 44.0
155.652802 60.0
155.708817 44.0
155.837997 248.0
155.85788 108.0
155.887695 56.0
155.964752 176.0
155.99321 248.0
156.03125 3412.0
156.060806 144.0
156.094025 216.0
156.213409 188.0
156.233322 40.0
156.571854 164.0
156.587875 84.0
156.691422 96.0
156.751221 48.0
156.808533 152.0
157.022949 3736.0
157.059708 312.0
157.087494 124.0
157.110275 36.0
157.140213 112.0
157.172653 144.0
157.188339 136.0
157.227554 188.0
157.262497 76.0
157.338959 120.0
157.407288 108.0
157.724594 108.0
157.789597 96.0
157.849609 132.0
157.872116 132.0
157.932144 228.0
158.028732 1096.0
158.057388 128.0
158.099106 272.0
158.177368 88.0
158.230377 180.0
158.290039 148.0
158.362656 36.0
158.673401 104.0
158.713516 92.0
158.861496 116.0
158.926727 144.0
159.014572 80.0
159.067902 480.0
159.137573 216.0
159.258118 108.0
159.323441 76.0
159.523499 112.0
159.564713 68.0
159.916901 176.0
160.075409 6824.0
160.101395 232.0
160.180893 152.0
160.271988 44.0
160.299149 152.0
160.440857 112.0
160.478683 156.0
160.582077 200.0
160.630005 108.0
160.677933 60.0
160.879837 140.0
160.90004 48.0
161.016205 432.0
161.081741 3320.0
161.142502 132.0
161.208206 168.0
161.301712 160.0
161.332062 60.0
161.349747 84.0
161.43573 160.0
161.521912 104.0
161.574844 76.0
161.607742 180.0
161.822891 72.0
161.886185 120.0
162.017899 276.0
162.035645 120.0
162.090088 1892.0
162.157272 88.0
162.225723 48.0
162.263748 128.0
162.527542 180.0
162.55545 40.0
162.580826 128.0
162.598587 92.0
162.971893 68.0
163.00795 152.0
163.050674 160.0
163.092041 280.0
163.335449 140.0
163.399048 116.0
163.442307 156.0
163.621475 184.0
163.640854 160.0
163.941498 140.0
164.027039 108.0
164.060196 320.0
164.091827 212.0
164.21933 220.0
164.372406 128.0
164.431107 48.0
164.448975 172.0
164.553635 96.0
164.666977 196.0
164.821838 96.0
164.914658 188.0
164.940674 136.0
165.009308 600.0
165.069489 3524.0
165.118393 148.0
165.149078 76.0
165.269318 152.0
165.366562 164.0
165.535538 156.0
165.758408 48.0
165.942368 120.0
166.018188 1312.0
166.075256 1940.0
166.130646 224.0
166.147568 176.0
166.202026 192.0
166.356033 40.0
166.380341 68.0
166.484406 152.0
166.558899 148.0
166.651382 52.0
166.705353 144.0
166.74588 160.0
167.025589 2128.0
167.085312 1100.0
167.227432 148.0
167.327835 124.0
167.366455 56.0
167.420532 96.0
167.477203 120.0
167.539032 112.0
167.636948 48.0
167.737457 80.0
167.789017 200.0
167.866379 200.0
168.024826 268.0
168.056778 340.0
168.086868 396.0
168.155334 60.0
168.206955 120.0
168.281815 120.0
169.023026 1412.0
169.056015 156.0
169.075821 208.0
169.101303 140.0
169.160843 188.0
169.226349 172.0
169.414642 140.0
169.647873 200.0
169.834579 152.0
169.860519 152.0
170.016205 172.0
170.034378 144.0
170.062576 148.0
170.335571 156.0
170.384933 144.0
170.410919 212.0
170.481079 92.0
170.553848 72.0
170.621445 72.0
170.707245 120.0
170.748856 268.0
170.917953 172.0
171.03508 256.0
171.074127 120.0
171.154831 160.0
171.279846 60.0
171.716537 248.0
171.77774 376.0
171.832535 152.0
172.030884 208.0
172.070267 168.0
172.24501 108.0
172.391327 76.0
172.846359 156.0
172.990311 144.0
173.032196 156.0
173.079437 148.0
173.273148 164.0
173.338654 136.0
173.364868 116.0
173.396317 184.0
173.414658 120.0
173.511658 116.0
173.587692 256.0
173.724091 188.0
173.784424 232.0
173.808044 224.0
173.913025 200.0
173.93129 188.0
173.973404 204.0
174.023285 152.0
174.090088 2032.0
174.207138 124.0
174.236023 48.0
174.56723 148.0
174.909256 148.0
175.006668 152.0
175.097672 2572.0
175.681396 84.0
175.808044 52.0
175.889862 188.0
175.958511 116.0
175.990189 212.0
176.060806 200.0
176.103088 428.0
176.143372 148.0
176.23848 64.0
176.267548 188.0
176.415558 104.0
176.637711 120.0
176.817627 76.0
176.949997 156.0
177.068008 872.0
177.209183 144.0
177.811523 192.0
177.868835 156.0
177.98143 152.0
178.012848 340.0
178.04715 284.0
178.076263 9156.0
178.130157 140.0
178.167358 52.0
178.193924 104.0
178.334763 64.0
178.358688 40.0
178.40123 80.0
178.491623 152.0
178.526199 176.0
178.552795 132.0
178.625183 148.0
178.691116 164.0
178.736359 156.0
178.794907 72.0
178.845474 76.0
178.900253 180.0
178.92514 168.0
178.967941 136.0
179.025116 14732.0
179.084351 3024.0
179.130402 216.0
179.162369 104.0
179.211777 140.0
179.247635 36.0
179.271606 152.0
179.300934 64.0
179.31958 140.0
179.361008 148.0
179.420883 80.0
179.471542 48.0
179.607559 180.0
179.754303 44.0
179.802017 132.0
179.941147 252.0
180.026993 1236.0
180.089905 900.0
180.205566 212.0
180.31781 136.0
180.344528 92.0
180.365921 68.0
180.460022 140.0
180.59053 192.0
180.784409 132.0
181.023697 3680.0
181.065231 2540.0
181.098114 748.0
181.198212 84.0
181.244049 76.0
181.308075 56.0
181.342926 256.0
181.401581 136.0
181.431381 44.0
181.517181 92.0
181.567505 184.0
181.635193 116.0
181.677597 104.0
181.962601 92.0
181.988708 160.0
182.034286 2024.0
182.070816 1172.0
182.103058 180.0
182.15596 84.0
182.309128 104.0
182.333908 192.0
182.430069 52.0
182.465027 176.0
182.483841 56.0
182.580658 68.0
182.690933 156.0
182.828171 108.0
183.043076 2288.0
183.076599 296.0
183.162033 100.0
183.205856 120.0
183.242859 60.0
183.272507 112.0
183.447693 64.0
183.496216 136.0
183.555542 120.0
183.774033 96.0
183.881973 56.0
183.922455 120.0
184.003448 176.0
184.03627 1196.0
184.044373 572.0
184.110336 364.0
184.214111 44.0
184.251923 44.0
184.346497 76.0
184.369858 56.0
184.397842 172.0
184.571426 236.0
184.662827 124.0
184.911743 92.0
184.9767 164.0
185.039597 1056.0
185.111069 208.0
185.204163 28.0
185.393829 204.0
185.583588 88.0
185.64595 156.0
185.868393 116.0
186.035629 392.0
186.046463 212.0
186.051025 336.0
186.124695 104.0
186.158859 160.0
186.196884 68.0
186.32518 148.0
186.422379 52.0
186.449554 228.0
186.528381 108.0
186.577316 160.0
186.879211 76.0
187.047943 152.0
187.12146 136.0
187.45459 172.0
187.491928 236.0
187.775467 196.0
187.86821 156.0
188.294052 60.0
188.645752 152.0
188.668411 124.0
188.753174 132.0
188.979568 120.0
189.018311 224.0
189.067505 248.0
189.108826 220.0
189.516876 124.0
189.651169 88.0
190.021393 140.0
190.076385 384.0
190.364502 88.0
190.457886 60.0
190.576019 128.0
190.628967 192.0
190.812393 200.0
190.924347 196.0
191.022629 468.0
191.082779 1604.0
191.127609 196.0
191.205765 204.0
191.354416 88.0
191.470078 68.0
191.536179 88.0
191.58577 140.0
191.786926 68.0
191.806229 176.0
191.825531 108.0
191.910995 144.0
191.9431 260.0
192.030304 132.0
192.05835 120.0
192.091385 1336.0
192.366226 140.0
192.396591 200.0
192.482178 140.0
192.562271 232.0
192.697632 188.0
192.821991 120.0
192.913208 44.0
192.990753 200.0
193.099319 4724.0
193.170395 28.0
193.466507 124.0
193.502487 188.0
193.75856 88.0
193.790298 216.0
193.854279 160.0
193.912491 108.0
194.034866 1248.0
194.072495 2540.0
194.106674 484.0
194.139832 72.0
194.364532 132.0
194.464432 68.0
194.528275 112.0
194.772644 52.0
194.833771 140.0
195.044083 1268.0
195.080124 3944.0
195.120377 96.0
195.195099 52.0
195.222916 140.0
195.316086 256.0
195.39537 316.0
195.61882 180.0
195.678726 184.0
195.754456 128.0
195.943863 192.0
195.971725 200.0
196.051651 7948.0
196.08403 1900.0
196.147308 68.0
196.203064 28.0
196.292801 196.0
196.348068 60.0
196.495422 116.0
196.574036 76.0
196.624268 48.0
196.724762 28.0
196.788971 76.0
196.853195 68.0
196.889496 44.0
196.91185 92.0
196.987259 72.0
197.056763 2648.0
197.087769 540.0
197.12236 160.0
197.202423 56.0
197.258331 56.0
197.367371 108.0
197.445679 184.0
197.501617 168.0
197.565948 48.0
197.61351 76.0
197.803833 60.0
197.949417 76.0
197.989746 160.0
198.048096 2884.0
198.09787 72.0
198.184723 128.0
198.36969 48.0
198.537933 136.0
198.617676 56.0
198.695023 124.0
198.826904 72.0
198.888657 208.0
199.027039 136.0
199.056595 1456.0
199.127319 120.0
199.172256 152.0
199.225632 148.0
199.262161 88.0
199.290253 48.0
199.453262 48.0
199.641647 40.0
199.683823 100.0
199.756958 124.0
199.952301 76.0
200.007401 44.0
200.064972 80.0
200.105942 52.0
200.184784 152.0
200.215759 84.0
200.294632 172.0
200.480591 120.0
200.54541 88.0
200.63562 64.0
200.666626 108.0
200.920471 172.0
200.98819 116.0
201.0289 56.0
201.035507 188.0
201.068573 156.0
201.256683 168.0
201.307175 180.0
201.516205 156.0
201.95723 68.0
202.002487 108.0
202.032227 264.0
202.076035 1964.0
202.265656 148.0
202.557327 100.0
202.795349 140.0
202.973953 56.0
203.027832 140.0
203.05899 388.0
203.084122 3160.0
203.215057 52.0
203.269623 52.0
203.508743 136.0
203.558533 84.0
203.613846 168.0
203.839767 148.0
204.00177 200.0
204.090591 1268.0
204.209351 152.0
204.455215 124.0
204.479645 180.0
204.54512 88.0
204.585678 140.0
204.607742 36.0
204.656158 160.0
204.82988 152.0
205.064255 460.0
205.098907 1580.0
205.331543 168.0
205.354355 48.0
205.665375 88.0
206.070068 1476.0
206.103745 292.0
206.210938 176.0
206.250946 128.0
206.320892 60.0
206.522598 40.0
206.605545 48.0
206.66983 188.0
206.79155 184.0
206.912811 156.0
206.920837 200.0
206.957596 440.0
206.998138 176.0
207.080505 29240.0
207.163818 60.0
207.186737 32.0
207.230103 76.0
207.285004 80.0
207.312805 168.0
207.418854 108.0
207.447525 52.0
207.473328 212.0
207.518509 148.0
207.582291 44.0
207.613831 76.0
207.678848 48.0
207.708481 96.0
207.796127 80.0
207.846191 60.0
207.874893 52.0
207.929413 36.0
207.955246 72.0
207.983963 132.0
208.047714 504.0
208.083328 4060.0
208.159088 160.0
208.187805 72.0
208.386017 64.0
208.414749 104.0
208.44635 208.0
208.544067 48.0
208.615936 244.0
208.707947 88.0
208.728073 132.0
208.772049 136.0
208.851746 148.0
208.975449 116.0
209.009979 108.0
209.054199 216.0
209.093704 1480.0
209.153748 188.0
209.160522 180.0
209.320862 52.0
209.378464 172.0
209.401505 52.0
209.51384 104.0
209.581894 188.0
209.617569 88.0
209.776108 108.0
209.797668 56.0
209.983154 224.0
210.004562 156.0
210.067276 1412.0
210.101059 1628.0
210.133728 88.0
210.188538 84.0
210.243378 128.0
210.358826 64.0
210.387695 56.0
210.416565 52.0
210.44545 48.0
210.491638 100.0
210.517639 116.0
210.604279 60.0
210.771851 88.0
210.904785 208.0
211.07193 488.0
211.10701 528.0
211.633835 92.0
211.671478 160.0
211.726501 56.0
211.820816 164.0
211.995941 60.0
212.064545 468.0
212.111877 148.0
212.143768 168.0
212.239441 60.0
212.758804 272.0
212.924316 148.0
213.043411 84.0
213.072464 168.0
213.284607 132.0
213.673141 200.0
213.796524 100.0
214.043961 128.0
214.825562 200.0
214.871765 152.0
215.022659 360.0
215.086884 284.0
215.213257 108.0
215.277512 184.0
215.408936 128.0
215.6427 36.0
215.943863 40.0
215.999435 172.0
216.026505 160.0
216.092178 140.0
216.160355 144.0
216.360504 116.0
216.400391 164.0
217.001038 136.0
217.039398 152.0
217.102722 348.0
217.749344 40.0
217.934418 68.0
218.025528 164.0
218.049026 144.0
218.093124 372.0
218.116638 292.0
218.169556 72.0
218.328339 128.0
219.031799 176.0
219.081573 668.0
219.161423 252.0
219.556442 128.0
220.087082 748.0
220.294373 84.0
220.403702 48.0
220.799835 188.0
220.8797 120.0
220.938858 96.0
221.096359 8600.0
221.181534 248.0
221.202255 48.0
221.237778 160.0
221.305878 52.0
221.326599 108.0
221.53096 88.0
221.580963 64.0
221.696899 160.0
221.738388 160.0
221.851028 116.0
221.885559 140.0
221.934036 68.0
222.056396 124.0
222.103394 20036.0
222.200989 84.0
222.263306 44.0
222.290009 40.0
222.325623 36.0
222.361237 52.0
222.41011 68.0
222.536377 184.0
222.643158 136.0
222.708633 68.0
222.732391 48.0
222.815567 100.0
222.857162 132.0
222.886887 36.0
222.999817 72.0
223.066437 204.0
223.107269 3508.0
223.338531 192.0
224.041321 220.0
224.116135 980.0
224.137207 1044.0
224.190308 96.0
224.249924 60.0
224.437744 76.0
224.609787 116.0
224.746033 112.0
224.852402 76.0
224.882248 80.0
225.001663 56.0
225.037354 168.0
225.118973 144.0
225.138748 336.0
225.270447 64.0
225.748672 96.0
226.053818 160.0
226.149582 140.0
226.401093 44.0
226.799576 136.0
226.874527 180.0
226.955475 148.0
227.059525 184.0
227.171417 116.0
227.456512 176.0
227.507538 136.0
227.531555 160.0
227.660675 40.0
227.765793 88.0
227.894989 288.0
227.952072 68.0
228.033188 3836.0
228.101883 176.0
228.132416 148.0
228.165497 136.0
228.214859 76.0
228.255692 160.0
228.358719 124.0
228.436157 104.0
228.478271 28.0
228.779236 84.0
228.89064 60.0
229.035461 964.0
229.069824 156.0
229.094269 228.0
229.915619 96.0
229.979004 80.0
230.038132 756.0
230.247711 208.0
230.422928 40.0
230.474289 120.0
230.646561 88.0
230.821915 44.0
231.030365 320.0
231.038864 200.0
231.056213 264.0
231.104034 328.0
231.12767 92.0
231.254547 208.0
231.524002 52.0
231.584579 88.0
231.675461 64.0
231.760284 116.0
231.820892 48.0
232.047653 164.0
232.111923 180.0
232.193802 92.0
232.76738 144.0
233.049561 300.0
233.113693 184.0
233.548462 112.0
233.712738 48.0
233.773605 60.0
234.138931 212.0
234.187668 120.0
234.943665 120.0
235.077927 128.0
235.142014 48.0
235.939285 56.0
236.101349 300.0
236.150284 184.0
236.190048 140.0
236.508286 188.0
237.11557 488.0
237.485748 168.0
237.853973 96.0
238.04126 96.0
238.120499 160.0
238.416046 92.0
238.951111 136.0
239.067703 188.0
239.191147 112.0
239.437485 44.0
239.532959 176.0
240.587646 104.0
240.667923 80.0
241.041962 460.0
241.168411 60.0
241.307526 100.0
242.048264 1656.0
242.139954 116.0
242.161636 196.0
242.186417 128.0
242.217392 212.0
243.049286 444.0
243.128967 128.0
243.250031 52.0
243.299698 44.0
243.551239 64.0
244.047165 616.0
244.123123 84.0
244.167908 20.0
244.434204 204.0
244.717468 44.0
245.041183 420.0
245.070053 656.0
245.580704 48.0
246.048798 96.0
246.123734 56.0
246.379852 168.0
247.068604 316.0
247.349304 28.0
248.069809 268.0
248.348907 48.0
249.551697 120.0
250.012314 224.0
250.395065 76.0
251.631226 140.0
251.656479 168.0
251.861755 136.0
251.893341 72.0
252.098724 156.0
252.140335 1508.0
252.190384 92.0
252.310501 96.0
252.436981 48.0
252.478104 120.0
253.146774 244.0
254.149521 284.0
254.518936 76.0
254.576096 100.0
255.054916 160.0
255.100372 56.0
256.06604 140.0
256.985809 184.0
257.070801 4724.0
257.340332 60.0
257.455078 108.0
257.851227 96.0
258.076447 808.0
258.414642 68.0
258.862213 92.0
258.913452 172.0
258.948669 80.0
259.079712 660.0
259.150482 156.0
259.394073 64.0
259.426117 52.0
259.566986 120.0
260.082855 160.0
261.087982 412.0
261.50769 116.0
261.79422 32.0
262.10025 48.0
262.219482 76.0
262.583832 68.0
263.859375 176.0
264.150421 92.0
264.331635 52.0
264.723328 28.0
265.718445 120.0
265.991058 120.0
266.172882 188.0
268.493225 36.0
268.591064 128.0
268.669373 92.0
270.424164 116.0
272.086182 132.0
272.664337 76.0
272.930603 100.0
273.078583 204.0
273.35495 116.0
273.881744 144.0
275.382538 108.0
276.225433 180.0
276.907318 116.0
277.523712 192.0
278.413055 236.0
278.605713 72.0
279.054413 204.0
279.639893 48.0
279.723114 48.0
279.902893 216.0
280.759369 116.0
283.872894 152.0
283.950012 144.0
284.117737 52.0
285.182281 132.0
285.713593 148.0
286.103973 96.0
286.20163 168.0
286.319489 156.0
286.642914 96.0
286.862 108.0
286.970917 52.0
287.273407 32.0
287.324646 88.0
287.509613 160.0
287.637878 144.0
287.771973 168.0
287.867462 116.0
287.972168 116.0
288.03244 248.0
288.043793 192.0
288.057037 220.0
288.114746 27896.0
288.251312 96.0
288.313416 48.0
288.374237 36.0
288.418182 92.0
288.45874 36.0
288.485779 88.0
288.529724 92.0
288.568207 168.0
288.604126 40.0
288.67514 44.0
288.702179 156.0
288.779968 132.0
288.8172 68.0
289.013397 40.0
289.070923 40.0
289.117554 3628.0
289.196167 192.0
289.263855 92.0
289.493073 112.0
289.564087 72.0
289.66684 56.0
289.710876 180.0
289.805756 48.0
289.897247 36.0
289.998047 184.0
290.029419 128.0
290.053162 196.0
290.111938 7064.0
290.26886 96.0
290.312531 52.0
290.378662 44.0
290.457642 184.0
290.490601 60.0
290.530487 148.0
290.68399 68.0
290.926849 112.0
290.996277 72.0
291.072449 140.0
291.11557 1252.0
291.16452 128.0
291.247589 96.0
291.281555 140.0
291.312134 72.0
291.352905 60.0
291.397064 80.0
291.529602 84.0
291.753937 132.0
291.844147 64.0
291.872925 84.0
292.468323 68.0
292.580658 108.0
292.652161 92.0
292.693024 104.0
293.224487 72.0
293.425598 128.0
293.677948 60.0
293.93042 156.0
293.961121 96.0
294.036194 48.0
294.370789 64.0
294.944763 60.0
295.844452 48.0
299.518951 44.0
299.760101 64.0
299.801483 120.0
299.85318 132.0
303.927002 68.0
304.152618 32.0
304.572754 52.0
305.11142 40.0
307.490631 76.0
309.07373 112.0
310.236542 64.0
317.199097 100.0
332.658936 136.0
334.482819 68.0
341.26947 92.0
346.458832 136.0
347.60083 60.0
347.912628 44.0
350.192139 44.0
358.234711 104.0
378.963379 96.0
386.298462 72.0
387.096924 168.0
391.428345 52.0
400.350708 40.0
408.134186 96.0
410.582642 40.0
412.286346 80.0
428.066864 60.0
430.120117 44.0
431.479279 80.0
435.411804 76.0
439.370483 124.0
442.14093 132.0
442.622375 88.0
447.425842 68.0
447.973328 40.0
451.354065 52.0
453.576813 72.0
454.47168 32.0
457.668152 64.0
460.085663 80.0
461.794983 56.0
473.72757 32.0
479.454529 92.0
481.823975 96.0
484.256195 124.0
485.75531 96.0
494.692444 180.0
506.256073 120.0
507.430084 92.0
520.320557 76.0
520.524902 64.0
528.296204 40.0
529.252808 52.0
531.375 68.0
545.749268 40.0
548.258362 48.0
550.721863 124.0
552.315796 40.0
565.812866 88.0
566.618042 48.0
578.347473 120.0
586.445984 44.0
595.139587 76.0
598.621338 52.0
605.904236 64.0
613.665039 108.0
613.724243 176.0
615.930298 88.0
616.829651 104.0
641.309998 40.0
652.279236 120.0
660.172119 60.0
668.616699 48.0
676.229553 112.0
691.799255 212.0
692.799561 36.0
699.86908 108.0
699.937561 76.0
723.29364 128.0
727.13147 112.0
741.624512 48.0
743.327515 160.0
757.076416 136.0
766.34906 108.0
767.324646 100.0
767.385315 172.0
771.012085 68.0
773.661682 52.0
779.291138 32.0
780.547424 212.0
785.197571 88.0
785.800049 148.0
786.92749 124.0
804.196045 172.0
808.050171 60.0
808.463257 172.0
815.263062 48.0
817.782654 160.0
820.899048 192.0
826.634583 144.0
828.157532 180.0
828.30072 180.0
828.552795 208.0
832.29248 204.0
833.855103 88.0
838.828369 148.0
839.774048 196.0
841.794006 84.0
843.226807 240.0
843.810669 248.0
848.094604 184.0
848.7323 192.0
852.778748 144.0
853.377563 128.0
855.274109 52.0
857.067932 220.0
858.362 108.0
859.131897 228.0
859.411987 116.0
859.534485 156.0
859.674561 204.0
864.57782 144.0
865.5672 120.0
866.949707 148.0
869.401123 216.0
872.285095 140.0
874.973633 100.0
875.138489 168.0
876.894043 84.0
877.406921 268.0
877.448181 72.0
877.489441 148.0
878.067383 180.0
879.158813 176.0
880.599426 96.0
881.751526 204.0
883.010864 172.0
883.626099 200.0
884.478333 112.0
887.74292 36.0
890.467041 116.0
891.415161 84.0
892.511414 308.0
892.737366 56.0
892.921753 212.0
893.338135 212.0
903.348511 128.0
903.623718 132.0
905.287781 44.0
905.982605 160.0
910.811829 120.0
911.731079 104.0
914.172791 232.0
914.846924 184.0
918.142944 48.0
920.955566 160.0
924.710388 188.0
928.224243 100.0
932.091064 160.0
932.735352 180.0
934.748474 60.0
935.064941 44.0
935.364014 180.0
935.491028 184.0
936.33136 96.0
939.922119 56.0
940.855957 204.0
943.262939 196.0
944.932556 148.0
945.201782 248.0
950.428711 176.0
950.575989 48.0
951.165222 164.0
951.74231 168.0
953.591492 220.0
957.757141 144.0
960.302856 180.0
960.765503 188.0
962.666626 140.0
963.9021 128.0
964.4151 240.0
964.983826 80.0
968.430847 96.0
969.037964 180.0
969.496521 104.0
969.794006 216.0
970.767395 136.0
971.356628 176.0
971.486938 148.0
972.250122 172.0
972.65979 144.0
973.348938 180.0
976.736206 132.0
977.713074 152.0
978.248352 248.0
979.412842 196.0
980.565552 160.0
981.3573 128.0
983.596985 100.0
986.470581 136.0
992.048462 164.0
992.368225 44.0
996.37262 196.0
996.55481 228.0
999.761841 68.0
1000.328369 200.0
1001.096497 128.0
1002.759766 164.0
1007.751526 112.0
1008.288696 160.0
1009.363403 144.0
1011.033508 60.0
1011.387939 216.0
1015.90625 168.0
1016.356689 164.0
1017.797607 252.0
1018.026245 148.0
1018.443726 220.0
1019.265015 168.0
1019.976807 184.0
1020.0849 112.0
1020.873352 128.0
1022.272888 200.0
1024.208496 168.0
1024.67981 160.0
1024.78186 212.0
1025.189697 144.0
1028.602051 152.0
1029.451172 112.0
1030.377441 176.0
1030.473267 48.0
1031.924072 136.0
1032.141479 108.0
1033.631958 240.0
1035.655151 164.0
1035.860107 220.0
1037.026367 64.0
1038.37915 96.0
1038.635742 168.0
1039.803589 144.0
1040.272095 180.0
1041.794189 176.0
1041.948364 172.0
1043.047241 192.0
1045.337036 176.0
1049.833618 128.0
1050.123901 168.0
1051.659546 172.0
1052.040405 96.0
1053.932861 144.0
1055.962769 196.0
1057.768066 172.0
1058.001099 56.0
1058.286011 156.0
1059.976685 136.0
1060.2229 112.0
1063.050537 132.0
1065.212646 200.0
1066.180786 136.0
1066.752808 124.0
1068.892578 112.0
1068.970703 172.0
1070.20105 180.0
1070.676392 52.0
1071.640503 184.0
1071.972778 188.0
1073.426514 60.0
1074.763794 96.0
1074.985718 68.0
1075.259766 124.0
1076.709229 200.0
1077.917847 192.0
1079.375488 192.0
1079.545532 108.0
1079.728638 120.0
1079.807129 196.0
1080.664185 144.0
1081.475708 204.0
1083.551636 176.0
1083.662964 116.0
1083.977539 148.0
1084.501831 52.0
1084.593628 80.0
1084.750977 40.0
1084.849243 188.0
1086.239502 148.0
1088.306885 152.0
1090.737793 140.0
1091.763428 160.0
1092.598877 176.0
1092.783081 148.0
1094.020386 172.0
1094.119141 172.0
1094.441772 204.0
1094.876465 184.0
1097.340942 204.0
1098.666626 176.0
1098.884399 160.0
1099.082275 112.0
1099.887451 168.0
1100.468506 156.0
1101.650635 152.0
1102.727783 160.0
1104.023682 156.0
1104.823975 136.0
1105.604858 160.0
1105.942383 160.0
1106.16748 60.0
1106.855957 192.0
1107.293091 148.0
1107.597778 208.0
1108.525391 160.0
1108.916382 116.0
1110.288818 112.0
1110.832764 148.0
1111.443115 172.0
1112.365723 152.0
1115.421387 112.0
1115.700684 52.0
1115.846924 184.0
1116.518555 132.0
1117.782593 176.0
1117.922241 132.0
1118.008789 64.0
1118.082031 160.0
1118.554565 128.0
1118.614502 176.0
1120.719116 212.0
1124.393555 184.0
1124.820801 128.0
1125.588623 124.0
1125.655396 180.0
1125.745972 216.0
1126.810913 136.0
1127.737427 192.0
1129.478394 48.0
1132.765137 184.0
1133.455322 28.0
1134.192505 188.0
1137.177368 168.0
1137.727905 164.0
1138.030029 92.0
1138.560547 188.0
1138.82251 344.0
1138.936646 144.0
1139.158325 200.0
1139.306152 116.0
1140.293945 172.0
1140.966187 108.0
1141.672241 128.0
1141.75293 168.0
1141.934448 116.0
1143.495483 108.0
1145.158569 192.0
1146.121948 188.0
1147.678955 232.0
1149.797241 152.0
1150.296753 140.0
1150.796387 64.0
1150.850342 212.0
1155.872803 184.0
1156.035156 188.0
1156.116333 140.0
1157.179199 176.0
1158.07312 204.0
1158.276245 296.0
1160.831543 172.0
1161.238403 152.0
1163.063721 160.0
1163.450562 144.0
1166.161011 160.0
1166.310547 172.0
1166.956421 40.0
1167.33728 196.0
1172.599854 160.0
1174.891113 128.0
1175.873779 176.0
1175.928345 184.0
1176.085327 156.0
1177.068481 148.0
1178.00415 100.0
1178.284302 72.0
1180.683594 132.0
1181.436035 148.0
1181.949219 196.0
1182.209229 200.0
1182.421387 152.0
1182.708862 64.0
1183.715332 140.0
1183.783813 148.0
1184.578369 156.0
1184.824951 132.0
1185.051025 192.0
1185.750122 200.0
1186.538452 180.0
1186.620728 40.0
1187.333862 160.0
1187.999268 72.0
1188.225586 172.0
1188.527466 68.0
1189.172607 116.0
1190.408447 32.0
1190.944092 180.0
1191.356323 160.0
1192.304565 48.0
1192.469482 124.0
1195.103394 188.0
1195.915527 168.0
1196.101318 108.0
1196.645264 184.0
1196.741577 208.0
1197.065308 164.0
1198.374023 84.0
1199.311279 32.0
1199.766235 60.0
1199.862793 168.0
1201.014526 84.0
1202.049316 172.0
1202.249512 260.0
1203.222778 192.0
1203.643677 168.0
1203.837402 124.0
1204.320801 128.0
1204.997803 144.0
1205.744141 204.0
1207.126831 128.0
1207.853027 192.0
1208.517212 156.0
1209.133057 112.0
1210.060669 200.0
1210.248413 120.0
1211.030273 152.0
1211.154907 216.0
1212.11792 92.0
1212.409058 212.0
1212.991211 56.0
1213.635986 80.0
1214.038208 228.0
1215.876709 176.0
1216.723633 188.0
1216.945801 76.0
1217.202759 56.0
1218.626709 240.0
1218.821289 172.0
1219.015869 196.0
1219.474487 84.0
1220.871948 76.0
1221.581421 72.0
1222.499878 56.0
1222.56958 192.0
1222.646118 124.0
1224.031494 104.0
1224.379639 272.0
1225.131958 44.0
1225.898438 72.0
1227.001221 196.0
1227.083374 136.0
1227.425049 148.0
1227.962036 96.0
1228.303833 216.0
1229.566772 140.0
1230.264893 148.0
1232.54187 104.0
1233.303589 148.0
1233.436401 208.0
1234.037598 144.0
1234.408325 116.0
1234.555176 208.0
1235.251099 168.0
1235.303589 440.0
1235.590332 168.0
1236.290161 100.0
1236.612061 60.0
1236.822021 204.0
1237.585205 40.0
1238.208374 108.0
1238.509644 28.0
1240.065186 132.0
1240.142212 184.0
1240.5979 108.0
1241.025513 136.0
1241.193115 180.0
1241.951294 104.0
1243.24231 80.0
1243.473877 188.0
1243.733643 188.0
1244.0354 144.0
1245.004395 192.0
1245.067627 172.0
1245.432861 112.0
1245.7771 208.0
1247.920654 132.0
1249.299194 32.0
1249.679199 144.0
1251.530396 184.0
1252.495239 152.0
1252.734741 76.0
1253.869141 172.0
1254.715088 176.0
1255.321533 88.0
1255.638916 136.0
1258.525146 156.0
1258.793579 212.0
1260.050781 168.0
1260.100342 124.0
1260.56665 208.0
1260.934204 184.0
1261.372437 148.0
1261.655151 144.0
1261.796631 204.0
1262.348145 216.0
1262.461304 232.0
1262.546143 36.0
1263.260498 108.0
1263.380859 204.0
1264.5979 144.0
1264.980225 172.0
1265.107666 116.0
1265.879395 152.0
1266.19812 168.0
1266.438965 180.0
1267.104858 136.0
1267.557983 168.0
1268.224487 180.0
1268.352173 92.0
1269.139038 152.0
1272.147339 172.0
1272.275146 164.0
1272.445557 184.0
1272.615967 80.0
1275.322632 136.0
1275.514526 140.0
1275.649658 140.0
1275.895264 180.0
1276.026489 204.0
1276.453125 144.0
1276.709106 128.0
1277.078979 112.0
1279.277832 184.0
1280.260376 196.0
1280.317383 40.0
1280.431274 128.0
1280.680664 176.0
1281.058105 196.0
1281.571167 192.0
1282.526123 128.0
1283.752441 128.0
1283.809448 184.0
1284.84375 92.0
1285.264771 208.0
1287.192139 132.0
1288.199219 88.0
1289.228149 44.0
1289.378174 176.0
1289.64978 104.0
1290.228882 192.0
1290.572021 132.0
1290.629272 148.0
1292.710938 68.0
1293.834717 216.0
1294.522095 132.0
1295.195312 140.0
1295.531982 156.0
1295.696777 116.0
1295.927368 156.0
1296.112427 224.0
1297.782593 148.0
1297.875732 220.0
1297.968994 136.0
1301.039917 104.0
1302.318115 176.0
1303.173096 216.0
1303.61853 192.0
1305.074341 148.0
1305.142578 148.0
1305.243286 192.0
1306.969604 156.0
1308.070801 128.0
1308.369019 256.0
1309.08606 76.0
1309.827881 240.0
1310.339355 160.0
1310.656372 144.0
1310.714111 152.0
1312.350342 116.0
1312.631592 184.0
1312.797363 184.0
1313.37439 168.0
1315.856934 184.0
1316.795776 164.0
1317.662598 180.0
1318.139526 188.0
1318.804443 96.0
1319.498413 140.0
1320.380615 220.0
1320.74231 184.0
1322.587524 160.0
1323.000122 204.0
1323.086914 184.0
1323.144897 152.0
1323.572144 176.0
1325.165649 108.0
1325.404785 124.0
1326.222778 176.0
1326.404907 164.0
1326.615112 156.0
1326.75293 200.0
1326.948608 212.0
1327.042969 188.0
1327.217529 144.0
1327.543213 128.0
1329.407715 220.0
1329.9375 48.0
1330.997559 144.0
1331.251709 104.0
1331.534912 164.0
1331.832764 92.0
1332.631836 156.0
1333.343994 160.0
1333.605713 248.0
1334.59436 172.0
1335.270752 152.0
1336.405518 184.0
1336.623901 132.0
1336.733032 208.0
1337.096924 176.0
1337.781128 164.0
1337.999512 92.0
1338.450928 168.0
1339.565308 168.0
1339.783936 164.0
1340.643677 208.0
1342.38269 164.0
1343.10083 192.0
1343.151855 216.0
1343.436401 184.0
1343.925171 132.0
1344.735229 224.0
1345.012695 156.0
1345.166016 164.0
1345.604004 212.0
1346.699463 160.0
1346.750488 204.0
1346.998901 44.0
1347.656372 136.0
1348.13147 144.0
1348.277588 100.0
1348.401855 72.0
1348.694214 164.0
1348.964722 244.0
1349.242432 184.0
1350.119995 148.0
1350.694702 124.0
1351.144043 192.0
1351.802612 120.0
1352.007446 188.0
1352.827271 156.0
1353.105469 68.0
1353.5448 180.0
1353.713257 132.0
1354.01355 384.0
1354.321167 148.0
1354.533569 184.0
1354.87793 96.0
1355.317505 172.0
1355.617432 148.0
1356.057739 148.0
1356.130981 136.0
1356.233643 172.0
1357.164673 108.0
1357.450684 124.0
1357.502075 172.0
1359.60022 100.0
1359.849731 112.0
1360.260864 248.0
1361.318115 176.0
1363.779419 196.0
1364.19104 140.0
1364.867432 208.0
1365.698486 88.0
1366.206055 168.0
1366.364136 132.0
1367.324585 208.0
1367.744141 212.0
1367.957642 132.0
1368.59082 268.0
1368.714355 236.0
1369.224121 148.0
1369.3125 212.0
1370.213623 156.0
1370.852295 140.0
1371.05127 244.0
1371.31665 144.0
1372.230713 148.0
1372.48877 136.0
1372.960815 76.0
1373.860718 136.0
1374.214844 168.0
1374.532104 144.0
1374.908447 112.0
1375.21106 184.0
1375.779541 168.0
1376.606445 156.0
1378.194702 196.0
1378.822876 88.0
1379.258911 176.0
1379.391968 48.0
1379.480713 96.0
1380.183105 168.0
1380.294067 92.0
1380.915283 180.0
1381.344238 56.0
1382.121094 188.0
1382.731201 128.0
1382.950073 176.0
1383.024048 128.0
1383.416382 156.0
1383.668091 208.0
1384.134521 212.0
1384.756714 184.0
1384.986328 248.0
1385.571533 72.0
1385.942017 152.0
1386.683105 144.0
1387.328003 200.0
1387.817383 144.0
1387.921143 176.0
1388.551514 156.0
1390.17627 160.0
1390.992676 108.0
1391.341675 108.0
1393.042358 156.0
1394.320435 168.0
1395.398315 200.0
1395.494995 132.0
1395.792358 136.0
1395.933716 96.0
1396.915405 180.0
1397.10144 240.0
1397.9646 168.0
1398.172974 180.0
1398.619507 156.0
1398.962036 172.0
1399.036377 180.0
1399.8927 176.0
1399.969116 220.0
1400.637573 180.0
1401.53894 128.0
1401.658203 220.0
1404.707642 60.0
1405.16272 120.0
1405.470581 200.0
1405.61792 160.0
1406.076538 176.0
1406.568604 184.0
1406.72998 132.0
1408.230957 124.0
1408.903198 152.0
1409.134888 160.0
1413.277222 76.0
1413.591431 176.0
1413.733643 244.0
1413.988159 184.0
1414.220215 200.0
1414.295044 172.0
1414.362427 148.0
1414.541992 176.0
1415.140991 104.0
1416.107056 184.0
1416.376709 180.0
1417.097046 156.0
1417.155884 176.0
1417.298218 40.0
1417.440552 104.0
1417.657959 148.0
1417.830322 196.0
1419.052124 84.0
1419.479614 164.0
1420.379639 164.0
1421.895264 196.0
1423.028809 168.0
1423.787231 132.0
1424.282959 104.0
1426.176636 144.0
1426.627563 212.0
1426.695312 168.0
1426.755371 184.0
1427.123901 168.0
1427.31189 132.0
1427.725464 156.0
1428.274536 188.0
1428.44751 188.0
1429.937378 212.0
1430.103027 172.0
1430.358887 152.0
1431.217163 216.0
1431.360229 172.0
1431.49585 88.0
1432.63269 204.0
1433.268188 188.0
1433.665527 160.0
1433.722168 176.0
1434.720825 224.0
1434.848999 156.0
1434.944946 168.0
1435.180664 140.0
1435.678467 216.0
1436.312012 152.0
1437.126831 112.0
1437.413574 112.0
1437.715332 148.0
1438.017334 204.0
1438.334351 160.0
1439.074219 200.0
1439.246338 268.0
1439.519653 148.0
1439.799072 288.0
1439.912354 68.0
1439.987915 176.0
1440.501587 252.0
1441.015381 204.0
1441.55188 84.0
1441.680298 204.0
1442.76123 248.0
1443.109009 164.0
1443.721558 124.0
1444.243408 44.0
1444.508179 156.0
1444.742676 100.0
1445.007446 184.0
1445.325317 164.0
1445.658203 148.0
1445.960938 112.0
1446.074463 200.0
1446.755859 152.0
1447.111694 212.0
1447.256836 160.0
1447.687134 240.0
1447.823486 80.0
1448.187012 132.0
1448.687012 224.0
1449.429443 156.0
1449.573486 52.0
1449.853882 28.0
1449.997925 136.0
1450.301025 160.0
1450.384399 160.0
1451.491333 144.0
1452.310425 148.0
1452.818726 140.0
1452.871826 136.0
1453.440918 96.0
1453.729248 160.0
1453.964478 120.0
1454.177002 148.0
1455.04248 200.0
1455.125977 48.0
1455.429688 152.0
1455.835693 224.0
1455.989746 148.0
1456.447388 172.0
1456.631348 196.0
1456.660767 44.0
1456.681152 200.0
1457.336182 136.0
1457.526245 184.0
1457.845337 236.0
1457.921387 132.0
1458.263428 196.0
1458.422974 140.0
1458.605469 228.0
1459.441772 136.0
1459.875244 92.0
1460.004517 120.0
1460.886841 364.0
1461.000977 164.0
1462.85022 256.0
1463.398438 172.0
1463.794434 140.0
1464.891113 116.0
1465.546387 188.0
1465.866455 148.0
1465.957886 228.0
1466.171265 128.0
1467.139404 124.0
1467.378052 164.0
1468.046753 180.0
1468.336548 224.0
1469.229004 68.0
1469.389282 188.0
1470.640747 124.0
1470.923218 172.0
1470.976685 216.0
1471.197998 112.0
1471.595093 52.0
1472.648926 148.0
1472.901001 108.0
1473.657349 188.0
1475.560547 176.0
1476.615845 84.0
1478.023438 136.0
1478.122925 244.0
1478.191772 120.0
1478.605103 176.0
1478.903564 156.0
1478.964844 124.0
1479.049072 68.0
1479.110229 156.0
1479.661499 184.0
1479.829956 192.0
1480.029053 128.0
1481.890259 152.0
1482.219849 216.0
1482.771606 128.0
1482.947876 156.0
1483.193115 200.0
1483.783447 148.0
1484.519531 84.0
1484.949097 68.0
1485.355591 204.0
1486.613892 212.0
1486.874878 108.0
1487.596436 104.0
1487.796021 96.0
1488.19519 92.0
1488.47937 272.0
1488.632935 132.0
1488.986206 160.0
1489.38562 156.0
1489.508545 108.0
1489.93103 132.0
1490.130859 204.0
1490.999146 188.0
1491.114502 160.0
1491.713989 160.0
1492.006104 204.0
1492.636597 160.0
1492.69812 180.0
1492.821167 212.0
1492.875 112.0
1493.136475 176.0
1493.23291 208.0
1493.38269 228.0
1494.175049 172.0
1494.305786 92.0
1495.167725 256.0
1495.2677 44.0
1495.367798 120.0
1496.622681 168.0
1497.100098 148.0
1498.016724 216.0
1498.070557 160.0
1498.371826 200.0
1498.54834 192.0
1498.90271 144.0
1499.719727 152.0
1500.328735 156.0
1500.884033 180.0
1501.215454 56.0
1501.516235 160.0
1501.739868 180.0
1502.779419 132.0
1502.991211 116.0
1503.846313 160.0
1503.962158 176.0
1504.08728 232.0
1504.216797 228.0
1504.301758 168.0
1504.618286 220.0
1505.089233 48.0
1505.166504 148.0
