>compound MLS001148626-01!32780-64-6
>formula C19H24N2O3
>ionization [M+H]+
>parentmass 329.185577
#inchi InChI=1S/C19H24N2O3/c1-13(7-8-14-5-3-2-4-6-14)21-12-18(23)15-9-10-17(22)16(11-15)19(20)24/h2-6,9-11,13,18,21-23H,7-8,12H2,1H3,(H2,20,24)
#inchikey SGUAFYQXFOLMHL
#origInchi InChI=1S/C19H24N2O3.ClH/c1-13(7-8-14-5-3-2-4-6-14)21-12-18(23)15-9-10-17(22)16(11-15)19(20)24;/h2-6,9-11,13,18,21-23H,7-8,12H2,1H3,(H2,20,24);1H
#Ion_Source LC-ESI
#Instrument qTof
#Compound_Source NIH Pharmacologically Active Library
#PI Dorrestein
#Data_Collector VP/LMS
#Scan -1
#Precursor_MZ 329.193
#ExactMass 328.179
#Charge 1
#CAS_Number N/A
#Pubmed_ID N/A
#Smiles CC(CCc1ccccc1)NCC(O)c2ccc(O)c(c2)C(=O)N.Cl
#INCHI_AUX N/A
#Library_Class 1
#SpectrumID CCMSLIB00000086107
#IonMode Positive
#UpdateWorkflowName UPDATE-SINGLE-ANNOTATED-GOLD
#LibraryQualityString Gold
#TaskID d252d724072548979f1f6f1ced849daf
##Scan# 1479
#SpectrumFile p5-E04_GE4_01_18461.mzXML
#LibraryName Pharm_Active_Library.mgf
#MQScore -1
#Organism Pharm_Active_Library
#TIC_Query 0
#RT_Query -1
#MZErrorPPM -1
#SharedPeaks 0
#MassDiff 0
#LibMZ -1
#SpecMZ 329.193
#SpecCharge 0
#internalFilename spec-00000.mgf

>collision 10
44.920074 164.0
45.177891 204.0
45.210003 60.0
45.258194 200.0
45.272923 232.0
45.287048 188.0
45.297031 216.0
45.426426 136.0
45.598927 172.0
45.697086 224.0
45.707851 212.0
46.023262 200.0
46.052971 168.0
46.155678 116.0
46.254601 164.0
46.285576 144.0
46.589382 140.0
46.666103 228.0
46.707645 136.0
46.743019 40.0
46.796101 124.0
46.819248 168.0
46.83287 148.0
46.879189 124.0
46.90781 192.0
46.926899 160.0
46.986908 188.0
47.127583 212.0
47.187668 152.0
47.350506 76.0
47.37516 104.0
47.513622 104.0
47.523224 96.0
47.55616 164.0
47.829685 148.0
47.963295 212.0
48.040512 32.0
48.058449 28.0
48.102612 164.0
48.157841 144.0
48.235218 108.0
48.253189 200.0
48.283611 200.0
48.308506 80.0
48.320957 208.0
48.330643 176.0
48.354168 176.0
48.405388 108.0
48.476036 160.0
48.487122 160.0
48.499596 92.0
48.511448 156.0
48.541187 104.0
48.550892 80.0
48.577248 156.0
48.607769 148.0
48.702885 164.0
48.723007 156.0
48.742462 136.0
48.775814 76.0
48.789715 72.0
48.807789 192.0
48.841167 88.0
48.874554 188.0
48.90239 188.0
48.944149 188.0
48.985931 208.0
49.040276 192.0
49.108593 160.0
49.213253 220.0
49.287281 156.0
49.484493 112.0
49.55032 240.0
49.575539 56.0
49.687714 60.0
49.704548 324.0
49.92931 156.0
49.943764 116.0
49.958847 112.0
49.999653 124.0
50.020767 184.0
50.122166 128.0
50.277283 192.0
50.395897 152.0
50.528797 168.0
50.748325 136.0
50.832012 156.0
50.971169 152.0
51.199257 224.0
51.31134 184.0
51.519699 76.0
51.584003 88.0
51.612598 164.0
51.757114 140.0
51.790054 64.0
51.845928 124.0
51.855961 72.0
51.901833 172.0
51.985031 152.0
52.028091 128.0
52.049625 184.0
52.072601 204.0
52.224953 148.0
52.294014 264.0
52.372513 156.0
52.42363 144.0
52.619793 156.0
52.644341 184.0
52.757038 128.0
52.949482 88.0
53.029167 92.0
53.04221 256.0
53.153885 200.0
53.230816 168.0
53.400848 136.0
53.475048 200.0
53.547844 236.0
53.716923 120.0
53.734428 56.0
53.843906 124.0
53.900879 96.0
53.916954 228.0
54.173004 180.0
54.24041 196.0
54.291725 144.0
54.379753 132.0
54.397366 124.0
54.517803 192.0
54.547195 180.0
54.678101 188.0
54.706066 144.0
54.739929 208.0
54.813583 196.0
55.014164 228.0
55.145626 228.0
55.164841 100.0
55.229904 160.0
55.295006 116.0
55.404579 136.0
55.549854 176.0
55.600304 248.0
55.618111 116.0
55.714634 144.0
55.778534 112.0
55.867756 176.0
56.088142 108.0
56.128395 188.0
56.177612 124.0
56.259686 176.0
56.410564 148.0
56.432991 184.0
56.597576 204.0
56.609554 184.0
56.658981 164.0
56.682953 208.0
56.853905 152.0
56.876419 180.0
57.082241 160.0
57.133377 140.0
57.166668 192.0
57.271866 184.0
57.395443 148.0
57.421078 132.0
57.650547 208.0
57.791176 216.0
57.828548 172.0
57.878963 120.0
57.947121 140.0
57.991066 160.0
58.028961 144.0
58.063839 156.0
58.126038 136.0
58.171566 240.0
58.213043 288.0
58.274837 180.0
58.331066 188.0
58.355389 160.0
58.486217 160.0
58.539501 120.0
58.550159 92.0
58.601952 104.0
58.697979 148.0
58.739155 156.0
59.099697 144.0
59.27272 216.0
59.352428 216.0
59.499718 140.0
59.546474 204.0
59.619526 200.0
59.674862 148.0
59.720997 172.0
59.810238 136.0
59.848724 140.0
59.976589 128.0
60.029007 176.0
60.047512 132.0
60.061394 152.0
60.178677 172.0
60.232727 176.0
60.248177 148.0
60.263626 160.0
60.551346 48.0
60.639656 164.0
60.658257 268.0
60.669109 104.0
60.721828 176.0
60.819572 196.0
60.884781 144.0
60.971783 244.0
61.009087 196.0
61.219131 96.0
61.290787 188.0
61.311047 228.0
61.32819 48.0
61.399906 200.0
61.45718 140.0
61.490395 184.0
61.735668 192.0
61.793541 48.0
61.813885 164.0
61.824837 104.0
62.084888 64.0
62.271297 180.0
62.487003 44.0
62.523193 140.0
62.636555 168.0
62.71534 212.0
62.756325 168.0
62.833607 116.0
62.847805 148.0
62.863586 116.0
62.928303 132.0
62.969357 136.0
63.009663 132.0
63.114742 244.0
63.284042 120.0
63.412354 160.0
63.485279 156.0
63.817146 148.0
63.958729 140.0
64.097282 188.0
64.285446 108.0
64.41317 136.0
64.427551 108.0
64.582603 232.0
64.611397 196.0
64.739449 156.0
64.771149 176.0
64.938171 188.0
64.959023 168.0
65.166115 180.0
65.191826 156.0
65.207077 180.0
65.256119 204.0
65.270592 80.0
65.296326 112.0
65.388023 276.0
65.505562 172.0
65.553902 220.0
65.573242 156.0
65.61676 156.0
65.697395 136.0
65.802299 48.0
65.894356 48.0
65.920204 144.0
65.950912 112.0
66.0075 160.0
66.125587 104.0
66.292397 172.0
66.373444 112.0
66.464279 180.0
66.50647 120.0
66.566544 72.0
66.714394 184.0
66.761543 168.0
66.772926 168.0
66.847763 164.0
67.050964 144.0
67.240509 140.0
67.320183 268.0
67.544411 192.0
67.604942 96.0
67.626221 64.0
67.703171 40.0
67.773605 128.0
67.798187 172.0
67.911308 224.0
67.988419 176.0
68.078705 160.0
68.160843 48.0
68.210144 228.0
68.229874 52.0
68.300583 208.0
68.417419 140.0
68.549179 164.0
69.022926 100.0
69.152214 180.0
69.241364 348.0
69.363976 96.0
69.551407 52.0
69.62114 52.0
69.679276 152.0
69.95298 144.0
70.096901 148.0
70.358765 140.0
70.602715 124.0
70.845413 152.0
70.862167 184.0
70.900703 160.0
71.011353 124.0
71.188385 264.0
71.220573 184.0
71.290039 88.0
71.325333 156.0
71.382492 148.0
71.544014 148.0
71.555801 148.0
71.623161 160.0
71.843987 188.0
72.087112 208.0
72.100632 88.0
72.163177 152.0
72.202072 124.0
72.291733 180.0
72.508499 236.0
72.525444 132.0
72.545647 248.0
72.593262 212.0
72.610222 140.0
72.696739 240.0
72.888618 132.0
72.924309 216.0
73.038231 104.0
73.05864 160.0
73.264626 168.0
73.278259 120.0
73.435081 120.0
73.513557 160.0
73.697975 100.0
73.814209 40.0
73.993858 124.0
74.012695 160.0
74.305779 180.0
74.480881 244.0
74.551315 180.0
74.62867 184.0
74.759399 216.0
74.82653 148.0
75.191963 160.0
75.330093 128.0
75.444145 120.0
75.534065 64.0
75.580772 148.0
75.724457 152.0
75.82148 184.0
75.875862 192.0
76.109436 208.0
76.147644 160.0
76.204964 136.0
76.253624 148.0
76.279694 136.0
76.432739 92.0
76.859634 160.0
76.90152 132.0
76.941666 220.0
77.128586 168.0
77.200264 80.0
77.242241 164.0
77.322723 232.0
77.378738 188.0
77.450539 196.0
77.567932 152.0
77.592476 200.0
77.611763 180.0
77.750343 104.0
77.764381 56.0
77.778427 128.0
77.879242 288.0
77.88958 172.0
77.922424 220.0
78.036667 140.0
78.064796 172.0
78.133392 176.0
78.177383 136.0
78.202019 132.0
78.369316 188.0
78.404556 140.0
78.441566 184.0
78.477753 164.0
78.492699 92.0
78.665596 204.0
78.755653 212.0
78.808441 152.0
78.870499 52.0
78.981895 164.0
79.052666 216.0
79.114609 164.0
79.323639 136.0
79.572006 176.0
79.699883 140.0
79.762573 144.0
79.836754 172.0
80.049255 204.0
80.082359 148.0
80.158958 212.0
80.253433 44.0
80.28553 140.0
80.472885 64.0
80.511162 188.0
80.526459 108.0
80.626503 196.0
80.672981 104.0
80.742752 168.0
80.844681 252.0
80.871529 152.0
80.907326 168.0
81.023735 164.0
81.068527 180.0
81.111542 60.0
81.187172 196.0
81.237068 164.0
81.31781 152.0
81.344734 108.0
81.41655 192.0
81.429123 172.0
81.533325 160.0
81.556686 148.0
81.671761 256.0
81.691551 188.0
81.799515 164.0
82.156319 76.0
82.186989 144.0
82.37114 120.0
82.499435 188.0
82.560913 136.0
82.609749 156.0
82.703842 164.0
82.761772 120.0
82.781685 184.0
82.810661 180.0
83.025238 152.0
83.062607 148.0
83.138809 128.0
83.274971 188.0
83.385796 136.0
83.617378 192.0
83.771423 184.0
83.789757 188.0
83.817085 188.0
83.864471 108.0
84.017647 136.0
84.064354 188.0
84.17643 96.0
84.357307 164.0
84.50544 104.0
84.536957 180.0
84.699493 188.0
84.741623 160.0
84.846092 112.0
84.924713 160.0
85.084587 208.0
85.165382 116.0
85.311394 104.0
85.378578 120.0
85.452156 120.0
85.492638 264.0
85.507355 192.0
85.568962 172.0
85.743095 104.0
85.997612 176.0
86.243263 92.0
86.426338 156.0
86.465202 192.0
86.546654 200.0
86.702255 140.0
86.767128 48.0
86.867271 172.0
86.937775 92.0
87.028725 200.0
87.114159 184.0
87.205208 216.0
87.314896 84.0
87.363258 144.0
87.942345 240.0
88.12793 204.0
88.148193 124.0
88.387535 116.0
88.473633 196.0
88.531677 196.0
88.593483 112.0
88.801544 164.0
88.925377 180.0
89.038834 148.0
89.092491 64.0
89.130066 136.0
89.218407 168.0
89.276413 188.0
89.378273 152.0
89.581596 128.0
89.692772 188.0
89.78685 152.0
89.922882 128.0
90.072044 116.0
90.168404 120.0
90.211876 92.0
90.378845 200.0
90.419937 196.0
90.614975 204.0
90.814018 184.0
90.872826 156.0
90.897255 160.0
90.911064 168.0
90.931648 224.0
90.948036 140.0
90.973404 220.0
91.034164 192.0
91.054962 13352.0
91.123436 56.0
91.145164 92.0
91.170937 180.0
91.241264 180.0
91.288803 108.0
91.425766 52.0
91.473351 84.0
91.526657 196.0
91.66571 200.0
91.720978 164.0
91.753387 76.0
91.913597 40.0
92.009026 184.0
92.05954 1336.0
92.142715 224.0
92.259293 148.0
92.274582 124.0
92.345337 112.0
92.370201 208.0
92.492668 152.0
92.50798 208.0
92.527122 196.0
92.542442 188.0
92.557755 168.0
92.603714 32.0
92.688011 144.0
92.929596 172.0
93.038193 172.0
93.060394 136.0
93.179192 228.0
93.217613 148.0
93.254128 188.0
93.325256 216.0
93.427185 204.0
93.579231 116.0
93.644699 164.0
93.723686 100.0
93.741028 36.0
93.866318 80.0
93.899101 88.0
94.027626 192.0
94.067223 180.0
94.151001 92.0
94.171234 64.0
94.19828 148.0
94.254303 76.0
94.366409 140.0
94.436028 132.0
94.554039 52.0
94.575333 192.0
94.664391 128.0
94.757362 164.0
94.885277 80.0
94.916298 152.0
94.945381 60.0
95.009392 176.0
95.186012 140.0
95.228737 156.0
95.381844 160.0
95.516403 156.0
95.635094 140.0
95.652611 44.0
95.872696 40.0
95.935066 160.0
96.055969 148.0
96.137917 200.0
96.169136 56.0
96.29995 156.0
96.362465 136.0
96.734032 216.0
97.082787 172.0
97.548103 168.0
97.630424 184.0
97.666084 164.0
97.703461 220.0
97.756584 184.0
97.778229 148.0
97.833344 232.0
97.971191 160.0
97.990898 188.0
98.138718 64.0
98.1959 36.0
98.274811 132.0
98.30835 128.0
98.401123 240.0
99.105232 220.0
99.210274 196.0
99.528389 268.0
99.566513 188.0
99.605164 84.0
99.754196 80.0
99.945114 212.0
100.010788 172.0
100.034676 84.0
100.142197 124.0
100.20993 56.0
100.237823 44.0
100.391312 184.0
100.45314 156.0
100.540932 200.0
100.784554 132.0
100.978455 176.0
101.120506 112.0
101.24263 88.0
101.274673 164.0
101.440987 160.0
101.465042 168.0
101.481079 224.0
101.585365 140.0
101.603416 172.0
101.755943 148.0
101.830246 124.0
101.946762 172.0
102.105583 128.0
102.131729 112.0
102.211243 176.0
102.268547 168.0
102.290688 156.0
102.460991 204.0
102.5149 148.0
102.542465 52.0
102.561356 160.0
102.631157 92.0
102.754189 152.0
102.883354 68.0
103.010574 124.0
103.158089 216.0
103.172241 104.0
103.200546 136.0
103.396759 148.0
103.465576 140.0
103.479752 204.0
103.534424 252.0
103.621521 156.0
103.678261 132.0
103.765419 132.0
103.799889 88.0
103.844505 64.0
103.945938 52.0
103.997673 172.0
104.051483 64.0
104.100212 136.0
104.191612 148.0
104.567787 216.0
104.694016 148.0
104.755112 160.0
104.783638 208.0
104.852913 88.0
104.967072 160.0
105.031609 208.0
105.070251 624.0
105.162704 76.0
105.352463 228.0
105.430466 200.0
105.452942 184.0
105.506088 236.0
105.745415 192.0
105.845726 192.0
105.894875 224.0
105.916054 224.0
105.976814 208.0
106.036026 192.0
106.065567 10044.0
106.13002 32.0
106.175652 68.0
106.26796 136.0
106.34388 76.0
106.411621 56.0
106.499924 176.0
106.771217 204.0
106.845764 200.0
106.85907 164.0
106.933746 112.0
106.997559 88.0
107.01815 28.0
107.049789 5544.0
107.124557 48.0
107.207657 56.0
107.362267 72.0
107.382889 168.0
107.453415 212.0
107.50267 320.0
107.539696 172.0
107.574783 136.0
107.593361 40.0
107.868111 80.0
107.988037 72.0
108.002518 208.0
108.050484 540.0
108.1577 164.0
108.445602 84.0
108.480843 112.0
108.612457 304.0
108.659187 224.0
108.698608 212.0
108.76255 84.0
109.070358 160.0
109.097382 68.0
109.178474 168.0
109.336578 112.0
109.41568 92.0
109.439674 168.0
109.590904 208.0
109.628136 160.0
109.901291 164.0
109.968071 192.0
110.032784 68.0
110.059921 176.0
110.20195 76.0
110.51976 152.0
110.590912 124.0
110.693497 152.0
110.917664 192.0
110.932335 124.0
110.976364 200.0
111.062347 132.0
111.404495 188.0
111.457024 156.0
111.669342 124.0
111.778732 216.0
111.814514 140.0
111.923973 228.0
112.02507 208.0
112.052452 156.0
112.0672 132.0
112.343384 204.0
112.49321 168.0
112.580414 212.0
112.655807 116.0
112.726234 108.0
113.000755 164.0
113.21843 148.0
113.252319 64.0
113.271378 136.0
113.332817 108.0
113.438782 124.0
113.486435 148.0
113.608429 148.0
113.639175 164.0
113.674202 120.0
113.765465 176.0
113.818542 56.0
113.856766 192.0
113.907745 140.0
114.026726 180.0
114.054359 100.0
114.29467 144.0
114.381927 228.0
114.516068 176.0
114.577843 196.0
114.628975 196.0
114.677994 184.0
114.722755 232.0
114.77179 168.0
114.852829 76.0
114.938164 72.0
115.04274 192.0
115.134552 144.0
115.194359 176.0
115.348213 152.0
115.446564 220.0
115.465805 128.0
115.671211 152.0
115.778267 148.0
116.050392 2412.0
116.073982 164.0
116.110443 60.0
116.159775 184.0
116.24559 80.0
116.286369 116.0
116.428062 148.0
116.49736 76.0
116.550507 96.0
116.59993 196.0
116.638618 32.0
116.685913 124.0
116.965569 104.0
117.032745 668.0
117.056511 1636.0
117.12706 124.0
117.221596 100.0
117.32531 200.0
117.446068 164.0
117.504311 200.0
117.551781 88.0
117.597099 196.0
117.76767 184.0
117.85408 132.0
118.064682 764.0
118.284447 56.0
118.351555 64.0
118.56601 128.0
118.777611 228.0
118.946159 132.0
119.012871 264.0
119.049026 1588.0
119.074844 268.0
119.099731 188.0
119.267044 160.0
119.404015 168.0
119.569359 112.0
119.643364 176.0
119.787094 60.0
119.937439 60.0
119.998482 164.0
120.013741 180.0
120.044189 1408.0
120.135872 64.0
120.183868 192.0
120.354118 76.0
120.419632 204.0
120.511383 176.0
120.570381 156.0
120.600975 44.0
120.754028 136.0
120.894043 112.0
120.929054 68.0
120.957512 212.0
121.030327 224.0
121.05983 344.0
121.471046 200.0
121.658981 212.0
121.77536 64.0
121.863228 152.0
122.036858 144.0
122.054451 316.0
122.074242 144.0
122.102829 140.0
122.160011 172.0
122.23922 96.0
122.355873 200.0
122.626816 116.0
122.887024 128.0
123.043716 176.0
123.151253 132.0
123.346359 176.0
123.483444 200.0
123.560867 32.0
123.667084 144.0
123.695854 144.0
123.815422 124.0
124.065796 208.0
124.081314 212.0
124.119011 76.0
124.300156 168.0
124.409653 264.0
124.489769 188.0
124.522896 220.0
124.751755 180.0
124.918541 128.0
125.087654 40.0
125.129951 232.0
125.475273 112.0
125.586769 192.0
125.794289 156.0
125.892525 128.0
125.977402 216.0
125.997505 200.0
126.075706 232.0
126.09359 172.0
126.34626 40.0
126.924103 156.0
127.078865 160.0
127.285362 176.0
127.552711 168.0
127.799767 192.0
128.065002 160.0
128.55043 204.0
128.782974 156.0
128.88237 188.0
128.961868 156.0
129.090332 208.0
129.149124 104.0
129.312027 188.0
129.506744 208.0
130.073608 204.0
130.158676 228.0
130.532288 148.0
130.707672 148.0
130.810089 40.0
130.860184 140.0
131.085678 156.0
131.147202 192.0
131.491608 104.0
131.81131 204.0
132.001038 208.0
132.0439 360.0
132.069641 160.0
132.190903 36.0
132.335098 260.0
132.376312 244.0
132.626038 136.0
132.912704 172.0
132.937943 152.0
132.976959 152.0
133.053009 2552.0
133.082336 220.0
133.108139 168.0
133.18129 176.0
133.267593 100.0
133.321442 228.0
133.457062 72.0
133.496155 208.0
133.590454 72.0
133.723907 136.0
133.81369 200.0
133.880463 188.0
133.905792 264.0
133.972595 124.0
134.060333 18308.0
134.109146 40.0
134.141357 92.0
134.159958 108.0
134.288376 104.0
134.329895 108.0
134.40477 80.0
134.509888 52.0
134.542206 240.0
134.560669 52.0
134.686478 56.0
134.701538 136.0
134.733887 48.0
134.754669 168.0
134.85173 36.0
134.867905 44.0
134.886398 212.0
134.911835 172.0
134.967316 184.0
135.043839 4260.0
135.060638 1764.0
135.152359 196.0
135.218521 196.0
135.29277 108.0
135.379211 52.0
135.432465 212.0
135.527451 76.0
135.622467 72.0
135.979645 120.0
135.995895 52.0
136.052399 116.0
136.077072 556.0
136.292999 128.0
136.465134 180.0
136.52327 40.0
136.586075 76.0
136.616302 148.0
136.797821 44.0
136.863007 48.0
136.909973 120.0
137.005081 76.0
137.047012 136.0
137.063324 68.0
137.128571 132.0
137.240463 160.0
137.30809 140.0
137.686172 172.0
137.765579 208.0
137.866043 172.0
137.992279 232.0
138.043716 120.0
138.55864 116.0
138.682846 196.0
138.858688 192.0
138.903244 220.0
139.090973 156.0
139.19426 104.0
139.349472 256.0
139.452682 128.0
139.570221 108.0
139.647827 144.0
139.873703 136.0
140.22937 184.0
140.302444 204.0
140.547729 160.0
140.609085 172.0
140.64212 180.0
140.755432 148.0
140.812119 64.0
141.377136 44.0
141.634903 156.0
141.694427 216.0
142.220871 132.0
142.268341 160.0
142.453568 160.0
142.536713 180.0
142.643661 132.0
142.700409 212.0
142.798218 160.0
142.879089 116.0
142.95285 152.0
143.157578 256.0
143.381516 152.0
143.560303 76.0
143.767853 192.0
143.985641 408.0
144.001816 160.0
144.044495 5672.0
144.099747 208.0
144.366455 152.0
144.393768 56.0
144.704849 92.0
144.736938 256.0
144.791046 148.0
144.898834 124.0
145.029221 1104.0
145.046646 588.0
145.080978 136.0
145.10495 120.0
145.189255 76.0
145.29921 152.0
145.356796 260.0
145.390381 144.0
145.4888 36.0
145.640076 80.0
145.712143 64.0
145.755386 256.0
145.820282 132.0
145.889984 120.0
145.930847 104.0
145.983749 196.0
146.066422 216.0
146.200256 44.0
146.262833 108.0
146.459564 136.0
146.53978 212.0
146.619293 144.0
146.710876 180.0
146.792862 128.0
146.930344 92.0
146.95929 180.0
147.044678 8224.0
147.30452 216.0
147.4664 68.0
147.488159 88.0
147.538925 208.0
147.744476 60.0
148.046173 624.0
148.108612 200.0
148.182678 44.0
148.26506 60.0
148.306274 196.0
148.365356 160.0
148.480835 68.0
148.517212 104.0
148.534195 84.0
148.694321 100.0
149.027008 84.0
149.050522 148.0
149.063263 52.0
149.072525 196.0
149.194702 144.0
149.280685 88.0
149.379517 140.0
149.710526 252.0
149.917587 76.0
150.43222 188.0
150.44931 140.0
150.730179 120.0
151.070023 164.0
151.385757 124.0
151.696915 132.0
151.763107 168.0
152.071915 172.0
152.445496 128.0
152.639679 180.0
152.917679 192.0
153.225479 244.0
153.531128 176.0
153.839539 156.0
154.056854 256.0
154.316345 196.0
154.439987 152.0
154.920197 160.0
155.001968 52.0
155.37883 204.0
155.418533 156.0
155.52977 116.0
155.964874 180.0
156.430023 84.0
156.514679 104.0
156.574432 196.0
156.604324 136.0
156.636703 144.0
157.135284 148.0
157.285019 192.0
157.447296 204.0
157.537216 164.0
157.899643 92.0
157.939667 144.0
158.104797 180.0
158.352646 160.0
158.425293 200.0
159.009521 52.0
159.081635 104.0
159.127487 32.0
159.725586 156.0
159.871521 112.0
160.004913 80.0
160.041519 164.0
160.075424 64.0
160.114532 180.0
160.144623 92.0
160.302597 212.0
160.365128 104.0
160.435715 116.0
160.531525 48.0
160.592041 212.0
160.609711 172.0
160.968079 104.0
161.038284 192.0
161.062195 312.0
161.084244 88.0
161.106979 104.0
161.205521 208.0
161.299042 44.0
161.334427 208.0
161.364761 164.0
161.400162 52.0
161.453262 40.0
161.58226 72.0
161.668289 260.0
161.693604 340.0
161.750549 148.0
161.772415 176.0
161.842957 96.0
161.870804 84.0
161.90976 176.0
161.917557 156.0
161.926025 124.0
161.93573 132.0
161.960663 132.0
162.055817 102044.0
162.138092 104.0
162.160065 44.0
162.19603 116.0
162.219666 104.0
162.24231 108.0
162.283463 84.0
162.291275 68.0
162.299438 208.0
162.32254 140.0
162.375107 64.0
162.412872 68.0
162.446671 120.0
162.472046 296.0
162.495789 104.0
162.52478 44.0
162.569611 60.0
162.618668 32.0
162.653671 192.0
162.704971 140.0
162.739716 88.0
162.804001 56.0
162.827179 32.0
162.843765 128.0
162.889557 76.0
162.926178 76.0
163.058289 12096.0
163.093475 196.0
163.097015 108.0
163.118927 84.0
163.155579 76.0
163.174973 76.0
163.220749 120.0
163.24617 64.0
163.309753 72.0
163.332642 100.0
163.365707 80.0
163.429321 156.0
163.485291 68.0
163.531219 84.0
163.620193 140.0
163.640564 32.0
163.663483 64.0
163.683578 112.0
163.781723 84.0
163.820297 104.0
163.844315 104.0
163.87233 80.0
163.902908 204.0
163.924362 96.0
163.958969 56.0
163.999741 120.0
164.027786 112.0
164.069962 2696.0
164.124664 244.0
164.161179 112.0
164.193512 132.0
164.220245 192.0
164.244522 92.0
164.297165 120.0
164.335678 60.0
164.355072 232.0
164.384842 192.0
164.421967 88.0
164.446548 136.0
164.545639 56.0
164.605576 68.0
164.63501 80.0
164.665665 40.0
164.749954 172.0
164.783157 128.0
164.801041 48.0
164.92627 140.0
164.969727 72.0
165.055542 3320.0
165.112915 52.0
165.245926 88.0
165.29454 156.0
165.317566 112.0
165.361771 44.0
165.519791 64.0
165.655533 84.0
165.724701 68.0
165.904099 64.0
166.058136 500.0
166.132339 52.0
166.283722 68.0
166.314529 52.0
166.4814 44.0
166.514786 60.0
166.720306 108.0
167.07515 164.0
167.250122 56.0
167.281006 92.0
167.335068 76.0
167.613251 56.0
168.513733 132.0
169.080017 160.0
169.209442 120.0
169.276764 68.0
170.002594 140.0
170.914673 72.0
170.953705 96.0
171.297379 96.0
171.398987 116.0
172.074173 260.0
172.33638 152.0
172.565689 212.0
172.963333 28.0
173.054504 164.0
173.217316 76.0
173.398117 116.0
173.830811 32.0
173.904297 164.0
174.143219 176.0
174.774139 56.0
174.900452 140.0
175.076859 160.0
175.683075 48.0
175.743759 144.0
175.888901 88.0
176.071075 240.0
176.160889 140.0
176.34584 56.0
176.665787 52.0
177.073425 152.0
177.452347 192.0
178.416061 48.0
178.642105 64.0
178.761841 44.0
179.081451 2816.0
179.139908 136.0
179.185196 44.0
179.278458 60.0
179.835846 88.0
179.974655 72.0
180.067062 764.0
180.929138 132.0
181.030884 80.0
181.064987 168.0
182.067276 184.0
182.2836 28.0
183.37352 96.0
183.624252 136.0
183.964233 180.0
187.36496 184.0
188.724121 116.0
188.767868 176.0
189.66037 132.0
189.709717 188.0
189.759064 120.0
189.838577 36.0
189.994919 52.0
190.086441 5656.0
190.178772 80.0
190.296814 160.0
190.337997 40.0
190.620926 104.0
191.086975 708.0
191.286484 72.0
191.5233 92.0
191.672058 36.0
192.085602 180.0
192.154572 240.0
192.264938 44.0
192.640442 68.0
194.642838 132.0
195.042892 44.0
195.079041 148.0
195.193024 92.0
195.85817 188.0
196.085159 220.0
196.71701 96.0
198.591736 116.0
199.943115 56.0
202.082031 152.0
202.104675 132.0
202.178238 116.0
202.543472 204.0
202.832489 120.0
202.979919 144.0
203.152924 44.0
205.095062 176.0
205.828247 76.0
206.614227 104.0
207.073883 160.0
207.111786 1748.0
207.246964 36.0
207.3358 88.0
207.823273 64.0
208.070099 168.0
208.0896 104.0
208.118317 532.0
208.265366 60.0
208.305573 52.0
208.647552 148.0
209.041595 124.0
209.061737 132.0
209.088272 200.0
209.758728 108.0
210.139404 148.0
210.791946 124.0
211.135956 200.0
211.740814 152.0
211.975464 88.0
212.555405 208.0
212.738251 180.0
214.378647 132.0
218.766205 172.0
219.110748 120.0
220.893799 220.0
221.927368 160.0
222.924713 116.0
223.064407 124.0
223.32309 176.0
225.105255 108.0
225.891281 92.0
227.197388 172.0
235.067276 148.0
238.355988 144.0
239.61441 108.0
240.548813 164.0
242.277451 188.0
244.671844 44.0
244.836868 140.0
247.009171 252.0
248.983765 164.0
249.175369 56.0
250.093597 152.0
252.102432 304.0
253.08316 200.0
253.107498 280.0
253.612198 64.0
258.401611 140.0
258.712036 48.0
259.80484 88.0
259.97168 148.0
260.34726 84.0
265.864441 152.0
266.078674 196.0
266.16153 176.0
268.121399 96.0
269.132629 156.0
271.55423 188.0
271.970917 168.0
272.020142 192.0
272.335358 32.0
274.385437 224.0
275.23996 152.0
275.408386 120.0
276.135529 124.0
276.340607 220.0
276.592133 108.0
279.040344 112.0
284.482483 108.0
284.942566 192.0
289.668854 176.0
289.973816 72.0
293.001404 136.0
293.195648 112.0
293.492218 80.0
293.53653 160.0
293.672943 108.0
293.867401 124.0
294.030334 80.0
294.051666 184.0
294.078949 220.0
294.148438 9840.0
294.246216 76.0
294.287201 60.0
294.40329 44.0
294.457947 64.0
294.543335 80.0
294.615051 44.0
294.645813 112.0
294.692413 108.0
294.789307 32.0
294.898682 44.0
294.930573 72.0
294.987549 72.0
295.018311 52.0
295.154022 1300.0
295.220032 52.0
295.459473 36.0
295.579224 56.0
295.783264 64.0
296.010498 40.0
296.116669 56.0
296.147888 136.0
296.174896 72.0
296.850037 52.0
296.915192 64.0
297.117584 56.0
297.196503 88.0
297.914032 52.0
299.386139 104.0
301.044861 104.0
303.543274 56.0
304.775513 52.0
311.174713 708.0
311.28656 160.0
311.437561 48.0
311.722137 120.0
312.151642 568.0
312.163605 224.0
312.173859 192.0
313.087036 100.0
313.159241 324.0
313.199768 144.0
313.76358 68.0
314.119751 36.0
314.158539 104.0
328.965332 40.0
329.185577 152.0
330.826233 72.0
331.192749 100.0
336.005707 80.0
340.151917 108.0
352.97113 68.0
353.431213 100.0
363.446564 96.0
366.404541 32.0
367.086792 104.0
367.422424 56.0
368.842987 52.0
373.424896 72.0
393.143402 88.0
403.110992 44.0
408.101379 64.0
408.716766 52.0
410.561707 64.0
411.833008 64.0
415.946869 36.0
420.448364 92.0
431.721283 108.0
444.892151 108.0
455.427795 56.0
455.682678 36.0
457.681702 132.0
476.256287 72.0
488.979553 52.0
507.616364 68.0
508.334076 100.0
508.383423 104.0
512.367188 68.0
517.597351 68.0
522.71759 52.0
539.606323 88.0
541.207153 88.0
541.762939 88.0
550.703247 104.0
552.049194 64.0
573.307373 56.0
576.37085 64.0
576.810547 44.0
595.933594 96.0
601.758667 120.0
666.624695 204.0
678.693115 76.0
709.804382 156.0
727.630676 160.0
730.247559 36.0
743.505615 140.0
744.325317 152.0
744.385071 160.0
771.313477 204.0
774.190491 164.0
781.550964 92.0
782.441467 72.0
785.902588 204.0
786.02533 108.0
787.789551 128.0
789.555786 160.0
795.75885 48.0
800.769104 188.0
812.37915 84.0
826.073608 168.0
830.862732 156.0
832.590454 132.0
842.457031 204.0
843.514526 144.0
847.252808 180.0
851.214172 132.0
856.873535 268.0
863.978455 172.0
867.896606 44.0
869.140076 172.0
872.264465 100.0
880.595886 104.0
886.157898 140.0
887.347656 32.0
888.949097 76.0
889.477295 160.0
900.175964 76.0
901.245178 100.0
902.64386 100.0
906.414917 148.0
906.648621 104.0
906.870361 128.0
908.147461 124.0
908.681335 36.0
910.614197 156.0
911.755676 152.0
912.711487 240.0
915.605957 200.0
915.889038 292.0
918.064697 220.0
918.643738 120.0
923.723938 160.0
926.629761 76.0
938.75592 116.0
942.161682 220.0
944.362244 172.0
946.626587 172.0
947.165527 168.0
947.857788 72.0
950.506775 36.0
957.280701 148.0
964.45575 188.0
965.27179 224.0
965.339844 44.0
965.976868 208.0
966.063477 180.0
967.561096 220.0
968.55188 204.0
970.969055 108.0
974.426514 52.0
976.365906 132.0
976.434265 212.0
977.031433 192.0
980.175598 188.0
980.269043 176.0
980.674133 116.0
983.830444 160.0
986.560364 172.0
987.97998 152.0
993.097595 100.0
993.172852 204.0
997.587158 180.0
1000.594238 80.0
1000.808289 176.0
1002.464905 180.0
1002.931274 156.0
1005.075439 168.0
1005.296326 204.0
1005.390991 164.0
1007.07666 180.0
1007.664124 220.0
1007.897888 36.0
1008.232788 128.0
1011.698975 140.0
1013.14917 156.0
1013.358215 148.0
1014.498962 204.0
1014.847656 156.0
1015.437378 116.0
1016.255737 148.0
1016.706238 120.0
1020.199646 160.0
1022.973145 164.0
1027.765747 200.0
1028.155029 124.0
1029.450928 220.0
1031.169434 192.0
1032.332886 220.0
1032.806152 216.0
1032.985352 124.0
1034.457031 152.0
1038.057739 192.0
1038.230835 196.0
1040.348267 48.0
1043.637695 228.0
1043.927002 204.0
1044.505859 164.0
1045.194214 172.0
1045.335815 176.0
1046.146729 192.0
1049.135742 168.0
1049.425903 144.0
1051.845093 184.0
1052.936279 68.0
1053.34314 148.0
1055.553467 216.0
1056.012573 180.0
1057.04126 160.0
1057.772583 224.0
1057.889038 144.0
1058.912109 152.0
1059.579346 176.0
1060.570801 172.0
1060.817017 96.0
1060.992065 100.0
1061.582153 132.0
1064.352905 60.0
1066.126221 196.0
1066.275757 160.0
1067.094727 248.0
1067.16626 216.0
1067.302856 72.0
1069.879272 152.0
1073.690918 160.0
1076.373047 176.0
1076.614624 132.0
1077.49646 52.0
1077.790405 116.0
1078.104126 72.0
1079.33606 156.0
1080.287842 160.0
1080.830933 140.0
1081.432983 232.0
1082.231567 204.0
1083.266357 232.0
1083.449707 136.0
1085.901245 180.0
1086.078369 160.0
1089.747925 108.0
1091.489746 152.0
1092.601318 176.0
1094.773315 92.0
1097.066284 236.0
1098.741333 184.0
1099.956421 136.0
1100.272339 168.0
1102.610596 148.0
1105.229248 200.0
1106.559692 204.0
1107.288086 124.0
1107.92395 112.0
1108.573242 192.0
1108.944336 124.0
1111.152466 272.0
1111.723145 176.0
1111.955444 156.0
1112.406738 140.0
1113.143677 168.0
1114.55188 192.0
1115.714966 56.0
1115.801392 188.0
1116.49292 136.0
1117.53064 144.0
1118.675293 148.0
1121.444214 176.0
1127.118652 204.0
1127.606445 164.0
1128.88916 160.0
1129.29126 172.0
1129.672607 128.0
1132.162476 264.0
1134.252808 136.0
1136.853394 180.0
1139.010132 160.0
1140.212891 40.0
1140.63623 208.0
1141.200928 184.0
1142.848755 148.0
1144.040039 168.0
1144.632568 192.0
1145.454102 180.0
1145.703369 156.0
1146.464722 180.0
1146.599609 124.0
1147.57019 176.0
1148.075928 120.0
1151.92981 248.0
1153.151123 228.0
1153.916626 176.0
1155.722534 208.0
1157.463501 200.0
1159.291016 68.0
1162.471436 220.0
1165.146484 172.0
1166.050293 204.0
1167.199097 240.0
1167.464355 236.0
1171.595825 196.0
1172.195435 144.0
1172.686035 204.0
1181.050049 196.0
1181.645142 160.0
1182.849609 60.0
1185.205444 160.0
1185.300171 92.0
1185.445312 148.0
1185.767334 76.0
1188.338867 192.0
1188.46582 204.0
1188.72998 160.0
1190.810059 132.0
1194.370361 164.0
1195.085815 128.0
1195.147705 124.0
1195.38855 192.0
1195.829834 140.0
1196.421021 40.0
1196.90979 136.0
1197.150879 224.0
1198.025513 164.0
1199.713867 152.0
1200.555054 156.0
1202.12793 148.0
1202.417725 188.0
1202.783569 156.0
1203.701782 156.0
1204.723877 156.0
1209.557495 184.0
1209.647461 156.0
1210.540649 136.0
1211.960571 176.0
1212.078369 168.0
1213.221924 80.0
1213.832153 180.0
1214.733643 124.0
1216.6698 32.0
1217.621094 136.0
1218.482422 92.0
1218.600464 192.0
1218.704712 172.0
1219.212036 188.0
1219.941772 172.0
1221.575928 156.0
1224.729126 180.0
1224.784912 188.0
1225.335205 188.0
1229.05835 156.0
1229.358398 168.0
1231.494751 160.0
1232.228149 164.0
1232.535645 184.0
1236.409668 216.0
1236.689575 184.0
1241.965576 212.0
1244.89209 188.0
1246.894287 156.0
1247.815063 180.0
1248.757324 88.0
1248.919067 60.0
1252.184814 116.0
1252.276367 244.0
1252.445435 192.0
1253.199219 216.0
1254.0448 120.0
1257.585449 40.0
1257.903076 160.0
1258.877441 164.0
1258.962158 236.0
1259.54126 216.0
1260.106445 140.0
1260.636353 168.0
1261.010864 156.0
1261.3573 164.0
1262.389526 252.0
1264.334839 136.0
1264.823242 168.0
1265.297485 164.0
1266.104736 136.0
1268.995728 164.0
1269.946045 220.0
1272.706543 104.0
1272.770386 132.0
1274.240601 92.0
1274.979614 168.0
1276.600464 184.0
1278.286377 184.0
1278.350342 144.0
1279.325439 156.0
1279.52478 228.0
1280.201294 188.0
1281.248291 248.0
1281.636597 228.0
1284.227905 224.0
1286.347046 144.0
1287.289429 196.0
1288.882324 172.0
1289.068115 232.0
1289.418335 188.0
1289.754272 144.0
1289.85437 156.0
1292.228516 164.0
1292.493286 164.0
1293.137329 96.0
1295.041748 188.0
1295.450073 188.0
1297.053589 164.0
1297.937012 172.0
1298.245361 184.0
1298.338623 160.0
1298.969727 200.0
1299.213623 160.0
1299.730225 252.0
1299.938232 128.0
1301.057983 56.0
1301.805298 88.0
1303.76416 176.0
1303.888062 112.0
1304.563599 188.0
1304.923096 164.0
1305.181885 192.0
1305.404907 240.0
1307.419067 192.0
1308.102783 164.0
1308.405151 132.0
1308.53479 84.0
1309.290894 184.0
1309.687012 120.0
1311.380127 176.0
1311.755005 228.0
1312.050537 164.0
1315.939209 152.0
1316.162964 184.0
1317.997681 124.0
1318.409546 204.0
1318.662476 224.0
1318.741943 156.0
1318.915405 148.0
1320.484375 140.0
1320.556763 116.0
1321.352417 140.0
1321.706909 224.0
1323.060303 308.0
1324.124756 92.0
1324.566528 188.0
1324.856323 148.0
1325.513794 176.0
1326.57373 204.0
1329.242798 164.0
1329.525757 144.0
1329.932251 64.0
1330.266113 144.0
1330.810547 136.0
1331.195435 176.0
1332.226807 172.0
1332.975098 152.0
1335.548706 212.0
1335.650513 176.0
1336.61084 188.0
1339.246216 116.0
1339.31897 208.0
1340.346191 156.0
1342.394531 140.0
1342.970703 216.0
1343.707397 140.0
1344.926025 128.0
1347.737671 108.0
1347.807373 208.0
1348.146851 84.0
1348.906982 184.0
1349.045776 112.0
1349.908569 160.0
1350.800781 128.0
1351.166626 116.0
1351.232422 120.0
1351.817749 148.0
1352.330811 212.0
1355.02478 160.0
1355.200684 256.0
1356.725098 168.0
1357.802979 172.0
1359.314087 156.0
1360.018677 136.0
1360.503052 208.0
1360.569214 156.0
1361.222656 76.0
1361.354858 224.0
1363.066406 96.0
1364.837769 100.0
1365.07312 128.0
1366.433838 56.0
1366.786987 176.0
1367.044556 180.0
1367.191772 132.0
1367.912964 224.0
1368.610718 256.0
1368.906982 176.0
1369.016479 168.0
1369.92334 64.0
1370.358032 164.0
1370.431641 192.0
1371.00647 60.0
1371.809814 156.0
1372.760864 180.0
1373.107544 156.0
1374.819092 176.0
1377.417847 196.0
1377.935059 132.0
1379.30957 152.0
1379.841797 236.0
1380.396362 144.0
1380.551636 160.0
1381.054565 188.0
1381.942261 136.0
1383.748047 168.0
1384.629272 148.0
1384.925537 172.0
1386.096069 132.0
1386.444336 200.0
1386.772095 176.0
1387.066895 160.0
1387.26709 152.0
1387.630249 124.0
1387.800781 120.0
1388.208618 168.0
1390.990845 56.0
1391.777832 116.0
1391.896606 92.0
1392.564941 140.0
1392.661499 144.0
1392.891724 180.0
1393.24646 192.0
1393.798096 140.0
1394.117676 140.0
1394.779053 36.0
1395.485352 148.0
1395.574585 120.0
1397.188477 140.0
1397.835693 152.0
1397.90271 208.0
1399.614746 136.0
1400.06897 172.0
1400.292358 120.0
1401.186279 92.0
1401.260742 128.0
1401.953735 164.0
1402.728882 204.0
1402.812256 124.0
1404.406494 172.0
1405.488281 104.0
1407.727539 212.0
1408.526733 152.0
1409.363403 140.0
1409.864136 124.0
1410.589111 48.0
1410.716187 192.0
1411.037598 184.0
1411.187134 232.0
1415.130127 184.0
1415.369629 136.0
1417.549438 156.0
1417.819214 192.0
1419.393433 60.0
1419.588379 148.0
1420.916016 164.0
1421.088501 160.0
1421.501221 200.0
1423.768311 156.0
1423.911011 224.0
1425.142944 40.0
1426.99939 124.0
1427.375244 88.0
1427.87915 184.0
1429.082764 228.0
1429.248291 168.0
1432.718994 176.0
1433.07312 144.0
1433.359497 132.0
1434.043945 180.0
1434.150757 140.0
1434.572876 132.0
1435.289062 204.0
1435.37207 140.0
1435.447388 36.0
1435.688721 184.0
1436.586304 96.0
1436.993652 204.0
1438.367188 204.0
1438.993774 124.0
1439.069214 196.0
1439.194702 244.0
1439.612915 180.0
1439.880127 156.0
1439.960327 136.0
1440.428589 128.0
1440.587158 204.0
1441.252075 124.0
1441.342651 120.0
1442.242065 176.0
1443.043335 136.0
1445.319946 136.0
1447.091064 56.0
1447.916382 200.0
1448.545044 68.0
1449.431396 204.0
1451.023071 112.0
1451.144409 148.0
1452.433594 128.0
1452.630859 196.0
1453.093628 28.0
1453.381836 264.0
1453.59436 200.0
1454.163452 184.0
1455.271851 204.0
1455.476807 124.0
1455.932373 160.0
1457.25415 244.0
1457.65686 184.0
1459.610352 68.0
1459.899292 256.0
1460.705444 104.0
1461.298828 200.0
1463.186279 116.0
1463.765015 128.0
1464.130493 152.0
1465.387329 176.0
1465.600708 208.0
1466.080688 52.0
1466.553223 180.0
1469.802002 112.0
1470.870361 232.0
1471.504028 212.0
1471.862915 52.0
1472.168335 228.0
1472.313354 48.0
1472.771606 140.0
1473.130615 136.0
1473.398071 156.0
1473.581421 176.0
1475.553223 164.0
1476.891357 184.0
1477.403931 128.0
1477.709961 128.0
1478.566895 68.0
1479.60022 212.0
1481.72937 104.0
1483.28186 208.0
1484.082275 44.0
1484.450317 120.0
1485.378296 180.0
1485.853882 184.0
1486.022705 176.0
1487.020264 136.0
1487.787842 228.0
1488.709229 156.0
1488.939575 140.0
1488.993408 160.0
1490.637329 132.0
1490.752563 164.0
1491.598022 176.0
1492.443604 148.0
1494.104858 136.0
1494.358765 148.0
1494.435791 112.0
1495.436157 140.0
1495.48999 176.0
1496.098145 40.0
1496.513794 96.0
1497.137573 244.0
1497.684326 132.0
1497.876953 132.0
1497.946289 136.0
1498.177368 184.0
1499.949707 156.0
1501.476318 224.0
1503.536133 232.0
1503.9375 148.0
1504.184448 160.0
1504.500977 188.0
1504.555054 116.0
