>compound Apigenin
>formula C15H10O5
>ionization [M+H]+
>parentmass 271.0600998720905
#inchi InChI=1S/C15H10O5/c16-9-3-1-8(2-4-9)13-7-12(19)15-11(18)5-10(17)6-14(15)20-13/h1-7,16-18H
#inchikey KZNIFHPLKGYRTM
#Ion_Source DI-ESI
#Instrument qTof
#Compound_Source Isolated
#PI Norberto Lopes
#Data_Collector Denise Silva
#Scan -1
#Precursor_MZ 271.055
#ExactMass 270.053
#Charge 1
#CAS_Number 520-36-5
#Pubmed_ID  
#Smiles O=C1C2=C(O)C=C(O)C=C2OC(C3=CC=C(O)C=C3)=C1
#INCHI_AUX  
#Library_Class 3
#SpectrumID CCMSLIB00000078869
#IonMode Positive
#UpdateWorkflowName UPDATE-SINGLE-ANNOTATED-BRONZE
#LibraryQualityString Bronze
#TaskID 847659d05c8443009f260856b14364b1
##Scan# 1
#SpectrumFile gnps_apigenin_pos_MSMS_271.mgf
#LibraryName gnps_library.mgf
#MQScore -1
#Organism gnps_library
#TIC_Query 0
#RT_Query -1
#MZErrorPPM -1
#SharedPeaks 0
#MassDiff 0
#LibMZ -1
#SpecMZ 271.055
#SpecCharge 0
#internalFilename spec-00000.mgf

>collision 10
115.051987 557.0
119.047302 2490.0
120.05027 111.0
121.026581 1722.0
125.01973 280.0
128.059143 162.0
131.045425 480.0
135.022308 125.0
139.050568 250.0
141.066406 1343.0
145.024261 4913.0
146.027985 268.0
147.039963 109.0
153.015198 18184.0
154.017273 821.0
155.045624 1075.0
157.061707 255.0
159.038376 108.0
163.033234 1087.0
168.054047 593.0
169.060944 1031.0
171.02533 1797.0
172.027664 113.0
173.055267 193.0
179.044464 263.0
185.051147 113.0
187.034821 472.0
197.054398 969.0
200.038818 139.0
201.048523 168.0
202.058792 129.0
203.062637 165.0
215.067307 139.0
225.050201 462.0
229.043671 546.0
242.051453 317.0
243.060669 1299.0
244.0616 199.0
253.04422 400.0
271.054901 7359.0
