>compound MLS000737655-01!
>formula C21H23NO5
>ionization [M+H]+
>parentmass 370.16489928809057
#inchi InChI=1S/C21H23NO5/c1-22-7-6-14-9-19(24-2)20(25-3)10-15(14)17(23)8-13-4-5-18-21(16(13)11-22)27-12-26-18/h4-5,9-10H,6-8,11-12H2,1-3H3
#inchikey XPOJSWHIKCNLEQ
#Ion_Source LC-ESI
#Instrument qTof
#Compound_Source NIH Natural Product Library
#PI Dorrestein
#Data_Collector VVP/LMS
#Scan -1
#Precursor_MZ 370.165
#ExactMass 369.158
#Charge 1
#CAS_Number N/A
#Pubmed_ID N/A
#Smiles COc1cc2CCN(C)Cc3c4OCOc4ccc3CC(=O)c2cc1OC
#INCHI_AUX N/A
#Library_Class 1
#SpectrumID CCMSLIB00000080346
#IonMode Positive
#UpdateWorkflowName UPDATE-SINGLE-ANNOTATED-GOLD
#LibraryQualityString Gold
#TaskID b1d8e8f6646f4e71acdff9ca3d919d08
##Scan# 1503
#SpectrumFile p2-E07_GE7_01_18031.mzXML
#LibraryName NIH_Natural_Products_Library.mgf
#MQScore -1
#Organism NIH_Natural_Products_Library
#TIC_Query 0
#RT_Query -1
#MZErrorPPM -1
#SharedPeaks 0
#MassDiff 0
#LibMZ -1
#SpecMZ 370.165
#SpecCharge 0
#internalFilename spec-00000.mgf

>collision 10
94.963676 140.0
94.979851 88.0
95.046257 324.0
95.094772 160.0
95.160774 160.0
95.179062 124.0
95.257034 184.0
95.384186 176.0
95.418098 108.0
95.440559 116.0
95.482452 136.0
95.510719 164.0
95.565048 192.0
95.587517 204.0
95.609802 148.0
95.629265 112.0
95.674034 88.0
95.69545 176.0
95.744347 180.0
95.763611 152.0
95.776154 136.0
95.794777 204.0
95.857124 128.0
95.881699 176.0
95.913643 192.0
95.964325 72.0
96.038429 156.0
96.07354 56.0
96.13208 104.0
96.173065 176.0
96.284348 152.0
96.388634 364.0
96.414055 248.0
96.489525 176.0
96.555283 184.0
96.579544 224.0
96.601746 240.0
96.634254 188.0
96.661644 112.0
96.681847 148.0
96.730743 184.0
96.757553 148.0
96.838974 144.0
96.867218 144.0
96.925995 196.0
96.938965 124.0
96.963226 184.0
97.035759 104.0
97.06517 168.0
97.086739 64.0
97.118996 128.0
97.155388 176.0
97.169121 168.0
97.220139 128.0
97.253593 184.0
97.314362 200.0
97.331833 156.0
97.353973 256.0
97.381126 120.0
97.454109 132.0
97.599266 124.0
97.636627 160.0
97.673996 120.0
97.716911 196.0
97.803864 184.0
97.866859 92.0
97.908211 192.0
97.939728 244.0
98.000656 172.0
98.032326 248.0
98.128487 168.0
98.139534 216.0
98.165642 172.0
98.192009 188.0
98.217651 172.0
98.231461 228.0
98.261406 220.0
98.298538 148.0
98.385384 160.0
98.438698 44.0
98.472267 176.0
98.490044 56.0
98.503868 168.0
98.525604 92.0
98.619133 236.0
98.645187 164.0
98.678825 264.0
98.694382 232.0
98.778992 220.0
98.79644 224.0
98.817276 180.0
98.942078 272.0
98.975319 264.0
99.008232 72.0
99.101334 164.0
99.162766 100.0
99.212318 132.0
99.238098 196.0
99.257927 204.0
99.275772 112.0
99.416618 196.0
99.475632 216.0
99.498001 156.0
99.553596 148.0
99.626602 180.0
99.686699 148.0
99.756256 160.0
99.837776 88.0
99.943207 144.0
100.03476 120.0
100.058647 156.0
100.148254 92.0
100.172157 188.0
100.198059 172.0
100.326721 204.0
100.374878 236.0
100.485153 172.0
100.507538 164.0
100.662796 64.0
100.693596 116.0
100.74868 100.0
100.802628 412.0
100.825943 204.0
100.876465 208.0
100.920563 152.0
100.946556 172.0
100.967354 180.0
101.010559 112.0
101.118607 180.0
101.140625 128.0
101.164642 172.0
101.274773 92.0
101.31929 144.0
101.439262 180.0
101.45713 140.0
101.483925 164.0
101.513268 156.0
101.569427 164.0
101.649673 152.0
101.697838 164.0
101.717911 160.0
101.733971 168.0
101.800232 140.0
101.890617 44.0
101.930801 148.0
101.950897 180.0
101.994186 164.0
102.034042 448.0
102.055428 144.0
102.075531 164.0
102.097656 216.0
102.224388 176.0
102.280746 80.0
102.315781 168.0
102.347183 104.0
102.380638 156.0
102.402534 148.0
102.476089 160.0
102.542587 104.0
102.598335 268.0
102.629272 152.0
102.689766 76.0
102.726074 140.0
102.748268 132.0
102.777565 200.0
102.806 144.0
102.861275 204.0
102.962227 140.0
103.026863 176.0
103.054932 1072.0
103.097588 148.0
103.11245 256.0
103.162262 152.0
103.192589 32.0
103.214828 188.0
103.332954 204.0
103.352379 128.0
103.394379 164.0
103.42321 112.0
103.440491 148.0
103.467743 136.0
103.500137 80.0
103.515717 108.0
103.541161 216.0
103.595329 112.0
103.659195 176.0
103.706772 176.0
103.726936 228.0
103.769615 52.0
103.804085 160.0
103.935936 148.0
104.048111 60.0
104.082047 216.0
104.163322 212.0
104.23037 148.0
104.281174 200.0
104.299461 132.0
104.318611 316.0
104.338089 204.0
104.40519 116.0
104.471764 124.0
104.546593 128.0
104.559807 172.0
104.616798 124.0
104.670212 188.0
104.727303 180.0
104.76342 128.0
104.808243 332.0
104.83474 60.0
104.876274 168.0
104.952965 76.0
105.034981 168.0
105.069839 2068.0
105.101868 56.0
105.12635 120.0
105.146759 280.0
105.181458 120.0
105.216164 68.0
105.267204 44.0
105.285583 88.0
105.310097 48.0
105.37751 152.0
105.419395 132.0
105.434723 160.0
105.498085 160.0
105.567604 36.0
105.586006 116.0
105.627556 332.0
105.683517 84.0
105.723076 220.0
105.792671 104.0
105.838875 116.0
105.882767 116.0
105.962021 248.0
106.075363 400.0
106.130722 92.0
106.161476 192.0
106.296867 124.0
106.333809 188.0
106.39566 208.0
106.467255 108.0
106.491684 152.0
106.512718 152.0
106.549416 364.0
106.569962 168.0
106.603081 168.0
106.709724 128.0
106.730286 120.0
106.754425 168.0
106.816666 188.0
106.863678 192.0
106.903076 104.0
106.990166 192.0
107.005997 72.0
107.049553 3088.0
107.117203 180.0
107.150162 76.0
107.168701 156.0
107.195488 52.0
107.34185 144.0
107.363983 144.0
107.409637 152.0
107.426414 192.0
107.463547 180.0
107.494675 184.0
107.579117 248.0
107.645187 100.0
107.670662 120.0
107.742264 152.0
107.769226 164.0
107.824921 208.0
107.882797 212.0
107.970383 92.0
108.011002 208.0
108.054543 356.0
108.153778 216.0
108.198143 204.0
108.219467 204.0
108.24073 104.0
108.396088 52.0
108.456192 124.0
108.472771 120.0
108.503868 200.0
108.534966 136.0
108.55867 176.0
108.597183 200.0
108.638664 236.0
108.677353 124.0
108.719589 156.0
108.734116 152.0
108.815071 100.0
108.90229 116.0
108.994713 336.0
109.035797 172.0
109.04509 104.0
109.062035 340.0
109.095535 64.0
109.184944 140.0
109.241104 152.0
109.261909 156.0
109.294212 116.0
109.370117 60.0
109.43882 304.0
109.507538 160.0
109.57003 144.0
109.692986 260.0
109.722244 216.0
109.768044 140.0
109.809753 144.0
109.841484 188.0
109.909882 32.0
109.966232 96.0
109.993362 28.0
110.055923 120.0
110.081055 136.0
110.118645 64.0
110.175041 296.0
110.193848 100.0
110.223099 124.0
110.275345 168.0
110.323418 200.0
110.358963 104.0
110.393967 184.0
110.41333 96.0
110.455162 88.0
110.494911 144.0
110.577255 148.0
110.599312 144.0
110.662346 52.0
110.698723 160.0
110.825966 200.0
110.882294 192.0
110.920021 320.0
110.974533 140.0
111.001793 180.0
111.039536 160.0
111.162842 160.0
111.194794 132.0
111.211678 180.0
111.255661 80.0
111.322853 124.0
111.345955 172.0
111.400566 152.0
111.478157 228.0
111.549767 132.0
111.69696 200.0
111.732727 108.0
111.789703 148.0
111.823204 116.0
111.854401 200.0
111.888466 236.0
111.903198 104.0
111.943207 188.0
111.968475 172.0
112.084885 208.0
112.136063 140.0
112.263519 128.0
112.313347 160.0
112.349953 216.0
112.365929 196.0
112.410172 192.0
112.453392 240.0
112.481216 280.0
112.507263 172.0
112.538322 224.0
112.554726 148.0
112.605408 164.0
112.675117 96.0
112.763351 164.0
112.818024 148.0
112.890434 152.0
112.964745 136.0
112.981667 92.0
113.013397 144.0
113.038795 192.0
113.055725 196.0
113.106514 116.0
113.232094 156.0
113.265327 176.0
113.327873 176.0
113.350075 104.0
113.379738 164.0
113.42849 108.0
113.475929 328.0
113.509407 120.0
113.55571 176.0
113.570557 368.0
113.617226 160.0
113.697853 128.0
113.721199 148.0
113.742424 44.0
113.842216 244.0
113.922928 112.0
113.980293 60.0
114.007805 152.0
114.133331 200.0
114.282227 144.0
114.320526 124.0
114.366852 188.0
114.437599 132.0
114.52491 260.0
114.554802 116.0
114.597343 156.0
114.627174 132.0
114.644218 212.0
114.738747 104.0
114.831833 60.0
114.876801 192.0
114.952896 144.0
114.981178 168.0
115.013191 200.0
115.053345 520.0
115.088715 180.0
115.166924 212.0
115.181877 44.0
115.265198 44.0
115.297256 204.0
115.339996 192.0
115.455452 152.0
115.526039 112.0
115.581665 160.0
115.618042 188.0
115.665131 296.0
115.725815 116.0
115.772186 168.0
115.80217 204.0
115.825859 128.0
115.911423 148.0
115.954285 68.0
115.99501 156.0
116.023994 184.0
116.054131 368.0
116.091492 220.0
116.218048 156.0
116.28672 184.0
116.340385 104.0
116.379028 144.0
116.421974 144.0
116.439156 220.0
116.495003 148.0
116.550865 180.0
116.598137 160.0
116.666641 244.0
116.749832 200.0
116.800247 140.0
116.864784 196.0
116.931496 148.0
116.972214 48.0
116.997696 164.0
117.030891 408.0
117.067711 824.0
117.14682 152.0
117.179131 180.0
117.250244 196.0
117.287315 140.0
117.325684 172.0
117.355865 116.0
117.52626 280.0
117.554314 164.0
117.577057 140.0
117.629852 172.0
117.66008 84.0
117.772369 136.0
117.787491 184.0
117.808228 220.0
117.828537 240.0
117.873909 216.0
117.927933 156.0
118.039101 324.0
118.065437 336.0
118.122536 108.0
118.150665 152.0
118.180954 140.0
118.230721 100.0
118.255058 196.0
118.286377 168.0
118.334625 112.0
118.375763 196.0
118.446228 164.0
118.466728 112.0
118.488373 172.0
118.59024 144.0
118.606171 224.0
118.670448 48.0
118.724663 136.0
118.776718 176.0
118.804916 48.0
118.913002 224.0
118.97419 208.0
119.024124 148.0
119.049171 2848.0
119.089935 132.0
119.121857 200.0
119.152275 160.0
119.182693 116.0
119.204422 212.0
119.335381 176.0
119.363686 120.0
119.389198 156.0
119.405426 200.0
119.428345 152.0
119.445747 176.0
119.589355 100.0
119.619827 140.0
119.63942 144.0
119.735229 156.0
119.752655 132.0
119.807114 112.0
119.826172 160.0
119.831726 120.0
119.838455 196.0
119.870293 200.0
119.885551 60.0
119.908279 196.0
119.92865 160.0
119.987999 164.0
120.015587 220.0
120.056435 404.0
120.086121 316.0
120.155159 136.0
120.193016 128.0
120.238846 252.0
120.25631 72.0
120.288971 172.0
120.310875 100.0
120.396034 152.0
120.428795 200.0
120.484673 216.0
120.510239 228.0
120.537338 240.0
120.592659 144.0
120.627632 44.0
120.647629 136.0
120.69104 196.0
120.715088 100.0
120.761017 232.0
120.798203 112.0
120.907372 172.0
120.945747 168.0
120.973267 140.0
120.997345 188.0
121.028183 224.0
121.063522 1564.0
121.095413 92.0
121.196655 144.0
121.255562 100.0
121.273361 160.0
121.325966 196.0
121.429031 64.0
121.453156 132.0
121.512383 124.0
121.540909 128.0
121.580406 92.0
121.600159 160.0
121.634796 200.0
121.683578 152.0
121.705528 112.0
121.735016 168.0
121.791237 160.0
121.827103 180.0
121.876854 124.0
121.91861 140.0
122.002136 136.0
122.033333 208.0
122.070137 172.0
122.094482 120.0
122.19593 68.0
122.222069 184.0
122.247513 164.0
122.316704 156.0
122.347893 216.0
122.427261 224.0
122.468636 68.0
122.497269 112.0
122.516472 168.0
122.587608 120.0
122.64386 76.0
122.673561 196.0
122.713455 212.0
122.768372 304.0
122.844574 160.0
122.898216 176.0
122.934052 192.0
122.975754 96.0
123.004448 96.0
123.042473 216.0
123.081718 216.0
123.165642 128.0
123.205406 152.0
123.242966 176.0
123.313683 208.0
123.351257 36.0
123.38221 264.0
123.448929 160.0
123.473969 132.0
123.53022 172.0
123.570198 232.0
123.601067 168.0
123.634361 68.0
123.68306 136.0
123.702324 148.0
123.771095 236.0
123.849121 108.0
124.049873 136.0
124.091301 212.0
124.110626 164.0
124.161629 280.0
124.177155 76.0
124.201553 92.0
124.263672 180.0
124.285858 128.0
124.312485 172.0
124.361313 160.0
124.396828 260.0
124.412361 404.0
124.439003 44.0
124.516724 144.0
124.552902 180.0
124.621284 172.0
124.71669 188.0
124.743362 72.0
124.761147 128.0
124.787827 116.0
124.827065 136.0
124.883446 248.0
124.900787 196.0
124.943512 276.0
124.97496 208.0
124.989731 124.0
125.051537 220.0
125.092613 328.0
125.114876 56.0
125.141121 224.0
125.168312 88.0
125.269859 208.0
125.377708 320.0
125.395538 212.0
125.431198 156.0
125.498085 160.0
125.54937 92.0
125.567215 144.0
125.605125 180.0
125.643257 132.0
125.685448 144.0
125.723511 204.0
125.850616 144.0
125.899742 124.0
125.939941 140.0
125.986855 124.0
126.009193 140.0
126.029305 280.0
126.059753 140.0
126.106667 284.0
126.183014 140.0
126.246132 148.0
126.277443 48.0
126.313232 192.0
126.364685 244.0
126.418388 152.0
126.499214 188.0
126.572845 108.0
126.644508 108.0
126.660187 164.0
126.696915 232.0
126.720673 156.0
126.765488 148.0
126.833794 176.0
126.891006 172.0
127.005379 168.0
127.030052 276.0
127.19046 164.0
127.232018 76.0
127.325821 264.0
127.411682 200.0
127.454376 64.0
127.536346 160.0
127.571068 204.0
127.594437 152.0
127.773643 152.0
127.816391 108.0
127.86145 192.0
127.88166 176.0
127.967201 120.0
128.016876 136.0
128.058655 144.0
128.105881 132.0
128.136124 144.0
128.165405 140.0
128.199539 164.0
128.309662 204.0
128.353165 284.0
128.408875 268.0
128.467514 180.0
128.514893 144.0
128.60968 108.0
128.684174 172.0
128.709015 256.0
128.727829 168.0
128.801605 120.0
128.819672 176.0
128.853561 232.0
128.912308 180.0
128.950729 220.0
129.023148 188.0
129.068283 360.0
129.144104 176.0
129.192673 104.0
129.234451 188.0
129.271866 364.0
129.342026 160.0
129.38504 52.0
129.439377 36.0
129.498428 172.0
129.518646 392.0
129.557159 140.0
129.584351 204.0
129.6138 224.0
129.647797 192.0
129.745255 168.0
129.813583 204.0
129.851837 196.0
129.890396 216.0
129.953918 132.0
129.972061 196.0
130.045319 264.0
130.064682 292.0
130.112778 192.0
130.214966 196.0
130.237686 168.0
130.278564 124.0
130.354614 212.0
130.387222 196.0
130.423996 164.0
130.487656 72.0
130.505844 148.0
130.544495 252.0
130.57634 192.0
130.599075 284.0
130.64975 116.0
130.669266 216.0
130.696899 124.0
130.741913 180.0
130.823547 240.0
130.917709 124.0
131.049408 1652.0
131.075668 456.0
131.080185 244.0
131.145538 88.0
131.163773 184.0
131.179733 220.0
131.216339 132.0
131.261307 184.0
131.318817 212.0
131.366714 108.0
131.389526 200.0
131.430603 148.0
131.521881 188.0
131.562973 152.0
131.597214 52.0
131.62233 120.0
131.663437 72.0
131.766235 244.0
131.877289 220.0
131.928497 80.0
131.987946 140.0
132.013733 172.0
132.056396 416.0
132.0793 512.0
132.118301 128.0
132.138901 108.0
132.157196 200.0
132.186905 196.0
132.235046 232.0
132.278168 312.0
132.331207 140.0
132.391129 124.0
132.438782 152.0
132.525833 148.0
132.551041 152.0
132.601456 188.0
132.624374 84.0
132.656464 200.0
132.696274 308.0
132.727539 204.0
132.784866 60.0
132.858276 160.0
132.95694 200.0
132.978027 152.0
133.065842 2220.0
133.118576 196.0
133.16391 168.0
133.241669 252.0
133.27153 36.0
133.404831 52.0
133.473801 128.0
133.510605 160.0
133.561203 80.0
133.588348 144.0
133.641006 168.0
133.649887 116.0
133.671631 104.0
133.752182 184.0
133.831467 192.0
133.899094 124.0
133.92717 124.0
133.97049 164.0
134.036087 208.0
134.07077 1612.0
134.096405 408.0
134.143784 128.0
134.163086 224.0
134.172318 84.0
134.179535 172.0
134.224472 180.0
134.268707 88.0
134.382828 152.0
134.424423 188.0
134.45285 160.0
134.524399 124.0
134.550476 108.0
134.591354 136.0
134.640076 124.0
134.723862 160.0
134.820557 200.0
134.867065 208.0
134.931 160.0
135.0439 7572.0
135.079758 1280.0
135.118332 160.0
135.156006 128.0
135.243286 144.0
135.282639 80.0
135.330017 164.0
135.338699 208.0
135.43779 48.0
135.491074 84.0
135.522141 116.0
135.56662 172.0
135.590698 224.0
135.611557 152.0
135.639313 140.0
135.713562 72.0
135.813278 184.0
135.855042 136.0
135.922318 188.0
135.973373 56.0
136.016342 132.0
136.050476 1596.0
136.085693 188.0
136.114441 136.0
136.145233 148.0
136.180008 144.0
136.252014 204.0
136.298492 200.0
136.382156 96.0
136.407242 212.0
136.439056 100.0
136.461197 200.0
136.508316 136.0
136.549561 148.0
136.570297 196.0
136.612366 208.0
136.705429 144.0
136.765213 140.0
136.789215 184.0
136.807831 124.0
136.882339 240.0
136.914948 152.0
136.940567 120.0
136.963852 196.0
137.022644 168.0
137.040497 356.0
137.062378 520.0
137.154922 120.0
137.180573 144.0
137.248184 120.0
137.26683 136.0
137.362457 100.0
137.416107 160.0
137.600494 112.0
137.677856 184.0
137.712585 256.0
137.803619 140.0
137.943909 172.0
137.991669 140.0
138.033554 204.0
138.065552 108.0
138.17543 160.0
138.278381 176.0
138.297104 140.0
138.345505 196.0
138.396286 188.0
138.428223 128.0
138.467316 184.0
138.575684 184.0
138.657791 152.0
138.695297 184.0
138.742188 196.0
138.826782 148.0
138.852386 196.0
138.917725 136.0
138.943863 124.0
138.969681 196.0
139.033035 144.0
139.067963 148.0
139.091705 80.0
139.159134 156.0
139.206757 136.0
139.234329 172.0
139.270172 172.0
139.29985 144.0
139.371185 164.0
139.387634 164.0
139.592133 128.0
139.643875 168.0
139.773911 188.0
139.888596 172.0
139.938995 292.0
140.015732 248.0
140.054779 132.0
140.10524 80.0
140.153992 64.0
140.175934 124.0
140.260773 148.0
140.326782 200.0
140.358215 192.0
140.428665 176.0
140.463562 128.0
140.506027 196.0
140.534332 156.0
140.550858 140.0
140.569733 148.0
140.654694 108.0
140.675934 160.0
140.706635 192.0
140.74321 240.0
140.784546 80.0
140.803452 124.0
140.855408 224.0
140.930756 152.0
140.967651 116.0
140.99292 164.0
141.079895 44.0
141.103546 56.0
141.153198 176.0
141.19278 168.0
141.266724 112.0
141.295105 188.0
141.356628 220.0
141.373199 128.0
141.455414 148.0
141.476212 168.0
141.521347 136.0
141.536591 208.0
141.562576 264.0
141.68811 160.0
141.764679 140.0
141.804214 224.0
141.823181 120.0
141.882446 156.0
141.95578 172.0
142.019989 160.0
142.038956 132.0
142.068344 228.0
142.105377 116.0
142.202682 140.0
142.314255 140.0
142.345306 444.0
142.384109 96.0
142.530396 52.0
142.601685 212.0
142.627838 168.0
142.696777 144.0
142.737198 152.0
142.886002 312.0
142.932251 100.0
142.951675 124.0
143.004944 176.0
143.048019 1216.0
143.075745 592.0
143.122681 196.0
143.189346 112.0
143.277481 140.0
143.334671 140.0
143.429993 92.0
143.480057 224.0
143.498123 160.0
143.505035 92.0
143.517181 112.0
143.523651 156.0
143.558746 40.0
143.589752 168.0
143.697083 236.0
143.731598 184.0
143.771057 128.0
143.818802 52.0
143.850906 196.0
144.079681 936.0
144.136429 60.0
144.169876 140.0
144.217682 140.0
144.361603 200.0
144.401779 232.0
144.430481 172.0
144.46637 136.0
144.540527 216.0
144.58252 220.0
144.626694 64.0
144.653015 40.0
144.773361 244.0
144.81488 184.0
144.884689 124.0
144.921249 88.0
144.957184 112.0
144.988342 132.0
145.060959 328.0
145.091309 264.0
145.225693 188.0
145.252075 64.0
145.27037 212.0
145.311523 164.0
145.410645 192.0
145.44165 148.0
145.556885 160.0
145.580887 132.0
145.662979 248.0
145.708206 88.0
145.775528 172.0
145.841431 180.0
145.953354 164.0
145.988998 180.0
146.037292 184.0
146.062286 2156.0
146.086548 300.0
146.183548 144.0
146.234818 184.0
146.261734 200.0
146.28537 152.0
146.335922 132.0
146.362411 236.0
146.396118 80.0
146.439468 172.0
146.478058 212.0
146.51474 180.0
146.545471 56.0
146.603302 128.0
146.649094 56.0
146.687653 156.0
146.727737 160.0
146.741638 164.0
146.815445 120.0
146.897446 88.0
146.926956 184.0
146.997589 236.0
147.044296 7252.0
147.06778 3016.0
147.148438 116.0
147.198639 172.0
147.228119 112.0
147.266754 88.0
147.305405 148.0
147.33316 148.0
147.375473 104.0
147.414124 144.0
147.447556 168.0
147.502579 188.0
147.52005 160.0
147.607513 116.0
147.629272 60.0
147.68248 148.0
147.70668 164.0
147.738129 336.0
147.771011 128.0
147.780899 76.0
147.787903 180.0
147.810699 224.0
147.828857 160.0
147.88089 32.0
147.902664 124.0
147.941406 44.0
147.997925 128.0
148.021194 188.0
148.050522 1132.0
148.073959 824.0
148.106064 68.0
148.132706 56.0
148.15451 176.0
148.185211 356.0
148.217499 48.0
148.264801 100.0
148.290207 124.0
148.331406 140.0
148.37262 116.0
148.406082 120.0
148.476959 140.0
148.532669 148.0
148.556931 128.0
148.588394 140.0
148.63884 368.0
148.66127 128.0
148.721939 140.0
148.758347 136.0
148.829666 212.0
148.846649 140.0
148.880722 160.0
148.919022 236.0
148.936279 144.0
148.958557 72.0
148.979843 212.0
149.021729 288.0
149.059097 23868.0
149.128479 116.0
149.153748 196.0
149.15979 152.0
149.202911 36.0
149.234528 44.0
149.271347 112.0
149.301392 120.0
149.325714 104.0
149.33609 52.0
149.340149 92.0
149.373138 40.0
149.420715 108.0
149.454025 212.0
149.504532 64.0
149.54393 192.0
149.626236 68.0
149.733124 40.0
149.757339 224.0
149.828369 140.0
149.851791 124.0
149.906342 36.0
149.96727 172.0
149.991058 176.0
150.026321 152.0
150.066437 11624.0
150.149414 132.0
150.185181 152.0
150.256989 148.0
150.261673 192.0
150.278091 204.0
150.323837 160.0
150.357498 84.0
150.402344 320.0
150.472229 48.0
150.501526 60.0
150.538147 64.0
150.567459 128.0
150.595032 196.0
150.623627 188.0
150.672485 156.0
150.69986 180.0
150.731232 204.0
150.824188 192.0
150.845993 136.0
150.863113 156.0
150.89978 40.0
150.960907 92.0
151.029388 180.0
151.074066 4696.0
151.122345 216.0
151.139481 48.0
151.16452 136.0
151.227661 120.0
151.271637 104.0
151.287827 108.0
151.308365 96.0
151.349289 184.0
151.367188 148.0
151.389954 100.0
151.477722 76.0
151.521439 44.0
151.553284 220.0
151.64621 52.0
151.660187 128.0
151.687485 132.0
151.710129 176.0
151.737106 168.0
151.764923 116.0
151.788589 176.0
151.842545 252.0
151.873062 144.0
151.975006 156.0
152.016724 100.0
152.078094 484.0
152.128433 180.0
152.173813 140.0
152.203278 116.0
152.260986 140.0
152.350647 136.0
152.3703 92.0
152.387497 168.0
152.473511 80.0
152.589035 112.0
152.748886 208.0
152.771027 160.0
152.82515 116.0
152.881744 44.0
152.898972 108.0
152.923965 156.0
152.955215 132.0
152.997437 184.0
153.070114 196.0
153.08873 136.0
153.125473 128.0
153.155029 48.0
153.228928 120.0
153.307785 80.0
153.337799 160.0
153.421158 104.0
153.492661 152.0
153.560257 204.0
153.588852 168.0
153.694931 152.0
153.717133 168.0
153.766708 188.0
153.811096 164.0
153.830673 176.0
153.850418 180.0
153.916122 88.0
153.961533 136.0
154.025742 180.0
154.051529 128.0
154.060745 192.0
154.079697 148.0
154.104858 156.0
154.203583 172.0
154.260498 124.0
154.337143 140.0
154.389069 96.0
154.461945 224.0
154.505325 204.0
154.606918 128.0
154.670853 76.0
154.723099 116.0
154.777573 184.0
154.817093 268.0
154.839493 216.0
154.916275 204.0
154.936096 68.0
154.95343 160.0
155.015381 196.0
155.052551 104.0
155.08725 100.0
155.11113 304.0
155.293045 164.0
155.31041 140.0
155.337692 224.0
155.379089 212.0
155.409637 168.0
155.439407 176.0
155.84166 64.0
155.883896 144.0
155.965912 140.0
156.047882 132.0
156.074203 136.0
156.0952 128.0
156.114395 216.0
156.147415 228.0
156.167313 168.0
156.214584 172.0
156.261841 72.0
156.334763 316.0
156.381287 180.0
156.406189 196.0
156.479141 144.0
156.548096 240.0
156.665161 164.0
156.705017 124.0
156.759842 156.0
156.832108 64.0
156.849564 156.0
156.909393 116.0
156.979202 220.0
157.059021 152.0
157.111404 180.0
157.163788 84.0
157.213699 356.0
157.233658 100.0
157.286591 216.0
157.500824 140.0
157.533295 104.0
157.7332 80.0
157.835709 60.0
157.858215 152.0
157.890717 192.0
157.938248 156.0
157.963257 144.0
158.034637 128.0
158.060333 364.0
158.097504 196.0
158.15593 172.0
158.231033 104.0
158.263626 184.0
158.293884 76.0
158.333099 140.0
158.366257 88.0
158.406326 80.0
158.504044 204.0
158.531525 120.0
158.606796 104.0
158.727127 344.0
158.782303 128.0
158.827896 176.0
158.847519 164.0
158.977982 232.0
159.000565 64.0
159.046555 816.0
159.111191 168.0
159.136124 108.0
159.236572 64.0
159.278091 204.0
159.342072 136.0
159.370621 188.0
159.394836 164.0
159.445099 232.0
159.536072 184.0
159.567352 232.0
159.643692 152.0
159.678909 88.0
159.702286 192.0
159.734238 180.0
159.766113 108.0
159.804688 128.0
159.827332 56.0
159.849976 176.0
159.971832 164.0
160.008545 200.0
160.051086 972.0
160.075516 5288.0
160.134445 48.0
160.177277 112.0
160.219238 128.0
160.280563 84.0
160.320892 44.0
160.348602 52.0
160.406586 60.0
160.424225 144.0
160.456512 104.0
160.497345 160.0
160.542725 216.0
160.598221 168.0
160.704163 120.0
160.723389 116.0
160.746643 120.0
160.837463 180.0
160.918411 176.0
160.951523 280.0
160.979309 168.0
161.082733 3796.0
161.125793 152.0
161.216766 116.0
161.276535 412.0
161.307755 72.0
161.330505 100.0
161.355789 172.0
161.39624 40.0
161.441757 36.0
161.594757 204.0
161.611618 180.0
161.646667 96.0
161.666901 172.0
161.689682 168.0
161.714996 116.0
161.770676 128.0
161.821304 168.0
161.839035 132.0
161.899811 124.0
162.026459 220.0
162.05864 296.0
162.091278 6788.0
162.187134 128.0
162.212646 128.0
162.253082 124.0
162.307785 108.0
162.385529 368.0
162.413849 200.0
162.454895 44.0
162.475189 68.0
162.500565 136.0
162.558914 72.0
162.583176 92.0
162.662979 176.0
162.695984 164.0
162.726364 140.0
162.768661 148.0
162.844589 168.0
162.894058 112.0
162.967728 176.0
162.988052 140.0
163.014496 168.0
163.039963 3504.0
163.074493 1404.0
163.094498 844.0
163.139954 172.0
163.173599 132.0
163.191391 32.0
163.232483 100.0
163.334 168.0
163.339539 160.0
163.37558 72.0
163.463562 52.0
163.486465 216.0
163.527191 76.0
163.56282 124.0
163.584839 272.0
163.68248 140.0
163.728317 36.0
163.779251 140.0
163.8302 76.0
163.970352 248.0
164.042435 560.0
164.076126 1244.0
164.094421 320.0
164.115646 124.0
164.261017 144.0
164.318787 204.0
164.377319 212.0
164.399796 204.0
164.488113 140.0
164.551941 200.0
164.577942 280.0
164.62854 168.0
164.695129 168.0
164.726822 208.0
164.769028 164.0
164.840439 332.0
164.879135 164.0
164.929123 204.0
164.95665 172.0
164.99649 136.0
165.055115 6092.0
165.090958 33440.0
165.151489 52.0
165.174545 160.0
165.206192 104.0
165.244064 184.0
165.284363 108.0
165.310913 232.0
165.354202 76.0
165.374466 184.0
165.408203 200.0
165.421143 220.0
165.48259 172.0
165.52356 40.0
165.567139 124.0
165.592697 40.0
165.640091 176.0
165.650223 44.0
165.656677 156.0
165.677231 80.0
165.706833 108.0
165.735138 80.0
165.778732 176.0
165.800232 212.0
165.818161 228.0
165.86174 156.0
165.889938 180.0
165.946335 92.0
166.020691 64.0
166.054535 528.0
166.094437 3300.0
166.199097 168.0
166.225922 84.0
166.266983 68.0
166.296921 132.0
166.331146 96.0
166.370804 160.0
166.437225 160.0
166.49205 192.0
166.618271 292.0
166.709122 72.0
166.749817 204.0
166.815292 176.0
166.834641 48.0
166.898911 68.0
166.980347 192.0
167.087128 600.0
167.148422 172.0
167.202454 212.0
167.223053 136.0
167.25058 132.0
167.260986 92.0
167.269119 120.0
167.333511 156.0
167.381256 44.0
167.421219 260.0
167.46109 176.0
167.477951 204.0
167.544922 92.0
167.58873 168.0
167.638123 164.0
167.714996 44.0
167.794907 136.0
167.846481 184.0
167.911865 392.0
168.04509 220.0
168.063492 180.0
168.086655 192.0
168.146378 212.0
168.187027 132.0
168.230316 124.0
168.257324 132.0
168.277374 180.0
168.313522 60.0
168.335632 148.0
168.375656 216.0
168.424576 160.0
168.450409 156.0
168.507233 140.0
168.52533 60.0
168.719162 172.0
168.84346 176.0
168.863968 120.0
168.915695 120.0
168.989624 208.0
169.064468 256.0
169.153763 80.0
169.542267 176.0
169.627808 152.0
169.653732 120.0
169.785965 128.0
169.837845 148.0
169.876755 96.0
169.915665 136.0
169.93428 112.0
170.009079 180.0
170.035019 132.0
170.157028 128.0
170.193375 196.0
170.216751 204.0
170.340897 196.0
170.406357 140.0
170.484467 128.0
170.549286 124.0
170.62207 280.0
170.662537 192.0
170.684479 108.0
170.770294 92.0
170.798904 140.0
170.833145 172.0
170.856491 264.0
170.884186 204.0
170.934448 200.0
171.004456 180.0
171.067841 340.0
171.164368 156.0
171.206619 80.0
171.283051 56.0
171.301285 60.0
171.39769 152.0
171.430099 128.0
171.55928 104.0
171.603363 180.0
171.613953 148.0
171.619659 176.0
171.646744 136.0
171.71312 76.0
171.818665 156.0
171.937485 84.0
172.015793 100.0
172.069916 268.0
172.220886 256.0
172.378357 220.0
172.431656 132.0
172.509506 176.0
172.625534 192.0
172.907089 152.0
172.942474 216.0
173.012421 164.0
173.059814 1688.0
173.116516 200.0
173.155807 100.0
173.194916 124.0
173.231766 160.0
173.273682 44.0
173.368011 124.0
173.414444 184.0
173.530518 96.0
173.559372 120.0
173.597992 104.0
173.682632 116.0
173.748215 160.0
173.800674 64.0
173.821671 132.0
173.866287 44.0
173.929276 192.0
173.955521 152.0
174.064819 552.0
174.089096 804.0
174.197113 160.0
174.236526 172.0
174.270157 164.0
174.331268 204.0
174.36528 144.0
174.39682 216.0
174.479462 136.0
174.605927 172.0
174.652313 204.0
174.746567 112.0
174.796555 168.0
174.8255 156.0
174.857086 108.0
174.897614 212.0
174.975082 160.0
175.005539 112.0
175.038239 7384.0
175.074326 1972.0
175.098007 1388.0
175.157364 136.0
175.180954 88.0
175.20282 168.0
175.233643 56.0
175.298386 56.0
175.35022 168.0
175.404938 88.0
175.444489 48.0
175.502487 88.0
175.583603 116.0
175.607971 32.0
175.649582 144.0
175.790009 124.0
175.819031 204.0
175.869171 56.0
175.945724 140.0
175.982697 96.0
176.006454 188.0
176.043823 760.0
176.070068 2132.0
176.103134 452.0
176.18605 208.0
176.228333 40.0
176.271057 176.0
176.289108 116.0
176.341965 112.0
176.371033 128.0
176.41597 176.0
176.439758 220.0
176.492645 52.0
176.541901 172.0
176.751862 164.0
176.780975 216.0
176.807434 144.0
176.852432 184.0
176.873596 148.0
176.902817 208.0
176.943314 120.0
176.987442 124.0
177.055145 1032.0
177.08963 2116.0
177.141052 132.0
177.186081 248.0
177.239075 136.0
177.287613 176.0
177.329178 148.0
177.426483 148.0
177.478333 152.0
177.53067 72.0
177.58725 156.0
177.597885 128.0
177.658218 132.0
177.697067 196.0
177.745529 164.0
177.89682 148.0
177.939285 156.0
178.005676 152.0
178.026917 56.0
178.08551 4060.0
178.144302 116.0
178.205612 160.0
178.297897 160.0
178.335831 288.0
178.38028 40.0
178.462708 140.0
178.486633 60.0
178.510239 200.0
178.537155 124.0
178.598328 44.0
178.650375 168.0
178.688782 148.0
178.7686 52.0
178.792557 168.0
178.837799 160.0
178.881409 52.0
178.933975 156.0
179.012482 188.0
179.03215 44.0
179.075714 1588.0
179.087799 2188.0
179.197083 148.0
179.221283 116.0
179.263916 104.0
179.310211 160.0
179.466934 172.0
179.506485 144.0
179.540176 120.0
179.597168 120.0
179.67186 160.0
179.693695 212.0
179.711884 216.0
179.805283 164.0
179.83197 48.0
179.893356 44.0
179.9254 76.0
180.056229 280.0
180.082199 200.0
180.10849 220.0
180.124283 236.0
180.163086 208.0
180.273224 144.0
180.299347 172.0
180.320724 112.0
180.339447 176.0
180.411606 72.0
180.490051 188.0
180.523911 156.0
180.547974 156.0
180.578949 228.0
180.67244 132.0
180.788742 144.0
180.962738 244.0
181.005585 140.0
181.027008 156.0
181.063049 1136.0
181.100723 528.0
181.252014 120.0
181.355728 172.0
181.407455 168.0
181.434265 136.0
181.49057 216.0
181.557617 164.0
181.605316 152.0
181.62735 128.0
181.689041 112.0
181.807098 184.0
181.845856 172.0
181.876892 200.0
181.917145 92.0
182.068954 404.0
182.098145 344.0
182.149918 164.0
182.191071 208.0
182.223312 64.0
182.42218 68.0
182.493896 172.0
182.545853 156.0
182.567368 132.0
182.639984 72.0
182.75029 292.0
183.078491 624.0
183.175644 96.0
183.210663 96.0
183.270096 72.0
183.302277 188.0
183.321136 208.0
183.388519 152.0
183.418167 164.0
183.507126 72.0
183.552963 156.0
183.585464 80.0
183.650055 180.0
183.674332 160.0
183.75145 176.0
183.823456 212.0
183.857788 144.0
183.881256 144.0
183.963058 96.0
184.014359 176.0
184.040619 176.0
184.069489 200.0
184.100769 156.0
184.138565 148.0
184.184494 164.0
184.265182 92.0
184.30336 80.0
184.324799 120.0
184.376312 168.0
184.481094 188.0
184.528275 112.0
184.549316 196.0
184.638565 172.0
184.668304 176.0
184.768402 144.0
184.86441 124.0
184.930756 120.0
185.035049 76.0
185.057739 436.0
185.086411 168.0
185.122971 68.0
185.201508 120.0
185.247559 108.0
185.366776 104.0
185.415558 180.0
185.483322 180.0
185.544205 168.0
185.604019 176.0
185.67981 128.0
185.751663 112.0
185.800598 304.0
185.857574 180.0
185.953003 120.0
185.974457 212.0
186.057602 264.0
186.086594 260.0
186.142593 160.0
186.335434 216.0
186.422379 228.0
186.489975 124.0
186.541977 32.0
186.590912 184.0
186.633743 148.0
186.669205 164.0
186.726868 136.0
186.781265 164.0
186.808365 104.0
186.843826 232.0
186.886154 212.0
186.947235 168.0
187.039337 180.0
187.07515 120.0
187.096924 136.0
187.154114 92.0
187.184052 112.0
187.257584 152.0
187.275192 92.0
187.312302 136.0
187.336578 224.0
187.413223 212.0
187.491882 164.0
187.510971 148.0
187.543671 80.0
187.574631 156.0
187.59819 100.0
187.667587 264.0
187.837845 208.0
187.862717 160.0
187.908981 212.0
187.985489 144.0
188.070648 6592.0
188.131882 176.0
188.154144 268.0
188.190216 32.0
188.249329 160.0
188.306091 212.0
188.441483 32.0
188.471542 160.0
188.539856 116.0
188.562958 264.0
188.695114 60.0
188.753082 148.0
188.805038 180.0
188.82692 136.0
188.846069 124.0
188.935654 180.0
188.963745 204.0
188.999268 52.0
189.021149 120.0
189.077759 5760.0
189.141571 136.0
189.181778 44.0
189.22644 128.0
189.259186 112.0
189.316803 276.0
189.359848 172.0
189.387314 208.0
189.417496 172.0
189.451004 196.0
189.533676 140.0
189.566086 220.0
189.593491 240.0
189.615417 112.0
189.640869 228.0
189.675705 132.0
189.716827 196.0
189.750809 272.0
189.770569 260.0
189.793594 188.0
189.837463 80.0
189.868576 140.0
189.896057 144.0
189.947174 156.0
189.97551 140.0
190.005157 120.0
190.039062 192.0
190.0867 66860.0
190.17218 268.0
190.23616 104.0
190.288223 44.0
190.305878 148.0
190.331406 52.0
190.347321 112.0
190.358856 128.0
190.370041 88.0
190.434601 180.0
190.469849 116.0
190.518051 160.0
190.539932 128.0
190.573105 256.0
190.60495 100.0
190.6418 80.0
190.669281 136.0
190.704102 60.0
190.735916 216.0
190.787476 72.0
190.819901 136.0
190.845215 52.0
190.909958 228.0
190.954849 60.0
190.991348 148.0
191.024506 212.0
191.089264 8172.0
191.147781 104.0
191.168472 140.0
191.195572 132.0
191.222092 68.0
191.241364 128.0
191.279892 52.0
191.336533 236.0
191.384415 108.0
191.417557 64.0
191.465439 248.0
191.494537 176.0
191.52771 136.0
191.596878 100.0
191.662704 124.0
191.681992 56.0
191.745377 184.0
191.775696 132.0
191.803253 40.0
191.871002 76.0
191.913528 64.0
191.989456 184.0
192.067749 336.0
192.095718 1580.0
192.16452 116.0
192.202621 188.0
192.246429 84.0
192.271683 144.0
192.295212 200.0
192.315857 208.0
192.338379 148.0
192.368362 172.0
192.423737 152.0
192.475494 36.0
192.482361 208.0
192.520599 108.0
192.552277 128.0
192.578598 176.0
192.605118 60.0
192.612183 88.0
192.636612 44.0
192.661469 84.0
192.725494 68.0
192.781693 180.0
192.805145 104.0
192.93782 116.0
192.986877 200.0
193.061127 612.0
193.108612 4476.0
193.168549 112.0
193.257736 132.0
193.291351 132.0
193.300751 168.0
193.390442 116.0
193.416245 192.0
193.459595 172.0
193.482834 112.0
193.517838 108.0
193.577438 96.0
193.639877 168.0
193.703415 116.0
193.786377 180.0
193.826965 144.0
193.926041 36.0
193.964844 52.0
193.997009 80.0
194.034149 76.0
194.073212 888.0
194.117752 4244.0
194.176971 160.0
194.217178 88.0
194.256012 48.0
194.322296 184.0
194.375305 232.0
194.397507 140.0
194.514084 60.0
194.54184 44.0
194.566818 108.0
194.611252 176.0
194.673645 76.0
194.72052 152.0
194.753998 64.0
194.835205 176.0
194.898514 104.0
194.989044 124.0
195.008499 152.0
195.047409 140.0
195.080475 1372.0
195.122681 988.0
195.194748 92.0
195.275406 140.0
195.297653 252.0
195.386673 184.0
195.563324 240.0
195.587036 48.0
195.745728 72.0
195.804199 256.0
195.84462 84.0
195.881958 144.0
195.95932 128.0
195.996414 48.0
196.018707 76.0
196.055374 252.0
196.087555 384.0
196.121582 184.0
196.152481 140.0
196.188721 136.0
196.216599 112.0
196.264008 84.0
196.289093 136.0
196.311401 196.0
196.344879 68.0
196.406235 200.0
196.462021 180.0
196.542007 204.0
196.547195 136.0
196.604324 36.0
196.637817 60.0
196.665726 208.0
196.720551 144.0
196.776352 172.0
196.939346 100.0
196.965729 136.0
197.086639 148.0
197.133408 148.0
197.168106 128.0
197.199203 120.0
197.263489 168.0
197.291443 72.0
197.394897 176.0
197.593475 160.0
197.646637 164.0
197.775375 160.0
197.82016 88.0
197.901352 240.0
197.943344 100.0
198.068344 364.0
198.087952 140.0
198.175842 244.0
198.198257 128.0
198.226273 188.0
198.372009 180.0
198.464539 120.0
198.484161 124.0
198.550781 132.0
198.585114 64.0
198.677689 60.0
198.702011 164.0
198.72818 184.0
198.75238 224.0
198.773087 88.0
198.792725 36.0
198.823593 192.0
198.857986 172.0
199.038589 164.0
199.087479 136.0
199.202637 132.0
199.227921 124.0
199.270065 176.0
199.309402 140.0
199.458359 152.0
199.498749 152.0
199.563522 136.0
199.587677 88.0
199.657974 116.0
199.704803 120.0
199.74791 180.0
199.76358 176.0
199.913971 160.0
199.970261 80.0
200.001221 204.0
200.076508 156.0
200.170151 212.0
200.248993 56.0
200.294067 84.0
200.325043 136.0
200.412384 120.0
200.502563 52.0
200.542023 136.0
200.595566 144.0
200.835251 68.0
200.950912 184.0
201.021454 100.0
201.071182 168.0
201.076431 248.0
201.134338 40.0
201.190796 104.0
201.210571 132.0
201.250092 192.0
201.408234 100.0
201.502014 164.0
201.846298 68.0
201.900024 128.0
201.942444 176.0
202.013153 160.0
202.079681 740.0
202.115005 172.0
202.182922 184.0
202.378159 136.0
202.463928 200.0
202.533997 124.0
202.613922 112.0
202.669983 152.0
202.715317 284.0
202.749329 152.0
202.772003 200.0
202.867065 156.0
202.907059 236.0
202.968948 160.0
202.988495 220.0
203.081711 1544.0
203.127502 180.0
203.166946 144.0
203.203476 100.0
203.26828 144.0
203.293823 116.0
203.350586 68.0
203.395996 92.0
203.433792 152.0
203.444794 188.0
203.516815 172.0
203.543625 60.0
203.603897 180.0
203.642807 216.0
203.677063 296.0
203.707291 192.0
203.725555 344.0
203.738388 140.0
203.751724 284.0
203.771805 84.0
203.787537 160.0
203.818802 164.0
203.87352 176.0
203.907242 144.0
203.938507 60.0
203.958405 116.0
203.981155 196.0
204.03656 516.0
204.102753 101512.0
204.186813 48.0
204.210464 88.0
204.244858 124.0
204.268188 68.0
204.28009 164.0
204.299011 64.0
204.305801 96.0
204.323776 112.0
204.345337 128.0
204.378815 132.0
204.457138 148.0
204.495041 104.0
204.51767 116.0
204.538681 124.0
204.570404 228.0
204.606323 48.0
204.661041 120.0
204.703674 164.0
204.768661 80.0
204.776901 72.0
204.807938 184.0
204.819366 176.0
204.839706 56.0
204.852188 180.0
204.896851 176.0
204.92598 236.0
204.950317 140.0
204.999359 48.0
205.004822 72.0
205.066879 1544.0
205.109589 50512.0
205.178162 284.0
205.201279 156.0
205.258041 132.0
205.268982 84.0
205.288132 244.0
205.314575 112.0
205.357956 112.0
205.362976 108.0
205.384552 168.0
205.412369 76.0
205.444626 48.0
205.45575 44.0
205.461166 56.0
205.509857 128.0
205.544098 148.0
205.553452 236.0
205.613205 56.0
205.652023 88.0
205.698837 192.0
205.723389 180.0
205.802582 212.0
205.856171 76.0
205.881088 168.0
205.914536 88.0
205.935013 168.0
205.967392 76.0
206.007233 116.0
206.076035 1380.0
206.114258 8032.0
206.172623 132.0
206.21904 132.0
206.241547 88.0
206.269241 128.0
206.295151 72.0
206.304077 64.0
206.317123 64.0
206.335312 108.0
206.357117 264.0
206.387482 88.0
206.410233 96.0
206.44606 124.0
206.48793 244.0
206.516037 56.0
206.56311 108.0
206.586914 224.0
206.6147 180.0
206.644424 100.0
206.697632 116.0
206.732285 116.0
206.785706 128.0
206.860199 144.0
206.910431 84.0
206.972809 112.0
207.008286 40.0
207.081085 2112.0
207.121002 1100.0
207.175247 152.0
207.204636 68.0
207.234573 72.0
207.274689 44.0
207.357803 52.0
207.397919 64.0
207.442947 124.0
207.480286 180.0
207.50972 124.0
207.549866 64.0
207.59697 112.0
207.622818 100.0
207.633026 44.0
207.644043 100.0
207.655518 128.0
207.66687 80.0
207.710464 48.0
207.759232 76.0
207.79451 144.0
207.842438 60.0
207.87204 152.0
207.985931 88.0
208.037842 192.0
208.0867 964.0
208.131134 840.0
208.256607 248.0
208.341568 112.0
208.367859 92.0
208.390854 168.0
208.425323 92.0
208.461365 96.0
208.491425 40.0
208.525909 176.0
208.555878 140.0
208.640884 204.0
208.669632 72.0
208.720398 220.0
208.776031 128.0
208.836426 164.0
208.894272 232.0
208.925598 180.0
208.9758 188.0
209.056458 1436.0
209.097 3168.0
209.134491 180.0
209.180801 152.0
209.207626 200.0
209.302628 180.0
209.328552 80.0
209.395523 172.0
209.432236 68.0
209.452393 92.0
209.499268 88.0
209.530167 100.0
209.574783 116.0
209.661148 140.0
209.694427 272.0
209.7146 48.0
209.82991 200.0
209.910629 56.0
210.065704 1088.0
210.103409 1612.0
210.144272 36.0
210.207748 88.0
210.259705 120.0
210.314529 108.0
210.41066 148.0
210.447327 36.0
210.481979 104.0
210.583054 56.0
210.73616 76.0
210.776611 152.0
210.802612 48.0
210.857529 128.0
210.935562 152.0
210.961578 88.0
210.992004 260.0
211.070435 344.0
211.108597 292.0
211.213165 120.0
211.476471 76.0
211.496719 32.0
211.543045 96.0
211.63858 128.0
211.661743 120.0
211.757309 216.0
211.783371 148.0
211.812347 36.0
211.994873 156.0
212.032547 68.0
212.083588 652.0
212.223862 148.0
212.28186 160.0
212.455887 108.0
212.659012 228.0
212.696732 44.0
212.747833 84.0
212.899979 180.0
212.947968 84.0
213.027771 272.0
213.046738 152.0
213.090103 212.0
213.149796 212.0
213.179626 60.0
213.203064 188.0
213.228256 92.0
213.300934 36.0
213.391052 104.0
213.498642 220.0
213.556808 140.0
213.710983 172.0
213.733093 180.0
213.865219 160.0
214.112701 144.0
214.176773 108.0
214.278732 48.0
214.331177 60.0
214.380707 180.0
214.698471 60.0
214.768478 152.0
214.858902 152.0
214.914337 156.0
215.07782 200.0
215.103668 172.0
215.279221 100.0
215.402863 84.0
215.515823 148.0
215.5392 200.0
215.63855 104.0
215.76123 132.0
215.825653 60.0
215.866577 80.0
215.895828 216.0
215.936768 164.0
215.974792 116.0
216.012817 100.0
216.036224 52.0
216.061951 124.0
216.070694 92.0
216.085526 136.0
216.09671 156.0
216.214706 96.0
216.287872 264.0
216.47818 120.0
216.530594 116.0
216.583618 184.0
216.712509 172.0
216.95871 148.0
217.066986 1192.0
217.113861 596.0
217.23436 156.0
217.510193 212.0
217.54248 112.0
217.721588 164.0
217.780334 132.0
217.862579 204.0
217.961563 168.0
217.973221 116.0
217.978714 244.0
218.072296 984.0
218.116959 292.0
218.159393 176.0
218.309341 144.0
218.365219 132.0
218.415222 180.0
218.574097 156.0
218.62706 124.0
218.668259 48.0
218.718292 92.0
218.774231 156.0
218.806168 188.0
218.938385 160.0
218.977402 44.0
219.079224 4288.0
219.148254 152.0
219.197479 148.0
219.419403 72.0
219.481323 48.0
219.560944 76.0
219.587494 48.0
219.627335 172.0
219.673035 96.0
219.723175 100.0
219.811691 40.0
219.864807 184.0
219.962006 120.0
220.047897 164.0
220.090012 5404.0
220.151169 184.0
220.262451 136.0
220.295898 116.0
220.374054 132.0
220.561844 164.0
220.615051 172.0
220.650452 208.0
220.754013 36.0
220.872818 300.0
221.059875 428.0
221.093903 2800.0
221.144531 64.0
221.180054 44.0
221.218536 48.0
221.278778 172.0
221.299255 180.0
221.3116 92.0
221.317062 128.0
221.359055 184.0
221.432419 204.0
221.499847 92.0
221.539551 180.0
221.562057 60.0
221.586899 104.0
221.615387 52.0
221.726212 140.0
221.772446 160.0
221.911774 72.0
221.982941 112.0
222.063339 628.0
222.111633 12952.0
222.211334 132.0
222.352325 80.0
222.396957 188.0
222.467941 112.0
222.508118 96.0
222.546722 28.0
222.581238 64.0
222.649612 172.0
222.781342 68.0
222.807327 172.0
222.989349 164.0
223.016098 48.0
223.036896 196.0
223.074722 2188.0
223.113983 2052.0
223.148422 188.0
223.20636 80.0
223.247986 260.0
223.292603 100.0
223.337219 48.0
223.390762 76.0
223.518692 36.0
223.613922 92.0
223.63475 40.0
223.700241 72.0
223.738937 44.0
223.765732 176.0
223.797943 220.0
223.855057 136.0
223.96228 152.0
223.989075 32.0
224.018875 164.0
224.080978 896.0
224.11705 380.0
224.149963 60.0
224.170822 60.0
224.21524 208.0
224.316864 140.0
224.34668 116.0
224.422226 164.0
224.489792 72.0
224.76059 92.0
224.82988 108.0
224.853745 116.0
224.970154 160.0
225.011963 160.0
225.055557 520.0
225.092026 6980.0
225.169846 160.0
225.206055 116.0
225.268784 36.0
225.376343 140.0
225.48201 200.0
225.572479 76.0
225.600494 160.0
225.723068 52.0
225.832184 132.0
225.850906 252.0
225.893555 124.0
225.923462 176.0
225.965347 56.0
226.025192 188.0
226.065918 144.0
226.09697 1792.0
226.180099 184.0
226.225708 192.0
226.452255 216.0
226.68396 52.0
226.899765 96.0
227.022705 144.0
227.100372 392.0
227.136673 188.0
227.166672 208.0
227.19368 172.0
227.232681 104.0
227.301682 144.0
227.358704 68.0
227.409729 60.0
227.451752 188.0
227.493774 44.0
227.5298 116.0
227.634888 168.0
227.655899 48.0
227.907608 96.0
227.941284 92.0
228.076126 212.0
228.187744 120.0
228.476471 156.0
228.512573 96.0
228.644974 44.0
228.699142 164.0
229.024338 164.0
229.063492 96.0
229.09964 188.0
229.165924 232.0
229.316589 36.0
229.598541 100.0
229.63208 176.0
229.681427 80.0
229.75383 56.0
229.949966 136.0
230.000488 168.0
230.068985 628.0
230.115982 136.0
230.212616 88.0
230.260925 124.0
230.299683 136.0
230.33342 88.0
230.387802 136.0
230.5298 172.0
230.873108 64.0
230.950485 192.0
230.996292 220.0
231.080078 988.0
231.170898 192.0
231.304062 196.0
231.509949 140.0
231.549316 88.0
231.687119 128.0
231.731064 144.0
231.764389 112.0
231.87175 128.0
231.900772 116.0
231.931076 192.0
232.012924 152.0
232.089539 5020.0
232.157669 92.0
232.212433 184.0
232.234283 48.0
232.376114 180.0
232.422379 32.0
232.656067 60.0
232.739655 168.0
232.768417 188.0
232.804749 232.0
232.926346 96.0
232.996216 264.0
233.059814 1372.0
233.092941 1932.0
233.214996 208.0
233.25148 108.0
233.272751 148.0
233.330521 76.0
233.360916 108.0
233.427811 168.0
233.522079 60.0
233.622467 48.0
233.689392 92.0
233.716782 152.0
233.856766 204.0
233.884155 120.0
233.920685 80.0
234.002884 120.0
234.06842 420.0
234.092422 536.0
234.099091 260.0
234.145996 152.0
234.179504 160.0
234.209961 84.0
234.276978 68.0
234.380569 32.0
234.423233 64.0
234.520752 80.0
234.545135 176.0
234.65184 144.0
234.783051 72.0
235.023941 128.0
235.073959 2516.0
235.228409 72.0
235.307785 68.0
235.457413 36.0
235.851547 104.0
235.919556 128.0
236.012848 184.0
236.079483 1380.0
236.181778 160.0
236.212372 156.0
236.23378 80.0
236.313324 108.0
236.377579 100.0
236.53978 156.0
236.610321 284.0
236.815353 136.0
236.910324 204.0
237.050949 784.0
237.090393 3068.0
237.210632 124.0
237.278076 136.0
237.322571 148.0
237.40686 68.0
237.556107 116.0
237.590897 84.0
237.6185 132.0
237.643051 228.0
237.682938 200.0
237.802628 128.0
237.870148 56.0
237.94075 108.0
238.00119 176.0
238.064529 268.0
238.096756 3220.0
238.143433 180.0
238.215363 44.0
238.238647 116.0
238.340042 168.0
238.386124 100.0
238.564392 88.0
238.610504 60.0
238.638184 64.0
238.696609 64.0
238.819611 84.0
238.842361 112.0
238.899597 212.0
239.039108 116.0
239.067184 944.0
239.105347 1220.0
239.462891 32.0
239.493683 64.0
239.546051 104.0
239.662018 144.0
239.758652 48.0
239.782547 164.0
239.812134 124.0
239.903519 188.0
240.076004 236.0
240.107529 416.0
240.440216 124.0
240.492676 152.0
240.607803 136.0
240.647034 176.0
240.718048 108.0
240.74585 112.0
240.816879 60.0
240.841583 120.0
240.887924 104.0
241.122253 2404.0
241.181473 176.0
241.232803 56.0
241.568771 80.0
241.742477 212.0
241.873901 224.0
241.982697 84.0
242.123215 704.0
242.199463 48.0
242.462814 200.0
242.515503 80.0
242.546509 32.0
242.673615 168.0
242.744919 120.0
242.791443 156.0
242.921829 100.0
243.101669 180.0
243.132263 228.0
243.17305 144.0
243.194763 52.0
243.269272 96.0
243.374817 156.0
243.4245 100.0
243.685425 124.0
243.865662 116.0
243.977554 136.0
244.049271 296.0
244.1548 76.0
244.216995 148.0
244.241882 156.0
244.375656 136.0
244.428543 60.0
244.497009 224.0
244.543686 124.0
244.730469 96.0
245.05307 280.0
245.080032 296.0
245.086655 196.0
245.100677 332.0
245.154099 76.0
245.219559 52.0
245.378525 124.0
245.484543 156.0
245.543793 136.0
245.727142 152.0
245.783829 148.0
245.883865 68.0
246.068268 652.0
246.183563 36.0
246.208542 228.0
246.239777 68.0
246.306976 132.0
246.370972 164.0
246.402206 104.0
246.450317 160.0
246.645966 152.0
246.958633 184.0
246.994431 200.0
247.02005 124.0
247.076157 5408.0
247.177628 180.0
247.203354 72.0
247.296539 212.0
247.330978 60.0
247.381058 84.0
247.431152 80.0
247.506287 140.0
247.568924 48.0
247.683243 128.0
247.715302 136.0
247.81012 112.0
247.919785 284.0
247.946808 112.0
248.029312 148.0
248.083191 6540.0
248.154877 108.0
248.195633 132.0
248.21759 144.0
248.274033 48.0
248.396362 56.0
248.493607 40.0
248.540665 112.0
248.571198 244.0
248.641083 80.0
248.765244 124.0
248.810593 92.0
248.929291 124.0
249.017838 40.0
249.051437 200.0
249.088577 4048.0
249.215744 68.0
249.294296 44.0
249.318893 92.0
249.470306 32.0
249.544846 96.0
249.555008 68.0
249.592926 64.0
249.650269 136.0
249.721863 144.0
249.759613 140.0
249.844543 56.0
249.978622 208.0
250.017593 164.0
250.098404 5084.0
250.154434 168.0
250.180557 176.0
250.213928 64.0
250.269424 92.0
250.294617 48.0
250.373337 48.0
250.445786 60.0
250.514084 76.0
250.534164 204.0
250.568634 144.0
250.599213 188.0
250.653702 108.0
250.685226 132.0
250.742844 224.0
250.800461 124.0
250.877487 104.0
250.98468 104.0
251.028503 200.0
251.069946 1224.0
251.106903 3764.0
251.196609 100.0
251.33165 40.0
251.392868 160.0
251.486282 112.0
251.517838 92.0
251.568344 44.0
251.625931 84.0
251.682007 192.0
251.725449 116.0
251.808701 164.0
251.937134 112.0
251.974319 108.0
251.99469 188.0
252.078323 4832.0
252.238037 84.0
252.269653 32.0
252.304413 176.0
252.405594 240.0
252.453033 212.0
252.535263 132.0
252.601685 112.0
252.675461 124.0
252.721298 148.0
252.764038 76.0
252.794678 168.0
252.850418 156.0
252.905441 72.0
252.942398 160.0
253.085464 5912.0
253.121811 3844.0
253.18898 128.0
253.195038 160.0
253.250565 44.0
253.29808 132.0
253.325134 208.0
253.421631 80.0
253.467438 88.0
253.529373 64.0
253.576904 236.0
253.599091 124.0
253.742828 108.0
253.849548 164.0
253.957062 40.0
254.012985 92.0
254.05571 132.0
254.092255 1748.0
254.124863 1072.0
254.319092 84.0
254.382568 124.0
254.416367 124.0
254.541321 120.0
254.627747 168.0
254.671524 84.0
254.738235 48.0
255.014664 32.0
255.05838 128.0
255.067627 388.0
255.097168 540.0
255.134384 280.0
255.311142 192.0
255.38031 56.0
255.416824 100.0
255.447113 256.0
255.475739 140.0
255.596634 132.0
255.66983 144.0
255.730301 48.0
255.762131 124.0
255.79567 104.0
255.827286 128.0
255.908569 140.0
255.959518 92.0
256.03595 52.0
256.077332 80.0
256.158356 220.0
256.23764 112.0
256.711548 92.0
256.797638 120.0
257.060699 132.0
257.269897 244.0
257.378448 56.0
257.48703 168.0
257.704102 168.0
257.742584 84.0
257.864044 36.0
257.995087 136.0
258.075134 188.0
258.222107 140.0
258.375641 28.0
258.564453 180.0
258.657257 132.0
258.977448 176.0
259.075348 1088.0
259.201721 100.0
259.342712 92.0
259.470947 180.0
259.637695 148.0
259.660126 188.0
259.782013 68.0
259.891113 128.0
259.942444 96.0
260.085754 3576.0
260.144653 108.0
260.167114 116.0
260.19281 44.0
260.311584 92.0
260.404724 160.0
260.810913 56.0
260.848145 160.0
261.057434 1324.0
261.087524 1988.0
261.285492 128.0
261.336975 228.0
261.462463 72.0
261.528503 148.0
261.597656 56.0
261.694244 164.0
261.758636 44.0
261.861694 144.0
261.93576 208.0
261.977661 168.0
262.069031 608.0
262.095764 920.0
262.142883 100.0
262.156067 160.0
262.328918 132.0
262.525299 96.0
262.553009 176.0
262.61911 100.0
262.773956 48.0
262.851379 144.0
262.954651 204.0
263.071716 2916.0
263.107117 10848.0
263.219025 72.0
263.267822 44.0
263.319489 88.0
263.352142 160.0
263.422852 72.0
263.461029 180.0
263.506836 76.0
263.632629 56.0
263.661743 132.0
263.720123 148.0
263.781525 48.0
263.810638 36.0
263.884979 64.0
263.933472 224.0
263.969055 48.0
264.024017 52.0
264.082703 1828.0
264.108643 1624.0
264.169586 36.0
264.195465 148.0
264.231049 48.0
264.318604 100.0
264.379883 64.0
264.405792 168.0
264.506104 44.0
264.587036 64.0
264.625885 108.0
264.674469 148.0
264.741852 148.0
264.771606 168.0
264.868774 52.0
264.941681 160.0
265.011322 56.0
265.086792 4636.0
265.190521 80.0
265.254639 48.0
265.312744 48.0
265.338654 40.0
265.400269 56.0
265.520264 136.0
265.585114 164.0
265.669464 200.0
265.734344 52.0
265.83136 124.0
265.890106 60.0
265.955017 108.0
266.000458 52.0
266.092316 3096.0
266.166046 168.0
266.276459 32.0
266.32193 64.0
266.414307 144.0
266.450928 56.0
266.672821 64.0
266.858124 104.0
266.932892 116.0
267.065887 508.0
267.098907 2440.0
267.176849 112.0
267.251678 132.0
267.283325 132.0
267.407074 148.0
267.466461 68.0
267.545349 188.0
267.612946 56.0
267.682404 160.0
267.726929 36.0
267.752991 148.0
267.786346 96.0
267.857208 44.0
267.902802 44.0
267.971222 120.0
268.072144 1764.0
268.107178 864.0
268.18631 188.0
268.215637 72.0
268.274323 104.0
268.368866 48.0
268.450378 164.0
268.646057 104.0
268.668915 60.0
268.776581 176.0
268.938446 212.0
268.962585 152.0
268.997742 188.0
269.073639 336.0
269.120148 1216.0
269.161743 56.0
269.184601 52.0
269.213989 92.0
269.367493 60.0
269.403442 68.0
269.472046 76.0
269.498169 108.0
269.638397 176.0
269.69751 84.0
269.766174 36.0
269.818481 88.0
270.094635 192.0
270.124084 280.0
270.171661 128.0
270.19458 116.0
270.220734 76.0
270.666412 204.0
270.816528 208.0
270.980316 52.0
271.102936 192.0
271.127838 332.0
271.150726 140.0
271.219543 108.0
271.291656 60.0
271.321167 172.0
271.376892 132.0
271.491669 88.0
271.580231 80.0
271.767212 60.0
271.937866 112.0
272.253021 136.0
272.374542 112.0
272.565094 40.0
272.634125 56.0
272.90036 148.0
273.063202 148.0
273.137146 96.0
273.304932 92.0
273.370728 180.0
273.499084 132.0
273.627472 148.0
274.05835 592.0
274.109375 92.0
274.167694 52.0
274.309418 252.0
274.368744 76.0
274.500641 148.0
274.645752 68.0
274.863495 188.0
275.000275 104.0
275.070312 2060.0
275.160553 120.0
275.239777 176.0
275.355377 156.0
275.388397 44.0
275.431335 192.0
275.487 108.0
275.576691 36.0
275.609741 28.0
275.662598 52.0
275.758423 180.0
275.781586 204.0
275.884033 160.0
276.032837 216.0
276.078857 3084.0
276.595245 84.0
276.648621 64.0
276.671387 132.0
276.733582 56.0
276.772797 68.0
277.015808 140.0
277.086761 2660.0
277.175751 128.0
277.343842 56.0
277.38031 52.0
277.46106 244.0
277.501129 64.0
277.569275 68.0
277.648865 124.0
277.74173 68.0
277.778229 128.0
277.861176 72.0
277.937469 236.0
277.96402 148.0
278.028931 180.0
278.09436 5396.0
278.152405 128.0
278.189697 108.0
278.239502 44.0
278.299255 60.0
278.325836 120.0
278.432098 60.0
278.475281 148.0
278.560303 120.0
278.61145 36.0
278.647156 188.0
278.741028 64.0
278.824127 180.0
278.900574 104.0
278.93161 148.0
278.992401 128.0
279.100128 5572.0
279.243011 44.0
279.32016 64.0
279.376068 108.0
279.472565 100.0
279.613739 112.0
279.634033 100.0
279.715515 168.0
279.762115 56.0
279.923431 80.0
279.968536 56.0
280.011841 96.0
280.108643 5076.0
280.185059 192.0
280.295013 84.0
280.384216 196.0
280.52356 132.0
280.554962 108.0
280.75473 88.0
280.766205 80.0
280.779419 116.0
280.885101 84.0
280.921509 184.0
281.082977 1536.0
281.117859 6084.0
281.175385 168.0
281.218781 136.0
281.268829 60.0
281.308044 236.0
281.342285 100.0
281.374939 200.0
281.412384 60.0
281.454987 200.0
281.52948 56.0
281.616089 188.0
281.682892 144.0
281.783112 76.0
281.906738 76.0
281.943512 68.0
281.990204 156.0
282.035126 184.0
282.089325 2348.0
282.117554 572.0
282.176025 92.0
282.371429 188.0
282.495209 52.0
282.573181 148.0
282.598907 120.0
282.625671 204.0
282.652435 72.0
282.752838 124.0
282.873322 120.0
282.89801 160.0
282.970093 72.0
282.999817 148.0
283.096619 7152.0
283.154602 128.0
283.216766 88.0
283.26178 56.0
283.287323 68.0
283.312012 124.0
283.350922 52.0
283.382385 56.0
283.432648 56.0
283.46225 76.0
283.596832 64.0
283.624786 236.0
283.65863 140.0
283.705536 152.0
283.734283 72.0
283.828156 64.0
283.958954 68.0
283.989136 56.0
284.039459 144.0
284.099243 1440.0
284.150146 228.0
284.223969 64.0
284.27359 192.0
284.296417 108.0
284.362579 72.0
284.472321 72.0
284.677124 44.0
284.70401 84.0
284.774536 152.0
284.966003 80.0
284.992889 136.0
285.108063 172.0
285.460114 168.0
285.54306 96.0
285.803864 144.0
285.873871 60.0
285.89743 60.0
285.927704 148.0
285.968109 104.0
286.10611 32.0
286.392334 104.0
286.483307 188.0
286.584351 112.0
286.722534 44.0
286.747711 152.0
286.85733 100.0
287.036041 208.0
287.07312 100.0
287.282227 140.0
287.359833 176.0
287.407074 176.0
287.467804 76.0
287.558929 56.0
287.592682 60.0
287.704071 100.0
287.889771 104.0
288.101532 940.0
288.220062 144.0
288.341187 240.0
288.440491 52.0
288.660248 120.0
288.710968 140.0
288.795532 200.0
288.819214 180.0
288.995117 116.0
289.085144 1540.0
289.326813 136.0
289.483612 44.0
289.658661 84.0
289.702698 92.0
289.756897 136.0
289.863251 136.0
289.872375 52.0
289.885864 140.0
289.956818 144.0
290.014435 124.0
290.093262 6636.0
290.272095 100.0
290.380615 76.0
290.471741 152.0
290.524994 208.0
290.692719 80.0
290.770782 164.0
290.8862 224.0
290.922607 160.0
291.000336 96.0
291.025391 104.0
291.101929 13080.0
291.225739 36.0
291.265289 200.0
291.297058 64.0
291.358215 80.0
291.402374 48.0
291.473969 56.0
291.575684 160.0
291.599487 32.0
291.630066 52.0
291.65387 124.0
291.677643 64.0
291.716064 84.0
291.772827 100.0
291.824921 100.0
291.857849 32.0
291.881622 108.0
291.912231 52.0
291.961029 160.0
292.014252 56.0
292.105347 5064.0
292.19455 28.0
292.319916 168.0
292.407013 92.0
292.531464 60.0
292.647217 64.0
292.735748 68.0
292.926483 268.0
293.004822 104.0
293.030945 96.0
293.081848 1876.0
293.111572 1728.0
293.182007 36.0
293.212677 100.0
293.259705 144.0
293.333191 152.0
293.460205 88.0
293.529724 36.0
293.604736 48.0
293.649078 68.0
293.74118 60.0
293.765045 96.0
293.819641 88.0
293.863983 140.0
293.908844 56.0
293.967163 204.0
293.998962 108.0
294.08847 1024.0
294.145355 636.0
294.212097 68.0
294.244873 168.0
294.354523 168.0
294.42038 60.0
294.497498 180.0
294.632172 44.0
294.667389 144.0
294.758575 48.0
294.837189 92.0
294.909454 212.0
295.096069 2008.0
295.156036 224.0
295.22348 92.0
295.394501 144.0
295.428711 64.0
295.473175 116.0
295.579254 112.0
295.784576 80.0
295.863312 32.0
296.023529 176.0
296.101105 2024.0
296.342804 96.0
296.390778 140.0
296.544312 168.0
296.592957 76.0
296.784149 136.0
297.045593 72.0
297.111786 832.0
297.41275 124.0
297.546631 52.0
297.58783 156.0
297.686523 168.0
298.003418 48.0
298.07901 136.0
298.118164 284.0
298.14505 128.0
298.17865 124.0
298.206146 28.0
298.274902 140.0
298.512115 208.0
298.608429 132.0
298.656555 52.0
298.928345 84.0
299.127655 2396.0
299.231262 176.0
299.286346 72.0
299.334564 48.0
299.427521 92.0
299.672119 216.0
299.992615 112.0
300.051208 76.0
300.12854 292.0
300.423676 124.0
300.616882 100.0
300.896484 176.0
301.013885 56.0
301.130676 156.0
301.234924 172.0
301.424927 40.0
301.4664 44.0
301.507874 80.0
302.036865 48.0
302.123352 168.0
302.254822 36.0
302.279053 44.0
302.403625 56.0
302.486694 188.0
302.701355 56.0
302.729065 136.0
303.356171 72.0
303.730682 140.0
303.848633 108.0
304.098969 732.0
304.292847 164.0
304.324097 88.0
304.72699 52.0
304.932007 148.0
305.100067 624.0
305.15448 156.0
305.227509 192.0
305.297058 148.0
305.384003 36.0
305.513184 116.0
305.585754 56.0
305.78064 76.0
305.989502 172.0
306.103607 2192.0
306.167084 128.0
306.201904 52.0
306.243713 100.0
306.36911 28.0
306.564209 52.0
307.098938 1000.0
307.191803 252.0
307.306946 60.0
307.33136 76.0
307.436035 120.0
307.484894 204.0
307.54422 84.0
307.963226 104.0
308.103699 2996.0
308.527496 108.0
308.559448 32.0
308.693634 44.0
308.91748 128.0
309.110199 3584.0
309.40741 88.0
309.451111 108.0
309.543976 56.0
309.582489 32.0
309.757599 72.0
309.803162 56.0
309.908264 52.0
310.114777 572.0
310.166412 216.0
310.329041 144.0
310.363922 68.0
310.391968 88.0
310.44455 64.0
310.5401 180.0
310.626953 56.0
310.814636 184.0
310.839325 200.0
311.00589 152.0
311.12912 7136.0
311.248138 56.0
311.317352 84.0
311.346466 44.0
311.371033 40.0
311.595856 72.0
311.743439 60.0
311.886017 84.0
311.9664 136.0
312.128326 972.0
312.248871 120.0
312.488861 64.0
312.562744 72.0
312.610046 128.0
312.675354 64.0
312.921783 56.0
313.060852 40.0
313.118317 220.0
313.141449 144.0
313.245758 156.0
313.437775 60.0
313.47995 136.0
313.524109 88.0
313.854553 124.0
314.02475 48.0
314.112915 52.0
314.158783 152.0
314.243713 104.0
314.332245 144.0
314.429443 128.0
314.501068 80.0
314.557526 112.0
314.617554 112.0
314.695221 48.0
314.73407 60.0
314.850586 36.0
315.292206 168.0
315.369934 92.0
315.412354 56.0
315.624481 116.0
315.84375 76.0
316.06308 60.0
316.371552 80.0
316.562195 92.0
317.111969 196.0
317.380737 164.0
317.639648 176.0
317.738953 120.0
317.785095 108.0
318.115509 260.0
318.189697 116.0
319.115112 120.0
319.269897 184.0
319.376587 88.0
319.6185 132.0
319.739502 180.0
319.807098 188.0
319.867615 68.0
319.91391 56.0
319.970856 88.0
320.128601 3980.0
320.220123 52.0
320.497986 104.0
320.768829 96.0
320.833008 128.0
320.947083 140.0
320.986328 156.0
321.025543 36.0
321.121185 2140.0
321.207214 304.0
321.296631 68.0
321.320892 180.0
321.346558 52.0
321.378693 92.0
321.416077 92.0
321.542847 32.0
321.616608 48.0
321.703461 52.0
321.746307 64.0
321.779816 56.0
321.867676 136.0
322.006958 32.0
322.060547 188.0
322.108551 2344.0
322.282013 60.0
322.385651 68.0
322.421387 96.0
322.449982 56.0
322.589386 72.0
322.643005 44.0
322.707367 52.0
322.739532 116.0
322.775299 68.0
322.800323 84.0
322.954102 88.0
323.039948 112.0
323.116425 1320.0
323.176422 136.0
323.404938 172.0
323.76297 40.0
323.960083 124.0
324.100922 1620.0
324.23584 152.0
324.472412 84.0
324.970947 92.0
325.021179 80.0
325.102173 268.0
325.1297 272.0
325.36673 88.0
325.416016 240.0
325.50705 56.0
325.595551 144.0
325.656616 48.0
325.807465 176.0
325.843384 56.0
325.915253 100.0
326.001495 64.0
326.135315 172.0
326.565948 84.0
326.64621 164.0
326.788971 64.0
326.83905 144.0
326.886108 84.0
327.124207 1096.0
327.231659 152.0
327.50174 156.0
327.548584 56.0
328.130554 164.0
328.24054 88.0
328.467743 76.0
328.742218 104.0
328.85022 108.0
329.120972 124.0
329.413513 112.0
329.570953 140.0
329.818207 64.0
329.857971 76.0
330.143616 160.0
331.321503 168.0
331.410522 72.0
331.446777 160.0
331.892609 52.0
332.09668 272.0
332.509308 108.0
333.093872 140.0
333.508087 176.0
333.615265 92.0
333.766205 128.0
333.817108 88.0
334.106476 824.0
334.304565 68.0
334.777832 76.0
335.10849 672.0
335.174866 160.0
335.674255 96.0
335.816498 188.0
335.914978 124.0
335.977661 108.0
336.046326 152.0
336.126495 6192.0
336.232208 140.0
336.268921 116.0
336.371094 32.0
336.549988 48.0
336.604767 124.0
336.672028 76.0
336.703369 88.0
336.791016 68.0
336.918884 152.0
336.988281 72.0
337.021179 188.0
337.054047 56.0
337.131897 3168.0
337.181702 172.0
337.240448 84.0
337.368378 96.0
337.467102 76.0
337.606049 88.0
337.631622 76.0
337.676941 152.0
337.715759 52.0
337.752319 36.0
337.982819 88.0
338.136719 648.0
338.18042 52.0
338.378113 76.0
338.414703 96.0
338.711365 52.0
338.868866 108.0
338.905518 80.0
339.06308 104.0
339.122864 4988.0
339.24649 120.0
339.382019 172.0
339.429688 76.0
339.558014 40.0
339.759766 40.0
339.873505 32.0
339.954224 64.0
339.979919 116.0
340.124084 824.0
340.214844 116.0
340.269897 92.0
340.337555 64.0
340.47525 52.0
341.063385 64.0
341.132782 576.0
341.405304 48.0
341.453125 92.0
341.640717 104.0
341.912994 48.0
341.957153 84.0
342.143646 296.0
342.169952 300.0
342.18042 116.0
342.487335 144.0
342.848419 112.0
343.132233 124.0
343.173737 188.0
344.11731 156.0
344.992889 44.0
345.070526 112.0
345.673431 44.0
345.717834 60.0
345.856964 88.0
347.270142 96.0
348.122498 496.0
348.220306 180.0
349.111816 180.0
349.234955 88.0
349.346558 64.0
349.603271 120.0
349.673981 164.0
350.020203 168.0
350.055267 164.0
350.138062 1112.0
351.041229 52.0
351.138245 516.0
351.30603 76.0
351.335876 128.0
351.432892 144.0
351.77356 196.0
351.847168 208.0
352.157654 6104.0
352.340118 76.0
352.448486 52.0
352.583008 48.0
352.642792 36.0
352.859619 192.0
352.884308 68.0
353.019135 60.0
353.098938 168.0
353.155457 1440.0
353.226105 52.0
353.270233 216.0
353.327087 52.0
353.375732 60.0
353.404572 124.0
353.529144 56.0
353.559082 84.0
353.633942 60.0
353.929688 48.0
354.034546 168.0
354.141693 276.0
354.375397 40.0
354.81015 44.0
354.900146 84.0
355.061371 112.0
355.131073 156.0
355.203918 88.0
355.263916 52.0
355.293945 104.0
355.522827 116.0
355.657928 68.0
355.830627 88.0
356.123505 148.0
356.262512 40.0
356.544312 56.0
356.630737 100.0
356.657074 68.0
356.89389 108.0
356.992432 160.0
357.202301 116.0
357.947479 64.0
358.037872 64.0
358.425873 72.0
358.678375 120.0
358.787689 52.0
359.032776 48.0
359.149689 76.0
360.681061 92.0
360.958679 124.0
361.265045 60.0
361.651001 144.0
362.014465 136.0
362.161255 200.0
362.487976 80.0
362.745697 76.0
363.534576 116.0
363.880005 128.0
364.020477 72.0
364.871582 88.0
365.350769 112.0
366.092987 112.0
366.473907 56.0
366.50058 48.0
366.603455 148.0
367.030396 104.0
367.228699 128.0
367.293518 232.0
367.438782 52.0
367.808655 80.0
367.873535 56.0
367.915527 116.0
368.1409 156.0
368.236298 88.0
368.716156 120.0
368.820862 120.0
368.981415 48.0
369.161133 228.0
369.340881 220.0
369.444153 104.0
369.537201 88.0
369.581909 124.0
369.725525 340.0
369.780884 124.0
369.833191 180.0
369.876923 176.0
369.922516 104.0
370.005676 132.0
370.019501 144.0
370.03476 212.0
370.073395 184.0
370.167114 30448.0
370.273254 40.0
370.295197 136.0
370.346191 104.0
370.395416 72.0
370.566467 80.0
370.650909 140.0
370.677002 148.0
370.712982 180.0
370.79483 116.0
370.895477 128.0
370.936066 68.0
371.07666 120.0
371.17038 6560.0
371.228577 52.0
371.282715 64.0
371.328735 72.0
371.465149 52.0
371.527496 44.0
371.600525 136.0
371.741974 100.0
371.767151 100.0
371.86969 44.0
371.915771 52.0
371.942627 48.0
372.099365 72.0
372.171997 1496.0
372.25882 56.0
372.349609 48.0
372.692932 64.0
372.895172 80.0
373.18576 192.0
373.244995 100.0
373.344971 48.0
373.375732 60.0
373.41806 56.0
373.470917 128.0
373.521332 180.0
373.587311 52.0
373.617004 116.0
373.675781 36.0
373.768127 56.0
373.841248 80.0
374.333984 48.0
374.577393 80.0
375.027435 84.0
375.111633 76.0
375.153412 112.0
375.235596 120.0
375.385956 64.0
375.56723 64.0
375.806396 88.0
376.304291 72.0
376.532135 52.0
377.544678 64.0
377.65683 48.0
377.935364 52.0
379.558319 40.0
380.299286 80.0
381.289673 52.0
381.666748 52.0
382.775726 88.0
384.014984 104.0
384.584625 40.0
384.635376 112.0
385.580566 192.0
386.452606 76.0
386.699127 96.0
387.846741 84.0
388.572205 68.0
389.372986 112.0
389.588623 80.0
389.899414 64.0
390.477356 60.0
391.508453 120.0
392.312256 76.0
392.9151 60.0
393.258942 52.0
395.001434 128.0
396.256378 84.0
396.850891 104.0
397.227631 92.0
397.306976 108.0
397.616486 56.0
401.21228 36.0
404.809937 96.0
407.025757 60.0
410.349243 116.0
414.350372 52.0
416.134888 52.0
421.642212 152.0
423.655334 56.0
428.111816 100.0
429.385254 136.0
429.674011 60.0
430.887787 84.0
431.148102 112.0
432.964233 80.0
433.125763 112.0
433.407501 56.0
433.498657 52.0
433.739014 44.0
438.535614 76.0
441.315857 80.0
442.38269 32.0
443.534637 88.0
447.592957 88.0
448.174225 108.0
448.637817 76.0
449.046844 100.0
450.249664 56.0
451.22998 80.0
452.965057 148.0
453.511658 56.0
455.357269 68.0
457.202362 72.0
459.025635 92.0
459.477753 44.0
459.853241 44.0
462.751526 36.0
462.815735 60.0
464.13974 92.0
464.229797 48.0
465.182281 44.0
466.746124 112.0
467.232147 88.0
467.877686 116.0
468.700317 60.0
469.769531 68.0
470.883148 80.0
471.228729 52.0
472.145111 80.0
473.55603 88.0
474.370636 92.0
475.932465 76.0
477.714355 36.0
483.355591 100.0
484.042847 104.0
489.624329 44.0
489.937073 40.0
490.849426 92.0
491.065491 52.0
491.347809 80.0
495.835938 44.0
496.186127 36.0
496.429993 108.0
496.531982 32.0
497.721283 32.0
499.432251 48.0
505.960724 68.0
506.663818 68.0
508.771606 36.0
509.795685 60.0
510.865784 88.0
511.522766 96.0
515.545898 36.0
516.246582 112.0
517.595093 60.0
518.242798 96.0
522.296753 64.0
522.465088 28.0
523.225098 104.0
525.700073 44.0
525.800476 64.0
530.873901 40.0
531.029846 148.0
531.25 60.0
531.759338 68.0
531.791443 72.0
532.282715 116.0
537.502563 108.0
538.365784 44.0
538.592102 80.0
541.51062 44.0
541.848755 104.0
542.089722 164.0
543.480774 68.0
547.250244 32.0
549.893372 68.0
550.089417 52.0
551.130859 64.0
553.394653 64.0
557.268738 72.0
557.461426 52.0
561.561951 68.0
566.795166 68.0
567.90448 76.0
569.342529 160.0
569.912537 56.0
573.338684 68.0
574.044189 48.0
575.069946 44.0
575.246521 108.0
581.713684 48.0
583.318115 32.0
583.861389 68.0
588.453552 108.0
591.339417 56.0
592.385315 108.0
598.631287 84.0
598.981934 56.0
603.144165 48.0
603.276123 40.0
604.425476 88.0
608.091064 60.0
609.058289 68.0
609.795288 32.0
616.759705 80.0
620.913696 68.0
622.03009 148.0
633.188843 56.0
639.182739 60.0
639.218018 72.0
641.373474 164.0
642.609009 72.0
644.881409 64.0
648.363403 52.0
651.290833 64.0
651.448303 124.0
652.749451 108.0
653.375061 76.0
654.30127 48.0
657.379883 116.0
657.900452 40.0
660.516846 52.0
669.158813 156.0
671.735535 68.0
674.880615 84.0
677.888 36.0
687.012878 96.0
687.294617 76.0
691.841553 36.0
693.862427 80.0
702.804932 136.0
705.699341 52.0
705.953125 88.0
712.817871 56.0
716.265381 112.0
719.779907 76.0
721.110107 88.0
722.141968 108.0
722.436157 48.0
722.639465 36.0
725.660156 104.0
728.107056 112.0
730.918518 80.0
732.070435 200.0
733.794678 96.0
743.135193 60.0
751.967041 140.0
760.038757 68.0
764.748352 72.0
765.43103 56.0
770.184875 36.0
774.704163 28.0
777.348877 80.0
777.470947 92.0
779.27002 68.0
779.892395 88.0
780.081421 136.0
780.353821 68.0
783.670959 44.0
786.984009 100.0
787.419556 60.0
791.03717 100.0
791.569031 72.0
793.514221 120.0
793.855347 32.0
794.937988 100.0
798.302856 124.0
806.121521 204.0
807.133362 36.0
808.524963 100.0
808.745667 88.0
819.307617 180.0
820.601318 80.0
821.684937 76.0
822.883484 96.0
824.077148 84.0
824.860046 92.0
826.781799 116.0
827.399963 88.0
828.659973 52.0
830.33374 104.0
830.517273 168.0
830.620544 68.0
832.537476 68.0
833.140564 80.0
836.878906 136.0
840.51593 120.0
841.935974 40.0
842.091919 152.0
842.392273 56.0
847.60498 92.0
847.668701 100.0
848.984619 100.0
850.371216 40.0
860.155457 80.0
866.277832 40.0
870.142517 40.0
872.586548 148.0
872.75116 168.0
877.437744 64.0
879.809326 96.0
880.931335 48.0
881.06134 84.0
887.352356 116.0
892.107605 64.0
892.690308 84.0
893.326721 44.0
893.630127 188.0
895.946045 68.0
896.404785 96.0
896.446533 52.0
896.970947 80.0
899.613525 68.0
906.066223 212.0
907.714478 32.0
914.250244 88.0
915.797485 60.0
917.315918 76.0
917.798218 92.0
920.682617 96.0
923.02124 80.0
926.97998 64.0
928.434875 108.0
930.224792 120.0
931.044434 180.0
935.915222 116.0
936.609436 172.0
942.606506 92.0
950.137451 84.0
950.542419 172.0
951.014954 40.0
951.450806 36.0
951.690247 64.0
954.406006 224.0
956.830078 180.0
957.587463 52.0
967.411377 80.0
967.541382 204.0
970.657837 44.0
972.463135 120.0
973.710999 84.0
975.195923 112.0
977.104919 80.0
977.17334 252.0
979.377014 180.0
987.822388 208.0
993.334778 132.0
998.239868 52.0
998.963135 176.0
1002.400757 164.0
1006.008362 176.0
1008.294861 76.0
1008.983826 64.0
1011.147095 180.0
1012.046021 156.0
1012.33728 152.0
1014.263245 176.0
1018.203308 152.0
1022.329163 152.0
1022.768311 152.0
1023.118408 124.0
1024.00354 92.0
1034.46875 136.0
1035.736572 224.0
1041.355225 140.0
1044.408203 272.0
1046.216309 168.0
1050.404907 80.0
1051.927856 100.0
1052.018188 40.0
1054.640747 200.0
1056.30896 196.0
1056.393066 100.0
1061.807861 136.0
1062.631714 72.0
1062.755005 172.0
1063.196289 60.0
1064.085449 196.0
1064.215332 76.0
1065.481812 144.0
1066.339478 92.0
1066.527954 56.0
1067.327637 204.0
1068.251099 144.0
1068.374756 180.0
1069.656738 188.0
1080.123047 52.0
1084.011963 176.0
1086.339478 136.0
1086.431396 160.0
1086.693726 184.0
1088.301758 176.0
1089.102905 272.0
1092.856689 128.0
1095.615234 184.0
1095.760132 108.0
1096.023682 80.0
1096.999023 176.0
1098.799438 84.0
1099.096313 52.0
1100.627686 136.0
1105.386841 228.0
1106.015625 160.0
1109.155151 72.0
1109.360718 176.0
1115.301636 80.0
1115.380005 160.0
1116.298828 168.0
1116.797607 208.0
1117.003784 200.0
1117.283203 200.0
1118.813843 160.0
1119.745972 124.0
1120.578735 100.0
1120.738525 128.0
1122.371582 136.0
1124.132568 168.0
1125.060303 176.0
1125.587769 164.0
1128.186768 72.0
1129.477295 180.0
1129.791748 124.0
1130.440674 60.0
1130.520996 132.0
1131.083252 172.0
1131.853149 72.0
1134.432495 80.0
1134.593384 92.0
1134.646973 92.0
1134.861572 124.0
1134.962158 100.0
1136.283447 132.0
1136.363892 168.0
1137.229614 188.0
1137.612183 144.0
1137.988159 128.0
1138.585693 148.0
1140.641724 96.0
1149.113403 44.0
1151.036987 60.0
1151.394897 192.0
1151.996094 116.0
1154.375122 128.0
1154.557739 60.0
1156.228638 104.0
1157.826416 188.0
1160.008057 124.0
1160.482666 128.0
1160.719971 136.0
1161.540527 180.0
1162.531128 40.0
1163.54248 156.0
1165.830933 196.0
1166.008179 124.0
1167.945801 164.0
1169.388306 164.0
1169.837524 60.0
1170.722656 156.0
1171.117676 164.0
1171.99646 152.0
1172.382202 188.0
1174.293701 204.0
1174.880371 220.0
1175.460327 136.0
1176.422607 88.0
1177.164917 216.0
1177.678955 212.0
1179.71521 160.0
1180.692993 212.0
1184.07373 144.0
1184.895752 76.0
1188.858887 160.0
1189.19519 176.0
1189.256958 200.0
1191.303223 204.0
1192.210083 40.0
1193.653687 148.0
1193.970093 148.0
1194.252075 224.0
1195.249512 84.0
1195.352783 56.0
1196.743164 164.0
1198.292847 180.0
1200.450195 64.0
1201.057129 56.0
1201.912598 156.0
1201.960815 172.0
1202.93396 112.0
1203.279175 256.0
1204.743164 128.0
1204.943604 104.0
1208.432617 192.0
1209.196167 156.0
1209.971436 116.0
1211.058594 120.0
1211.834473 204.0
1212.111572 136.0
1212.333374 44.0
1213.151245 184.0
1213.532471 120.0
1217.376587 56.0
1224.866943 156.0
1225.911987 116.0
1227.891846 32.0
1229.489502 200.0
1231.716675 88.0
1233.037231 144.0
1233.218994 56.0
1233.32373 172.0
1233.386719 148.0
1233.827026 136.0
1234.554199 220.0
1234.938843 112.0
1235.078735 128.0
1235.757324 224.0
1235.981201 200.0
1236.674072 52.0
1236.947021 172.0
1237.997192 72.0
1238.41748 244.0
1239.194946 204.0
1239.489258 176.0
1240.260132 148.0
1241.704468 104.0
1247.300293 196.0
1248.108765 68.0
1248.579956 172.0
1249.606934 180.0
1249.895386 148.0
1250.205078 160.0
1251.387573 236.0
1251.986084 128.0
1252.049438 216.0
1252.514282 164.0
1252.901733 44.0
1252.972168 216.0
1253.585205 188.0
1254.508545 160.0
1255.791748 232.0
1256.610107 212.0
1256.72998 148.0
1258.000366 164.0
1259.723389 84.0
1260.86792 248.0
1261.037598 120.0
1261.581909 144.0
1262.27478 36.0
1265.168457 140.0
1265.784424 128.0
1265.996948 124.0
1266.499756 172.0
1267.909668 72.0
1268.781494 128.0
1268.968018 164.0
1269.419556 180.0
1271.072388 184.0
1272.889526 176.0
1273.720459 164.0
1274.054321 144.0
1274.331421 140.0
1274.771851 140.0
1275.01355 176.0
1275.582153 96.0
1277.089478 124.0
1277.679932 136.0
1278.249146 144.0
1278.363037 96.0
1278.647583 192.0
1278.925171 172.0
1278.984131 196.0
1279.373657 160.0
1279.423462 164.0
1279.758057 220.0
1281.360596 180.0
1284.107544 164.0
1284.161987 168.0
1287.798096 196.0
1288.0448 176.0
1288.559204 112.0
1291.80481 172.0
1291.869141 156.0
1292.005005 172.0
1292.577393 196.0
1293.099854 64.0
1294.059082 144.0
1295.534302 92.0
1295.992798 228.0
1296.121826 80.0
1296.427002 132.0
1296.974609 164.0
1297.089355 64.0
1298.279419 56.0
1298.329712 100.0
1298.526123 212.0
1298.874756 188.0
1298.960815 204.0
1299.764404 112.0
1299.893555 184.0
1300.072876 196.0
1301.666504 84.0
1305.474976 52.0
1305.568481 196.0
1305.676392 44.0
1307.460571 56.0
1308.201904 172.0
1308.259399 132.0
1309.310669 144.0
1311.364014 92.0
1311.688354 104.0
1313.137573 132.0
1313.202515 116.0
1313.353882 248.0
1314.970093 140.0
1315.359863 84.0
1316.182861 164.0
1316.334473 128.0
1320.055908 72.0
1322.168213 164.0
1322.703857 64.0
1322.89209 120.0
1325.245728 156.0
1325.484863 92.0
1326.079102 200.0
1326.4198 128.0
1330.939453 112.0
1332.26123 188.0
1333.111328 116.0
1333.64917 192.0
1333.787231 72.0
1334.703247 172.0
1335.263184 108.0
1335.721436 204.0
1336.4198 68.0
1337.589478 256.0
1339.295288 212.0
1340.300659 88.0
1341.7146 184.0
1342.137451 156.0
1343.880615 40.0
1344.654175 144.0
1344.814697 164.0
1345.800171 164.0
1346.464722 168.0
1346.545044 60.0
1347.151978 248.0
1347.319336 272.0
1348.312988 176.0
1348.393433 80.0
1348.780762 124.0
1349.043945 180.0
1350.18457 116.0
1351.574341 116.0
1353.199219 128.0
1354.1073 172.0
1354.654297 152.0
1354.861694 72.0
1356.781738 152.0
1357.185059 160.0
1357.573608 188.0
1357.646973 112.0
1359.592163 124.0
1359.796509 156.0
1360.7948 132.0
1361.893921 192.0
1362.02124 192.0
1362.307617 188.0
1362.895386 164.0
1363.417847 84.0
1364.085938 108.0
1364.196167 152.0
1364.512329 208.0
1365.505005 144.0
1365.718262 152.0
1366.247925 144.0
1366.571655 244.0
1366.674683 164.0
1367.793213 168.0
1368.580933 204.0
1368.84082 196.0
1369.000732 236.0
1369.47937 164.0
1369.552979 76.0
1372.080566 72.0
1372.353394 180.0
1372.589233 140.0
1373.533325 152.0
1374.462891 108.0
1374.883423 168.0
1375.0271 116.0
1375.525513 148.0
1377.932983 188.0
1378.612793 220.0
1379.50708 176.0
1379.583984 176.0
1380.727051 180.0
1381.407471 160.0
1381.99939 76.0
1382.139893 188.0
1382.428589 160.0
1382.746704 188.0
1384.775269 196.0
1385.649414 156.0
1386.027222 176.0
1386.575684 224.0
1386.671997 76.0
1387.064819 176.0
1388.985352 136.0
1389.133667 168.0
1389.408081 176.0
1389.838501 144.0
1390.313354 200.0
1394.130371 140.0
1394.806763 176.0
1395.308472 80.0
1395.825195 144.0
1395.981445 168.0
1396.249146 224.0
1396.449951 180.0
1396.918457 160.0
1397.253296 80.0
1398.123901 128.0
1398.540649 192.0
1399.054199 52.0
1399.419067 188.0
1400.261353 152.0
1401.221436 84.0
1401.489624 124.0
1401.690796 164.0
1402.272095 100.0
1402.652222 116.0
1403.254272 64.0
1404.322388 120.0
1405.02356 144.0
1405.180176 112.0
1406.366699 116.0
1406.568237 204.0
1407.13562 120.0
1407.770264 88.0
1409.787231 148.0
1411.110229 72.0
1411.461548 80.0
1412.261841 152.0
1413.443848 144.0
1414.034912 100.0
1414.783447 40.0
1415.090454 208.0
1415.262695 124.0
1415.734375 196.0
1415.876709 208.0
1416.191162 168.0
1416.401001 164.0
1419.038818 184.0
1420.523682 208.0
1420.793701 64.0
1421.926758 176.0
1422.880005 156.0
1423.623413 176.0
1424.111572 188.0
1424.329346 120.0
1424.622314 92.0
1424.960327 176.0
1425.193237 72.0
1426.493408 168.0
1426.914429 128.0
1427.561035 188.0
1427.982178 148.0
1428.109985 196.0
1428.786987 112.0
1429.366333 160.0
1429.494263 176.0
1429.69751 68.0
1430.299561 156.0
1430.420044 168.0
1430.706055 192.0
1430.909302 128.0
1431.293335 160.0
1431.714966 152.0
1431.93335 156.0
1433.530518 148.0
1433.975098 220.0
1434.299194 168.0
1434.565918 220.0
1434.879639 172.0
1435.249146 156.0
1435.65625 92.0
1436.237061 140.0
1437.361084 164.0
1437.806274 156.0
1438.417725 216.0
1438.795166 196.0
1439.300903 180.0
1440.10144 180.0
1440.418701 120.0
1441.355469 188.0
1441.650146 156.0
1442.186768 124.0
1442.277466 132.0
1442.421021 136.0
1443.251709 164.0
1443.547607 140.0
1443.638306 152.0
1444.197998 212.0
1444.379517 192.0
1444.621582 124.0
1445.090576 156.0
1445.930542 228.0
1446.172729 188.0
1447.043213 80.0
1447.595947 136.0
1447.989746 216.0
1448.285156 116.0
1448.383667 124.0
1448.625977 120.0
1450.111084 188.0
1450.376343 228.0
1450.482544 176.0
1450.694702 184.0
1450.906982 92.0
1451.528687 148.0
1452.400879 184.0
1452.78772 40.0
1452.916748 136.0
1454.37207 236.0
1454.654419 220.0
1454.737915 148.0
1455.041626 180.0
1455.383301 172.0
1455.580688 96.0
1456.605957 140.0
1456.955444 128.0
1457.836792 140.0
1458.262329 196.0
1458.421387 144.0
1459.486206 196.0
1460.003296 152.0
1460.223877 132.0
1461.364868 124.0
1462.376953 72.0
1462.879395 168.0
1463.762573 180.0
1464.219482 40.0
1465.101196 188.0
1465.377197 160.0
1466.413574 100.0
1466.505005 104.0
1466.985229 120.0
1468.365356 180.0
1468.876343 124.0
1469.212036 168.0
1469.546387 196.0
1470.661865 192.0
1470.928955 184.0
1471.837402 140.0
1472.280396 148.0
1473.028809 172.0
1474.740356 160.0
1475.137817 176.0
1475.367188 152.0
1476.380615 172.0
1477.171875 52.0
1477.715088 208.0
1478.258301 124.0
1478.532104 164.0
1478.671509 268.0
1478.817017 124.0
1479.635986 160.0
1480.868896 296.0
1480.995728 112.0
1481.075684 204.0
1481.826416 152.0
1482.324463 148.0
1483.52002 132.0
1483.57373 128.0
1483.688721 136.0
1484.003052 104.0
1484.639404 144.0
1485.270874 176.0
1485.828369 116.0
1486.749146 356.0
1487.869751 152.0
1488.115356 124.0
1489.99707 168.0
1490.142944 148.0
1490.24292 152.0
1490.49646 104.0
1491.072754 260.0
1491.249512 100.0
1491.503174 144.0
1492.594849 136.0
1492.671753 132.0
1493.463867 168.0
1493.817627 172.0
1493.910034 232.0
1494.5177 40.0
1496.210938 104.0
1496.749878 140.0
1497.157959 132.0
1497.566162 128.0
1498.012939 136.0
1498.405884 172.0
1498.613892 140.0
1498.794922 160.0
1498.983643 152.0
1499.145508 156.0
1500.297241 148.0
1501.388794 92.0
1501.573853 76.0
1501.674194 116.0
1501.805908 140.0
1502.275757 140.0
1503.093872 104.0
1503.857666 48.0
1503.965698 120.0
1504.112305 136.0
