>compound MLS001075158-01!(2S)-2-[[2-(3,4-dimethyl-2-oxochromen-7-yl)oxyacetyl]amino]-3-phenylpropanoic acid
>formula C22H21NO6
>ionization [M+H]+
>parentmass 396.145
#inchi InChI=1S/C22H21NO6/c1-13-14(2)22(27)29-19-11-16(8-9-17(13)19)28-12-20(24)23-18(21(25)26)10-15-6-4-3-5-7-15/h3-9,11,18H,10,12H2,1-2H3,(H,23,24)(H,25,26)/t18-/m0/s1
#inchikey DRRKROHDVNVZLV
#Ion_Source LC-ESI
#Instrument qTof
#Compound_Source NIH Natural Product Library
#PI Dorrestein
#Data_Collector VVP/LMS
#Scan -1
#Precursor_MZ 396.145
#ExactMass 395.137
#Charge 1
#CAS_Number N/A
#Pubmed_ID N/A
#Smiles Cc1c(C)c2ccc(OCC(=O)N[C@@H](Cc3ccccc3)C(=O)O)cc2oc1=O
#INCHI_AUX N/A
#Library_Class 1
#SpectrumID CCMSLIB00000079501
#IonMode Positive
#UpdateWorkflowName UPDATE-SINGLE-ANNOTATED-GOLD
#LibraryQualityString Gold
#TaskID b1d8e8f6646f4e71acdff9ca3d919d08
##Scan# 2055
#SpectrumFile p1-C07_GC7_01_17903.mzXML
#LibraryName NIH_Natural_Products_Library.mgf
#MQScore -1
#Organism NIH_Natural_Products_Library
#TIC_Query 0
#RT_Query -1
#MZErrorPPM -1
#SharedPeaks 0
#MassDiff 0
#LibMZ -1
#SpecMZ 396.145
#SpecCharge 0
#internalFilename spec-00000.mgf

>collision 10
94.974777 136.0
95.088608 208.0
95.15136 28.0
95.238747 176.0
95.264 152.0
95.448631 132.0
95.508919 216.0
95.623711 144.0
96.052361 296.0
96.171379 224.0
96.268997 200.0
96.298286 220.0
96.573868 72.0
96.595383 220.0
96.636467 204.0
96.787178 104.0
96.992874 172.0
97.128174 208.0
97.198799 120.0
97.269897 176.0
97.426544 120.0
97.459946 140.0
97.568039 44.0
97.605751 240.0
97.660461 176.0
97.858055 160.0
97.965553 208.0
98.140953 40.0
98.33033 168.0
98.521858 48.0
98.549515 172.0
98.573227 208.0
99.133232 112.0
99.22242 212.0
99.375137 204.0
99.472374 28.0
99.53392 172.0
100.124519 40.0
100.150414 216.0
100.188263 80.0
100.313805 56.0
100.33374 132.0
100.413498 20.0
100.581093 124.0
100.738846 36.0
100.924706 80.0
101.014702 216.0
101.050705 116.0
101.096733 140.0
101.605659 164.0
101.93293 132.0
102.047874 356.0
102.216454 148.0
102.363396 56.0
102.490295 184.0
102.530594 120.0
102.603157 124.0
102.6334 160.0
102.757004 196.0
102.855309 96.0
103.055489 2744.0
103.11586 56.0
103.190651 52.0
103.372688 76.0
103.54071 56.0
103.560966 184.0
103.99485 260.0
104.061882 664.0
104.208069 168.0
104.266998 56.0
104.297485 188.0
104.311714 164.0
104.388969 168.0
104.404221 248.0
104.618874 44.0
104.694214 72.0
104.887764 168.0
104.979507 152.0
105.02845 168.0
105.071251 10276.0
105.157898 72.0
105.19986 180.0
105.237953 224.0
105.273361 104.0
105.289696 128.0
105.373444 76.0
105.596252 184.0
105.63102 224.0
105.800865 72.0
105.952415 144.0
106.011833 224.0
106.073914 1144.0
106.09436 120.0
106.155327 44.0
106.393326 176.0
106.4077 96.0
106.426178 104.0
106.66243 180.0
106.682983 36.0
106.859848 148.0
107.050079 1452.0
107.085457 160.0
107.143951 268.0
107.300583 108.0
107.367096 232.0
108.055115 160.0
108.222038 192.0
108.242744 180.0
108.800468 120.0
108.920906 128.0
108.983231 128.0
109.041412 116.0
109.124557 140.0
109.29303 140.0
109.328407 60.0
109.355461 212.0
109.388763 156.0
109.624107 112.0
109.692886 28.0
109.71373 236.0
109.891006 56.0
109.938995 160.0
110.080948 216.0
110.271049 116.0
110.501068 120.0
110.563843 92.0
110.630814 184.0
110.662224 212.0
110.745979 212.0
110.771118 220.0
110.857018 104.0
111.096039 208.0
111.178192 128.0
111.203049 180.0
111.629509 180.0
111.692604 136.0
111.745193 172.0
112.006226 112.0
112.284439 80.0
112.322403 152.0
112.354042 164.0
112.601006 92.0
112.641136 176.0
112.742554 200.0
112.780594 88.0
112.886299 216.0
113.131729 140.0
113.421928 128.0
113.455841 64.0
113.6446 168.0
113.682793 64.0
113.922707 72.0
114.356476 240.0
114.382019 108.0
114.567276 156.0
114.637589 160.0
115.008675 160.0
115.054665 3288.0
115.1325 48.0
115.209396 172.0
115.406013 244.0
115.714104 148.0
115.763351 184.0
115.846878 188.0
115.891869 84.0
115.926155 208.0
116.059128 688.0
116.090706 136.0
116.131958 264.0
116.174858 156.0
116.378746 176.0
116.471085 164.0
116.488113 164.0
116.526939 152.0
116.677376 92.0
116.735428 192.0
116.830063 44.0
116.875244 180.0
117.070122 17852.0
117.109894 28.0
117.144356 52.0
117.159431 36.0
117.275208 148.0
117.303818 120.0
117.340462 116.0
117.398682 92.0
117.428871 168.0
117.500053 88.0
117.623055 64.0
117.812744 128.0
117.951378 80.0
117.975159 68.0
118.07457 2584.0
118.167633 76.0
118.247696 168.0
118.265015 124.0
118.639748 164.0
118.66861 44.0
118.704796 232.0
118.828423 168.0
118.90654 100.0
118.949951 64.0
118.991196 120.0
119.044151 196.0
119.085152 2308.0
119.149734 132.0
119.377953 124.0
119.75663 156.0
119.887344 120.0
120.051949 168.0
120.081749 8544.0
120.188263 48.0
120.262459 36.0
120.343231 156.0
120.373795 60.0
120.437126 120.0
120.590073 100.0
120.779137 76.0
120.920319 56.0
120.975037 96.0
120.994743 72.0
121.02977 96.0
121.061798 440.0
121.086044 556.0
122.068153 224.0
122.089859 40.0
122.105034 128.0
122.23262 176.0
122.435143 200.0
122.567314 172.0
122.631218 204.0
122.666489 148.0
122.898048 148.0
123.043709 388.0
123.08345 128.0
123.162956 160.0
123.317619 180.0
123.662643 244.0
123.773331 116.0
124.048042 168.0
124.083519 128.0
124.474014 148.0
124.58062 136.0
124.656158 152.0
124.720612 136.0
125.017593 120.0
125.38385 240.0
125.966187 204.0
126.28582 36.0
126.355164 172.0
126.601372 124.0
126.794037 224.0
127.054131 252.0
127.103493 144.0
127.256119 136.0
127.59761 96.0
127.831528 36.0
127.941818 132.0
128.063416 140.0
128.115219 164.0
128.232391 152.0
128.376663 64.0
128.755798 228.0
129.070328 684.0
129.715118 156.0
129.798218 152.0
130.032654 64.0
130.06575 5852.0
130.150696 56.0
130.616577 104.0
130.641602 48.0
130.773575 64.0
130.791779 80.0
131.0737 636.0
131.267929 136.0
131.343185 204.0
131.550842 160.0
131.737106 112.0
131.763214 40.0
131.814087 176.0
131.842209 260.0
131.900711 120.0
131.925476 152.0
131.978058 172.0
132.012817 200.0
132.056366 200.0
132.081802 21520.0
132.131287 60.0
132.151886 112.0
132.185226 56.0
132.266312 80.0
132.301895 132.0
132.373901 28.0
132.417419 40.0
132.45636 28.0
132.5457 132.0
132.587982 124.0
132.672424 96.0
132.97702 192.0
133.011261 72.0
133.029861 152.0
133.083603 2744.0
133.144424 76.0
133.277649 60.0
133.42244 136.0
133.742188 96.0
133.760468 216.0
134.055389 140.0
134.083054 160.0
134.184479 104.0
134.209839 28.0
134.685226 124.0
134.987976 72.0
135.081177 1760.0
135.182281 60.0
135.89595 144.0
136.083328 352.0
136.374313 128.0
136.730148 96.0
137.025864 120.0
137.265945 68.0
138.614685 40.0
139.067291 152.0
139.238678 112.0
139.661728 176.0
139.922928 112.0
139.955887 40.0
140.005341 100.0
141.428986 72.0
142.042664 172.0
142.062073 376.0
142.448578 204.0
142.472336 40.0
142.572128 124.0
143.070847 276.0
144.054092 188.0
144.089935 248.0
144.195068 172.0
144.611221 156.0
144.728516 60.0
144.960861 136.0
145.006393 152.0
145.06543 12260.0
145.159821 92.0
145.214981 80.0
145.270142 60.0
145.380508 108.0
145.42131 192.0
145.43811 84.0
145.647003 64.0
145.906525 68.0
145.964233 128.0
146.068237 984.0
146.243286 92.0
146.635864 264.0
146.802216 152.0
146.835968 52.0
146.899521 196.0
146.987946 108.0
147.04306 632.0
147.08049 2816.0
147.130341 44.0
147.183655 52.0
147.21727 120.0
147.306625 28.0
147.978928 44.0
148.052063 324.0
148.082169 440.0
148.269592 36.0
148.485367 104.0
149.062485 148.0
149.084991 140.0
149.817352 148.0
149.844162 88.0
150.069656 140.0
150.090897 796.0
151.118607 184.0
151.635284 192.0
151.654892 128.0
151.733322 192.0
151.819153 192.0
152.496735 200.0
152.607361 208.0
152.907455 144.0
153.067474 120.0
153.572662 128.0
154.912369 152.0
155.383392 188.0
155.519867 44.0
155.54718 88.0
156.743408 180.0
156.793259 224.0
157.067505 164.0
157.234665 88.0
157.284592 108.0
159.041687 160.0
159.106964 136.0
159.285248 208.0
159.956619 176.0
160.051376 164.0
160.074005 636.0
160.17569 112.0
161.060699 348.0
161.081741 652.0
161.467957 88.0
161.799423 144.0
162.067841 1616.0
162.823822 172.0
163.0737 492.0
163.210068 44.0
163.255844 60.0
163.581497 80.0
164.081345 168.0
164.101196 172.0
164.208298 56.0
164.728989 148.0
166.082733 160.0
166.709488 160.0
169.69075 108.0
171.56778 120.0
171.651215 144.0
171.832458 172.0
172.133942 184.0
172.322006 60.0
172.353363 220.0
172.97316 144.0
173.06012 4972.0
173.101456 56.0
173.161682 56.0
173.289124 60.0
173.366028 28.0
173.455139 100.0
174.062836 1068.0
174.116302 64.0
174.139954 36.0
174.336975 84.0
174.597244 176.0
174.778427 144.0
174.957718 104.0
175.005096 236.0
175.049362 128.0
175.076172 7440.0
175.147308 152.0
175.192856 96.0
175.226334 76.0
175.292206 48.0
175.421341 212.0
175.51889 52.0
176.078156 1376.0
176.127502 52.0
176.181351 88.0
176.712738 60.0
176.77359 52.0
177.047745 212.0
177.079025 184.0
177.504684 196.0
178.051346 200.0
178.080734 184.0
178.638748 36.0
178.69194 164.0
178.848953 64.0
179.075256 156.0
179.461655 180.0
180.947128 208.0
181.316772 116.0
181.783386 228.0
181.807541 64.0
182.688828 180.0
183.707092 204.0
184.641632 208.0
185.592102 40.0
185.635483 72.0
185.762955 80.0
186.050613 280.0
186.602112 144.0
186.890411 76.0
187.071945 264.0
187.192535 156.0
187.304199 160.0
188.070389 144.0
188.846344 132.0
188.963135 120.0
189.052658 124.0
189.511536 184.0
189.533463 56.0
189.983078 172.0
190.062653 1652.0
190.488174 64.0
190.625549 152.0
190.644791 140.0
190.886688 64.0
191.070297 6272.0
191.183777 76.0
191.307632 72.0
191.483856 40.0
191.704239 48.0
192.075668 572.0
192.460037 84.0
192.816376 128.0
192.921417 152.0
193.073318 132.0
193.369507 60.0
193.552216 124.0
193.624207 124.0
193.85968 104.0
194.106384 120.0
194.372681 52.0
195.083664 136.0
195.631683 72.0
195.812668 196.0
196.431427 160.0
196.665802 56.0
197.641098 88.0
198.16748 148.0
199.219513 180.0
200.809845 140.0
201.066818 3356.0
201.134323 116.0
201.182312 152.0
201.221832 124.0
201.481659 124.0
201.515549 36.0
201.690765 84.0
201.713379 44.0
201.832108 44.0
202.068726 736.0
202.429153 188.0
202.525452 92.0
202.587769 108.0
202.613266 80.0
202.703918 128.0
202.842804 192.0
203.070618 12200.0
203.214844 96.0
203.327805 48.0
203.35051 88.0
203.515152 160.0
203.537857 128.0
203.782135 112.0
203.813385 88.0
203.841797 88.0
203.861694 60.0
203.936234 52.0
203.99527 128.0
204.040756 52.0
204.073685 1380.0
204.134583 44.0
204.160172 72.0
204.427582 184.0
204.632507 40.0
205.002792 56.0
205.039841 136.0
205.074051 172.0
205.313522 148.0
206.059891 308.0
206.364334 52.0
206.430099 88.0
207.079712 252.0
211.082748 128.0
212.081528 148.0
212.104706 48.0
213.4198 140.0
214.16478 176.0
214.281296 132.0
214.429916 88.0
214.450317 96.0
215.024857 76.0
215.069153 460.0
215.191254 40.0
216.068008 168.0
216.887939 64.0
219.118332 148.0
220.369263 76.0
221.084473 168.0
221.235779 56.0
221.351242 76.0
226.302917 76.0
226.827164 76.0
227.076035 76.0
227.415054 64.0
229.068802 184.0
230.088074 112.0
230.11525 120.0
231.066589 864.0
232.07019 160.0
232.50351 56.0
233.673355 112.0
236.021866 80.0
237.1147 112.0
240.451569 76.0
243.796204 56.0
244.111145 216.0
244.37767 76.0
245.078201 168.0
245.37117 104.0
247.113876 108.0
249.071075 336.0
249.972305 116.0
250.019516 48.0
250.06987 172.0
250.132812 180.0
250.520126 108.0
251.011795 64.0
251.08432 116.0
251.109467 132.0
253.613617 80.0
258.0849 212.0
258.578979 56.0
261.113495 124.0
263.105743 260.0
263.308228 68.0
264.527161 224.0
265.112366 132.0
268.279144 84.0
270.801666 40.0
272.215118 48.0
272.576447 208.0
273.954956 40.0
282.118591 128.0
287.148499 128.0
288.752716 76.0
292.096985 80.0
293.115845 1296.0
293.203522 68.0
293.241028 124.0
293.326233 80.0
293.66037 84.0
294.120972 340.0
294.523895 56.0
294.841614 76.0
296.854523 192.0
303.093658 96.0
305.110138 152.0
306.774139 76.0
313.214722 240.0
325.132843 136.0
331.1138 132.0
332.05246 136.0
332.123322 192.0
332.723724 80.0
333.103943 148.0
339.554504 68.0
342.988525 72.0
347.585449 160.0
350.139465 1500.0
350.288269 32.0
351.135223 216.0
351.223877 48.0
351.44397 44.0
352.149506 60.0
352.822083 100.0
353.263367 108.0
353.854645 60.0
353.96698 28.0
356.082825 92.0
360.663513 76.0
364.757172 72.0
366.05069 148.0
373.355957 52.0
393.202698 204.0
394.209717 180.0
396.374207 84.0
398.135498 136.0
399.307861 144.0
404.006592 60.0
429.461914 64.0
482.399353 116.0
486.174805 68.0
500.060883 60.0
509.522736 68.0
513.38916 68.0
517.428589 100.0
550.841736 120.0
566.847534 72.0
577.415833 84.0
581.085022 68.0
619.337036 124.0
622.928223 180.0
623.300842 136.0
630.191711 88.0
653.06366 88.0
680.016541 72.0
693.075867 60.0
734.223755 204.0
773.560547 160.0
773.737671 64.0
796.135132 116.0
820.620544 120.0
825.759827 188.0
832.660095 208.0
837.237854 212.0
843.226196 132.0
846.419434 172.0
853.981018 104.0
858.535278 236.0
861.839111 156.0
881.949219 204.0
886.832153 196.0
894.024231 232.0
896.424011 136.0
905.175049 160.0
907.026245 148.0
920.695801 52.0
921.698608 180.0
941.733826 144.0
947.973938 172.0
955.563049 184.0
959.023804 228.0
968.155029 188.0
972.991333 104.0
974.102905 104.0
977.628174 160.0
986.96106 204.0
987.641479 60.0
989.731689 220.0
997.573853 184.0
1006.437988 144.0
1007.612732 204.0
1013.984619 200.0
1016.216675 72.0
1017.428894 136.0
1020.185913 100.0
1030.350464 32.0
1035.179443 56.0
1037.011597 196.0
1046.164795 52.0
1048.805054 168.0
1052.192383 180.0
1053.639038 180.0
1053.897461 60.0
1064.76062 40.0
1068.452637 136.0
1073.715576 192.0
1076.671875 144.0
1079.782715 176.0
1080.103149 92.0
1083.539917 36.0
1088.104492 192.0
1088.623169 224.0
1090.929321 224.0
1098.779175 60.0
1100.521484 152.0
1100.798828 288.0
1102.998901 192.0
1107.908813 100.0
1109.757935 136.0
1119.845337 180.0
1122.957764 180.0
1124.665771 132.0
1124.932739 124.0
1128.166016 184.0
1128.359863 120.0
1128.41333 168.0
1130.272705 156.0
1132.863647 176.0
1133.768188 156.0
1133.821777 52.0
1135.994141 132.0
1137.812744 156.0
1140.076294 176.0
1143.842651 212.0
1144.14563 60.0
1149.186768 204.0
1149.814331 124.0
1151.758789 140.0
1151.80603 192.0
1155.652588 180.0
1156.498535 128.0
1157.358276 72.0
1157.879639 220.0
1159.315796 152.0
1162.78125 164.0
1169.230713 176.0
1170.333496 76.0
1172.315674 72.0
1173.058472 60.0
1173.78125 88.0
1174.340454 140.0
1177.821289 140.0
1181.499023 180.0
1182.237915 196.0
1184.291748 56.0
1187.924683 192.0
1188.302002 200.0
1188.555786 176.0
1190.731934 124.0
1192.284546 164.0
1192.531982 188.0
1195.10376 156.0
1196.315063 176.0
1198.463745 268.0
1198.780762 212.0
1199.077148 208.0
1200.724854 188.0
1203.547119 168.0
1207.195557 168.0
1208.073975 216.0
1210.40625 204.0
1211.590576 176.0
1215.618896 112.0
1219.056274 120.0
1221.60791 108.0
1222.178345 220.0
1222.790649 160.0
1224.733154 156.0
1225.39502 128.0
1225.492554 188.0
1227.482544 168.0
1228.064819 220.0
1228.532104 192.0
1228.685669 288.0
1232.015625 152.0
1236.525513 124.0
1237.022461 64.0
1237.869629 128.0
1241.295532 208.0
1242.165894 220.0
1242.544678 172.0
1245.893311 164.0
1247.101929 176.0
1253.090332 132.0
1255.042603 120.0
1259.304932 200.0
1261.608398 164.0
1262.548828 96.0
1263.489624 148.0
1265.131348 176.0
1265.35791 180.0
1265.924316 164.0
1266.667969 164.0
1268.34729 176.0
1268.467773 220.0
1273.079468 232.0
1274.905151 204.0
1278.361206 156.0
1279.343384 224.0
1280.34021 200.0
1280.432739 176.0
1280.917114 108.0
1283.50415 200.0
1285.494263 108.0
1287.964355 184.0
1290.42981 172.0
1291.302246 156.0
1291.352295 156.0
1291.931641 184.0
1293.649048 220.0
1296.363525 216.0
1297.388428 204.0
1298.59314 120.0
1300.716919 236.0
1301.319946 184.0
1303.352539 156.0
1304.502441 196.0
1305.322021 180.0
1305.458618 180.0
1305.731934 120.0
1305.897339 168.0
1306.429688 212.0
1307.890381 168.0
1310.536987 156.0
1312.097168 72.0
1312.356812 36.0
1312.645142 60.0
1313.157227 32.0
1313.315918 204.0
1316.708008 104.0
1318.073242 196.0
1322.43396 84.0
1323.860107 124.0
1324.519287 168.0
1324.932129 208.0
1325.011841 176.0
1326.548096 104.0
1326.65686 44.0
1327.621216 216.0
1327.693726 224.0
1327.889526 212.0
1328.59314 244.0
1329.173584 20.0
1330.574341 152.0
1331.08252 156.0
1331.830566 236.0
1332.324463 236.0
1334.068604 188.0
1334.533936 132.0
1337.014282 196.0
1337.734863 264.0
1337.924194 224.0
1342.117798 144.0
1343.287476 164.0
1344.980347 132.0
1347.967285 40.0
1349.187866 128.0
1350.438232 136.0
1350.533325 172.0
1351.740479 180.0
1353.87793 136.0
1354.515137 184.0
1354.690918 172.0
1355.921875 188.0
1356.009888 176.0
1358.884277 184.0
1361.100952 28.0
1362.489014 140.0
1362.709473 136.0
1365.032104 168.0
1366.723877 96.0
1366.98877 188.0
1367.157959 184.0
1367.393433 196.0
1368.107422 164.0
1368.394531 172.0
1370.397827 248.0
1373.228516 188.0
1373.648926 156.0
1375.43457 196.0
1375.737305 112.0
1376.815308 164.0
1377.302734 132.0
1378.499512 56.0
1379.349487 80.0
1381.271973 160.0
1382.611084 64.0
1383.077393 152.0
1383.49939 136.0
1383.640015 184.0
1385.02478 124.0
1386.306396 136.0
1387.618408 152.0
1388.448853 196.0
1389.769165 152.0
1392.53064 124.0
1393.496338 192.0
1393.630127 172.0
1395.792969 184.0
1396.648315 248.0
1397.213623 156.0
1397.414429 164.0
1398.657227 252.0
1399.602661 160.0
1400.161133 120.0
1400.444214 136.0
1401.934204 196.0
1402.359009 160.0
1402.493164 156.0
1403.559204 212.0
1404.103516 192.0
1405.819336 196.0
1407.162842 168.0
1407.491455 168.0
1408.858154 120.0
1410.905762 204.0
1411.653442 128.0
1412.812744 164.0
1413.022217 144.0
1413.650757 152.0
1414.316772 160.0
1415.095337 168.0
1418.473999 164.0
1419.118652 148.0
1421.713989 204.0
1422.351929 180.0
1423.808472 160.0
1425.243286 28.0
1425.881958 224.0
1426.88916 152.0
1427.122314 176.0
1427.280151 136.0
1428.317993 116.0
1428.51355 104.0
1429.536743 172.0
1430.831421 204.0
1432.299805 144.0
1432.593628 52.0
1432.789429 152.0
1432.940063 184.0
1434.756348 168.0
1435.351929 164.0
1436.24939 124.0
1436.543579 212.0
1436.913208 152.0
1438.211182 224.0
1438.324341 216.0
1441.413208 172.0
1443.945679 140.0
1445.466187 156.0
1446.101929 192.0
1446.714966 176.0
1447.668945 92.0
1448.456665 232.0
1449.236938 168.0
1450.362915 204.0
1451.79895 156.0
1452.185791 188.0
1455.130005 80.0
1455.395752 156.0
1457.096924 196.0
1457.271729 116.0
1458.335571 156.0
1458.768799 260.0
1458.822021 168.0
1459.567139 192.0
1460.236328 136.0
1463.158203 164.0
1465.526855 184.0
1466.624146 104.0
1468.080322 224.0
1473.032959 208.0
1473.339233 120.0
1473.568359 132.0
1476.442383 76.0
1477.727539 128.0
1477.826904 240.0
1478.041138 88.0
1478.661011 44.0
1479.06665 164.0
1479.143188 148.0
1479.403442 136.0
1481.325562 128.0
1482.574463 140.0
1484.276123 68.0
1487.145264 192.0
1487.198975 184.0
1487.337158 48.0
1487.690308 156.0
1488.020386 124.0
1488.097168 200.0
1489.233643 172.0
1489.287354 76.0
1489.686768 220.0
1492.499634 140.0
1495.032349 168.0
1497.830688 72.0
1498.295044 172.0
1500.221558 52.0
1501.601807 144.0
1503.599976 204.0
1504.194214 164.0
