>compound Hesperetin
>formula C16H14O6
>ionization [M+H]+
>parentmass 303.08631462009055
#inchi InChI=1S/C16H14O6/c1-21-13-3-2-8(4-10(13)18)14-7-12(20)16-11(19)5-9(17)6-15(16)22-14/h2-6,14,17-19H,7H2,1H3
#inchikey AIONOLUJZLIMTK
#Ion_Source DI-ESI
#Instrument qTof
#Compound_Source Commercial
#PI Norberto Lopes
#Data_Collector Denise Silva
#Scan -1
#Precursor_MZ 303.077
#ExactMass 302.079
#Charge 1
#CAS_Number 69097-99-0
#Pubmed_ID  
#Smiles O=C1C2=C(O)C=C(O)C=C2OC(C3=CC=C(OC)C(O)=C3)C1
#INCHI_AUX  
#Library_Class 3
#SpectrumID CCMSLIB00000078875
#IonMode Positive
#UpdateWorkflowName UPDATE-SINGLE-ANNOTATED-BRONZE
#LibraryQualityString Bronze
#TaskID 30eb3d93f51f4171973eaf1a7a9d1ee3
##Scan# 1
#SpectrumFile gnps_hesperetin_pos_MSMS_303.mgf
#LibraryName gnps_library.mgf
#MQScore -1
#Organism gnps_library
#TIC_Query 0
#RT_Query -1
#MZErrorPPM -1
#SharedPeaks 0
#MassDiff 0
#LibMZ -1
#SpecMZ 303.077
#SpecCharge 0
#internalFilename spec-00000.mgf

>collision 10
117.031036 2332.0
121.06179 323.0
121.06179 323.0
123.040604 1334.0
125.020187 318.0
134.033752 3131.0
135.038284 414.0
136.047073 613.0
137.055771 2627.0
145.024002 5082.0
146.028198 289.0
149.055145 11452.0
150.058273 562.0
151.03421 970.0
153.014969 93758.0
154.017487 3328.0
155.048859 284.0
162.026459 857.0
163.033096 8432.0
164.038788 468.0
166.020935 759.0
171.024902 3106.0
173.054626 291.0
177.049759 24056.0
178.051956 1402.0
179.028534 4201.0
186.052155 1774.0
187.041565 355.0
201.048492 717.0
215.066574 373.0
219.059875 691.0
242.051239 378.0
259.049469 688.0
270.04483 527.0
285.066284 383.0
287.044647 2107.0
303.076721 475.0
