>compound Triamterene
>formula C12H11N7
>ionization [M+H]+
>parentmass 254.11486980409052
#inchi InChI=1S/C12H11N7/c13-9-7(6-4-2-1-3-5-6)16-8-10(14)18-12(15)19-11(8)17-9/h1-5H,(H6,13,14,15,17,18,19)
#inchikey FNYLWPVRPXGIIP
#Ion_Source LC-ESI
#Instrument qTof
#Compound_Source Commercial
#PI Dorrestein
#Data_Collector Garg_Neha
#Scan -1
#Precursor_MZ 254.115
#ExactMass 253.108
#Charge 1
#CAS_Number 396-01-0
#Pubmed_ID N/A
#Smiles C1(=NC2=C(C(=N1)N)N=C(C(=N2)N)C3=CC=CC=C3)N
#INCHI_AUX N/A
#Library_Class 1
#SpectrumID CCMSLIB00000078651
#IonMode Positive
#UpdateWorkflowName UPDATE-SINGLE-ANNOTATED-GOLD
#LibraryQualityString Gold
#TaskID 77f51c88eb8b467eb4a01dd2d0cb90d2
##Scan# 1036
#SpectrumFile Plate10_41_64_GC3_01_15747.mzXML
#LibraryName FDALibrary_2_04302014.mgf
#MQScore -1
#Organism FDALibrary_2_04302014
#TIC_Query 0
#RT_Query -1
#MZErrorPPM -1
#SharedPeaks 0
#MassDiff 0
#LibMZ -1
#SpecMZ 254.115
#SpecCharge 0
#internalFilename spec-00000.mgf

>collision 10
45.100418 148.0
45.132504 176.0
45.232841 156.0
45.705257 172.0
45.92485 172.0
46.5895 164.0
47.18507 160.0
47.273979 160.0
47.489071 176.0
47.690907 172.0
47.919346 160.0
48.228466 184.0
48.418701 160.0
48.478973 164.0
48.59129 140.0
48.75375 176.0
48.922306 176.0
48.999722 140.0
49.350365 168.0
49.4203 168.0
49.742638 164.0
49.79459 192.0
50.049126 172.0
50.523354 176.0
50.732948 156.0
50.89043 184.0
51.507084 184.0
51.609982 148.0
51.63858 172.0
51.826115 208.0
51.913555 160.0
51.992458 204.0
52.10302 168.0
53.168674 236.0
53.3895 144.0
53.47097 164.0
53.864651 212.0
54.550449 216.0
55.27187 120.0
55.376766 140.0
55.578381 196.0
55.594704 152.0
55.624386 228.0
56.135612 216.0
56.538059 172.0
56.650356 148.0
57.258686 172.0
57.524063 152.0
57.750717 148.0
58.196255 176.0
58.413582 208.0
58.834183 208.0
58.847923 164.0
59.03434 176.0
59.046577 164.0
59.214931 180.0
59.397327 192.0
59.678368 232.0
60.364544 140.0
60.513088 164.0
60.562641 140.0
60.761063 188.0
61.13398 148.0
61.46434 224.0
61.531456 144.0
62.008556 152.0
62.367985 176.0
62.611855 148.0
63.176937 196.0
63.457256 176.0
63.549248 216.0
64.821693 180.0
65.104233 160.0
65.401466 180.0
65.470695 172.0
65.964424 140.0
66.156921 220.0
66.429176 144.0
67.174217 176.0
67.916847 208.0
68.018585 176.0
68.311081 212.0
68.60585 196.0
68.800148 124.0
69.395058 168.0
69.527168 184.0
69.699875 148.0
70.054253 172.0
71.239594 192.0
71.826492 208.0
72.454994 184.0
73.533081 164.0
73.695305 156.0
73.857712 172.0
73.999748 148.0
74.107658 180.0
74.497101 204.0
75.049561 140.0
75.476051 156.0
75.664642 156.0
76.384834 148.0
76.703491 148.0
77.150383 196.0
77.433853 192.0
77.510933 144.0
77.572273 144.0
77.786285 160.0
78.194069 212.0
78.452995 144.0
78.751205 148.0
80.627403 212.0
81.067642 172.0
81.135757 172.0
82.531113 200.0
83.21788 212.0
84.491005 244.0
84.597931 196.0
84.823242 168.0
85.006653 160.0
85.631714 156.0
85.882378 168.0
86.146339 156.0
86.658806 160.0
87.529945 148.0
87.964668 140.0
88.414795 164.0
88.457848 180.0
88.691788 148.0
88.796989 180.0
88.84201 196.0
88.888916 148.0
89.035339 176.0
89.072906 188.0
89.12175 164.0
89.157455 176.0
90.041031 188.0
90.369949 200.0
90.487297 160.0
90.697571 152.0
90.811333 220.0
91.156853 208.0
91.173958 152.0
91.345078 164.0
91.733551 144.0
93.022873 144.0
93.072792 164.0
95.410652 144.0
95.599327 144.0
95.688866 216.0
95.909538 144.0
95.967476 180.0
96.31517 340.0
96.344154 140.0
96.48291 192.0
96.678505 204.0
96.987953 208.0
97.492355 200.0
97.608337 176.0
99.493263 188.0
100.000145 144.0
100.624084 192.0
100.737923 160.0
101.891846 164.0
102.040565 168.0
103.499344 176.0
103.673553 152.0
103.764771 168.0
104.050072 2736.0
104.082344 284.0
104.262085 216.0
104.640427 176.0
105.053581 264.0
105.391838 108.0
105.730461 156.0
107.038124 140.0
107.477173 208.0
107.534958 252.0
107.780701 180.0
108.072014 144.0
108.165375 140.0
108.567322 156.0
108.870308 148.0
108.886925 196.0
109.076309 164.0
109.092628 220.0
109.462975 340.0
109.515045 180.0
109.565033 196.0
110.082817 148.0
110.588242 172.0
110.753654 156.0
111.042892 148.0
111.469055 164.0
111.721359 176.0
112.043465 160.0
112.328056 192.0
112.517982 144.0
112.589775 152.0
112.728416 172.0
112.908897 140.0
113.470032 184.0
114.419708 184.0
114.59861 188.0
114.684525 140.0
114.813904 216.0
114.894958 160.0
115.359322 144.0
115.743477 144.0
116.051254 588.0
116.163544 192.0
117.055138 144.0
117.885994 140.0
118.40303 168.0
118.430153 168.0
118.658722 172.0
118.703117 164.0
118.973297 152.0
119.144867 208.0
119.64724 204.0
121.154129 228.0
121.244598 152.0
121.364532 168.0
121.633255 192.0
122.619751 140.0
123.189026 152.0
123.403397 176.0
124.052063 184.0
124.178452 164.0
126.316765 216.0
126.670448 180.0
127.401756 168.0
127.502869 176.0
128.011292 140.0
128.033813 192.0
128.250092 168.0
128.281647 216.0
128.430481 160.0
128.615494 176.0
128.771286 160.0
129.006287 156.0
129.044724 144.0
129.089951 156.0
129.548279 160.0
129.99379 192.0
130.132263 188.0
130.148148 164.0
130.384399 140.0
130.409393 164.0
130.607208 156.0
131.060089 276.0
131.580276 196.0
131.918381 148.0
132.005264 160.0
132.046417 144.0
132.181396 156.0
133.040878 160.0
133.66835 176.0
133.723572 148.0
134.043549 372.0
134.876831 180.0
135.216843 156.0
135.304794 224.0
135.738068 152.0
136.230118 156.0
136.5439 264.0
136.937225 172.0
137.275146 152.0
137.586945 184.0
137.856415 148.0
138.064468 148.0
138.464676 200.0
140.31868 160.0
140.594666 160.0
140.837845 144.0
141.015045 168.0
141.044739 1228.0
141.159256 184.0
141.938309 156.0
142.051315 700.0
142.339325 184.0
142.664825 220.0
142.926453 196.0
142.955002 184.0
143.060257 3572.0
143.870255 212.0
143.972931 192.0
144.025482 168.0
144.063156 788.0
144.328979 148.0
144.989685 164.0
145.222244 168.0
145.476593 172.0
145.527008 140.0
145.560623 144.0
145.692719 156.0
145.978745 188.0
146.149536 188.0
146.274673 184.0
147.575012 156.0
147.925797 140.0
148.042023 276.0
148.063812 152.0
148.080765 156.0
148.463684 184.0
148.541306 144.0
148.828369 228.0
148.995255 160.0
149.812668 176.0
149.88089 140.0
150.161224 168.0
150.480896 180.0
150.952484 148.0
151.16774 216.0
151.937103 180.0
152.094162 172.0
152.698578 204.0
152.78714 156.0
153.046097 200.0
153.121902 148.0
153.454559 160.0
153.47374 180.0
154.062241 212.0
154.088852 160.0
154.775146 196.0
155.086197 148.0
155.186188 144.0
155.254715 152.0
155.354248 220.0
155.65921 196.0
155.74614 160.0
155.929184 172.0
156.305496 172.0
157.392288 180.0
157.549637 144.0
157.764557 152.0
157.889587 168.0
157.946289 148.0
158.074707 164.0
158.202347 164.0
159.0401 152.0
159.474106 144.0
160.135818 320.0
160.710571 168.0
160.796371 156.0
162.091171 168.0
162.903046 236.0
163.050034 136.0
163.090103 152.0
163.388596 224.0
163.77298 228.0
164.785736 156.0
165.118042 152.0
165.187103 164.0
165.432755 140.0
165.852859 156.0
166.104141 184.0
166.568756 208.0
167.094452 228.0
167.165237 188.0
167.510239 192.0
167.896606 128.0
167.935532 184.0
168.055328 6048.0
168.979156 188.0
169.059616 692.0
169.248337 152.0
169.74585 176.0
170.066589 296.0
171.079651 200.0
171.401672 148.0
171.804413 168.0
171.834488 152.0
172.08316 172.0
172.369751 152.0
173.041962 216.0
173.621063 172.0
173.736465 188.0
173.912277 196.0
174.634827 180.0
174.655869 148.0
175.51178 200.0
176.067596 312.0
176.433212 196.0
176.520477 160.0
177.330444 144.0
179.05751 160.0
179.787979 180.0
180.068314 160.0
180.410324 164.0
180.479843 140.0
180.544022 160.0
180.953339 128.0
181.634109 140.0
181.803131 164.0
183.066971 1184.0
183.168961 144.0
183.991455 188.0
184.070419 304.0
185.082504 1760.0
185.324814 240.0
185.430496 172.0
186.019089 140.0
186.067703 292.0
186.105026 224.0
186.567841 148.0
186.867004 152.0
187.098328 168.0
187.267151 160.0
187.588684 188.0
187.675934 152.0
188.089935 132.0
188.366394 140.0
188.836533 172.0
189.901947 168.0
189.962296 140.0
190.028137 144.0
190.089844 172.0
190.30809 156.0
191.416199 168.0
192.07489 160.0
192.154892 184.0
192.287537 176.0
193.050781 704.0
193.874786 168.0
194.051346 356.0
194.210266 200.0
194.38504 176.0
195.067307 13404.0
195.535553 164.0
195.577301 148.0
195.919479 268.0
196.069473 1496.0
196.436844 144.0
196.607651 96.0
196.79834 140.0
197.067917 124.0
197.234146 188.0
197.516556 140.0
198.266922 160.0
198.892365 140.0
199.361389 192.0
199.997009 232.0
200.45607 216.0
200.633636 172.0
201.504089 112.0
202.093796 140.0
202.492935 408.0
202.682739 200.0
202.733749 144.0
203.139191 164.0
203.664322 176.0
203.991104 176.0
204.077606 112.0
204.190125 176.0
204.953049 172.0
205.163956 140.0
205.280853 220.0
205.843002 172.0
206.276047 164.0
206.960663 164.0
207.49968 196.0
207.797958 204.0
207.832382 164.0
207.970139 204.0
208.74295 164.0
209.707733 140.0
209.744843 148.0
209.897644 172.0
209.949554 140.0
210.038956 148.0
210.077682 6284.0
210.126801 248.0
210.315964 168.0
210.336166 192.0
210.734695 172.0
211.035294 216.0
211.080093 1428.0
211.128555 156.0
211.877502 160.0
211.917007 176.0
211.978912 144.0
212.093475 6456.0
212.215195 108.0
212.471817 140.0
212.820099 152.0
213.090927 1416.0
213.350922 164.0
213.876114 96.0
214.08078 276.0
214.755325 212.0
214.874924 160.0
215.082108 296.0
215.441284 148.0
215.656021 172.0
216.368347 256.0
217.367828 140.0
217.681915 172.0
217.986053 164.0
218.110855 144.0
218.146133 164.0
219.063278 144.0
219.232208 200.0
219.314728 144.0
219.475861 140.0
219.991699 96.0
220.062912 1444.0
221.063766 584.0
221.202209 180.0
221.885498 200.0
222.349274 168.0
222.49472 156.0
224.011383 164.0
224.19313 176.0
226.870529 152.0
227.003159 160.0
227.104065 2420.0
227.180115 180.0
227.87793 176.0
228.088272 248.0
228.110214 300.0
228.673508 204.0
229.089615 148.0
229.248734 180.0
229.408478 196.0
230.192932 152.0
230.924271 148.0
231.036865 180.0
233.031082 184.0
233.08577 260.0
233.572205 232.0
233.821701 184.0
234.400314 144.0
234.439926 184.0
234.733353 188.0
234.78746 140.0
234.952179 156.0
235.010132 152.0
235.031494 148.0
235.075821 156.0
235.306198 188.0
235.333664 168.0
235.524399 212.0
235.580856 128.0
236.115952 192.0
236.223709 172.0
236.375122 176.0
236.440247 204.0
236.679016 152.0
236.81633 176.0
236.985306 232.0
237.089325 87980.0
237.342926 108.0
237.381378 112.0
237.4104 160.0
237.525482 144.0
237.634277 144.0
237.774811 112.0
238.09137 9384.0
238.367004 176.0
238.400955 104.0
238.559967 144.0
238.654572 196.0
238.962585 152.0
239.095718 812.0
239.211868 172.0
239.805588 148.0
240.022141 160.0
240.059143 104.0
240.207184 184.0
240.448593 168.0
241.176758 228.0
243.597351 136.0
245.127533 164.0
245.158691 156.0
245.866608 144.0
246.163177 176.0
247.570389 172.0
247.767731 140.0
247.949463 184.0
248.064117 152.0
248.140671 164.0
248.592361 176.0
248.62059 168.0
248.937668 144.0
249.349197 164.0
250.129242 160.0
251.249741 112.0
251.336273 152.0
251.78241 124.0
251.828751 180.0
252.024612 192.0
252.070435 216.0
252.097137 456.0
252.160492 144.0
252.228912 484.0
252.34494 172.0
252.553741 120.0
252.605988 144.0
252.731995 148.0
252.867477 112.0
252.956375 128.0
252.988205 260.0
253.060928 124.0
253.107727 152.0
253.172501 200.0
253.206512 132.0
253.279785 280.0
253.307388 312.0
253.344254 224.0
253.441315 124.0
253.57515 156.0
253.608276 140.0
253.652161 176.0
253.694092 124.0
253.768036 136.0
253.834793 160.0
253.878372 284.0
253.928391 336.0
254.013733 308.0
254.11702 264724.0
254.198044 296.0
254.296722 180.0
254.33139 168.0
254.367966 268.0
254.411392 960.0
254.460968 184.0
254.505768 216.0
254.603104 736.0
254.640686 6372.0
254.687485 296.0
254.722855 180.0
254.779648 224.0
254.825836 156.0
254.886215 248.0
254.909531 208.0
254.934937 232.0
255.017746 132.0
255.052597 404.0
255.11882 59936.0
255.339981 120.0
255.414734 144.0
255.445145 108.0
255.523544 188.0
255.711868 140.0
255.777985 100.0
255.867645 180.0
255.952118 152.0
256.121094 5888.0
256.267487 124.0
256.34201 96.0
256.465576 192.0
256.489075 256.0
256.533661 244.0
256.580261 244.0
256.625031 248.0
256.685242 288.0
256.746002 236.0
256.825165 192.0
256.873871 360.0
256.946014 372.0
257.006622 372.0
257.112823 232.0
257.172302 172.0
257.210388 104.0
257.276215 96.0
257.692169 120.0
257.787323 196.0
257.953522 144.0
258.078888 108.0
258.375916 108.0
263.611298 120.0
266.222015 180.0
267.630737 144.0
268.728516 104.0
268.926514 100.0
271.595703 124.0
272.689301 132.0
278.40094 124.0
279.331024 216.0
345.712128 156.0
430.146454 176.0
550.250854 148.0
584.008667 148.0
625.861511 140.0
733.581116 100.0
766.377747 160.0
1220.071045 140.0
1251.795166 164.0
1383.903076 168.0
1428.13501 212.0
1473.009277 144.0
1571.460815 156.0
1599.125122 140.0
1636.630615 184.0
1681.745728 228.0
1719.195435 240.0
1723.695923 240.0
1758.893311 196.0
1774.403076 140.0
1775.930176 168.0
1787.665894 208.0
1789.450317 156.0
1827.716675 168.0
1892.203125 148.0
1936.37854 200.0
1965.282593 152.0
1966.623901 180.0
