>compound Zolmitriptan (Zomig)
>formula C16H21N3O2
>ionization [M+H]+
>parentmass 288.1706533640905
#inchi InChI=1S/C16H21N3O2/c1-19(2)6-5-12-9-17-15-4-3-11(8-14(12)15)7-13-10-21-16(20)18-13/h3-4,8-9,13,17H,5-7,10H2,1-2H3,(H,18,20)/t13-/m0/s1
#inchikey ULSDMUVEXKOYBU
#Ion_Source LC-ESI
#Instrument qTof
#Compound_Source Commercial
#PI Dorrestein
#Data_Collector Garg_Neha
#Scan -1
#Precursor_MZ 288.171
#ExactMass 287.163
#Charge 1
#CAS_Number 139264-17-8
#Pubmed_ID N/A
#Smiles C1=C(C=CC2=C1C(=CN2)CCN(C)C)C[C@@H]3NC(OC3)=O
#INCHI_AUX N/A
#Library_Class 1
#SpectrumID CCMSLIB00000078224
#IonMode Positive
#UpdateWorkflowName UPDATE-SINGLE-ANNOTATED-GOLD
#LibraryQualityString Gold
#TaskID 77f51c88eb8b467eb4a01dd2d0cb90d2
##Scan# 1013
#SpectrumFile Plate3_61_88_GH1_01_16501.mzXML
#LibraryName FDALibrary_2_04302014.mgf
#MQScore -1
#Organism FDALibrary_2_04302014
#TIC_Query 0
#RT_Query -1
#MZErrorPPM -1
#SharedPeaks 0
#MassDiff 0
#LibMZ -1
#SpecMZ 288.171
#SpecCharge 0
#internalFilename spec-00000.mgf

>collision 10
45.703243 184.0
45.740929 192.0
45.833855 152.0
46.001087 184.0
46.279587 220.0
46.393391 168.0
47.336235 172.0
47.526768 224.0
47.913109 160.0
47.947556 144.0
48.287182 140.0
48.518425 208.0
48.672432 168.0
48.744663 160.0
49.467113 144.0
49.812073 152.0
50.166687 152.0
50.307755 204.0
50.586239 156.0
51.01038 224.0
51.064411 208.0
51.463497 144.0
52.459076 156.0
53.259274 160.0
53.391533 168.0
53.551624 188.0
53.713417 140.0
53.783424 188.0
53.958752 184.0
53.983608 196.0
55.084454 212.0
55.168686 160.0
55.623459 148.0
55.718498 216.0
56.408478 224.0
56.661385 172.0
57.320988 164.0
57.972282 212.0
58.342628 204.0
58.720257 216.0
58.959946 144.0
59.065945 184.0
59.425449 168.0
59.761932 164.0
59.857365 164.0
60.171902 184.0
60.20433 144.0
60.394428 176.0
60.608063 140.0
60.626659 188.0
60.646809 176.0
60.865547 196.0
61.241894 156.0
62.464378 152.0
62.750992 160.0
62.801456 188.0
63.302441 204.0
63.848347 148.0
63.923782 216.0
64.378319 144.0
64.810921 152.0
65.242653 176.0
65.461472 152.0
67.075165 172.0
67.290504 236.0
67.781189 180.0
67.85495 164.0
68.718407 224.0
69.457878 248.0
69.931427 180.0
70.192604 152.0
70.622177 180.0
70.871613 176.0
71.260864 172.0
72.03582 172.0
72.379143 200.0
72.485855 224.0
72.509583 188.0
72.592651 156.0
72.724976 156.0
73.485649 160.0
73.625618 148.0
74.073738 172.0
74.186836 164.0
74.380676 208.0
74.409859 192.0
74.834526 196.0
75.075462 160.0
75.362305 196.0
75.389954 156.0
75.841667 144.0
76.160927 172.0
76.353844 220.0
76.691612 148.0
76.728218 224.0
76.948044 160.0
76.988197 168.0
77.121246 184.0
77.670776 156.0
77.921814 156.0
78.025505 148.0
78.456825 180.0
78.559105 140.0
78.714424 156.0
78.827477 216.0
78.839844 144.0
79.06073 168.0
79.1866 152.0
79.312393 192.0
79.687363 188.0
79.93576 176.0
80.063934 144.0
80.195778 140.0
80.28492 188.0
80.720642 148.0
80.758194 168.0
80.937157 152.0
81.324379 184.0
81.40696 200.0
81.587708 176.0
82.053848 236.0
82.374138 140.0
83.216248 140.0
83.285255 144.0
83.39064 144.0
83.545197 168.0
83.590683 188.0
83.789146 164.0
83.851105 156.0
84.047905 100.0
84.172173 216.0
84.788658 172.0
85.146408 156.0
85.240097 168.0
85.536194 164.0
85.698257 208.0
85.718529 184.0
85.748009 148.0
85.830971 196.0
86.213081 208.0
86.375778 208.0
87.431496 152.0
88.199913 160.0
88.489876 184.0
88.54792 168.0
89.2742 196.0
89.52449 140.0
89.633743 156.0
89.67897 164.0
89.82605 144.0
89.903404 224.0
89.954361 152.0
90.22261 332.0
90.602997 164.0
90.693954 164.0
90.769791 192.0
91.261574 156.0
91.529861 200.0
91.659386 228.0
91.80426 152.0
92.323692 156.0
92.493973 188.0
92.549492 140.0
92.771729 164.0
93.218933 164.0
93.412064 204.0
94.290413 204.0
94.35807 140.0
94.403702 220.0
94.617317 232.0
95.084465 156.0
95.37191 184.0
95.430229 228.0
95.891579 248.0
97.292122 172.0
97.30587 148.0
97.484612 156.0
97.815025 164.0
97.828804 160.0
98.307747 172.0
99.255272 192.0
99.471519 212.0
99.688004 148.0
99.900749 208.0
99.948494 176.0
100.059952 164.0
100.13562 184.0
100.540337 204.0
100.90361 212.0
100.975861 164.0
101.298111 188.0
101.608841 148.0
101.636932 188.0
101.82563 196.0
101.94416 184.0
102.063293 208.0
102.125099 212.0
102.410904 152.0
102.467308 176.0
102.582176 204.0
103.078667 152.0
103.359734 152.0
103.46701 168.0
103.941284 184.0
104.162575 140.0
104.197113 208.0
104.565163 196.0
104.736191 212.0
104.903275 180.0
105.015961 168.0
105.037865 144.0
105.097023 164.0
105.628197 220.0
105.916809 156.0
105.984413 184.0
106.246849 140.0
106.408981 260.0
106.86525 284.0
107.031967 144.0
107.324562 156.0
107.679497 172.0
108.068123 184.0
108.706322 164.0
108.898483 168.0
109.425499 164.0
109.456734 208.0
109.958458 208.0
110.157494 184.0
110.904503 144.0
111.032883 120.0
111.185547 200.0
111.208626 208.0
111.235916 152.0
112.640442 192.0
112.970207 168.0
113.023094 164.0
113.544212 240.0
113.928406 180.0
114.117554 140.0
114.145195 152.0
114.681671 152.0
115.364731 192.0
115.578606 160.0
115.647087 188.0
115.74128 152.0
116.041245 156.0
116.502663 168.0
117.066177 208.0
117.298866 176.0
117.667763 140.0
117.721741 152.0
117.760612 144.0
117.993988 344.0
118.058861 164.0
118.383461 196.0
118.682495 160.0
118.74321 208.0
118.806114 184.0
119.24691 188.0
119.527443 140.0
119.651505 172.0
119.783188 212.0
119.809692 232.0
120.139664 152.0
120.377571 176.0
120.48896 152.0
120.613525 156.0
120.797203 192.0
120.950371 272.0
121.118973 144.0
121.278923 252.0
121.744041 164.0
121.941765 160.0
122.0187 208.0
122.260658 140.0
122.356239 348.0
122.467613 260.0
122.494041 180.0
122.710014 156.0
123.012245 188.0
123.100563 164.0
123.120438 172.0
123.193321 180.0
123.228668 144.0
123.277283 192.0
123.771355 248.0
123.819283 144.0
124.08297 144.0
124.151711 196.0
125.115868 164.0
125.769173 152.0
126.274124 168.0
126.565033 172.0
126.58519 188.0
126.860771 160.0
127.179291 192.0
127.311752 140.0
127.381378 192.0
127.621849 204.0
127.750038 220.0
128.055664 160.0
128.11705 128.0
128.407761 152.0
128.565674 252.0
128.617584 176.0
128.795959 200.0
128.836624 168.0
129.069977 804.0
129.225479 140.0
129.34317 180.0
130.073853 148.0
130.302414 188.0
130.461502 164.0
130.669647 144.0
131.659988 156.0
131.874756 144.0
131.897614 160.0
132.208649 160.0
132.288757 144.0
133.060501 220.0
133.21521 216.0
133.313995 140.0
134.303986 196.0
134.403183 140.0
134.564743 176.0
134.707932 140.0
135.135498 144.0
135.32077 168.0
136.176453 164.0
136.294937 184.0
136.420425 204.0
136.892746 224.0
136.976593 144.0
137.286575 140.0
137.941193 180.0
138.504227 204.0
138.696365 140.0
138.769043 180.0
138.865189 176.0
138.956665 156.0
139.059921 164.0
139.409851 176.0
139.470947 156.0
140.797424 164.0
141.036041 232.0
141.069183 280.0
141.405014 172.0
141.447617 144.0
141.610992 148.0
141.919067 204.0
142.10643 144.0
143.495407 180.0
143.84848 164.0
143.948746 144.0
144.089676 148.0
144.299988 200.0
144.395645 216.0
144.93425 152.0
145.018127 188.0
145.066071 204.0
145.923126 160.0
145.988052 152.0
146.067413 288.0
146.209366 248.0
147.079437 168.0
147.105988 216.0
147.345078 156.0
147.930023 168.0
148.217667 388.0
148.606461 140.0
149.133423 152.0
150.095032 144.0
150.209656 184.0
150.795654 164.0
150.890991 164.0
150.981461 172.0
151.262833 156.0
151.912216 144.0
152.059433 144.0
152.417969 172.0
152.452362 316.0
152.55806 208.0
152.612137 152.0
152.683456 212.0
152.870422 156.0
152.9543 148.0
153.067642 244.0
153.735382 148.0
153.769928 180.0
154.065491 1692.0
154.182373 188.0
154.493912 148.0
154.939529 160.0
155.087006 1076.0
155.775543 148.0
155.964386 256.0
156.081757 5092.0
156.394699 156.0
157.054977 200.0
157.087631 2108.0
157.321869 188.0
157.411865 148.0
157.991714 140.0
158.092941 1024.0
158.19191 212.0
158.35968 208.0
158.765686 140.0
158.810822 148.0
158.914078 276.0
158.938187 172.0
159.090973 112.0
159.564163 248.0
159.677322 152.0
159.782974 156.0
159.858459 232.0
159.888657 172.0
159.996704 160.0
160.049759 144.0
160.942352 152.0
161.052887 140.0
161.318787 228.0
161.571671 156.0
161.689102 152.0
161.857681 200.0
162.349274 152.0
163.192307 188.0
163.263504 180.0
163.324539 196.0
163.571365 232.0
163.981445 164.0
164.035538 216.0
164.170105 192.0
164.470444 156.0
164.546921 188.0
164.62178 188.0
164.75589 172.0
164.841476 140.0
164.882355 220.0
165.070343 2548.0
165.4758 252.0
165.703751 196.0
165.908768 144.0
166.069092 480.0
166.160095 152.0
166.498917 164.0
166.560562 180.0
166.614517 152.0
166.851654 292.0
167.073624 6340.0
167.14415 140.0
167.180176 196.0
167.203339 148.0
168.07457 512.0
168.358292 152.0
169.076904 160.0
169.2323 208.0
169.279404 168.0
169.372742 172.0
169.636444 164.0
169.699738 224.0
169.945068 180.0
169.968414 188.0
170.054062 152.0
170.092209 160.0
171.099274 160.0
171.544495 172.0
171.570557 172.0
171.65921 192.0
172.392746 164.0
172.539108 140.0
173.258804 236.0
174.083145 152.0
174.10704 196.0
174.137543 152.0
174.289902 204.0
174.360855 160.0
174.855286 224.0
175.043854 216.0
175.129105 184.0
175.231842 160.0
175.326691 352.0
175.550781 144.0
175.838333 160.0
177.01474 152.0
177.16571 160.0
177.398911 152.0
177.502304 172.0
177.725113 164.0
177.873734 144.0
177.969315 180.0
178.027725 164.0
178.253525 140.0
178.450211 184.0
178.559235 140.0
179.592636 192.0
180.083084 780.0
180.527374 148.0
180.655762 200.0
180.760101 168.0
180.877869 140.0
181.01976 176.0
181.089432 1300.0
181.11972 184.0
181.319794 200.0
181.360001 200.0
181.786423 164.0
181.84491 116.0
181.997055 188.0
182.02063 176.0
182.049179 168.0
182.097061 23972.0
182.265411 168.0
182.776215 172.0
182.950684 192.0
182.996521 200.0
183.100189 4368.0
183.138718 160.0
183.192581 204.0
184.008469 172.0
184.098984 644.0
184.226105 192.0
184.275894 192.0
184.486862 124.0
184.566315 156.0
184.712357 144.0
185.353989 196.0
185.461792 144.0
185.833908 140.0
186.042877 144.0
186.132477 200.0
187.634369 176.0
187.727081 212.0
188.5242 172.0
189.470917 200.0
189.805298 184.0
190.038437 256.0
190.634293 196.0
190.837692 180.0
191.052216 168.0
191.10173 200.0
191.233826 260.0
191.407257 180.0
192.069824 252.0
192.656662 148.0
193.442017 188.0
193.802048 148.0
194.084763 196.0
194.931366 236.0
195.08876 160.0
195.317825 152.0
195.838318 184.0
196.078857 300.0
196.588272 156.0
196.635712 160.0
197.080505 156.0
197.107513 756.0
197.205475 216.0
197.230621 152.0
197.392166 184.0
197.471085 164.0
197.554993 152.0
197.680893 164.0
198.070053 204.0
198.106476 216.0
198.602615 140.0
199.119461 584.0
199.931519 196.0
200.03566 188.0
200.066635 144.0
200.137909 296.0
201.12088 200.0
201.143463 160.0
201.450775 208.0
201.762115 200.0
202.571472 144.0
202.849182 200.0
203.053329 164.0
203.209335 180.0
204.15686 160.0
204.510483 156.0
205.416962 176.0
205.805084 192.0
205.856491 156.0
206.073578 140.0
206.167862 168.0
206.785599 188.0
206.985992 204.0
207.091797 152.0
207.240921 140.0
208.199005 208.0
208.316757 160.0
208.454666 144.0
208.658737 164.0
208.704742 160.0
208.870026 152.0
209.418427 160.0
209.637375 176.0
209.827621 192.0
209.870102 120.0
210.0439 148.0
210.147751 200.0
210.834641 128.0
211.50351 140.0
211.587051 148.0
212.250549 144.0
212.694412 160.0
212.86113 148.0
212.93541 180.0
212.978973 180.0
213.005112 172.0
213.108597 208.0
213.266617 144.0
213.755203 172.0
214.072495 152.0
214.331741 148.0
214.407516 196.0
214.646545 144.0
214.804047 192.0
214.926575 144.0
215.417053 224.0
215.960724 332.0
216.137329 196.0
216.508026 172.0
216.634308 136.0
216.84787 140.0
217.101486 140.0
217.293579 140.0
217.317062 168.0
217.936569 408.0
218.76004 152.0
218.870972 148.0
219.372772 148.0
219.446472 192.0
219.549683 208.0
220.36142 180.0
220.482574 156.0
220.60376 156.0
220.645142 252.0
221.097702 240.0
221.447052 156.0
222.002472 272.0
222.36615 204.0
222.395844 144.0
222.600677 208.0
223.876404 156.0
223.944916 200.0
223.995544 216.0
224.290543 180.0
224.627487 148.0
224.794571 280.0
225.072174 204.0
225.105988 296.0
225.424637 168.0
225.45752 160.0
226.256149 192.0
226.489716 180.0
227.092178 320.0
227.602341 212.0
227.863297 176.0
227.949402 148.0
228.817017 228.0
229.012756 260.0
229.401459 164.0
230.78418 184.0
231.931534 144.0
232.113434 164.0
232.183182 160.0
232.304504 216.0
232.489578 140.0
233.315765 164.0
233.702011 140.0
235.247162 184.0
235.800018 196.0
236.417786 148.0
236.457565 176.0
236.679733 176.0
236.953629 144.0
236.981201 156.0
237.106842 144.0
237.168137 160.0
237.787689 172.0
237.809174 164.0
237.88591 220.0
238.008713 208.0
238.076279 172.0
238.301132 156.0
238.331238 184.0
239.223129 148.0
239.731323 244.0
239.759048 184.0
239.839188 200.0
240.273987 148.0
240.465302 176.0
240.564072 160.0
240.888321 196.0
241.311707 140.0
241.728806 184.0
241.763306 208.0
242.144104 140.0
242.286591 208.0
242.320663 140.0
242.410522 172.0
242.853851 172.0
242.881775 160.0
243.005859 168.0
243.027573 144.0
243.073486 368.0
243.113174 16272.0
244.116913 2840.0
244.161392 140.0
244.500504 148.0
244.999115 144.0
245.121872 148.0
245.238617 160.0
245.510437 212.0
245.906082 264.0
246.124603 164.0
246.16832 160.0
246.380707 156.0
246.589127 176.0
247.19989 156.0
247.616257 168.0
248.01416 168.0
248.042374 160.0
248.158371 164.0
248.625748 156.0
248.996201 168.0
249.546112 220.0
249.797699 212.0
250.203644 228.0
250.493362 156.0
251.03862 140.0
251.74234 148.0
251.821289 148.0
251.878143 180.0
252.001343 172.0
252.195938 180.0
252.269974 220.0
252.79068 164.0
253.555038 176.0
254.109955 144.0
254.141693 144.0
255.132599 144.0
255.32019 208.0
255.628769 156.0
256.590668 144.0
256.868134 196.0
256.890442 148.0
257.504517 324.0
257.998566 152.0
258.564728 160.0
259.276764 148.0
259.538574 224.0
259.564209 168.0
259.692505 176.0
259.978027 172.0
260.061462 168.0
260.109619 160.0
260.228394 148.0
260.591309 196.0
260.794647 148.0
261.652649 148.0
261.923157 184.0
262.177673 172.0
262.416229 176.0
262.525848 144.0
262.667755 160.0
263.08725 144.0
263.461884 164.0
264.878754 216.0
265.348633 148.0
265.802734 176.0
266.799835 212.0
267.554596 184.0
267.61319 148.0
268.936707 180.0
269.148926 192.0
269.619293 160.0
270.217712 180.0
270.908478 180.0
271.334503 184.0
271.695251 152.0
272.046387 156.0
272.134735 128.0
273.736328 232.0
274.062439 256.0
274.134918 172.0
274.464569 176.0
274.847168 156.0
275.365448 156.0
275.897461 196.0
275.937134 176.0
276.24469 164.0
276.582214 176.0
276.71463 176.0
276.760956 192.0
276.979553 224.0
277.888702 192.0
278.927338 208.0
279.189972 208.0
280.555115 192.0
281.432587 188.0
282.709473 148.0
283.104492 180.0
283.235107 176.0
284.046295 180.0
284.318054 148.0
284.351624 168.0
284.623535 204.0
284.778015 140.0
285.144226 144.0
285.265228 140.0
286.099518 172.0
286.156921 148.0
286.282288 128.0
286.400513 216.0
286.46994 176.0
286.654053 152.0
286.682739 152.0
286.712433 120.0
287.030182 120.0
287.099426 116.0
287.184357 388.0
287.255707 160.0
287.304749 232.0
287.380188 184.0
287.419617 112.0
287.471313 232.0
287.514587 116.0
287.576111 140.0
287.660431 156.0
287.713562 304.0
287.788605 152.0
287.835236 192.0
287.952118 236.0
288.008667 228.0
288.078491 328.0
288.087952 220.0
288.172882 171520.0
288.258209 124.0
288.397491 116.0
288.438293 224.0
288.478363 96.0
288.510742 252.0
288.556152 180.0
288.59256 180.0
288.727905 2384.0
288.876953 152.0
288.966095 164.0
289.005035 152.0
289.066223 424.0
289.1745 32792.0
289.309998 104.0
289.421204 108.0
289.505615 136.0
289.593323 148.0
289.690247 324.0
289.761383 124.0
289.792969 156.0
289.887726 124.0
289.989594 132.0
290.029663 128.0
290.060181 144.0
290.121155 120.0
290.17569 4652.0
290.351898 104.0
290.400391 112.0
290.532104 96.0
290.726959 128.0
290.803528 104.0
290.84613 100.0
290.931732 164.0
291.014923 168.0
291.062286 244.0
291.10379 148.0
291.148193 204.0
291.18631 340.0
291.225983 212.0
291.278687 260.0
291.328583 144.0
291.403351 108.0
291.495728 148.0
291.726166 140.0
292.131195 156.0
292.268127 128.0
292.348083 128.0
292.404327 128.0
292.597687 108.0
292.638855 100.0
293.235138 104.0
295.17569 172.0
295.199615 148.0
298.09967 152.0
299.898193 136.0
301.55072 136.0
309.216705 100.0
313.876617 168.0
321.999756 148.0
323.06134 144.0
350.012573 200.0
352.351135 148.0
405.248474 168.0
484.615997 160.0
505.742798 104.0
607.36908 156.0
774.565308 164.0
993.009521 196.0
1166.031006 148.0
1166.228027 240.0
1178.064087 140.0
1445.573364 220.0
1449.897461 248.0
1462.253906 168.0
1471.294189 148.0
1537.306519 208.0
1551.926025 216.0
1597.973633 152.0
1635.256104 152.0
1650.478638 148.0
1657.780029 156.0
1658.73645 144.0
1662.881226 216.0
1680.645752 204.0
1704.859497 192.0
1707.736938 148.0
1709.127197 164.0
1723.771729 188.0
1749.683105 272.0
1754.915161 160.0
1759.78772 244.0
1772.501465 160.0
1790.158569 268.0
1791.354614 188.0
1808.444824 152.0
1840.955444 248.0
1862.941895 156.0
1870.922363 220.0
1892.982544 148.0
1896.092529 184.0
1901.756104 164.0
1934.303345 152.0
1958.291626 196.0
1960.837769 176.0
1965.502808 164.0
1968.097778 192.0
1973.531738 192.0
1981.355591 236.0
1982.231812 108.0
1993.378052 224.0
1999.603149 156.0
