>compound MLS000863654-01!
>formula C28H36O8
>ionization [M+H]+
>parentmass 501.249
#inchi InChI=1S/C28H36O8/c1-13-11-17-25(6,28(23(33)34-8)21(31)14(2)20(30)26(13,28)7)12-16-19-24(4,5)18(35-15(3)29)9-10-27(17,19)22(32)36-16/h11,16-19,31H,9-10,12H2,1-8H3/t16?,17?,18-,19?,25-,26-,27+,28+/m1/s1
#inchikey JYWRCSAWBUAIFO
#Ion_Source LC-ESI
#Instrument qTof
#Compound_Source NIH Natural Product Library
#PI Dorrestein
#Data_Collector VVP/LMS
#Scan -1
#Precursor_MZ 501.249
#ExactMass 500.241
#Charge 1
#CAS_Number N/A
#Pubmed_ID N/A
#Smiles COC(=O)[C@@]12C(=C(C)C(=O)[C@@]2(C)C(=CC3[C@]45CC[C@@H](OC(=O)C)C(C)(C)C5C(C[C@]31C)OC4=O)C)O
#INCHI_AUX N/A
#Library_Class 1
#SpectrumID CCMSLIB00000080529
#IonMode Positive
#UpdateWorkflowName UPDATE-SINGLE-ANNOTATED-GOLD
#LibraryQualityString Gold
#TaskID b1d8e8f6646f4e71acdff9ca3d919d08
##Scan# 2168
#SpectrumFile p2-C10_GC10_01_18010.mzXML
#LibraryName NIH_Natural_Products_Library.mgf
#MQScore -1
#Organism NIH_Natural_Products_Library
#TIC_Query 0
#RT_Query -1
#MZErrorPPM -1
#SharedPeaks 0
#MassDiff 0
#LibMZ -1
#SpecMZ 501.249
#SpecCharge 0
#internalFilename spec-00000.mgf

>collision 10
94.966431 200.0
95.0158 164.0
95.049179 968.0
95.087303 640.0
95.26429 212.0
95.308975 192.0
95.343948 188.0
95.464478 260.0
95.542137 216.0
95.588974 52.0
95.701866 148.0
95.82457 128.0
96.00975 196.0
96.091675 80.0
96.232193 36.0
96.275154 176.0
96.323982 176.0
96.357193 148.0
96.765945 60.0
96.807068 132.0
96.854065 160.0
96.967705 156.0
96.989265 132.0
97.026466 168.0
97.066116 40.0
97.09906 172.0
97.152023 132.0
97.18145 52.0
97.244247 168.0
97.332588 164.0
97.356148 116.0
97.399361 176.0
97.658806 128.0
97.950119 272.0
98.036812 204.0
98.084106 208.0
98.332626 164.0
98.492554 52.0
98.581459 104.0
98.688202 192.0
98.80291 160.0
98.913727 152.0
99.038475 116.0
99.151405 196.0
99.196991 76.0
99.25647 128.0
99.411194 136.0
99.528305 156.0
99.597816 96.0
99.613701 228.0
99.846252 144.0
99.98774 168.0
100.035271 128.0
100.051201 204.0
100.156738 116.0
100.232445 136.0
100.356018 124.0
100.371971 180.0
100.449753 248.0
100.629356 184.0
101.037064 64.0
101.193169 192.0
101.261253 236.0
101.289291 140.0
101.389473 108.0
101.555878 144.0
101.674248 156.0
101.79068 200.0
101.909187 180.0
101.957413 180.0
102.136353 220.0
102.168533 184.0
102.188652 68.0
102.240974 96.0
102.259087 116.0
102.522911 164.0
102.575592 172.0
102.627731 108.0
102.754791 72.0
102.831474 112.0
102.930389 152.0
103.031151 144.0
103.05291 164.0
103.140495 76.0
103.19912 180.0
103.400734 60.0
103.418465 224.0
103.433792 184.0
103.44796 124.0
103.727501 184.0
103.747772 188.0
103.774132 208.0
103.879585 160.0
103.897842 88.0
103.957268 112.0
103.997276 116.0
104.039902 176.0
104.064262 120.0
104.104874 284.0
104.123154 212.0
104.271461 152.0
104.28772 180.0
104.328377 208.0
104.482933 184.0
104.574501 132.0
104.623352 156.0
104.651855 140.0
104.84333 140.0
105.030899 364.0
105.068794 472.0
105.149239 264.0
105.188019 52.0
105.23497 180.0
105.412674 204.0
105.482162 52.0
105.625298 180.0
105.864761 112.0
106.073372 176.0
106.172157 160.0
106.212807 180.0
106.387596 76.0
106.498474 216.0
106.558052 152.0
106.691635 100.0
106.730698 136.0
107.051704 200.0
107.086418 1192.0
107.203934 196.0
107.230934 76.0
107.29689 108.0
107.455696 192.0
107.482521 200.0
107.598099 120.0
107.680695 48.0
107.752991 176.0
107.881126 152.0
107.90593 180.0
108.08783 368.0
108.150032 132.0
108.439995 172.0
108.908897 144.0
109.031479 180.0
109.065704 472.0
109.097328 204.0
109.251884 100.0
109.462097 108.0
109.833061 76.0
109.922768 212.0
109.954071 156.0
110.068886 144.0
110.44297 136.0
110.457611 108.0
110.491081 76.0
110.635483 172.0
111.041985 120.0
111.079033 216.0
111.115326 120.0
111.16156 144.0
111.728851 164.0
111.909851 132.0
111.926697 100.0
111.945648 124.0
112.034103 136.0
112.082565 124.0
112.343994 116.0
112.599396 84.0
112.652199 124.0
112.70713 188.0
112.886803 156.0
112.907951 148.0
112.962944 172.0
113.174576 100.0
113.316483 132.0
113.469078 180.0
113.621773 192.0
113.681625 76.0
113.7491 236.0
113.957214 60.0
114.001839 176.0
114.029465 216.0
114.067726 200.0
114.414207 160.0
114.601891 128.0
114.970787 204.0
115.034821 124.0
115.054817 224.0
115.126625 92.0
115.199249 96.0
115.389442 156.0
115.496368 100.0
115.813148 196.0
115.868843 44.0
116.059929 280.0
116.115349 108.0
116.186134 224.0
116.342789 120.0
116.57476 168.0
116.955421 136.0
117.069977 328.0
117.131989 216.0
117.151375 168.0
117.302216 44.0
117.446686 132.0
117.520035 28.0
117.634415 116.0
117.696533 160.0
117.796364 180.0
117.871986 120.0
118.070862 156.0
118.157387 152.0
118.293716 324.0
118.360832 44.0
118.523285 172.0
118.703201 164.0
118.83551 132.0
119.052353 120.0
119.086403 3052.0
119.111214 184.0
119.13076 148.0
119.350273 68.0
119.380714 132.0
119.563446 240.0
119.681 48.0
120.023087 124.0
120.055794 72.0
120.088844 1216.0
120.284882 152.0
120.304527 80.0
120.601601 128.0
120.748085 248.0
120.831207 180.0
120.866211 80.0
121.041321 188.0
121.065002 416.0
121.101151 484.0
121.429207 44.0
121.5345 64.0
121.567413 136.0
121.69912 136.0
121.780373 156.0
122.103279 192.0
122.382912 56.0
122.801613 208.0
122.885437 168.0
123.043785 676.0
123.080933 776.0
123.123833 140.0
123.236488 76.0
123.280678 120.0
123.34919 184.0
123.42878 80.0
123.789467 148.0
123.842613 212.0
123.931229 180.0
124.015434 220.0
124.07972 176.0
124.09642 324.0
124.301521 80.0
124.448013 148.0
124.505608 248.0
124.683479 144.0
124.705704 172.0
124.872452 160.0
124.923607 60.0
124.994804 120.0
125.014832 188.0
125.059769 880.0
125.098091 308.0
125.204056 136.0
125.235237 220.0
125.366676 132.0
125.655434 144.0
125.701172 128.0
125.770355 160.0
125.982491 196.0
126.04612 300.0
126.066193 148.0
126.219398 44.0
126.35807 136.0
126.398338 180.0
126.586372 116.0
126.850739 184.0
126.938179 68.0
127.043594 132.0
127.077248 312.0
127.106415 220.0
127.250061 160.0
127.407272 260.0
127.643768 124.0
127.683739 180.0
127.796211 124.0
127.904236 172.0
128.060776 296.0
128.086624 144.0
128.264633 144.0
128.354813 116.0
128.837799 104.0
129.043457 96.0
129.07019 824.0
129.301331 232.0
129.516418 172.0
129.654633 72.0
129.738495 264.0
129.831451 176.0
129.958481 180.0
130.010681 136.0
130.072556 152.0
130.146866 180.0
130.23317 100.0
130.264969 140.0
130.537704 132.0
130.601379 200.0
130.676453 128.0
130.710571 136.0
130.851685 140.0
130.904068 160.0
131.049866 420.0
131.086655 2680.0
131.118195 96.0
131.140991 168.0
131.156952 32.0
131.248138 128.0
131.451141 172.0
131.523224 172.0
131.564209 168.0
131.699982 32.0
131.862213 72.0
132.08905 656.0
132.317398 212.0
132.340302 180.0
132.474335 196.0
132.575485 160.0
132.619781 168.0
133.012009 156.0
133.065231 156.0
133.101822 1400.0
133.186508 160.0
133.351944 144.0
133.516602 72.0
133.649246 168.0
133.733734 212.0
133.872238 184.0
134.000854 100.0
134.03772 100.0
134.074585 156.0
134.101959 156.0
134.235962 64.0
134.607468 220.0
134.713715 188.0
135.007248 128.0
135.045074 612.0
135.079865 876.0
135.120926 452.0
135.155289 60.0
135.333511 168.0
135.627716 164.0
135.736252 148.0
135.89209 184.0
135.931534 104.0
136.04509 160.0
136.061829 172.0
136.094925 356.0
136.117157 132.0
136.507614 156.0
136.600647 136.0
136.838013 160.0
136.868286 260.0
137.022003 220.0
137.060516 632.0
137.097244 936.0
137.147842 284.0
137.25975 140.0
137.360275 112.0
137.409012 156.0
137.481354 140.0
137.736725 180.0
137.822281 200.0
137.843307 160.0
137.908737 100.0
138.064148 136.0
138.131531 156.0
138.606125 236.0
138.835846 156.0
138.967209 144.0
138.988327 108.0
139.075562 356.0
139.108643 272.0
139.483856 56.0
139.582809 220.0
139.71431 188.0
139.916702 88.0
140.055634 124.0
140.086258 116.0
140.116882 92.0
140.218201 204.0
140.388947 196.0
140.56958 176.0
140.701752 196.0
141.02774 140.0
141.071655 416.0
141.202698 80.0
141.491379 64.0
141.515045 56.0
141.690308 72.0
142.034042 224.0
142.078064 660.0
142.124191 144.0
142.20961 132.0
142.404297 168.0
142.599121 156.0
142.653793 104.0
142.917648 144.0
143.003448 88.0
143.060577 220.0
143.086105 1936.0
143.12149 204.0
143.298721 144.0
143.343994 40.0
143.420258 184.0
144.088928 296.0
144.41394 112.0
144.449402 108.0
144.52356 100.0
144.825195 72.0
144.93779 84.0
145.045639 200.0
145.072433 180.0
145.10141 2544.0
145.163101 92.0
145.256638 140.0
145.337189 132.0
145.381409 140.0
145.484619 60.0
145.547028 248.0
145.572784 188.0
145.772827 80.0
145.986771 132.0
146.105499 880.0
146.28511 176.0
146.721146 196.0
146.92131 140.0
146.938187 136.0
147.043549 260.0
147.080627 1012.0
147.119705 692.0
147.138504 100.0
147.157822 144.0
147.334122 76.0
147.517532 116.0
147.636261 176.0
147.660431 192.0
147.870926 188.0
148.008911 92.0
148.04039 156.0
148.057343 60.0
148.082733 184.0
148.11763 152.0
148.595459 164.0
148.758041 108.0
148.789612 52.0
148.81308 180.0
149.059967 380.0
149.094849 508.0
149.135345 220.0
149.156418 176.0
149.217194 136.0
149.674606 132.0
149.696533 148.0
149.772018 172.0
149.896271 124.0
149.92308 216.0
150.044952 208.0
150.081528 148.0
150.098724 140.0
150.135162 76.0
150.405975 200.0
150.63063 176.0
150.686813 80.0
150.711243 44.0
150.840775 216.0
151.040054 3824.0
151.076004 732.0
151.111526 240.0
151.550476 168.0
151.731842 144.0
151.785782 72.0
151.85936 132.0
152.011459 52.0
152.046661 192.0
152.081802 320.0
152.129272 128.0
152.20047 212.0
152.288864 368.0
152.623077 140.0
152.716537 168.0
152.770645 28.0
152.844452 184.0
152.866608 112.0
152.925995 184.0
153.055374 1192.0
153.093292 692.0
153.235947 136.0
153.295074 132.0
153.393661 52.0
153.502136 208.0
153.652725 144.0
153.704834 96.0
153.793243 84.0
153.837677 116.0
154.052521 196.0
154.072388 384.0
154.101929 228.0
154.210663 36.0
154.465332 48.0
154.524704 180.0
155.01001 52.0
155.086823 1280.0
155.19342 48.0
155.364426 160.0
155.406723 152.0
155.919418 168.0
155.965485 192.0
156.003891 116.0
156.091949 972.0
156.146255 176.0
156.164398 132.0
156.201706 192.0
156.365921 156.0
156.796768 160.0
156.836655 224.0
156.933868 180.0
157.07103 224.0
157.101746 2656.0
157.188293 204.0
157.265656 116.0
157.31308 40.0
157.432922 140.0
157.512848 192.0
157.587784 184.0
157.882751 96.0
158.069656 220.0
158.108337 984.0
158.157959 36.0
158.365768 136.0
158.445938 128.0
158.473495 172.0
158.53363 156.0
158.616333 56.0
158.741684 92.0
158.907242 168.0
159.011307 228.0
159.05278 176.0
159.081955 724.0
159.118622 2840.0
159.230377 104.0
159.316452 104.0
159.362564 224.0
159.439575 64.0
159.4823 128.0
159.645706 180.0
159.685944 48.0
159.809204 104.0
159.967758 240.0
160.055878 164.0
160.089706 348.0
160.118729 468.0
160.244781 172.0
160.403534 64.0
160.569946 76.0
160.774292 184.0
160.797012 112.0
160.945953 132.0
161.059143 976.0
161.095978 868.0
161.133408 1580.0
161.168015 196.0
161.178101 180.0
161.266769 224.0
161.292053 56.0
161.580338 128.0
161.770142 32.0
161.868881 164.0
162.061249 164.0
162.102692 208.0
162.13649 272.0
162.175415 48.0
162.223572 44.0
162.256531 208.0
162.292023 168.0
162.370636 60.0
162.540604 68.0
162.96463 164.0
163.015442 196.0
163.075562 2544.0
163.114975 496.0
163.142517 340.0
163.213715 252.0
163.297638 44.0
163.345963 192.0
163.373932 184.0
163.44371 160.0
163.522766 164.0
163.684448 148.0
163.771027 84.0
164.046219 64.0
164.077362 412.0
164.306335 168.0
164.408401 136.0
164.581985 160.0
165.091064 1280.0
165.174881 80.0
165.192795 140.0
165.218369 112.0
165.290009 132.0
165.4487 168.0
165.528061 216.0
165.822678 184.0
166.071487 324.0
166.095627 292.0
166.661804 104.0
166.684937 152.0
166.877701 84.0
166.959824 188.0
167.067719 248.0
167.088104 608.0
167.111877 276.0
167.34082 164.0
167.425781 140.0
167.477295 96.0
167.562302 52.0
167.716919 136.0
168.059906 176.0
168.092926 328.0
168.111084 364.0
168.292206 136.0
168.643524 136.0
168.806396 100.0
168.982285 104.0
169.002975 160.0
169.04953 492.0
169.102478 1280.0
169.166016 60.0
169.285126 88.0
169.323959 176.0
169.349869 172.0
169.502716 36.0
169.57193 192.0
169.614151 136.0
169.640076 64.0
169.681549 132.0
170.03952 140.0
170.10965 1696.0
170.164108 140.0
170.229019 40.0
170.25499 64.0
170.564163 204.0
170.63176 156.0
170.655151 140.0
170.805984 132.0
170.842407 108.0
170.926971 192.0
171.050583 188.0
171.082565 392.0
171.11705 4384.0
171.154724 48.0
171.195389 104.0
171.441254 36.0
171.472534 92.0
171.939362 188.0
172.088348 612.0
172.122681 688.0
172.498306 172.0
172.529678 180.0
172.8069 160.0
172.838287 192.0
173.056152 388.0
173.098618 1388.0
173.132553 2936.0
173.227646 164.0
173.296494 56.0
173.438004 68.0
173.474701 36.0
173.495667 124.0
173.611038 96.0
173.802536 216.0
173.844604 68.0
173.981003 40.0
174.067642 156.0
174.103897 336.0
174.137085 280.0
174.234375 124.0
174.301422 124.0
174.424942 44.0
174.756302 184.0
174.985275 168.0
175.040558 120.0
175.074722 1632.0
175.109619 1024.0
175.145782 408.0
175.364594 120.0
175.396225 152.0
175.419952 92.0
175.640152 276.0
175.686295 76.0
175.73642 96.0
175.958115 176.0
176.029404 80.0
176.078369 608.0
176.109634 196.0
176.127121 176.0
176.199493 220.0
176.227509 68.0
176.386063 140.0
176.407211 420.0
176.438934 192.0
176.613464 88.0
176.721924 68.0
176.904526 176.0
176.981308 152.0
177.002487 92.0
177.05629 328.0
177.092163 2548.0
177.126602 296.0
177.209091 88.0
177.314941 156.0
177.349533 96.0
177.577545 232.0
177.733521 76.0
177.869415 64.0
177.914536 160.0
178.031372 204.0
178.066971 168.0
178.093765 364.0
178.121674 72.0
178.19339 168.0
178.235901 36.0
178.273102 84.0
178.416092 156.0
178.685242 60.0
178.727814 120.0
178.839584 116.0
179.070801 2076.0
179.109711 368.0
179.156448 180.0
179.252365 132.0
179.358978 128.0
179.433609 140.0
179.641632 208.0
179.692307 84.0
180.001923 112.0
180.073837 504.0
180.130127 92.0
180.261032 240.0
180.456161 96.0
180.592529 88.0
180.616608 164.0
180.758408 108.0
180.819946 100.0
180.937729 140.0
180.959137 104.0
181.034119 44.0
181.102493 1704.0
181.293961 208.0
181.89064 152.0
182.085373 204.0
182.108658 792.0
182.30835 48.0
182.370163 152.0
182.776245 160.0
182.937714 104.0
183.067001 336.0
183.117401 4136.0
183.158524 160.0
183.177383 64.0
183.20163 52.0
183.293228 172.0
183.516937 48.0
184.064682 168.0
184.089325 348.0
184.119751 560.0
184.153793 132.0
184.240234 176.0
184.586182 196.0
184.732239 108.0
184.902695 128.0
185.067749 188.0
185.098022 836.0
185.13266 2332.0
185.200516 36.0
185.242065 132.0
185.373901 192.0
185.419968 296.0
185.726334 52.0
185.791443 144.0
185.978683 56.0
186.02211 240.0
186.103653 312.0
186.137909 916.0
186.201309 48.0
186.233902 160.0
186.402328 124.0
186.56813 256.0
186.595322 56.0
186.644257 40.0
186.955765 104.0
187.074219 492.0
187.111145 1568.0
187.148911 2060.0
187.17691 168.0
187.23204 112.0
187.264709 124.0
187.31102 44.0
187.539902 108.0
187.627121 68.0
188.084305 456.0
188.117462 352.0
188.151199 412.0
188.243759 44.0
188.301102 204.0
188.596176 108.0
188.669754 192.0
188.677628 176.0
188.823105 56.0
189.061127 140.0
189.093384 832.0
189.129684 1976.0
189.167862 44.0
189.296539 76.0
189.482788 32.0
189.702026 160.0
189.882996 52.0
189.904938 156.0
190.069534 52.0
190.098312 740.0
190.131195 536.0
190.596725 204.0
190.729965 100.0
190.877106 160.0
191.007492 144.0
191.071793 1484.0
191.104782 328.0
191.160431 204.0
191.311798 108.0
191.383377 72.0
191.735977 116.0
191.897583 204.0
192.072678 364.0
192.092102 180.0
192.20752 124.0
192.246155 72.0
192.326202 160.0
192.35379 140.0
192.574692 196.0
192.613358 80.0
192.685181 144.0
192.757019 112.0
192.801239 148.0
192.859268 80.0
193.08876 940.0
193.188324 28.0
193.476135 40.0
193.503815 88.0
193.561951 36.0
193.645035 28.0
193.963669 156.0
194.106506 572.0
194.371353 192.0
194.421295 164.0
194.851685 40.0
194.92392 132.0
195.015625 100.0
195.043427 76.0
195.111328 1072.0
195.321487 44.0
195.738937 240.0
195.894897 128.0
195.9534 240.0
196.090881 320.0
196.124329 2636.0
196.282303 64.0
196.577972 252.0
196.619843 136.0
196.69519 172.0
196.871094 76.0
197.094894 540.0
197.132187 2116.0
197.156494 168.0
197.284607 52.0
197.322052 104.0
197.410416 120.0
197.516693 68.0
197.776917 120.0
198.0121 132.0
198.070007 196.0
198.112991 200.0
198.139923 676.0
198.247421 40.0
198.35112 72.0
198.448807 312.0
198.617508 148.0
198.996353 96.0
199.063736 188.0
199.112366 1452.0
199.150299 840.0
199.240692 144.0
199.428955 80.0
199.563889 220.0
199.791687 44.0
199.901428 176.0
200.085541 144.0
200.11882 256.0
200.14888 492.0
200.177292 200.0
200.205948 156.0
200.239243 60.0
200.408264 200.0
200.456161 96.0
201.093567 476.0
201.127884 1280.0
201.160065 216.0
201.209244 48.0
201.389969 100.0
201.573593 68.0
202.098587 544.0
202.131622 160.0
202.158936 64.0
202.323105 156.0
202.376892 40.0
202.413696 152.0
202.433533 60.0
202.666534 108.0
203.070679 916.0
203.107208 3728.0
203.144211 240.0
203.295288 48.0
203.54509 76.0
203.718338 104.0
203.857559 200.0
204.080734 716.0
204.112335 1144.0
204.457596 96.0
204.893234 104.0
205.085022 924.0
205.123001 1716.0
205.286575 56.0
205.414917 152.0
205.463409 32.0
205.985825 152.0
206.107483 816.0
206.194397 152.0
206.391632 132.0
206.591843 148.0
206.846512 120.0
207.118774 820.0
207.309174 80.0
207.336288 140.0
207.840973 124.0
207.941406 132.0
208.020752 168.0
208.121094 832.0
208.217026 88.0
208.800247 64.0
208.993164 112.0
209.096313 484.0
209.132248 2124.0
209.174469 120.0
209.23204 96.0
209.739029 148.0
209.779388 68.0
209.963913 128.0
210.070633 156.0
210.103928 324.0
210.139893 1196.0
210.385178 212.0
210.549759 56.0
210.63063 148.0
210.679749 52.0
210.913803 112.0
211.023651 124.0
211.070175 236.0
211.111771 1284.0
211.149628 6568.0
211.261765 60.0
211.33313 32.0
211.593613 52.0
211.61676 68.0
211.793411 92.0
211.871628 180.0
211.894806 152.0
211.935364 124.0
211.96936 60.0
212.03775 60.0
212.082474 168.0
212.117416 260.0
212.154617 1484.0
212.265808 88.0
212.347 60.0
212.500748 52.0
212.555878 100.0
212.933258 40.0
213.053848 208.0
213.088348 448.0
213.130051 936.0
213.164139 2464.0
213.20343 28.0
213.36702 72.0
213.473785 68.0
213.546494 72.0
213.677399 108.0
213.860718 124.0
214.0383 152.0
214.070328 172.0
214.103134 196.0
214.133835 412.0
214.17186 584.0
214.533585 164.0
214.653122 88.0
214.875931 196.0
215.066223 120.0
215.106537 880.0
215.138184 500.0
215.174194 112.0
215.268829 160.0
215.32724 32.0
215.482056 84.0
215.721695 40.0
215.943909 200.0
216.117752 272.0
216.14801 120.0
216.175018 188.0
216.224777 156.0
216.441406 172.0
216.655197 180.0
216.831009 100.0
216.892563 184.0
217.079422 388.0
217.122543 3804.0
217.153687 192.0
217.259109 180.0
217.31485 64.0
217.490921 136.0
217.567245 52.0
217.781601 100.0
217.978424 152.0
218.089737 200.0
218.126373 1148.0
218.234146 48.0
218.26355 104.0
218.448837 64.0
218.713669 124.0
219.127533 388.0
219.193695 56.0
219.358749 104.0
219.405914 72.0
219.500259 116.0
219.839493 36.0
219.910309 68.0
220.077057 180.0
220.122742 232.0
220.164352 248.0
220.31189 200.0
220.406433 32.0
220.56012 88.0
220.580811 56.0
220.67836 44.0
220.758194 36.0
220.941574 112.0
220.968201 108.0
221.082291 500.0
221.133911 2736.0
221.874435 28.0
221.927811 156.0
222.106888 220.0
222.140884 856.0
222.417297 80.0
222.568695 184.0
222.937042 184.0
223.008362 68.0
223.081558 256.0
223.112244 832.0
223.15004 1176.0
223.20755 144.0
223.430603 136.0
223.680573 136.0
223.743088 164.0
224.073822 220.0
224.118011 572.0
224.15535 784.0
224.344864 80.0
224.553589 40.0
224.732559 140.0
224.959381 40.0
225.013107 132.0
225.095093 728.0
225.126648 972.0
225.163483 348.0
225.467133 76.0
225.667419 96.0
225.712265 164.0
225.810944 136.0
225.885727 160.0
225.966492 76.0
226.099091 324.0
226.128052 500.0
226.175903 184.0
226.222031 72.0
226.394531 240.0
226.664124 124.0
226.79599 128.0
227.106339 1280.0
227.147369 580.0
227.750122 136.0
228.023529 92.0
228.071625 148.0
228.113831 248.0
228.155792 100.0
228.564835 144.0
228.926041 64.0
229.086685 180.0
229.122314 1160.0
229.158691 444.0
229.317688 152.0
229.754913 48.0
229.851456 112.0
230.089233 164.0
230.120087 96.0
230.130005 196.0
230.159744 152.0
230.222748 68.0
230.669907 100.0
231.066055 172.0
231.103455 880.0
231.140915 464.0
231.166855 168.0
231.423203 104.0
231.576904 100.0
231.953354 96.0
232.068542 152.0
232.099396 288.0
232.133179 324.0
232.405212 152.0
232.48497 92.0
232.805893 92.0
232.914444 404.0
233.079361 160.0
233.133545 516.0
233.209961 56.0
233.66304 88.0
234.10965 184.0
234.140564 276.0
234.3694 72.0
234.418152 64.0
234.466904 48.0
234.570541 84.0
234.771759 88.0
235.028 240.0
235.106506 564.0
235.148666 680.0
235.195847 136.0
235.238571 96.0
235.391235 148.0
235.568375 40.0
235.598923 152.0
235.77002 36.0
235.89534 96.0
236.123001 192.0
236.154587 132.0
236.341843 232.0
236.733658 192.0
236.816345 124.0
237.046112 88.0
237.08783 660.0
237.127975 1056.0
237.161438 620.0
237.248398 48.0
237.779037 44.0
237.926376 128.0
238.018478 128.0
238.133743 628.0
238.171631 468.0
238.21196 84.0
238.242676 64.0
238.270325 192.0
239.081879 124.0
239.107224 1080.0
239.142731 2536.0
239.175568 412.0
239.229813 48.0
239.335464 152.0
239.468445 52.0
240.114777 336.0
240.148209 284.0
240.189987 180.0
240.268341 132.0
240.33931 56.0
240.379425 60.0
240.509033 48.0
240.595474 176.0
240.62326 44.0
240.654129 56.0
241.003143 64.0
241.048676 136.0
241.124008 1048.0
241.157822 824.0
241.194687 316.0
241.281311 84.0
241.315308 64.0
241.658615 140.0
241.68956 64.0
241.717407 68.0
241.918579 68.0
242.094009 284.0
242.127609 112.0
242.162521 172.0
242.225143 36.0
242.407928 44.0
242.7117 100.0
243.024979 176.0
243.095261 280.0
243.138596 628.0
243.204971 124.0
243.388123 176.0
243.642807 204.0
243.760864 52.0
243.844772 100.0
244.000198 104.0
244.056152 88.0
244.101822 208.0
244.14064 164.0
244.544556 164.0
244.753128 48.0
244.887039 132.0
245.039673 72.0
245.1241 816.0
245.226639 104.0
246.018921 76.0
246.11586 484.0
246.142334 532.0
246.599899 160.0
246.84375 132.0
246.871887 132.0
247.116455 292.0
247.148071 420.0
247.216003 220.0
247.873596 56.0
248.067902 120.0
248.120987 324.0
248.129898 184.0
248.150665 464.0
248.415985 144.0
248.852203 48.0
249.097 160.0
249.101059 152.0
249.129166 420.0
249.167145 512.0
249.203964 148.0
249.41452 128.0
249.870483 68.0
250.046707 172.0
250.096344 156.0
250.131607 548.0
250.158813 168.0
250.16922 264.0
250.30484 128.0
250.336319 116.0
250.786835 128.0
250.849869 124.0
250.903473 124.0
251.109619 480.0
251.143814 504.0
251.183136 844.0
251.228287 72.0
251.821701 44.0
252.113174 204.0
252.144714 168.0
252.197037 404.0
252.542313 48.0
252.735291 40.0
252.874527 180.0
253.04863 112.0
253.077118 168.0
253.122192 656.0
253.155762 696.0
253.193451 748.0
253.346329 88.0
253.577637 56.0
253.745636 136.0
253.850266 120.0
254.046906 56.0
254.124252 456.0
254.155075 172.0
254.205765 324.0
254.427719 64.0
254.846939 44.0
254.996292 44.0
255.097687 436.0
255.136047 628.0
255.180664 44.0
255.212463 52.0
255.470062 140.0
255.759628 72.0
256.105011 508.0
256.126068 200.0
256.17041 280.0
256.871674 92.0
257.082245 140.0
257.122894 740.0
257.150909 348.0
257.197144 92.0
257.420624 172.0
258.069275 48.0
258.126251 352.0
258.160797 192.0
258.190765 172.0
259.093414 152.0
259.151703 520.0
259.375397 140.0
259.603027 36.0
259.901337 92.0
259.981567 104.0
260.119873 632.0
260.147461 520.0
260.299377 168.0
260.678406 52.0
260.954834 116.0
261.124298 316.0
261.16507 1636.0
261.208893 84.0
261.784973 84.0
261.894501 128.0
262.101379 176.0
262.135529 476.0
262.16983 368.0
262.274689 116.0
262.31015 88.0
262.400421 52.0
262.551971 52.0
262.739044 176.0
262.843689 92.0
263.061737 120.0
263.108917 164.0
263.140503 924.0
263.177917 548.0
263.478333 92.0
263.701294 64.0
264.152527 136.0
264.202484 204.0
264.840179 140.0
265.084381 176.0
265.121979 960.0
265.160309 1024.0
265.188721 184.0
265.220551 152.0
265.326233 192.0
265.494843 156.0
265.517548 136.0
265.637543 168.0
265.945801 160.0
266.114441 228.0
266.159302 184.0
266.510834 160.0
266.962677 164.0
267.10318 176.0
267.135437 732.0
267.172699 476.0
267.228058 204.0
267.38559 44.0
267.532043 48.0
267.5802 112.0
267.717651 68.0
267.860962 72.0
268.109406 304.0
268.146484 260.0
268.191193 292.0
268.229156 232.0
268.447601 128.0
268.754211 128.0
269.025085 84.0
269.077332 180.0
269.114532 816.0
269.148224 276.0
269.191071 180.0
269.704529 64.0
269.841827 36.0
269.874512 48.0
270.159027 124.0
270.528839 168.0
270.84317 72.0
271.130432 864.0
271.177368 172.0
271.252747 144.0
271.980957 172.0
272.144287 400.0
272.149536 156.0
272.184479 216.0
272.496521 40.0
272.687103 36.0
272.848175 128.0
273.128326 436.0
273.506073 100.0
273.799103 120.0
274.134369 736.0
274.175201 624.0
274.286713 124.0
274.484528 64.0
274.646118 108.0
275.109772 468.0
275.142639 512.0
275.177673 460.0
275.748871 180.0
275.970367 172.0
276.121094 280.0
276.149933 324.0
276.187592 296.0
276.413574 68.0
276.711456 104.0
276.807495 148.0
277.123932 372.0
277.157257 424.0
277.187866 408.0
277.586182 36.0
277.639252 160.0
277.738739 120.0
278.050629 76.0
278.09494 256.0
278.129028 504.0
278.164917 856.0
278.488861 112.0
278.532043 92.0
279.139221 808.0
279.174683 2640.0
279.792358 104.0
280.062073 120.0
280.108185 152.0
280.154022 236.0
280.17807 508.0
280.207733 44.0
280.751953 72.0
280.84201 56.0
281.048859 168.0
281.128845 256.0
281.155701 532.0
281.191284 524.0
281.552887 136.0
281.6297 108.0
282.023987 128.0
282.073364 124.0
282.131927 164.0
282.162994 252.0
282.190155 296.0
282.264679 152.0
282.411835 100.0
282.76413 184.0
282.860168 56.0
283.131805 268.0
283.166351 156.0
283.205048 168.0
284.134186 224.0
284.168091 176.0
284.287933 196.0
284.831818 112.0
285.067017 144.0
285.132477 172.0
285.149994 148.0
285.157959 256.0
285.554474 240.0
285.601562 48.0
285.954834 136.0
286.10968 208.0
286.171509 452.0
286.298218 132.0
287.140564 420.0
287.18045 192.0
287.586517 92.0
288.108582 252.0
288.153076 508.0
288.190552 136.0
288.893311 148.0
289.159363 880.0
289.196198 808.0
290.085754 184.0
290.164062 384.0
290.20166 184.0
290.326477 36.0
290.577484 200.0
290.994934 64.0
291.022095 52.0
291.086609 164.0
291.141083 428.0
291.175415 908.0
291.210327 288.0
291.813721 136.0
292.099396 144.0
292.150452 304.0
292.178894 600.0
292.322327 152.0
292.371582 72.0
292.432831 56.0
293.028748 164.0
293.11911 436.0
293.148865 316.0
293.188843 808.0
293.24527 140.0
293.420685 52.0
293.63208 72.0
294.134674 132.0
294.159027 276.0
294.205872 164.0
294.727875 68.0
294.929474 172.0
295.073059 116.0
295.133972 808.0
295.161957 408.0
295.198334 372.0
295.22522 216.0
295.377411 76.0
295.490295 124.0
295.952362 76.0
296.134979 224.0
296.203247 156.0
296.315399 104.0
296.407898 84.0
296.445587 60.0
297.11972 196.0
297.150146 244.0
297.180969 376.0
297.220551 124.0
297.344086 104.0
297.553467 56.0
297.862549 168.0
298.041168 156.0
298.151154 152.0
298.175201 64.0
298.914551 244.0
299.140106 148.0
299.187408 364.0
300.140808 48.0
300.18219 76.0
300.427063 272.0
300.996521 168.0
301.107025 116.0
301.134674 148.0
301.163788 168.0
301.19281 328.0
302.167725 652.0
302.393158 100.0
302.458923 72.0
302.569672 40.0
302.668152 60.0
302.718567 88.0
302.839783 96.0
303.139008 560.0
303.174622 468.0
303.207031 144.0
303.401123 48.0
303.810333 48.0
303.91095 96.0
304.108765 232.0
304.131042 160.0
304.18396 308.0
304.480225 212.0
304.78244 68.0
304.977051 60.0
305.105682 136.0
305.147095 564.0
305.184998 312.0
305.829193 60.0
306.126678 120.0
306.164795 380.0
306.205231 176.0
306.288818 96.0
306.382874 76.0
306.90564 124.0
306.930054 148.0
307.131897 268.0
307.169952 1992.0
307.206787 884.0
307.303253 32.0
307.596405 100.0
307.655365 36.0
307.697632 80.0
308.115906 156.0
308.147888 176.0
308.174591 656.0
308.199219 308.0
308.208221 616.0
308.333374 80.0
308.651459 64.0
308.805328 44.0
308.854309 88.0
309.001221 96.0
309.104706 304.0
309.185303 1048.0
309.217102 720.0
309.291687 96.0
309.641785 44.0
310.111267 140.0
310.148712 140.0
310.186829 292.0
310.215271 176.0
310.353149 72.0
310.531982 64.0
310.767029 68.0
310.802124 40.0
311.13382 176.0
311.200226 860.0
311.339172 56.0
312.14917 384.0
312.210083 476.0
313.144073 184.0
313.943329 188.0
314.170563 280.0
314.296082 152.0
314.497223 120.0
315.134521 412.0
316.016754 76.0
316.146149 112.0
316.183075 188.0
316.268005 184.0
316.639771 112.0
316.717682 148.0
316.781433 132.0
317.110962 108.0
317.190338 752.0
317.242126 140.0
317.298828 96.0
317.529327 76.0
317.810638 144.0
318.188812 396.0
318.90329 124.0
319.119781 156.0
319.158234 224.0
319.206726 428.0
319.287262 56.0
319.436646 96.0
319.48645 72.0
319.845856 32.0
320.091522 136.0
320.134247 140.0
320.179596 440.0
320.266022 48.0
320.447693 76.0
321.105011 124.0
321.143219 140.0
321.186096 852.0
321.34613 52.0
321.428009 72.0
321.699432 68.0
321.960083 132.0
322.152802 148.0
322.188049 348.0
322.292297 52.0
322.796295 60.0
322.82489 88.0
322.93576 44.0
323.078827 36.0
323.118195 140.0
323.159149 368.0
323.19986 388.0
323.665802 188.0
323.717651 124.0
324.049042 100.0
324.160095 152.0
324.208191 208.0
324.547241 100.0
324.70755 152.0
324.952515 52.0
325.178314 1356.0
325.220398 296.0
325.343689 84.0
326.137543 132.0
326.168091 252.0
326.197449 128.0
326.42514 208.0
326.486298 96.0
326.529449 168.0
326.698486 32.0
327.179657 136.0
328.184021 172.0
328.387848 64.0
328.932678 116.0
329.146851 100.0
329.186829 328.0
329.214294 168.0
329.951385 156.0
330.056213 64.0
330.165955 520.0
330.501129 216.0
330.573486 136.0
330.815979 48.0
331.131561 196.0
331.168396 692.0
331.572998 100.0
331.855713 128.0
332.171906 188.0
333.153625 184.0
333.220367 128.0
333.714661 104.0
333.958282 176.0
334.183838 124.0
334.496796 144.0
334.60965 48.0
334.773499 64.0
334.83844 120.0
335.096069 228.0
335.118866 132.0
335.166138 804.0
335.200409 3108.0
335.301727 40.0
335.338196 36.0
335.662628 36.0
335.702728 64.0
336.052917 156.0
336.129517 216.0
336.202332 1384.0
336.439758 112.0
336.713623 72.0
336.772034 116.0
337.049683 96.0
337.180145 212.0
337.217712 1492.0
337.360352 80.0
337.440765 64.0
337.52121 124.0
338.154083 84.0
338.215088 356.0
338.278503 116.0
338.558411 72.0
339.003693 56.0
339.17038 92.0
339.200928 532.0
339.366577 76.0
340.133301 132.0
340.199371 276.0
340.422363 204.0
340.93396 140.0
341.145782 216.0
341.183899 164.0
341.20874 100.0
342.114624 84.0
342.497589 128.0
342.924988 132.0
343.137543 480.0
344.013092 164.0
344.136719 240.0
344.197693 156.0
344.84787 128.0
345.186584 1896.0
345.446869 96.0
345.672546 72.0
346.148499 132.0
346.189331 652.0
347.124603 224.0
347.199127 548.0
347.41391 96.0
347.614258 64.0
347.810944 68.0
347.851776 120.0
348.015137 36.0
348.067108 136.0
348.171722 520.0
348.201599 480.0
348.242889 144.0
349.044373 176.0
349.074097 92.0
349.114716 104.0
349.122559 136.0
349.178162 192.0
349.263763 92.0
349.754913 176.0
349.861145 104.0
350.194275 332.0
351.193329 440.0
351.222992 148.0
351.890961 160.0
352.159821 88.0
352.611908 92.0
353.135315 132.0
353.212799 1404.0
353.256531 204.0
353.805115 44.0
354.165161 128.0
354.214203 584.0
355.1651 168.0
355.217773 152.0
356.173279 268.0
356.584564 76.0
357.171112 36.0
357.490906 120.0
358.150848 264.0
358.1987 172.0
359.14801 128.0
359.182526 120.0
360.18277 48.0
361.033142 84.0
361.123932 120.0
361.180664 120.0
361.683899 40.0
362.145813 120.0
362.217773 92.0
362.320068 132.0
362.706573 188.0
362.793762 112.0
363.070557 44.0
363.19635 4112.0
363.651031 36.0
363.681366 108.0
363.742096 120.0
363.829407 84.0
363.99649 56.0
364.198334 1220.0
364.296509 68.0
364.577667 60.0
364.611877 44.0
364.714508 60.0
364.908356 96.0
364.942596 56.0
365.210846 1804.0
365.429413 48.0
365.66153 64.0
365.832825 80.0
366.007935 132.0
366.216553 492.0
366.343109 64.0
366.415466 112.0
367.195251 272.0
367.227112 304.0
368.202606 128.0
369.496399 44.0
369.8255 104.0
371.15097 140.0
371.186798 184.0
371.216156 168.0
372.17926 72.0
373.180542 1388.0
373.689758 56.0
374.180359 464.0
374.575195 104.0
374.864136 60.0
375.542633 128.0
375.801117 192.0
376.166199 316.0
377.168152 124.0
377.208649 84.0
377.868103 136.0
378.62677 60.0
378.731354 104.0
379.170471 140.0
379.785583 120.0
380.227905 76.0
381.207764 1972.0
381.676849 44.0
382.209076 756.0
383.219055 312.0
383.366211 72.0
383.958771 56.0
384.220123 40.0
385.254639 112.0
386.208405 88.0
387.210358 112.0
389.178864 128.0
390.990997 136.0
391.090363 80.0
391.192566 2964.0
391.288055 152.0
392.189606 632.0
392.929626 112.0
393.190735 500.0
393.225555 160.0
394.303741 100.0
395.170685 168.0
395.218781 252.0
396.147583 100.0
396.224335 192.0
396.456604 52.0
396.852997 80.0
396.884705 68.0
397.229736 112.0
398.015533 60.0
398.786224 36.0
400.971191 100.0
401.238251 52.0
405.210785 124.0
405.242859 72.0
406.200958 104.0
407.879395 140.0
408.635437 84.0
409.204926 1488.0
409.915833 108.0
410.203094 564.0
411.198242 120.0
411.266846 44.0
412.11084 56.0
412.806061 176.0
414.101074 208.0
415.755157 76.0
422.514893 64.0
423.216553 300.0
423.362152 28.0
423.448151 84.0
423.513672 92.0
424.216064 172.0
426.200714 88.0
435.985931 72.0
438.078766 136.0
441.227051 236.0
442.22406 120.0
443.272003 104.0
443.477325 128.0
444.412476 40.0
445.277222 128.0
447.32486 44.0
450.546631 40.0
458.519501 76.0
459.521545 52.0
460.47345 100.0
461.302368 36.0
466.755768 100.0
469.481537 56.0
470.219238 120.0
472.444489 116.0
480.42038 112.0
487.407898 76.0
487.948517 104.0
492.359222 68.0
495.880798 64.0
497.974915 44.0
498.79245 144.0
499.201477 140.0
502.34137 92.0
503.162506 48.0
505.344208 152.0
508.435303 52.0
516.074951 160.0
529.787598 92.0
531.227051 76.0
531.33252 44.0
543.345947 136.0
567.514954 72.0
567.623962 52.0
569.427307 120.0
578.615906 104.0
599.409363 104.0
604.693237 100.0
605.177856 96.0
606.083984 92.0
608.060181 68.0
617.588806 108.0
620.495544 76.0
630.150696 32.0
636.84314 152.0
642.591797 40.0
652.370911 68.0
660.805969 80.0
665.526367 52.0
668.67749 48.0
675.477844 76.0
678.237671 100.0
697.009766 44.0
703.656677 48.0
709.290527 172.0
715.766541 168.0
719.819031 44.0
722.641174 44.0
723.336853 56.0
734.232971 100.0
745.340942 44.0
748.718994 56.0
748.9151 84.0
757.238647 32.0
769.677734 56.0
787.358765 76.0
808.021606 128.0
824.882935 208.0
834.496765 208.0
841.704651 52.0
849.233582 68.0
850.597107 44.0
882.106262 76.0
886.414795 32.0
905.555603 188.0
908.534668 176.0
917.266052 152.0
945.521362 136.0
957.314148 44.0
958.053223 168.0
967.959778 136.0
972.156372 132.0
983.526794 96.0
989.709412 68.0
990.736511 152.0
993.319214 180.0
998.551147 120.0
1005.323425 92.0
1014.684509 60.0
1030.525513 208.0
1030.678833 132.0
1036.81543 192.0
1048.621948 180.0
1053.182739 48.0
1062.367798 152.0
1068.272705 60.0
1081.898193 136.0
1086.137817 192.0
1087.870239 160.0
1092.187256 216.0
1094.161377 208.0
1094.846069 96.0
1095.149048 168.0
1095.590454 236.0
1095.794678 32.0
1100.378296 128.0
1105.613281 136.0
1119.399536 188.0
1119.633911 192.0
1121.119507 184.0
1121.47937 176.0
1123.279663 88.0
1125.007935 172.0
1125.221558 220.0
1136.277588 212.0
1138.767944 208.0
1149.950806 184.0
1151.915649 96.0
1156.134521 188.0
1158.192627 132.0
1159.981445 120.0
1162.375488 32.0
1162.898071 128.0
1168.320312 176.0
1171.894531 88.0
1175.208008 184.0
1178.83374 168.0
1185.855103 204.0
1186.472046 180.0
1187.274292 200.0
1187.864014 52.0
1199.240479 136.0
1202.754272 112.0
1203.258179 60.0
1203.617188 136.0
1204.363037 136.0
1205.565063 188.0
1209.168091 104.0
1213.247803 200.0
1214.336426 120.0
1219.112671 196.0
1219.230835 64.0
1221.615601 140.0
1223.306519 128.0
1226.280762 144.0
1230.654419 168.0
1231.618164 156.0
1236.771118 168.0
1239.922852 64.0
1240.602661 204.0
1246.554321 200.0
1247.067383 92.0
1247.369629 100.0
1248.825073 164.0
1253.013306 44.0
1254.232422 196.0
1257.716797 92.0
1260.117676 168.0
1262.018921 188.0
1264.105469 120.0
1264.36731 36.0
1270.602661 112.0
1272.043213 36.0
1276.803467 184.0
1282.164062 56.0
1283.768066 184.0
1284.117554 204.0
1285.087646 180.0
1285.758423 160.0
1286.743408 200.0
1296.542725 96.0
1297.245117 140.0
1304.876099 136.0
1313.207397 156.0
1325.880981 184.0
1329.666504 184.0
1333.617432 212.0
1335.849731 152.0
1336.613892 176.0
1337.326782 164.0
1341.974243 124.0
1342.703369 100.0
1342.987915 148.0
1344.687744 128.0
1346.067505 196.0
1351.373901 76.0
1357.519287 156.0
1357.629272 136.0
1361.6875 144.0
1369.579224 128.0
1371.045288 180.0
1371.494873 96.0
1372.187866 168.0
1374.62915 156.0
1380.509155 160.0
1384.490356 148.0
1384.742188 172.0
1386.853638 168.0
1387.276245 236.0
1391.274536 160.0
1391.593872 172.0
1394.371948 152.0
1394.646851 140.0
1396.989136 260.0
1398.588867 116.0
1404.124512 108.0
1406.049316 156.0
1406.176147 108.0
1406.482178 208.0
1407.094238 124.0
1407.206299 172.0
1407.363037 180.0
1408.363647 160.0
1411.887817 212.0
1412.59436 168.0
1413.84375 204.0
1415.250977 180.0
1416.202026 160.0
1416.988647 168.0
1417.393188 200.0
1418.637207 184.0
1419.169556 92.0
1422.703125 132.0
1427.677002 168.0
1429.361938 200.0
1433.29248 176.0
1433.945801 232.0
1435.968506 156.0
1438.382935 76.0
1450.629272 204.0
1452.15332 52.0
1454.194214 204.0
1459.557373 192.0
1463.734619 100.0
1466.332275 172.0
1468.261108 36.0
1469.718018 140.0
1473.772339 144.0
1474.643433 196.0
1476.776489 112.0
1480.005859 212.0
1480.227905 172.0
1480.335083 192.0
1482.342041 164.0
1482.886108 204.0
1485.232178 80.0
1486.106689 60.0
1488.908447 92.0
1492.120239 168.0
1493.60437 168.0
1498.299927 148.0
1499.062744 176.0
1500.00293 208.0
1501.082275 132.0
1502.424316 68.0
1503.7052 168.0
