>compound Ivermectin
>formula C48H74O14
>ionization [M+Na]+
>parentmass 897.497253
#inchi InChI=1S/C48H74O14/c1-11-25(2)43-28(5)17-18-47(62-43)23-34-20-33(61-47)16-15-27(4)42(26(3)13-12-14-32-24-55-45-40(49)29(6)19-35(46(51)58-34)48(32,45)52)59-39-22-37(54-10)44(31(8)57-39)60-38-21-36(53-9)41(50)30(7)56-38/h12-15,19,25-26,28,30-31,33-45,49-50,52H,11,16-18,20-24H2,1-10H3/b13-12+,27-15+,32-14+/t25-,26-,28-,30-,31-,33+,34-,35+,36-,37-,38-,39-,40+,41-,42-,43+,44-,45+,47+,48+/m0/s1
#inchikey AZSNMRSAGSSBNP
#Ion_Source LC-ESI
#Instrument qTof
#Compound_Source Commercial
#PI Dorrestein
#Data_Collector Garg_Neha
#Scan -1
#Precursor_MZ 897.497
#ExactMass 874.508
#Charge 1
#CAS_Number 70288-86-7, 71827-03-7
#Pubmed_ID N/A
#Smiles [C@]12([C@]3([C@@H](C(=C[C@@]1(C(O[C@@H]4C[C@]5(O[C@@](C4)(C/C=C(/[C@H]([C@H](/C=C/C=C/2CO3)C)O[C@]6(C[C@@H]([C@H]([C@@H](O6)C)O[C@]7(C[C@@H]([C@H]([C@@H](O7)C)O)OC)[H])OC)[H])C)[H])O[C@@]([C@H](CC5)C)([C@@H](C)CC)[H])=O)[H])C)O)[H])O
#INCHI_AUX N/A
#Library_Class 1
#SpectrumID CCMSLIB00000078110
#IonMode Positive
#UpdateWorkflowName UPDATE-SINGLE-ANNOTATED-GOLD
#LibraryQualityString Gold
#TaskID 77f51c88eb8b467eb4a01dd2d0cb90d2
##Scan# 3830
#SpectrumFile Plate2_21_40_GG6_01_16494.mzXML
#LibraryName FDALibrary_2_04302014.mgf
#MQScore -1
#Organism FDALibrary_2_04302014
#TIC_Query 0
#RT_Query -1
#MZErrorPPM -1
#SharedPeaks 0
#MassDiff 0
#LibMZ -1
#SpecMZ 897.497
#SpecCharge 0
#internalFilename spec-00000.mgf

>collision 10
52.137264 208.0
52.820332 144.0
55.215199 200.0
61.696823 192.0
66.734276 176.0
68.897743 144.0
77.912552 156.0
89.172401 176.0
100.211243 180.0
100.468437 172.0
101.360168 156.0
107.0485 168.0
107.083511 152.0
107.149429 164.0
113.060654 488.0
115.076538 144.0
120.085457 144.0
121.277084 176.0
121.464912 176.0
125.016594 152.0
125.285721 160.0
127.584114 244.0
130.616669 180.0
135.043732 224.0
135.506714 168.0
137.098434 196.0
138.095337 160.0
139.072571 376.0
139.112289 188.0
140.072708 216.0
140.876129 156.0
145.087006 368.0
146.086212 184.0
147.114151 204.0
150.069199 160.0
151.038727 156.0
151.074265 328.0
151.217331 160.0
152.077637 176.0
152.46077 160.0
153.052612 556.0
153.129959 176.0
154.09201 140.0
155.699661 176.0
160.804733 152.0
162.109711 148.0
163.147827 156.0
165.116333 152.0
166.428375 152.0
167.066635 156.0
168.080002 184.0
170.055496 244.0
171.125702 164.0
176.125076 208.0
177.160873 248.0
178.15686 192.0
179.106522 192.0
182.693619 220.0
183.061935 1328.0
184.071274 1048.0
185.071381 168.0
185.309738 176.0
186.495636 140.0
188.583481 156.0
191.16423 200.0
193.119431 348.0
195.177521 164.0
195.356033 140.0
199.11142 116.0
199.132431 204.0
200.065369 164.0
200.153275 148.0
201.074326 156.0
209.0811 144.0
211.071152 156.0
211.114975 196.0
213.434845 148.0
216.577972 176.0
221.156647 176.0
223.170975 260.0
225.107315 164.0
226.097351 168.0
231.077499 168.0
233.130325 168.0
239.091919 152.0
240.113205 776.0
241.118912 152.0
243.12085 176.0
244.155365 180.0
245.329239 208.0
246.162308 212.0
257.110992 208.0
263.133057 196.0
267.148468 248.0
269.12677 144.0
275.055939 196.0
275.105438 200.0
280.12619 192.0
281.134552 120.0
282.155212 200.0
283.152405 140.0
288.184875 236.0
289.165558 172.0
289.224091 180.0
295.132507 168.0
301.098145 448.0
302.116882 220.0
303.091156 140.0
304.120789 140.0
304.14856 356.0
305.174103 456.0
307.221222 448.0
308.153412 196.0
309.230469 168.0
311.147491 420.0
311.193726 184.0
312.144928 180.0
313.152832 216.0
313.225861 196.0
314.163971 196.0
314.202759 140.0
316.291718 148.0
319.150726 172.0
320.150665 160.0
321.084381 200.0
326.949188 252.0
327.143127 168.0
328.141479 188.0
329.154022 556.0
329.207794 2396.0
329.812897 168.0
330.210022 480.0
332.155701 196.0
351.126617 344.0
352.134857 200.0
353.159973 160.0
353.185883 312.0
355.180054 172.0
359.188599 200.0
359.665314 140.0
361.208618 236.0
363.181915 256.0
364.178741 308.0
365.185364 148.0
366.190796 172.0
366.377441 140.0
369.134735 140.0
370.181702 184.0
373.890167 176.0
375.122711 148.0
376.191284 176.0
377.205841 380.0
381.194031 316.0
382.202545 144.0
385.198578 408.0
387.16803 140.0
388.496796 144.0
388.842102 228.0
395.208313 728.0
395.265747 164.0
396.216919 260.0
403.635162 200.0
406.31073 172.0
406.483246 172.0
410.211609 164.0
413.120117 156.0
419.163086 196.0
421.210327 180.0
425.209229 108.0
428.210419 144.0
429.170593 160.0
431.143768 144.0
431.22699 144.0
437.144531 180.0
439.205688 116.0
440.204315 156.0
441.763336 176.0
441.930664 164.0
447.19281 116.0
449.097565 144.0
449.246704 1384.0
450.253601 716.0
450.56369 180.0
451.248535 176.0
455.257568 144.0
457.18985 144.0
457.256683 1140.0
458.261353 372.0
463.233765 260.0
464.16156 140.0
464.220215 156.0
465.766693 184.0
466.750854 168.0
467.176666 196.0
470.248993 156.0
471.33725 172.0
472.314331 144.0
474.300842 176.0
475.312592 280.0
476.228699 100.0
476.310486 172.0
479.235138 208.0
487.266937 108.0
489.836609 140.0
491.242828 152.0
493.840118 220.0
497.246918 432.0
498.261292 444.0
498.792999 172.0
499.264282 276.0
503.280518 244.0
504.276245 116.0
507.240631 276.0
508.262665 248.0
511.29248 152.0
512.26709 156.0
513.227051 172.0
513.31897 164.0
513.601379 164.0
514.309753 144.0
514.991577 160.0
515.264709 196.0
516.243469 152.0
519.242188 136.0
521.286194 436.0
522.225525 216.0
522.279785 344.0
524.269165 136.0
527.098999 192.0
527.277222 148.0
529.281372 216.0
530.334595 144.0
531.273926 152.0
531.303833 132.0
531.350037 208.0
532.337646 260.0
539.289062 176.0
540.30481 124.0
542.286255 208.0
544.615479 156.0
547.347961 532.0
548.341187 360.0
551.335999 240.0
552.338562 304.0
553.356812 168.0
567.322754 120.0
568.33136 244.0
568.49054 140.0
569.353394 336.0
570.349976 316.0
571.349426 104.0
571.522217 168.0
573.263184 124.0
573.310669 268.0
574.275757 152.0
575.289307 148.0
576.290283 252.0
578.030762 172.0
579.912903 196.0
583.283203 176.0
584.133606 200.0
587.071594 176.0
589.330811 172.0
590.297424 164.0
591.322205 412.0
592.340637 276.0
593.298767 128.0
593.357605 156.0
594.308228 108.0
595.123657 160.0
599.318054 176.0
600.349426 100.0
601.159607 192.0
603.35376 152.0
608.29834 216.0
608.332703 132.0
608.433167 196.0
609.339294 1612.0
610.342468 616.0
611.348083 312.0
612.357178 164.0
614.555786 168.0
619.378357 364.0
620.365723 168.0
622.406128 152.0
623.311462 108.0
624.314392 152.0
625.294434 140.0
629.377258 140.0
632.196594 208.0
633.98938 152.0
634.490662 144.0
635.729553 172.0
638.276428 164.0
641.080322 176.0
641.329956 1120.0
642.334106 720.0
643.327393 204.0
643.506592 148.0
644.336243 248.0
644.779541 144.0
645.937378 148.0
646.124573 152.0
647.351074 180.0
648.119446 232.0
649.016602 156.0
651.269897 144.0
651.376587 164.0
651.879578 160.0
654.718201 148.0
657.614075 200.0
663.368591 140.0
665.375305 1340.0
665.739075 144.0
666.358643 508.0
667.369324 248.0
673.314697 156.0
673.413513 368.0
674.430725 164.0
677.625977 200.0
683.380554 136.0
684.287292 176.0
687.440796 144.0
689.362549 156.0
691.418823 1424.0
691.533997 156.0
691.835938 180.0
692.423584 380.0
692.734924 116.0
693.426575 248.0
693.895508 160.0
694.173401 152.0
696.067749 156.0
698.075073 152.0
702.330566 144.0
714.02533 148.0
714.477478 160.0
714.786072 160.0
720.095825 172.0
727.344299 188.0
728.379028 136.0
728.811829 152.0
735.40564 432.0
737.386353 508.0
738.365784 308.0
738.40802 312.0
739.418274 164.0
741.797058 144.0
749.514587 152.0
749.645386 172.0
752.301636 140.0
753.093384 144.0
753.41748 8252.0
753.690308 152.0
754.21698 112.0
754.319885 180.0
754.422119 4212.0
754.564819 120.0
755.141541 180.0
755.418091 644.0
756.007446 104.0
756.418152 528.0
756.478149 148.0
757.432373 184.0
757.496704 160.0
760.074158 104.0
761.676636 160.0
764.590698 172.0
764.794312 144.0
766.452026 144.0
767.23468 160.0
769.427551 324.0
769.723022 156.0
770.470581 164.0
774.279846 148.0
783.188721 180.0
785.485229 184.0
787.304749 148.0
787.351379 104.0
791.63324 148.0
795.238098 272.0
796.956543 140.0
798.299988 144.0
799.633301 164.0
804.046265 164.0
807.424744 148.0
808.063965 152.0
809.580933 172.0
811.734375 188.0
813.413757 204.0
817.487244 156.0
818.47876 596.0
818.593262 160.0
819.501709 164.0
822.567139 176.0
824.479736 140.0
825.257996 140.0
826.699463 140.0
827.151611 192.0
828.062012 160.0
829.895813 140.0
832.489807 136.0
834.707642 152.0
835.496521 3212.0
836.502136 1292.0
837.437073 100.0
837.510742 552.0
837.597534 148.0
837.706238 196.0
838.340027 156.0
838.478333 184.0
838.567871 204.0
839.850525 204.0
840.030457 108.0
840.398621 140.0
841.867615 152.0
842.286438 192.0
850.990662 192.0
853.50885 112.0
856.562012 148.0
856.888245 204.0
861.269348 148.0
864.098755 164.0
864.578552 144.0
865.714294 164.0
865.778687 172.0
866.657349 152.0
869.102417 204.0
869.460388 152.0
872.955872 140.0
875.475647 132.0
875.857361 188.0
876.358154 152.0
878.085327 144.0
879.487366 520.0
880.061218 140.0
880.142273 144.0
880.485352 296.0
880.986877 144.0
881.159485 108.0
881.46344 112.0
881.706604 164.0
882.484741 100.0
882.587952 268.0
883.025391 112.0
883.111084 188.0
883.215088 120.0
883.541687 108.0
883.956665 96.0
884.076721 160.0
884.680786 104.0
884.880981 176.0
884.959961 104.0
885.341492 108.0
885.797119 144.0
885.881836 148.0
886.019958 100.0
886.44281 112.0
886.849487 160.0
886.980347 152.0
887.063843 120.0
887.493896 184.0
888.009277 176.0
889.202332 176.0
889.463501 200.0
889.89093 148.0
890.155518 136.0
890.225464 144.0
891.035034 96.0
891.378967 116.0
891.63623 120.0
891.83667 144.0
892.802612 152.0
893.278442 176.0
893.510498 144.0
893.692261 144.0
893.813416 140.0
893.887939 120.0
894.022217 108.0
894.349548 124.0
894.494568 728.0
894.755127 188.0
894.853149 268.0
894.985168 1056.0
895.162659 196.0
895.501099 728.0
895.597778 132.0
895.687073 128.0
895.842163 168.0
895.981384 332.0
896.047424 192.0
896.109985 196.0
896.209656 160.0
896.301636 148.0
896.371033 112.0
896.463135 288.0
896.523438 128.0
896.604614 116.0
896.671936 200.0
896.756104 232.0
896.779724 124.0
896.860046 244.0
896.976074 232.0
897.016479 116.0
897.037354 200.0
897.19342 372.0
897.36969 344.0
897.497253 110560.0
897.701477 200.0
897.757446 492.0
897.893677 328.0
897.931274 576.0
898.015686 340.0
898.110352 136.0
898.237671 520.0
898.499268 61376.0
898.666382 348.0
898.724792 256.0
898.82251 336.0
898.906189 260.0
898.953674 236.0
899.067688 252.0
899.170349 264.0
899.264587 180.0
899.321228 112.0
899.383057 324.0
899.501221 18284.0
899.769104 172.0
899.894592 104.0
899.987244 168.0
900.071106 252.0
900.169006 220.0
900.262146 104.0
900.321228 108.0
900.502014 4736.0
900.708313 152.0
900.774536 252.0
900.854492 204.0
901.00293 100.0
901.067566 132.0
901.177551 128.0
901.335449 216.0
901.497986 424.0
901.679749 144.0
901.838501 100.0
901.935852 132.0
901.973511 244.0
902.135742 228.0
902.211609 144.0
902.317444 132.0
902.366211 156.0
902.436951 200.0
902.502258 264.0
902.570496 140.0
902.60553 128.0
902.981445 212.0
903.044006 196.0
903.106201 244.0
903.203064 196.0
903.33551 144.0
903.480957 228.0
903.581177 128.0
903.653015 200.0
903.733887 160.0
903.817444 108.0
903.921143 104.0
903.999512 192.0
904.063416 104.0
904.376465 96.0
904.576233 180.0
904.725586 160.0
905.081848 132.0
905.259521 128.0
905.311218 176.0
905.727844 112.0
906.092468 128.0
907.845398 96.0
908.466919 112.0
911.225525 144.0
918.312317 128.0
918.49292 128.0
920.863892 144.0
931.404968 160.0
931.46991 172.0
1137.319458 104.0
1171.676758 156.0
1276.730591 160.0
1277.178711 180.0
1287.856079 156.0
1295.495728 160.0
1302.403687 176.0
1316.25293 148.0
1320.314209 160.0
1325.888794 156.0
1339.912964 164.0
1351.265991 140.0
1371.379761 228.0
1381.422119 160.0
1383.664551 164.0
1384.745605 216.0
1402.764526 148.0
1419.729736 144.0
1421.169922 140.0
1433.343628 172.0
1442.286865 152.0
1447.810059 192.0
1448.468994 144.0
1449.450073 144.0
1455.871582 156.0
1549.071167 192.0
1582.012329 192.0
1651.295166 168.0
1709.111694 184.0
1892.104004 140.0
1984.863037 164.0
1996.425049 148.0
