>compound Thiamphenicol (Thiophenicol)
>formula C12H15Cl2NO5S
>ionization [M+H]+
>parentmass 356.012
#inchi InChI=1S/C12H15Cl2NO5S/c1-21(19,20)8-4-2-7(3-5-8)10(17)9(6-16)15-12(18)11(13)14/h2-5,9-11,16-17H,6H2,1H3,(H,15,18)/t9-,10-/m1/s1
#inchikey OTVAEFIXJLOWRX
#Ion_Source LC-ESI
#Instrument qTof
#Compound_Source Commercial
#PI Dorrestein
#Data_Collector Garg_Neha
#Scan -1
#Precursor_MZ 356.012
#ExactMass 355.005
#Charge 1
#CAS_Number 15318-45-3
#Pubmed_ID N/A
#Smiles C1=C(C=CC(=C1)[C@H]([C@H](NC(C(Cl)Cl)=O)CO)O)S(C)(=O)=O
#INCHI_AUX N/A
#Library_Class 1
#SpectrumID CCMSLIB00000078520
#IonMode Positive
#UpdateWorkflowName UPDATE-SINGLE-ANNOTATED-GOLD
#LibraryQualityString Gold
#TaskID 77f51c88eb8b467eb4a01dd2d0cb90d2
##Scan# 1026
#SpectrumFile Plate8_41_60_GC11_01_15764.mzXML
#LibraryName FDALibrary_2_04302014.mgf
#MQScore -1
#Organism FDALibrary_2_04302014
#TIC_Query 0
#RT_Query -1
#MZErrorPPM -1
#SharedPeaks 0
#MassDiff 0
#LibMZ -1
#SpecMZ 356.012
#SpecCharge 0
#internalFilename spec-00000.mgf

>collision 10
48.817936 148.0
55.190666 188.0
55.523861 200.0
55.977127 216.0
59.319569 144.0
64.042603 172.0
69.047371 172.0
86.910156 172.0
87.836655 164.0
103.060112 164.0
104.064453 148.0
105.065804 204.0
105.46196 200.0
106.435081 164.0
107.052719 360.0
107.392052 160.0
107.827698 144.0
113.249191 160.0
115.053978 168.0
115.728065 188.0
117.069275 152.0
118.065445 444.0
119.046753 172.0
119.071167 664.0
119.096703 148.0
119.44014 172.0
120.056648 916.0
120.0793 144.0
121.059601 140.0
124.47776 208.0
126.227043 216.0
127.031105 180.0
127.961388 144.0
128.057571 240.0
128.35582 148.0
129.053314 352.0
129.374817 140.0
129.964096 204.0
130.067535 204.0
131.068573 168.0
132.057037 660.0
133.029251 168.0
133.079758 148.0
134.061981 180.0
134.350204 168.0
138.025208 152.0
138.715317 244.0
139.965012 232.0
140.014664 152.0
141.959641 176.0
142.431946 184.0
146.060791 1024.0
147.065369 152.0
150.022202 252.0
151.03067 176.0
152.0242 148.0
152.067322 268.0
152.782394 160.0
155.027039 336.0
157.021561 204.0
158.061157 292.0
160.938065 156.0
163.030396 148.0
164.030716 140.0
165.031555 144.0
168.030914 184.0
169.035202 104.0
169.062424 216.0
170.062256 272.0
171.063721 172.0
176.025772 260.0
181.03038 164.0
182.037384 216.0
182.066925 164.0
183.625198 168.0
184.044098 124.0
185.247009 156.0
191.458389 164.0
193.02861 140.0
194.031372 300.0
197.051315 504.0
198.057739 6908.0
199.061279 756.0
200.056473 196.0
206.036301 904.0
207.037827 200.0
208.034882 136.0
210.057846 156.0
211.042282 472.0
212.052643 148.0
217.006607 164.0
224.036728 140.0
226.204773 140.0
228.696182 144.0
229.004929 3960.0
230.008102 352.0
231.000549 1660.0
231.709946 176.0
232.00531 328.0
232.993286 148.0
237.100464 172.0
238.042267 192.0
240.483643 160.0
241.005081 2384.0
241.797211 156.0
242.010895 636.0
243.003128 716.0
243.114349 184.0
244.015228 260.0
244.071121 252.0
245.035309 164.0
258.625763 144.0
261.453369 156.0
263.765961 164.0
282.108185 248.0
283.721802 184.0
301.771851 148.0
307.332733 184.0
307.911591 180.0
307.990112 12604.0
308.069397 152.0
308.181183 140.0
308.213806 108.0
308.993866 1852.0
309.045685 160.0
309.987122 7980.0
310.244781 124.0
310.989899 992.0
311.167511 96.0
311.281769 120.0
311.972839 132.0
319.991791 160.0
321.98764 380.0
325.999023 628.0
327.004425 324.0
327.996399 284.0
329.003601 140.0
338.000916 3416.0
338.10553 172.0
339.004761 608.0
339.997711 1576.0
340.070007 184.0
341.004517 420.0
341.99231 140.0
355.119934 156.0
356.287384 244.0
1233.440674 176.0
1624.140015 168.0
1635.438599 124.0
1779.647339 180.0
1915.444946 160.0
1947.336426 216.0
