>compound MLS001032361-01!N-[2-(3,4-dimethoxyphenyl)ethyl]-2-[(5-hydroxy-2,2-dimethyl-4-oxo-3H-chromen-7-yl)oxy]acetamide
>formula C23H27NO7
>ionization [M+H]+
>parentmass 430.186401
#inchi InChI=1S/C23H27NO7/c1-23(2)12-17(26)22-16(25)10-15(11-20(22)31-23)30-13-21(27)24-8-7-14-5-6-18(28-3)19(9-14)29-4/h5-6,9-11,25H,7-8,12-13H2,1-4H3,(H,24,27)
#inchikey GINXNJAUPLDVAU
#Ion_Source LC-ESI
#Instrument qTof
#Compound_Source NIH Natural Product Library
#PI Dorrestein
#Data_Collector VVP/LMS
#Scan -1
#Precursor_MZ 430.187
#ExactMass 429.179
#Charge 1
#CAS_Number N/A
#Pubmed_ID N/A
#Smiles COc1ccc(CCNC(=O)COc2cc(O)c3C(=O)CC(C)(C)Oc3c2)cc1OC
#INCHI_AUX N/A
#Library_Class 1
#SpectrumID CCMSLIB00000079726
#IonMode Positive
#UpdateWorkflowName UPDATE-SINGLE-ANNOTATED-GOLD
#LibraryQualityString Gold
#TaskID b1d8e8f6646f4e71acdff9ca3d919d08
##Scan# 1976
#SpectrumFile p1-C10_GC10_01_17906.mzXML
#LibraryName NIH_Natural_Products_Library.mgf
#MQScore -1
#Organism NIH_Natural_Products_Library
#TIC_Query 0
#RT_Query -1
#MZErrorPPM -1
#SharedPeaks 0
#MassDiff 0
#LibMZ -1
#SpecMZ 430.187
#SpecCharge 0
#internalFilename spec-00000.mgf

>collision 10
94.997765 132.0
95.041977 192.0
95.273415 40.0
95.341423 176.0
95.533913 216.0
95.588387 180.0
95.748016 144.0
95.816185 96.0
95.859055 300.0
95.884384 160.0
96.018906 236.0
96.104736 52.0
96.174988 216.0
96.448433 232.0
96.49926 48.0
96.628342 124.0
96.669434 256.0
96.696831 168.0
96.734016 140.0
96.852448 224.0
96.876968 224.0
96.998459 156.0
97.029823 180.0
97.169067 68.0
97.255409 136.0
97.277 120.0
97.29467 216.0
97.322151 72.0
97.49305 132.0
97.516632 80.0
97.768364 160.0
97.856941 164.0
97.912071 192.0
98.022278 352.0
98.044067 212.0
98.18206 164.0
98.217567 132.0
98.270828 144.0
98.537361 188.0
98.618378 156.0
98.671745 136.0
98.685585 224.0
98.714355 204.0
98.742935 136.0
99.287552 152.0
99.311348 164.0
99.335152 140.0
99.464127 212.0
99.485962 128.0
99.507805 108.0
99.521698 68.0
99.746185 116.0
99.933121 144.0
100.002769 176.0
100.160065 160.0
100.211861 204.0
100.417175 100.0
100.584778 176.0
100.610725 240.0
100.788475 124.0
100.843925 196.0
100.876411 244.0
101.030388 80.0
101.112427 120.0
101.13044 184.0
101.238548 92.0
101.307327 164.0
101.372765 236.0
101.591301 136.0
101.621399 200.0
101.685608 80.0
101.840202 84.0
102.041153 144.0
102.171875 72.0
102.220161 136.0
102.334892 140.0
102.395302 184.0
102.425507 96.0
102.623001 240.0
102.665344 48.0
102.848938 168.0
102.9095 216.0
102.990273 140.0
103.054276 1488.0
103.10746 64.0
103.132057 156.0
103.19503 124.0
103.244301 232.0
103.354156 92.0
103.686256 56.0
103.818024 100.0
103.844391 72.0
103.893723 188.0
103.965965 164.0
104.06208 336.0
104.189461 180.0
104.211815 76.0
104.252449 132.0
104.272774 124.0
104.329689 76.0
104.427284 72.0
104.653168 152.0
104.862984 164.0
104.895592 168.0
104.956757 140.0
104.985298 148.0
105.046486 144.0
105.069649 4528.0
105.22403 64.0
105.258743 52.0
105.309792 128.0
105.346336 160.0
105.358818 204.0
105.37516 144.0
105.473251 156.0
105.634789 140.0
105.728905 140.0
105.784164 204.0
105.89473 172.0
105.91317 144.0
105.94799 180.0
105.964378 280.0
106.005356 192.0
106.019699 128.0
106.039909 172.0
106.055519 160.0
106.073174 556.0
106.093491 192.0
106.107841 148.0
106.177559 144.0
106.248322 104.0
106.329369 160.0
106.351944 128.0
106.390945 32.0
106.487457 92.0
106.524429 196.0
106.845116 132.0
106.950058 160.0
107.013878 148.0
107.04921 2456.0
107.085426 340.0
107.120392 116.0
107.160103 172.0
107.18689 52.0
107.209557 116.0
107.228104 32.0
107.317993 112.0
107.335297 28.0
107.417793 236.0
107.760483 128.0
107.779076 48.0
107.971321 128.0
108.00235 180.0
108.038727 332.0
108.05558 172.0
108.17202 180.0
108.275543 148.0
108.314896 132.0
108.374969 172.0
108.542862 188.0
108.563599 132.0
108.656937 188.0
108.756538 68.0
108.93927 160.0
108.959358 196.0
109.026527 204.0
109.061119 428.0
109.101357 168.0
109.555016 124.0
109.692551 152.0
109.711311 164.0
109.822182 140.0
110.05555 136.0
110.070168 212.0
110.105667 200.0
110.28952 188.0
110.559311 188.0
110.787537 136.0
110.829018 100.0
110.911163 120.0
110.953087 120.0
110.974052 160.0
111.044678 212.0
111.076813 180.0
111.118767 148.0
111.23629 208.0
111.33287 156.0
111.452599 192.0
111.55558 184.0
111.710754 192.0
111.761681 156.0
111.93428 196.0
112.003777 52.0
112.070251 180.0
112.292526 112.0
112.495087 188.0
112.54998 208.0
112.606995 228.0
112.647125 152.0
112.69149 452.0
112.883835 44.0
112.915558 192.0
113.067879 148.0
113.362236 168.0
113.400383 188.0
113.525459 140.0
113.650612 160.0
113.676071 136.0
113.707909 80.0
113.741867 132.0
113.75885 100.0
113.828911 204.0
113.932983 176.0
113.994598 76.0
114.249733 180.0
114.324203 156.0
114.385925 72.0
114.728882 328.0
115.054115 384.0
115.078766 208.0
115.138557 132.0
115.194084 156.0
115.279549 192.0
115.355438 200.0
115.506172 232.0
115.679497 116.0
115.700905 124.0
115.915085 92.0
116.056747 300.0
116.116592 152.0
116.249596 148.0
116.462135 132.0
116.657669 148.0
116.864128 176.0
117.061707 348.0
117.065842 348.0
117.103073 128.0
117.143997 188.0
117.18277 140.0
117.219398 168.0
117.316383 116.0
117.378914 132.0
117.445763 132.0
117.46302 124.0
117.706894 136.0
117.782478 36.0
117.842964 32.0
117.955345 184.0
118.009384 168.0
118.040627 772.0
118.076424 284.0
118.160782 148.0
118.290619 184.0
118.396713 144.0
118.550522 40.0
118.593864 112.0
118.684914 172.0
118.766594 180.0
118.886642 136.0
118.956093 160.0
119.006027 148.0
119.021225 172.0
119.049973 952.0
119.075653 124.0
119.123718 188.0
119.214554 144.0
119.308014 144.0
119.412384 72.0
119.532028 192.0
119.6082 28.0
119.684395 112.0
119.773682 124.0
119.834679 152.0
119.906586 160.0
119.937103 180.0
119.997658 72.0
120.056198 1412.0
120.079887 188.0
120.120262 80.0
120.203163 220.0
120.71582 104.0
120.959343 80.0
121.026031 168.0
121.064972 2252.0
121.116997 156.0
121.17614 92.0
121.290092 124.0
121.450157 196.0
121.515968 204.0
121.6213 44.0
121.829903 152.0
121.888321 136.0
121.922188 136.0
122.038483 216.0
122.072617 600.0
122.133247 240.0
122.315872 136.0
122.342285 220.0
122.384117 188.0
122.842514 76.0
122.875542 140.0
122.952835 136.0
123.01355 216.0
123.046478 392.0
123.077866 308.0
123.155952 76.0
123.202339 112.0
123.336227 196.0
123.38134 124.0
123.49411 188.0
123.567108 132.0
123.705597 208.0
123.824303 148.0
124.043045 176.0
124.08313 156.0
124.105301 132.0
124.249466 212.0
124.344879 120.0
124.43512 208.0
124.498055 136.0
124.524704 204.0
124.549141 80.0
124.873642 104.0
124.90033 92.0
125.060532 204.0
125.138443 60.0
125.488228 116.0
125.559586 140.0
125.653267 212.0
125.755913 156.0
126.020729 184.0
126.122208 240.0
126.140091 188.0
126.303322 160.0
126.345825 160.0
126.600983 52.0
126.789162 140.0
126.934868 140.0
127.051498 180.0
127.078423 172.0
127.621948 132.0
127.64444 132.0
127.673668 112.0
127.763641 144.0
127.786186 180.0
127.871643 156.0
128.222977 80.0
128.270309 84.0
128.568024 156.0
128.588333 136.0
128.619583 132.0
128.99942 244.0
129.062714 224.0
129.094376 116.0
129.228653 172.0
129.47229 152.0
129.543304 168.0
129.692047 208.0
129.800873 188.0
129.828079 128.0
129.862091 72.0
129.909729 88.0
129.966446 208.0
130.016373 144.0
130.041336 156.0
130.065323 828.0
130.089005 148.0
130.145752 172.0
130.170731 180.0
130.227509 192.0
130.68898 56.0
130.729935 156.0
130.85968 112.0
131.019089 168.0
131.048981 1312.0
131.072784 1044.0
131.201401 196.0
131.411224 48.0
131.504776 72.0
131.554993 156.0
131.81308 120.0
131.842789 136.0
132.050797 212.0
132.080063 540.0
132.13089 180.0
132.161819 176.0
132.36673 196.0
132.391815 68.0
132.51001 140.0
132.523865 236.0
132.698853 144.0
132.880035 156.0
132.905273 236.0
133.022324 156.0
133.064926 4796.0
133.146301 80.0
133.186783 112.0
133.316299 72.0
133.385254 20.0
133.412842 64.0
133.463425 92.0
133.493317 68.0
133.527802 280.0
133.562302 204.0
133.585815 140.0
133.638214 112.0
133.780899 172.0
133.861481 144.0
133.891418 108.0
133.921371 136.0
133.942093 200.0
134.072479 5884.0
134.124771 184.0
134.163773 100.0
134.195587 40.0
134.226059 56.0
134.244003 64.0
134.269379 76.0
134.414703 136.0
134.645554 164.0
134.717834 144.0
134.786469 232.0
134.818817 212.0
134.948257 104.0
134.96907 148.0
135.007599 696.0
135.044617 4860.0
135.079498 4560.0
135.102234 248.0
135.124023 120.0
135.21196 124.0
135.443481 168.0
135.573227 192.0
135.672882 208.0
135.867691 148.0
135.92569 152.0
136.011917 128.0
136.046341 440.0
136.083832 444.0
136.10907 160.0
136.190338 120.0
136.278625 176.0
136.362274 76.0
136.423096 144.0
136.492462 280.0
136.527328 184.0
136.599442 136.0
136.715332 172.0
136.754028 128.0
136.787918 148.0
137.019821 972.0
137.060486 720.0
137.096725 540.0
137.118652 192.0
137.18158 108.0
137.387802 192.0
137.505798 96.0
137.559326 176.0
137.78833 176.0
137.954254 196.0
137.970627 200.0
138.022064 112.0
138.065613 352.0
138.237259 280.0
138.391739 164.0
138.473694 244.0
138.536942 72.0
138.565994 208.0
138.686905 192.0
138.775986 112.0
138.99646 128.0
139.039764 624.0
139.074875 376.0
139.132599 112.0
139.208267 156.0
139.348648 136.0
139.459091 164.0
139.562531 208.0
139.683502 164.0
139.715408 28.0
139.773361 264.0
139.882477 200.0
140.011597 200.0
140.052017 100.0
140.073212 36.0
140.226364 232.0
140.389038 172.0
140.530563 164.0
140.65799 160.0
140.818542 120.0
140.904251 228.0
140.939026 120.0
141.056931 168.0
141.137115 104.0
141.18486 136.0
141.554016 180.0
141.869125 180.0
141.944992 144.0
142.189331 188.0
142.277161 180.0
142.407761 216.0
142.426758 140.0
142.609711 132.0
142.785645 184.0
142.883163 248.0
142.978348 200.0
143.073547 172.0
143.159271 192.0
143.254532 168.0
143.645462 180.0
143.922302 212.0
144.013489 152.0
144.02977 188.0
144.08342 436.0
144.204178 244.0
144.266327 160.0
144.476776 188.0
144.555725 68.0
144.6371 144.0
144.730469 164.0
144.750687 124.0
144.926865 212.0
145.002792 152.0
145.064636 524.0
145.413666 188.0
145.49527 172.0
145.648956 184.0
145.903671 160.0
145.951752 108.0
145.983643 124.0
146.00708 228.0
146.072525 2140.0
146.099365 160.0
146.317459 80.0
146.386078 192.0
146.421616 124.0
146.465286 164.0
146.842758 60.0
146.912704 204.0
146.976761 160.0
147.011627 140.0
147.043198 328.0
147.068939 3224.0
147.125412 56.0
147.300064 96.0
147.3965 176.0
147.569595 36.0
147.605865 136.0
147.644547 192.0
147.804199 144.0
147.859863 252.0
147.897079 128.0
148.022049 240.0
148.075699 2028.0
148.114075 72.0
148.143143 28.0
148.167374 76.0
148.242493 56.0
148.297546 212.0
148.3564 144.0
148.383072 68.0
148.473526 156.0
148.728394 56.0
148.754227 100.0
148.909622 192.0
148.93634 96.0
148.958206 100.0
149.031082 60.0
149.05957 1368.0
149.077408 428.0
149.125946 228.0
149.255051 136.0
149.313065 80.0
149.359268 240.0
149.519852 208.0
149.539322 112.0
149.67807 88.0
149.699997 128.0
149.726776 128.0
149.773056 188.0
149.794968 260.0
149.899734 68.0
149.975281 156.0
149.995987 120.0
150.068344 29028.0
150.137039 184.0
150.192291 88.0
150.241074 76.0
150.294754 108.0
150.356689 84.0
150.390854 116.0
150.464096 32.0
150.490005 72.0
150.609665 56.0
150.712265 60.0
150.746475 56.0
150.780685 192.0
150.849121 56.0
150.898026 108.0
150.984665 52.0
151.038422 320.0
151.073074 4348.0
151.169525 56.0
151.228775 56.0
151.343307 64.0
151.561295 176.0
151.647064 40.0
151.683838 140.0
151.703445 112.0
151.752472 92.0
151.789246 100.0
151.806412 88.0
151.866196 180.0
152.000397 100.0
152.03244 204.0
152.075623 680.0
152.101364 156.0
152.216202 220.0
152.314438 68.0
152.356201 164.0
152.518387 84.0
152.621643 60.0
152.761688 156.0
152.829254 116.0
152.837265 48.0
152.844666 148.0
152.934052 180.0
152.966049 156.0
153.018158 15040.0
153.057571 208.0
153.084229 172.0
153.14827 140.0
153.17012 224.0
153.202454 96.0
153.219696 68.0
153.278839 56.0
153.32811 40.0
153.363602 60.0
153.490814 108.0
153.749832 88.0
153.784378 200.0
153.813995 32.0
153.897934 52.0
154.022568 1264.0
154.078217 88.0
154.154816 188.0
154.221542 172.0
154.310532 76.0
154.374817 36.0
154.441589 48.0
154.659332 204.0
154.889191 96.0
154.916855 140.0
154.993652 120.0
155.021423 136.0
155.055603 124.0
155.244019 72.0
155.301056 96.0
155.363068 160.0
155.546692 56.0
155.641037 72.0
155.79953 176.0
156.038559 100.0
156.100723 204.0
156.187317 176.0
156.287277 152.0
156.334549 204.0
156.573532 188.0
157.009659 64.0
157.052063 224.0
157.139114 196.0
157.571274 172.0
157.683716 180.0
157.868713 228.0
158.031311 180.0
158.527084 212.0
159.026138 176.0
159.066299 124.0
159.329971 128.0
159.528503 200.0
159.611465 120.0
159.734695 132.0
160.019073 96.0
160.069626 228.0
160.175201 144.0
160.384338 180.0
160.699554 180.0
160.898926 160.0
161.057922 284.0
161.079575 336.0
161.126221 100.0
161.159073 176.0
161.241837 180.0
161.376419 68.0
161.78627 128.0
161.836899 228.0
161.948334 136.0
162.030441 232.0
162.069489 620.0
162.091232 4464.0
162.325928 224.0
162.358902 116.0
162.530838 204.0
162.599899 164.0
162.884277 80.0
163.036713 148.0
163.075729 1416.0
163.099152 1696.0
163.163803 88.0
163.325912 176.0
163.471558 84.0
163.736313 200.0
163.774521 128.0
163.843903 200.0
163.873856 160.0
163.90361 156.0
163.937561 148.0
164.042053 176.0
164.077377 552.0
164.106308 316.0
164.195038 80.0
164.25116 64.0
164.272247 128.0
164.371063 52.0
164.501221 220.0
164.568985 188.0
164.628876 108.0
164.677399 136.0
164.723373 120.0
164.779572 152.0
164.817902 116.0
164.837463 152.0
164.856445 196.0
164.897781 156.0
164.947968 152.0
165.017853 3632.0
165.091644 96876.0
165.164383 96.0
165.175522 36.0
165.182999 64.0
165.194107 116.0
165.237213 164.0
165.296371 196.0
165.304581 156.0
165.333481 80.0
165.37027 84.0
165.388184 148.0
165.416336 96.0
165.441605 60.0
165.463104 136.0
165.490829 208.0
165.510147 92.0
165.532867 132.0
165.585327 64.0
165.617157 48.0
165.658752 160.0
165.681335 68.0
165.710846 40.0
165.749283 56.0
165.76738 248.0
165.805649 140.0
165.829819 112.0
165.872284 92.0
165.918427 80.0
166.022034 432.0
166.067093 368.0
166.094315 8532.0
166.204407 96.0
166.243744 64.0
166.319641 108.0
166.362244 204.0
166.387329 152.0
166.434128 76.0
166.454666 44.0
166.495758 64.0
166.582062 80.0
166.646011 64.0
166.703827 128.0
166.726959 44.0
166.750092 44.0
166.78093 64.0
166.8452 124.0
166.88118 160.0
166.914612 112.0
166.982422 152.0
167.034927 1060.0
167.095886 1036.0
167.13472 140.0
167.154694 120.0
167.23468 116.0
167.264694 116.0
167.282516 116.0
167.321594 156.0
167.346878 84.0
167.365997 140.0
167.388077 88.0
167.405243 136.0
167.436996 140.0
167.47821 92.0
167.521988 72.0
167.78743 104.0
168.009216 132.0
168.037445 292.0
168.054932 72.0
168.066864 128.0
168.107452 116.0
168.152267 72.0
168.202744 88.0
168.329254 156.0
168.355072 108.0
168.411896 44.0
168.522964 220.0
168.65477 132.0
168.76593 72.0
168.915924 72.0
168.936615 88.0
168.983185 68.0
169.042694 156.0
169.063385 184.0
169.115158 84.0
169.161743 180.0
169.4207 124.0
169.635788 244.0
169.653931 56.0
169.876938 128.0
170.128662 188.0
170.193558 188.0
170.332397 96.0
170.411728 92.0
170.481888 176.0
170.622253 80.0
170.946381 180.0
171.0327 476.0
171.155609 196.0
171.179047 80.0
171.220703 56.0
171.317078 112.0
171.392639 132.0
171.838867 132.0
171.979385 88.0
172.073364 176.0
172.138641 40.0
172.881027 100.0
172.985718 56.0
173.056229 288.0
173.089172 128.0
173.604034 124.0
173.777161 48.0
174.061539 360.0
174.360092 88.0
174.39798 48.0
174.538849 48.0
174.633514 104.0
174.778198 132.0
175.071045 144.0
175.186279 36.0
175.447159 84.0
175.510437 88.0
175.737274 44.0
175.819077 96.0
175.879776 120.0
175.903534 108.0
176.044418 352.0
176.082428 212.0
176.135895 124.0
176.33934 28.0
176.400131 96.0
176.593155 152.0
176.929199 148.0
176.987442 140.0
177.052597 152.0
177.091873 4404.0
177.156952 96.0
177.200394 64.0
177.216797 128.0
177.24968 72.0
177.297379 140.0
177.403397 104.0
177.583694 96.0
177.734909 96.0
177.756134 80.0
177.801254 64.0
178.064072 96.0
178.093475 384.0
178.180954 172.0
178.433426 144.0
178.56105 108.0
178.579681 80.0
178.723328 76.0
179.032867 520.0
179.067337 732.0
179.09549 2120.0
179.135971 180.0
179.157288 44.0
179.285172 80.0
179.303833 156.0
179.333145 48.0
179.471771 80.0
179.557098 28.0
179.623779 148.0
179.685135 40.0
179.754501 60.0
179.887955 76.0
180.033646 160.0
180.101135 1184.0
180.16835 68.0
180.221771 88.0
180.719086 72.0
180.740494 44.0
180.78331 120.0
181.085999 368.0
181.144745 196.0
181.340347 136.0
181.538727 164.0
182.045898 92.0
182.091507 204.0
182.121597 476.0
182.212433 120.0
182.806641 84.0
183.022675 404.0
183.121628 128.0
183.657974 88.0
184.26535 88.0
184.903488 36.0
185.447388 116.0
186.025604 96.0
186.819092 176.0
187.889709 76.0
188.050705 108.0
188.080719 136.0
188.662552 92.0
189.057022 160.0
189.078522 400.0
189.461639 96.0
190.062469 812.0
190.085129 472.0
190.344772 168.0
191.029114 112.0
191.070175 3440.0
191.150162 40.0
192.070862 756.0
192.39827 108.0
192.429077 68.0
192.498108 176.0
192.71907 44.0
192.967819 184.0
193.012802 996.0
193.051804 324.0
193.085175 792.0
193.189056 104.0
193.420807 176.0
193.521164 108.0
193.559921 52.0
193.800903 168.0
193.823059 124.0
193.853546 136.0
194.020065 260.0
194.043884 360.0
194.078247 176.0
194.117233 7488.0
194.27507 116.0
194.402603 136.0
194.437073 44.0
194.796844 156.0
194.913528 44.0
195.12233 1480.0
195.146759 44.0
195.241547 68.0
195.277695 52.0
195.361145 40.0
195.795349 124.0
195.895615 44.0
196.039719 144.0
196.093445 56.0
196.122559 184.0
196.160339 168.0
196.302536 56.0
196.3862 196.0
197.084091 84.0
197.120407 164.0
197.304886 60.0
197.377579 48.0
198.068817 168.0
199.241379 72.0
200.986954 172.0
201.421707 148.0
201.619492 56.0
202.336029 172.0
203.067535 124.0
203.122894 156.0
203.332855 44.0
203.574158 92.0
203.93779 136.0
204.011703 144.0
204.069244 200.0
204.101028 208.0
204.845474 136.0
204.967972 104.0
205.039215 136.0
205.084488 784.0
205.920776 44.0
205.962189 20.0
206.087326 292.0
206.096237 236.0
206.295074 104.0
206.369095 72.0
206.778473 164.0
207.086258 332.0
207.371307 144.0
208.057678 184.0
208.09404 348.0
208.234894 220.0
208.398621 156.0
208.553802 144.0
208.660172 160.0
208.839859 172.0
209.005295 208.0
209.045578 160.0
209.081192 7120.0
209.131927 196.0
209.169342 180.0
209.32193 68.0
209.857849 68.0
210.002029 116.0
210.027054 160.0
210.082611 1496.0
210.712143 176.0
210.790146 196.0
210.82193 76.0
211.002594 64.0
211.082764 172.0
211.638718 108.0
212.608704 156.0
212.922241 236.0
213.093628 132.0
213.864227 140.0
214.044724 116.0
216.649918 196.0
216.819855 176.0
217.43866 44.0
219.256149 192.0
219.344559 116.0
219.604034 80.0
219.919724 216.0
220.08934 176.0
220.424728 92.0
220.525192 60.0
220.640472 132.0
220.838593 76.0
220.897751 100.0
221.08194 8432.0
221.124161 108.0
221.193665 68.0
221.292084 112.0
221.35762 104.0
221.37912 112.0
221.466064 64.0
221.488831 64.0
221.522339 40.0
221.637878 40.0
221.700104 36.0
221.82756 60.0
221.886841 104.0
221.946136 72.0
222.082092 980.0
222.111938 1188.0
222.230881 52.0
222.420807 108.0
222.447525 52.0
222.646439 52.0
222.690994 168.0
223.096848 684.0
223.493622 64.0
223.529327 40.0
223.721527 132.0
223.755539 80.0
223.780411 56.0
223.934189 80.0
224.011642 48.0
224.059082 108.0
224.098038 152.0
224.136765 116.0
224.43483 80.0
224.46167 120.0
224.870361 152.0
225.070358 208.0
225.727737 164.0
226.751541 72.0
229.013885 84.0
229.50206 64.0
232.609024 108.0
233.079758 64.0
233.964798 104.0
234.08049 84.0
235.094925 312.0
235.101166 116.0
235.281769 68.0
235.504684 28.0
235.963043 108.0
236.056244 348.0
236.09758 108.0
236.449402 72.0
236.605499 80.0
238.074188 172.0
238.95636 56.0
240.037842 160.0
240.071365 132.0
240.694687 184.0
243.115372 84.0
245.719711 108.0
246.084869 136.0
246.10672 108.0
247.144409 104.0
247.579514 100.0
247.745514 244.0
248.096497 160.0
248.805481 100.0
249.0793 564.0
249.273453 44.0
249.462036 96.0
250.074509 292.0
251.06778 140.0
251.358002 92.0
252.258087 148.0
252.590103 132.0
253.780853 68.0
254.231262 96.0
254.364563 40.0
255.111053 164.0
255.476761 88.0
256.100647 128.0
256.884766 68.0
257.919342 132.0
261.061249 60.0
263.099243 140.0
264.131592 196.0
267.073517 180.0
270.732056 132.0
271.098938 128.0
273.098297 136.0
274.105347 320.0
278.06076 132.0
279.835815 112.0
280.074646 168.0
280.132202 108.0
281.082397 136.0
281.439545 36.0
282.07428 124.0
282.960785 276.0
283.067902 180.0
283.098602 144.0
284.093506 200.0
285.067169 168.0
288.120392 212.0
288.457672 60.0
289.099152 168.0
293.116699 152.0
294.118042 260.0
297.038818 132.0
299.014435 44.0
302.82251 132.0
304.268463 68.0
307.097473 120.0
307.854767 196.0
309.029236 136.0
309.06073 108.0
310.100769 156.0
310.244476 100.0
311.087799 340.0
312.101715 192.0
313.126282 176.0
314.066742 80.0
315.048065 176.0
315.118713 144.0
316.459137 72.0
317.121582 68.0
320.059418 48.0
324.378662 128.0
324.830475 56.0
325.099548 108.0
325.530334 176.0
326.353149 136.0
327.097839 120.0
330.142914 168.0
332.108246 124.0
334.420258 96.0
335.221436 52.0
337.700256 104.0
338.084381 144.0
338.212494 36.0
338.358917 68.0
339.007233 132.0
339.088013 292.0
340.122406 156.0
341.09552 52.0
341.978271 76.0
342.100403 328.0
345.073181 96.0
345.232178 136.0
345.387512 40.0
346.120331 140.0
346.80191 44.0
347.139252 28.0
347.165222 112.0
348.139252 676.0
348.188232 156.0
348.237762 60.0
348.490356 68.0
349.143463 240.0
349.197937 160.0
351.151917 120.0
352.813538 116.0
354.078217 68.0
355.255157 92.0
355.994537 216.0
356.107941 140.0
357.117432 136.0
358.130676 136.0
363.142365 128.0
363.555878 132.0
364.125336 160.0
365.041168 116.0
365.094421 80.0
367.089844 112.0
367.147034 284.0
367.179993 144.0
370.150604 104.0
372.056122 88.0
372.30954 116.0
372.697479 120.0
373.589417 180.0
373.831818 68.0
373.858765 156.0
373.947266 112.0
373.989624 96.0
374.12326 9676.0
374.27832 44.0
374.429932 76.0
374.694305 140.0
374.759796 52.0
374.860474 60.0
374.960175 32.0
375.123749 1364.0
375.249268 52.0
375.592468 108.0
375.669617 44.0
375.731354 128.0
375.83551 32.0
376.129211 384.0
376.480133 68.0
376.61145 40.0
376.792999 64.0
376.87027 68.0
376.897308 44.0
377.136932 148.0
377.446198 52.0
377.542847 88.0
378.270233 60.0
379.870605 60.0
380.142181 140.0
380.875946 140.0
388.176666 164.0
389.202026 224.0
391.782043 148.0
395.152313 160.0
396.159058 80.0
397.784882 20.0
399.163452 100.0
399.223114 104.0
400.154205 184.0
403.737366 84.0
405.71933 96.0
409.673645 76.0
412.165558 140.0
412.177216 176.0
413.175354 156.0
416.530151 116.0
418.86087 104.0
425.818176 160.0
429.269379 176.0
430.042328 52.0
430.186401 984.0
430.430389 144.0
431.087158 100.0
431.187225 328.0
431.235931 172.0
431.674164 112.0
432.191193 148.0
432.228424 172.0
438.995117 88.0
443.149902 84.0
444.932312 60.0
448.436249 40.0
486.366425 116.0
491.621277 100.0
492.283447 92.0
497.703308 88.0
502.090881 104.0
522.136902 56.0
532.30481 120.0
536.487 60.0
545.300049 128.0
557.178162 72.0
571.056641 84.0
603.713989 80.0
611.927856 48.0
627.305298 68.0
629.625366 36.0
643.252014 56.0
662.735352 128.0
688.439209 72.0
706.107666 132.0
726.991333 64.0
727.286499 80.0
742.018616 52.0
762.917053 32.0
765.46991 132.0
768.882202 92.0
774.028748 192.0
780.465149 72.0
799.078979 76.0
808.072021 76.0
809.764526 64.0
815.978027 196.0
819.711792 96.0
827.863281 180.0
832.755188 36.0
836.42926 176.0
842.541748 72.0
847.847595 272.0
856.801514 92.0
857.203552 96.0
864.637451 52.0
866.405701 156.0
869.619019 152.0
880.847473 116.0
885.934692 224.0
892.338135 192.0
893.765564 144.0
894.295227 200.0
906.987488 116.0
915.283997 104.0
917.694031 108.0
927.444885 80.0
932.221069 48.0
941.608826 200.0
952.240784 136.0
953.186829 264.0
955.473999 192.0
956.046204 92.0
957.979492 140.0
959.766785 120.0
965.985779 192.0
967.161438 76.0
968.288269 164.0
970.320679 52.0
971.374878 172.0
972.36145 128.0
977.874084 124.0
979.418152 144.0
985.594238 108.0
988.551819 76.0
992.078003 152.0
997.482727 32.0
1001.00592 176.0
1001.207397 160.0
1001.812073 136.0
1003.589294 168.0
1007.925537 244.0
1010.384949 168.0
1015.052856 100.0
1018.194031 136.0
1018.918152 188.0
1020.793152 148.0
1028.316772 144.0
1031.567871 192.0
1031.831055 24.0
1036.623901 208.0
1041.429077 108.0
1043.273193 176.0
1044.591431 176.0
1044.835938 188.0
1051.20813 192.0
1051.363037 40.0
1056.15686 156.0
1058.221069 220.0
1058.441284 148.0
1060.968018 156.0
1061.324585 132.0
1065.328857 168.0
1077.609131 104.0
1084.585083 204.0
1087.201904 132.0
1089.421021 76.0
1103.160645 108.0
1104.681641 96.0
1104.926392 156.0
1107.170288 164.0
1108.024658 104.0
1109.137939 80.0
1111.512207 44.0
1115.88916 156.0
1125.283203 152.0
1125.329834 192.0
1126.799194 248.0
1127.627808 216.0
1130.931763 184.0
1131.186035 292.0
1131.53418 204.0
1133.610596 144.0
1133.737915 176.0
1136.876343 148.0
1140.126587 144.0
1141.121338 176.0
1150.141479 124.0
1151.471558 148.0
1152.20105 224.0
1156.30542 128.0
1156.386597 80.0
1159.393555 44.0
1159.508789 80.0
1164.28479 184.0
1164.345947 152.0
1164.970825 124.0
1168.614746 292.0
1169.805664 204.0
1173.763916 160.0
1174.364014 196.0
1175.619385 196.0
1181.365356 116.0
1181.755371 232.0
1181.864746 116.0
1184.692261 196.0
1184.911499 164.0
1185.075928 148.0
1187.660278 204.0
1187.962158 128.0
1188.264038 184.0
1188.833496 168.0
1191.181519 60.0
1193.820679 148.0
1194.295288 84.0
1195.506104 76.0
1196.717529 200.0
1198.487671 136.0
1200.197021 168.0
1200.465942 196.0
1200.659058 168.0
1201.052124 124.0
1203.84729 180.0
1206.049927 224.0
1208.457642 140.0
1211.559204 96.0
1212.633179 164.0
1213.250122 176.0
1216.531372 172.0
1217.579712 176.0
1217.919434 224.0
1220.783447 176.0
1223.288086 192.0
1228.074951 160.0
1228.186523 132.0
1230.461426 140.0
1232.42395 192.0
1233.444336 124.0
1234.395142 200.0
1234.562988 96.0
1236.682739 160.0
1236.934692 180.0
1238.208984 148.0
1238.657227 164.0
1240.401978 176.0
1243.825073 192.0
1244.828979 112.0
1245.194092 124.0
1248.483154 176.0
1249.059814 148.0
1249.334106 196.0
1249.911133 20.0
1250.417725 172.0
1256.160156 140.0
1259.449341 140.0
1259.52002 152.0
1259.859131 212.0
1260.571899 144.0
1261.477295 168.0
1261.753052 100.0
1262.410645 172.0
1263.223877 200.0
1263.584717 212.0
1264.702759 124.0
1264.80896 332.0
1265.084961 184.0
1265.800049 220.0
1266.45166 72.0
1267.266235 160.0
1268.747437 148.0
1269.364258 140.0
1269.97937 216.0
1272.344238 160.0
1273.324097 176.0
1273.821289 168.0
1274.908325 192.0
1277.347046 136.0
1277.482178 148.0
1277.95874 176.0
1280.136841 240.0
1280.414551 176.0
1280.578369 224.0
1281.511597 168.0
1282.12439 196.0
1283.264893 224.0
1284.990845 52.0
1285.682983 148.0
1286.00415 220.0
1286.682251 120.0
1288.27478 160.0
1288.353271 164.0
1289.146362 268.0
1291.047852 204.0
1291.226685 148.0
1292.822021 144.0
1293.208496 132.0
1293.365967 36.0
1294.661743 172.0
1298.574829 176.0
1299.399658 208.0
1300.325317 180.0
1300.389893 208.0
1302.256592 164.0
1303.18335 160.0
1304.239624 172.0
1305.74231 252.0
1306.209839 84.0
1309.326294 236.0
1310.385132 184.0
1311.876953 160.0
1317.700684 180.0
1318.828003 96.0
1320.129395 124.0
1320.516602 220.0
1322.574707 172.0
1322.668701 136.0
1323.074097 64.0
1323.667847 136.0
1324.718018 148.0
1327.319824 136.0
1327.805664 224.0
1329.213013 156.0
1329.895142 152.0
1330.417725 176.0
1330.671875 140.0
1331.681152 128.0
1336.981079 136.0
1338.502441 92.0
1339.79895 144.0
1340.22876 128.0
1341.518677 140.0
1342.9552 176.0
1343.25415 236.0
1346.063965 188.0
1349.293457 248.0
1349.403076 200.0
1350.851074 160.0
1351.977783 148.0
1353.390503 168.0
1353.973511 216.0
1354.789307 172.0
1355.404785 108.0
1357.112549 64.0
1357.772583 204.0
1357.853149 148.0
1358.095215 132.0
1359.856079 220.0
1360.156982 148.0
1361.162842 144.0
1361.978027 148.0
1362.095459 116.0
1362.352539 128.0
1363.844238 148.0
1365.557373 220.0
1365.866211 208.0
1368.081177 128.0
1368.383057 224.0
1370.599976 176.0
1371.277954 120.0
1372.096069 104.0
1377.874634 188.0
1378.480469 188.0
1378.842651 148.0
1379.426514 144.0
1379.8479 164.0
1380.380249 156.0
1382.022339 144.0
1382.096313 120.0
1383.857788 44.0
1387.895874 208.0
1388.147949 184.0
1388.607788 156.0
1388.882202 184.0
1389.074951 160.0
1389.876221 108.0
1391.219604 168.0
1391.471924 124.0
1392.786377 96.0
1393.848755 144.0
1394.13855 100.0
1395.491333 140.0
1396.108521 240.0
1396.971191 120.0
1398.824097 164.0
1399.151611 212.0
1399.330322 136.0
1399.456909 136.0
1399.546265 124.0
1399.970703 240.0
1400.812256 88.0
1401.27417 84.0
1402.347168 68.0
1403.823364 188.0
1404.136475 244.0
1404.688477 172.0
1404.889893 124.0
1406.001587 112.0
1407.240723 152.0
1407.479614 112.0
1407.830566 132.0
1407.91272 124.0
1409.15271 244.0
1410.975342 236.0
1411.005249 208.0
1411.208008 156.0
1411.305176 232.0
1411.656616 184.0
1412.38623 172.0
1413.743652 96.0
1414.731689 68.0
1414.843872 144.0
1415.922119 168.0
1417.742554 220.0
1418.409668 140.0
1418.514526 40.0
1418.731934 68.0
1421.116821 184.0
1422.05481 120.0
1423.17334 152.0
1423.556274 200.0
1423.623901 172.0
1424.254761 140.0
1424.863159 52.0
1425.088623 124.0
1425.94519 212.0
1426.042969 160.0
1426.892334 200.0
1427.365967 240.0
1427.979248 212.0
1429.855957 180.0
1432.86792 216.0
1433.206909 108.0
1433.824829 152.0
1434.179077 172.0
1434.344849 184.0
1434.789673 148.0
1436.803223 156.0
1438.055786 212.0
1438.795532 172.0
1441.25769 140.0
1441.831909 172.0
1442.353516 212.0
1443.154785 156.0
1443.676514 180.0
1443.918579 120.0
1445.386108 208.0
1446.952759 192.0
1447.331299 188.0
1447.899292 164.0
1448.414307 180.0
1450.460083 184.0
1450.664795 160.0
1452.135742 152.0
1452.53772 100.0
1453.137085 132.0
1454.298096 160.0
1454.396729 200.0
1456.203735 144.0
1458.756714 96.0
1459.273682 188.0
1459.568237 212.0
1460.749023 92.0
1462.613281 72.0
1463.092773 148.0
1463.286987 148.0
1463.694336 176.0
1463.755249 180.0
1464.623413 208.0
1465.781372 132.0
1466.086182 224.0
1469.296143 164.0
1469.632568 168.0
1470.547607 220.0
1472.12793 192.0
1474.625977 212.0
1474.893555 92.0
1476.063232 96.0
1477.807129 220.0
1478.526367 160.0
1481.589111 136.0
1482.669434 140.0
1485.092163 212.0
1485.836182 72.0
1486.073975 232.0
1486.143066 56.0
1486.780029 172.0
1487.816162 188.0
1488.415039 212.0
1488.676147 156.0
1489.08313 68.0
1489.543945 228.0
1491.088257 136.0
1491.14209 128.0
1491.203613 68.0
1494.056274 112.0
1494.517944 192.0
1495.826172 208.0
1496.457397 160.0
1497.481567 248.0
1498.367432 168.0
1498.498413 196.0
1499.307495 192.0
1499.438477 144.0
1501.458374 120.0
1503.031982 156.0
1503.132324 160.0
