>compound MLS001333730-01!
>formula C29H31F2N3O
>ionization [M+H]+
>parentmass 476.250427
#inchi InChI=1S/C29H31F2N3O/c30-24-12-8-22(9-13-24)27(23-10-14-25(31)15-11-23)7-4-18-33-19-16-29(17-20-33)28(35)32-21-34(29)26-5-2-1-3-6-26/h1-3,5-6,8-15,27H,4,7,16-21H2,(H,32,35)
#inchikey QOYHHIBFXOOADH
#Ion_Source LC-ESI
#Instrument qTof
#Compound_Source NIH Pharmacologically Active Library
#PI Dorrestein
#Data_Collector VP/LMS
#Scan -1
#Precursor_MZ 476.25
#ExactMass 475.244
#Charge 1
#CAS_Number N/A
#Pubmed_ID N/A
#Smiles Fc1ccc(cc1)C(CCCN2CCC3(CC2)N(CNC3=O)c4ccccc4)c5ccc(F)cc5
#INCHI_AUX N/A
#Library_Class 1
#SpectrumID CCMSLIB00000085935
#IonMode Positive
#UpdateWorkflowName UPDATE-SINGLE-ANNOTATED-GOLD
#LibraryQualityString Gold
#TaskID d252d724072548979f1f6f1ced849daf
##Scan# 1982
#SpectrumFile p4-H03_GH3_01_18411.mzXML
#LibraryName Pharm_Active_Library.mgf
#MQScore -1
#Organism Pharm_Active_Library
#TIC_Query 0
#RT_Query -1
#MZErrorPPM -1
#SharedPeaks 0
#MassDiff 0
#LibMZ -1
#SpecMZ 476.25
#SpecCharge 0
#internalFilename spec-00000.mgf

>collision 10
44.898632 188.0
44.941319 80.0
44.966087 164.0
44.986698 132.0
45.004791 180.0
45.029427 172.0
45.086876 132.0
45.104252 148.0
45.143024 48.0
45.171116 176.0
45.229992 172.0
45.332111 196.0
45.346527 164.0
45.3787 164.0
45.389427 88.0
45.40686 88.0
45.437714 188.0
45.549141 164.0
45.567947 168.0
45.594822 136.0
45.670116 204.0
45.701061 180.0
45.737396 160.0
45.748165 208.0
45.757591 152.0
45.792603 196.0
45.806072 60.0
45.826317 148.0
45.889629 148.0
45.908508 124.0
45.927391 148.0
45.967865 28.0
45.992161 156.0
46.0742 144.0
46.097645 196.0
46.146168 168.0
46.179977 168.0
46.22356 168.0
46.248985 172.0
46.267937 136.0
46.509239 144.0
46.529602 208.0
46.560955 220.0
46.588985 248.0
46.613815 228.0
46.65731 152.0
46.673626 184.0
46.809704 136.0
46.862827 136.0
46.885685 228.0
46.903713 128.0
46.933708 148.0
46.947346 140.0
46.990993 156.0
47.012829 76.0
47.023746 116.0
47.052414 216.0
47.072895 144.0
47.115238 136.0
47.132999 88.0
47.301224 144.0
47.334084 96.0
47.41217 252.0
47.460152 192.0
47.509525 156.0
47.558929 124.0
47.723785 64.0
47.758167 144.0
47.831821 160.0
47.86414 188.0
47.900925 496.0
47.955067 92.0
47.974365 164.0
48.091618 196.0
48.169647 228.0
48.231129 160.0
48.278137 148.0
48.384682 184.0
48.435921 216.0
48.466404 212.0
48.528778 136.0
48.612907 172.0
48.643929 192.0
48.670307 120.0
48.700863 116.0
48.714752 152.0
48.821781 88.0
48.845425 136.0
48.870468 112.0
48.955379 200.0
48.966522 136.0
49.002743 136.0
49.018673 212.0
49.117058 388.0
49.136589 112.0
49.179852 84.0
49.281799 148.0
49.336872 188.0
49.385681 168.0
49.434258 136.0
49.493011 180.0
49.551838 172.0
49.567253 116.0
49.600887 180.0
49.619114 140.0
49.652767 144.0
49.668198 204.0
49.760822 196.0
49.791256 220.0
49.853531 104.0
49.912571 120.0
49.930855 164.0
50.067371 220.0
50.10442 140.0
50.177284 192.0
50.194202 148.0
50.239029 172.0
50.257679 132.0
50.348026 56.0
50.362152 140.0
50.376278 188.0
50.386765 196.0
50.454006 128.0
50.482285 140.0
50.495014 340.0
50.657795 176.0
50.688965 184.0
50.720146 184.0
50.755589 188.0
50.778278 172.0
50.837868 112.0
50.863415 196.0
50.952885 200.0
50.975616 176.0
50.984928 160.0
51.013992 116.0
51.076565 164.0
51.12067 136.0
51.156437 216.0
51.26878 196.0
51.324375 208.0
51.407112 152.0
51.452789 168.0
51.474205 168.0
51.518486 204.0
51.569927 228.0
51.585651 76.0
51.617905 136.0
51.627617 160.0
51.660767 168.0
51.677181 184.0
51.694355 220.0
51.738728 112.0
51.787415 184.0
51.813202 188.0
51.833649 132.0
51.855503 200.0
51.943657 88.0
51.96207 216.0
52.07428 236.0
52.088642 52.0
52.110191 132.0
52.26836 184.0
52.306389 152.0
52.392185 128.0
52.413799 136.0
52.471455 172.0
52.50462 44.0
52.581085 164.0
52.67205 68.0
52.683609 164.0
52.739967 188.0
52.797623 164.0
52.835411 152.0
52.849876 156.0
52.926594 152.0
52.936729 172.0
53.001919 176.0
53.032352 192.0
53.070045 112.0
53.094696 160.0
53.120041 220.0
53.162884 176.0
53.183201 232.0
53.212238 116.0
53.258709 160.0
53.270329 128.0
53.426743 196.0
53.521942 204.0
53.567093 56.0
53.590405 212.0
53.616634 132.0
53.655991 176.0
53.688072 188.0
53.791035 232.0
53.820557 132.0
53.865669 160.0
53.920204 148.0
54.003548 152.0
54.022564 196.0
54.094269 164.0
54.109924 156.0
54.148449 108.0
54.24662 176.0
54.355156 164.0
54.404327 128.0
54.445221 216.0
54.46233 164.0
54.487305 108.0
54.505329 180.0
54.541679 200.0
54.599022 72.0
54.616943 196.0
54.660168 156.0
54.697605 216.0
54.78891 208.0
54.859646 132.0
54.902409 208.0
54.936333 52.0
54.964367 132.0
55.059509 196.0
55.107597 188.0
55.120895 152.0
55.132717 172.0
55.162899 124.0
55.240654 84.0
55.264328 144.0
55.295403 112.0
55.316128 188.0
55.379799 176.0
55.46426 120.0
55.480564 196.0
55.529499 160.0
55.599232 48.0
55.636341 204.0
55.680889 184.0
55.703167 144.0
55.743286 48.0
55.770035 188.0
55.798283 208.0
55.811665 200.0
55.841408 108.0
56.034275 156.0
56.045898 232.0
56.083298 140.0
56.112431 100.0
56.16761 128.0
56.201923 164.0
56.240726 176.0
56.30798 192.0
56.393082 240.0
56.408028 172.0
56.429741 184.0
56.470833 216.0
56.560608 112.0
56.635479 176.0
56.651066 148.0
56.671432 188.0
56.701405 188.0
56.732883 240.0
56.747875 88.0
56.797367 240.0
56.810867 268.0
56.837875 276.0
56.848377 160.0
56.864887 196.0
57.040665 172.0
57.062153 224.0
57.091751 92.0
57.135372 148.0
57.200085 188.0
57.219654 168.0
57.293453 140.0
57.316055 180.0
57.334137 188.0
57.361267 176.0
57.371822 144.0
57.402073 188.0
57.421768 228.0
57.463821 140.0
57.500038 172.0
57.566463 172.0
57.59063 128.0
57.748249 228.0
57.949734 160.0
57.989662 156.0
58.093197 96.0
58.135681 140.0
58.167553 40.0
58.198509 236.0
58.211586 200.0
58.290577 196.0
58.304256 136.0
58.355942 136.0
58.505043 132.0
58.537018 208.0
58.706173 136.0
58.742779 228.0
58.756508 148.0
58.780922 176.0
58.796181 112.0
58.867935 212.0
58.878624 72.0
58.953484 128.0
58.965714 228.0
58.998844 184.0
59.008514 232.0
59.071217 192.0
59.092636 192.0
59.141609 144.0
59.176819 152.0
59.224293 168.0
59.259529 60.0
59.291679 204.0
59.30397 92.0
59.388302 124.0
59.403641 180.0
59.472534 192.0
59.586334 176.0
59.62936 108.0
59.641659 224.0
59.655491 236.0
59.672405 176.0
59.837605 108.0
59.895554 60.0
59.913624 252.0
59.918995 184.0
59.925396 292.0
60.004971 160.0
60.018848 92.0
60.034267 52.0
60.095901 176.0
60.131466 220.0
60.196308 180.0
60.292088 144.0
60.307545 152.0
60.33073 176.0
60.354759 200.0
60.380215 176.0
60.391041 144.0
60.46376 168.0
60.480785 160.0
60.517941 164.0
60.538071 160.0
60.663574 164.0
60.731804 168.0
60.756626 32.0
60.778347 168.0
60.801052 184.0
61.003551 136.0
61.025364 132.0
61.260326 152.0
61.328892 120.0
61.44585 184.0
61.456772 168.0
61.544182 176.0
61.561852 216.0
61.603531 100.0
61.648846 156.0
61.680103 136.0
61.735279 124.0
61.75985 204.0
61.797398 148.0
61.844227 156.0
61.931229 172.0
61.960228 156.0
61.988434 144.0
62.057404 176.0
62.143669 56.0
62.291248 144.0
62.316891 248.0
62.332096 48.0
62.343098 156.0
62.442142 156.0
62.462593 104.0
62.483807 124.0
62.500351 164.0
62.514389 156.0
62.6115 172.0
62.662529 200.0
62.710239 180.0
62.750793 148.0
62.821762 116.0
62.895931 200.0
62.918976 172.0
62.99276 176.0
63.019115 172.0
63.102886 128.0
63.128185 96.0
63.145584 132.0
63.221981 152.0
63.25951 140.0
63.333939 92.0
63.370026 128.0
63.411194 216.0
63.452793 144.0
63.470234 84.0
63.520985 168.0
63.66066 128.0
63.674953 204.0
63.689247 184.0
63.703545 192.0
63.779819 160.0
63.811615 112.0
63.915005 160.0
63.937283 176.0
63.989815 196.0
64.002556 172.0
64.026436 188.0
64.07901 76.0
64.09494 216.0
64.188988 132.0
64.222481 188.0
64.249603 180.0
64.283112 208.0
64.354797 220.0
64.374763 180.0
64.399872 208.0
64.447586 196.0
64.492332 148.0
64.517479 164.0
64.562683 212.0
64.613869 88.0
64.689758 272.0
64.729111 152.0
64.759544 148.0
64.794785 136.0
64.865295 144.0
64.898964 152.0
65.046562 184.0
65.0578 204.0
65.141312 172.0
65.187904 144.0
65.250595 108.0
65.311707 104.0
65.322968 220.0
65.364799 172.0
65.495209 188.0
65.514534 160.0
65.562874 188.0
65.62252 136.0
65.643478 108.0
65.699936 204.0
65.72287 204.0
65.749954 144.0
65.84198 148.0
65.86602 172.0
65.900139 184.0
65.919525 132.0
65.933228 192.0
65.948616 208.0
65.963165 184.0
66.003456 200.0
66.021378 216.0
66.042404 180.0
66.057755 244.0
66.08123 44.0
66.131393 192.0
66.175102 200.0
66.304695 208.0
66.348465 132.0
66.361435 156.0
66.387383 164.0
66.43766 156.0
66.483093 152.0
66.577255 176.0
66.608116 88.0
66.625984 204.0
66.736504 52.0
66.75975 204.0
66.777161 148.0
66.790176 60.0
66.812012 228.0
66.866646 164.0
66.951309 180.0
66.982254 156.0
67.026245 156.0
67.088181 124.0
67.141991 152.0
67.155037 152.0
67.195824 196.0
67.252937 176.0
67.293755 164.0
67.329674 100.0
67.343765 236.0
67.363976 140.0
67.447319 124.0
67.463669 148.0
67.632156 140.0
67.709991 192.0
67.750061 84.0
67.810692 72.0
67.907425 160.0
67.925468 136.0
68.071548 124.0
68.110222 196.0
68.144157 212.0
68.157822 92.0
68.221062 48.0
68.37075 156.0
68.390495 112.0
68.459953 172.0
68.51236 36.0
68.604904 152.0
68.665657 84.0
68.69384 144.0
68.832336 216.0
68.865372 88.0
68.900063 160.0
69.022369 172.0
69.048828 112.0
69.083565 164.0
69.098457 120.0
69.140182 168.0
69.267319 184.0
69.287201 220.0
69.313713 36.0
69.386642 48.0
69.40654 168.0
69.472885 156.0
69.489471 124.0
69.521004 212.0
69.571709 180.0
69.587402 216.0
69.628914 192.0
69.688721 88.0
69.700348 148.0
69.758522 92.0
69.795097 160.0
69.821709 52.0
69.885429 208.0
69.891785 64.0
69.896072 216.0
69.911545 52.0
69.971016 192.0
70.006439 148.0
70.069733 124.0
70.084732 180.0
70.142876 180.0
70.14856 160.0
70.188072 204.0
70.206421 240.0
70.244781 212.0
70.37162 40.0
70.383308 120.0
70.458473 188.0
70.522064 208.0
70.57547 148.0
70.603897 152.0
70.662445 232.0
70.674156 60.0
70.697586 216.0
70.719345 36.0
70.788818 200.0
70.875092 120.0
70.888496 152.0
71.045837 224.0
71.114906 124.0
71.132584 220.0
71.192398 180.0
71.294617 184.0
71.316467 152.0
71.365219 220.0
71.432495 160.0
71.705276 44.0
71.7491 172.0
71.828903 188.0
71.875603 188.0
71.942245 312.0
71.970131 216.0
71.995461 192.0
72.022484 188.0
72.034309 80.0
72.06134 220.0
72.081703 152.0
72.142464 48.0
72.26931 152.0
72.286232 128.0
72.315002 124.0
72.409821 176.0
72.421677 216.0
72.516556 132.0
72.536797 192.0
72.55555 160.0
72.589775 216.0
72.631035 136.0
72.662399 148.0
72.696335 52.0
72.719551 228.0
72.738762 92.0
72.794792 60.0
72.826523 172.0
72.852547 144.0
72.914238 180.0
72.939209 184.0
72.968109 168.0
73.046341 172.0
73.130234 132.0
73.146744 76.0
73.211441 160.0
73.301735 168.0
73.421066 116.0
73.545616 140.0
73.5653 188.0
73.608788 164.0
73.620743 200.0
73.663445 128.0
73.716736 208.0
73.733498 216.0
73.777939 80.0
73.817268 244.0
73.851471 200.0
73.882263 200.0
74.051735 240.0
74.14254 180.0
74.173393 48.0
74.205963 192.0
74.279709 340.0
74.300293 208.0
74.341476 156.0
74.465088 136.0
74.483978 84.0
74.497726 132.0
74.549271 192.0
74.578491 164.0
74.631882 180.0
74.664459 136.0
74.839989 32.0
74.961777 180.0
74.98568 172.0
75.067719 152.0
75.096558 168.0
75.138168 104.0
75.165771 132.0
75.184753 96.0
75.218582 156.0
75.252075 128.0
75.367439 188.0
75.564919 216.0
75.585678 184.0
75.647987 208.0
75.66011 124.0
75.674927 172.0
75.720718 168.0
75.738037 208.0
75.793472 160.0
75.812965 212.0
75.874939 104.0
75.902679 168.0
75.925224 152.0
75.951241 212.0
75.966858 176.0
76.088341 136.0
76.133484 68.0
76.145645 248.0
76.161278 160.0
76.182121 76.0
76.208183 180.0
76.305397 176.0
76.326378 200.0
76.363373 148.0
76.39769 36.0
76.409866 200.0
76.42205 68.0
76.484703 84.0
76.556107 208.0
76.646667 124.0
76.696358 204.0
76.703316 104.0
76.706474 152.0
76.719872 144.0
76.792305 172.0
76.875114 152.0
76.939781 156.0
76.969818 212.0
77.013329 268.0
77.106667 204.0
77.138847 188.0
77.231529 32.0
77.298012 168.0
77.343513 172.0
77.4188 140.0
77.513405 168.0
77.570107 216.0
77.695976 160.0
77.730843 184.0
77.77121 160.0
77.788765 264.0
77.846703 48.0
77.895882 88.0
77.936295 164.0
78.008354 144.0
78.087479 164.0
78.169777 144.0
78.238815 136.0
78.27755 208.0
78.376198 124.0
78.414963 144.0
78.434357 92.0
78.448456 224.0
78.468742 216.0
78.481956 180.0
78.533096 156.0
78.545448 120.0
78.562202 164.0
78.612495 184.0
78.631325 244.0
78.689957 140.0
78.755501 100.0
78.833237 168.0
78.854446 136.0
78.866821 104.0
78.906792 216.0
78.944611 156.0
79.020676 252.0
79.162285 160.0
79.199478 116.0
79.276154 200.0
79.316422 144.0
79.415726 188.0
79.438782 92.0
79.525681 136.0
79.548805 152.0
79.607399 176.0
79.639366 192.0
79.666016 164.0
79.679909 180.0
79.731758 76.0
79.907806 144.0
79.973648 168.0
79.991447 56.0
80.019936 260.0
80.090111 236.0
80.176689 200.0
80.226601 132.0
80.258926 184.0
80.274742 204.0
80.287224 156.0
80.319328 76.0
80.356796 116.0
80.394272 176.0
80.476379 44.0
80.510307 196.0
80.528725 168.0
80.562897 164.0
80.597847 208.0
80.621078 124.0
80.635376 156.0
80.667549 152.0
80.787361 148.0
80.867889 224.0
80.935921 96.0
80.962776 136.0
81.063103 216.0
81.113289 168.0
81.125832 164.0
81.172455 72.0
81.247787 140.0
81.262138 200.0
81.284142 184.0
81.310593 220.0
81.332855 188.0
81.391373 108.0
81.439865 176.0
81.455391 180.0
81.490166 92.0
81.598007 168.0
81.736504 148.0
81.887733 184.0
81.905739 160.0
81.9226 168.0
81.940697 188.0
82.033684 208.0
82.055321 184.0
82.134666 156.0
82.199623 220.0
82.231956 228.0
82.323997 196.0
82.381981 160.0
82.432571 204.0
82.463295 188.0
82.498703 204.0
82.57634 176.0
82.618805 160.0
82.635094 148.0
82.649567 192.0
82.689377 132.0
82.708572 224.0
82.749115 172.0
82.79982 112.0
82.846916 124.0
82.917862 132.0
82.984657 168.0
83.078026 184.0
83.1334 168.0
83.280464 156.0
83.542229 188.0
83.554962 236.0
83.605911 124.0
83.644135 200.0
83.665977 80.0
83.695793 236.0
83.735176 152.0
83.763107 204.0
83.813515 56.0
83.857254 204.0
83.922882 148.0
83.981239 100.0
84.010017 180.0
84.039612 200.0
84.070633 84.0
84.171783 196.0
84.28064 60.0
84.361053 212.0
84.382996 200.0
84.404327 144.0
84.425056 120.0
84.437859 108.0
84.496391 92.0
84.534821 40.0
84.554947 144.0
84.567764 68.0
84.587898 196.0
84.659302 140.0
84.717918 80.0
84.732574 112.0
84.757309 136.0
84.860558 212.0
84.866707 176.0
84.874214 244.0
84.92485 176.0
84.972755 136.0
85.055336 140.0
85.084709 164.0
85.11776 232.0
85.150818 168.0
85.202248 120.0
85.231651 188.0
85.272079 220.0
85.292297 132.0
85.330902 148.0
85.362427 196.0
85.398941 40.0
85.549446 132.0
85.687965 216.0
85.726662 40.0
85.748772 172.0
85.802887 192.0
85.816986 132.0
85.892593 196.0
85.947945 160.0
86.01992 64.0
86.086395 160.0
86.127663 116.0
86.147346 136.0
86.197235 148.0
86.285957 124.0
86.300743 132.0
86.378418 188.0
86.391373 168.0
86.433929 120.0
86.467957 124.0
86.485748 180.0
86.526474 28.0
86.617218 112.0
86.641296 128.0
86.719131 188.0
86.756203 188.0
86.815536 204.0
86.841499 60.0
86.882309 172.0
86.945404 128.0
86.96582 204.0
87.023369 140.0
87.155243 140.0
87.194275 168.0
87.266769 196.0
87.289085 188.0
87.367203 172.0
87.523544 148.0
87.614815 144.0
87.6409 188.0
87.674438 132.0
87.756462 152.0
87.82225 208.0
87.842255 136.0
87.86277 160.0
87.905685 184.0
87.985947 60.0
88.103539 108.0
88.215332 128.0
88.232567 184.0
88.260612 84.0
88.275574 128.0
88.320457 128.0
88.369095 156.0
88.518463 176.0
88.541313 168.0
88.601257 100.0
88.648102 140.0
88.668343 200.0
88.701385 168.0
88.72683 292.0
88.741829 188.0
88.816841 192.0
88.867493 88.0
88.890015 216.0
88.935059 156.0
88.989494 104.0
89.027054 176.0
89.117218 152.0
89.181114 176.0
89.252556 112.0
89.273239 160.0
89.311981 160.0
89.333649 204.0
89.382347 88.0
89.514114 216.0
89.623604 132.0
89.74279 248.0
89.796806 68.0
89.811897 80.0
89.915672 156.0
90.028946 212.0
90.057281 164.0
90.117729 164.0
90.132851 156.0
90.178207 104.0
90.219795 136.0
90.267059 212.0
90.279694 188.0
90.321907 116.0
90.499809 128.0
90.531998 216.0
90.555405 200.0
90.600296 140.0
90.619133 64.0
90.735809 264.0
90.780258 144.0
90.920647 112.0
90.979485 256.0
91.004173 156.0
91.038353 220.0
91.175133 164.0
91.207451 188.0
91.34436 148.0
91.3619 164.0
91.391891 216.0
91.565155 164.0
91.591103 264.0
91.624207 188.0
91.706268 256.0
91.753807 120.0
91.824364 140.0
91.919754 60.0
92.06675 156.0
92.085846 172.0
92.118317 116.0
92.154617 172.0
92.199768 172.0
92.223419 240.0
92.34005 44.0
92.353439 188.0
92.384041 156.0
92.424225 140.0
92.451012 228.0
92.477043 200.0
92.636742 184.0
92.661652 196.0
92.679695 152.0
92.691841 264.0
92.757469 232.0
92.805397 260.0
92.836082 144.0
92.849876 284.0
92.884033 176.0
92.939667 204.0
93.018356 88.0
93.033714 168.0
93.091316 128.0
93.118202 192.0
93.178093 136.0
93.266617 216.0
93.339211 168.0
93.358444 148.0
93.405205 244.0
93.445 52.0
93.547005 108.0
93.562408 116.0
93.606689 220.0
93.69722 128.0
93.756958 148.0
93.861053 124.0
93.905411 148.0
94.006477 156.0
94.028893 188.0
94.071358 52.0
94.099152 192.0
94.14666 152.0
94.212334 160.0
94.274162 140.0
94.321823 244.0
94.401756 156.0
94.473984 240.0
94.541046 204.0
94.604919 128.0
94.703682 136.0
94.716408 144.0
94.966621 176.0
94.981628 192.0
95.039062 40.0
95.068176 36.0
95.092239 160.0
95.200188 124.0
95.235146 248.0
95.325577 184.0
95.433365 136.0
95.491707 144.0
95.538391 208.0
95.607101 180.0
95.688255 132.0
95.720146 168.0
95.805107 224.0
95.892799 72.0
95.992226 196.0
96.045425 144.0
96.079201 196.0
96.123993 256.0
96.17952 160.0
96.468636 220.0
96.484268 68.0
96.52729 188.0
96.607483 220.0
96.636826 208.0
96.674004 124.0
96.715355 156.0
96.789505 140.0
96.811043 148.0
96.854134 152.0
96.912903 380.0
96.942299 184.0
96.969734 72.0
96.991295 136.0
97.04351 200.0
97.077568 140.0
97.122673 76.0
97.169762 176.0
97.210968 240.0
97.22863 68.0
97.336601 212.0
97.360168 224.0
97.459282 172.0
97.508347 180.0
97.527168 164.0
97.544861 208.0
97.564522 116.0
97.628006 56.0
97.666779 208.0
97.689728 96.0
97.698814 140.0
97.706467 136.0
97.710396 164.0
97.73185 160.0
97.751381 56.0
97.765152 176.0
97.781052 208.0
97.814362 176.0
97.847244 244.0
97.872787 224.0
97.880623 152.0
97.922493 164.0
97.952339 176.0
97.985695 152.0
98.009125 296.0
98.035088 728.0
98.061249 123912.0
98.133095 56.0
98.161018 112.0
98.163773 128.0
98.177521 136.0
98.229919 252.0
98.243912 120.0
98.272415 76.0
98.302094 104.0
98.327278 136.0
98.366066 136.0
98.384933 1612.0
98.420364 88.0
98.450325 384.0
98.509483 100.0
98.534485 52.0
98.553246 96.0
98.573578 68.0
98.591484 128.0
98.619812 84.0
98.65078 136.0
98.681923 80.0
98.72319 84.0
98.752945 84.0
98.786949 192.0
98.819794 96.0
98.854301 152.0
98.876274 108.0
98.916374 156.0
98.962456 120.0
98.990501 184.0
99.028732 376.0
99.063652 12412.0
99.105484 140.0
99.1595 36.0
99.197159 108.0
99.21698 112.0
99.246613 220.0
99.269859 120.0
99.310188 96.0
99.376762 136.0
99.393509 100.0
99.413353 44.0
99.434708 100.0
99.489571 332.0
99.518219 184.0
99.546364 104.0
99.567871 104.0
99.587029 256.0
99.611244 120.0
99.643692 108.0
99.662399 136.0
99.686806 136.0
99.695114 132.0
99.701355 192.0
99.716995 128.0
99.743141 92.0
99.765961 184.0
99.78524 196.0
99.811958 232.0
99.839645 92.0
99.878044 112.0
99.911156 196.0
99.969795 116.0
99.987709 68.0
100.035477 44.0
100.063568 428.0
100.093979 136.0
100.129066 72.0
100.15097 104.0
100.201218 36.0
100.214722 100.0
100.386795 168.0
100.400108 120.0
100.426041 172.0
100.601639 80.0
100.671684 204.0
100.711472 192.0
100.761414 156.0
100.793381 40.0
100.869331 36.0
100.899315 44.0
100.943306 92.0
100.991302 160.0
101.037315 280.0
101.067627 188.0
101.20945 112.0
101.233475 64.0
101.263519 96.0
101.367699 136.0
101.632385 164.0
101.66851 96.0
101.754822 164.0
101.886528 100.0
101.925552 180.0
101.95369 200.0
102.020576 144.0
102.049728 216.0
102.072296 104.0
102.19902 120.0
102.239555 112.0
102.255371 216.0
102.370125 144.0
102.416443 64.0
102.607887 164.0
102.642166 48.0
102.793457 164.0
102.83728 208.0
102.862083 212.0
102.888329 140.0
102.964546 188.0
103.015556 72.0
103.052399 656.0
103.076508 304.0
103.191696 156.0
103.248009 164.0
103.290482 192.0
103.39772 52.0
103.551598 148.0
103.577927 136.0
103.629333 160.0
103.727882 144.0
103.742073 100.0
103.803658 128.0
103.873886 192.0
103.953011 160.0
104.01796 164.0
104.0476 168.0
104.111359 152.0
104.192612 96.0
104.330811 124.0
104.397911 76.0
104.426384 104.0
104.483337 76.0
104.638016 204.0
104.705215 92.0
104.799873 96.0
105.123146 100.0
105.172134 72.0
105.268089 124.0
105.404007 212.0
105.445831 72.0
105.492844 88.0
105.511238 112.0
105.562363 120.0
105.607353 40.0
105.674011 96.0
105.713745 60.0
105.791519 124.0
105.809944 116.0
105.84066 196.0
105.893906 120.0
105.925537 176.0
105.958946 176.0
105.992241 56.0
106.022644 300.0
106.043991 176.0
106.065781 22648.0
106.106758 184.0
106.148033 72.0
106.207512 108.0
106.228081 144.0
106.263397 76.0
106.293678 56.0
106.320503 112.0
106.347038 52.0
106.363457 164.0
106.492386 76.0
106.570885 56.0
106.646919 40.0
106.717766 156.0
106.737381 84.0
106.765022 200.0
106.834328 240.0
106.899895 136.0
106.986343 52.0
107.06797 1628.0
107.118141 52.0
107.315987 48.0
107.392296 148.0
107.48513 152.0
107.575943 36.0
107.710175 132.0
107.732895 60.0
107.794884 144.0
107.817612 168.0
107.864059 104.0
108.045189 204.0
108.072189 148.0
108.129913 152.0
108.181656 120.0
108.202362 40.0
108.229279 32.0
108.345268 172.0
108.359772 108.0
108.421936 48.0
108.43644 52.0
108.490334 120.0
108.521439 172.0
108.579498 84.0
108.714348 176.0
108.799454 180.0
108.942749 204.0
108.973915 148.0
109.007683 164.0
109.018227 148.0
109.045113 21412.0
109.07756 92.0
109.082741 88.0
109.117546 152.0
109.144356 72.0
109.207245 84.0
109.232979 72.0
109.253609 152.0
109.275398 60.0
109.310379 64.0
109.368225 192.0
109.42942 68.0
109.580162 160.0
109.614807 52.0
109.702347 84.0
109.783661 92.0
109.835808 144.0
109.876381 124.0
109.900475 52.0
109.956825 136.0
109.983955 64.0
110.000656 100.0
110.059258 6172.0
110.094666 172.0
110.113411 48.0
110.173988 72.0
110.257568 112.0
110.271645 60.0
110.353729 212.0
110.394798 188.0
110.671768 108.0
110.843536 60.0
110.895927 148.0
110.917725 100.0
111.062973 804.0
111.09285 612.0
111.120316 144.0
111.141296 72.0
111.193764 188.0
111.223145 40.0
111.330223 164.0
111.355431 184.0
111.578171 116.0
111.668594 32.0
111.921135 100.0
111.948509 152.0
111.999054 64.0
112.075356 1080.0
112.110886 212.0
112.247749 176.0
112.528389 144.0
112.771324 184.0
112.963745 216.0
113.164803 188.0
113.287643 148.0
113.353325 132.0
113.374519 192.0
113.493233 124.0
113.52504 100.0
113.977196 136.0
114.06221 148.0
114.202545 124.0
114.238708 156.0
114.385544 144.0
114.628349 52.0
114.690155 184.0
114.81382 224.0
114.85434 108.0
114.914078 140.0
115.051704 144.0
115.121132 124.0
115.14035 64.0
115.221527 164.0
115.481133 172.0
115.525108 120.0
115.6642 196.0
115.771255 148.0
115.814087 48.0
115.953362 136.0
116.260048 112.0
116.415802 160.0
116.615379 144.0
116.634422 92.0
116.719765 232.0
116.779984 176.0
116.944183 140.0
117.040382 156.0
117.151993 220.0
117.447708 204.0
117.544792 128.0
117.587959 116.0
117.680786 116.0
117.71965 176.0
117.829811 76.0
118.064781 432.0
118.162766 104.0
118.329422 92.0
118.680428 220.0
118.721634 160.0
118.962479 148.0
119.597221 172.0
120.002426 140.0
120.041679 184.0
120.080933 120.0
120.532837 176.0
120.563431 164.0
120.685852 204.0
120.703346 48.0
120.740517 220.0
120.825829 144.0
121.046051 448.0
121.086319 108.0
121.191475 100.0
121.401917 136.0
122.018936 184.0
122.038727 184.0
122.100273 308.0
122.298317 32.0
122.439232 176.0
122.584633 180.0
122.661774 144.0
122.85804 208.0
123.061058 1256.0
123.103447 312.0
123.122925 232.0
123.277565 60.0
123.343872 40.0
123.519257 180.0
123.582726 136.0
123.766441 48.0
123.970238 172.0
124.010132 208.0
124.062714 300.0
124.112114 48.0
124.398315 92.0
124.700417 208.0
124.748848 172.0
124.816017 164.0
124.89608 188.0
125.07103 180.0
125.117561 204.0
125.152016 84.0
125.20546 156.0
125.303474 204.0
125.541985 120.0
125.704834 124.0
125.834297 112.0
125.86779 80.0
125.983932 116.0
126.111305 124.0
126.511719 156.0
127.056053 256.0
127.088722 184.0
127.278511 140.0
127.370598 196.0
127.50766 140.0
127.647041 88.0
127.830536 160.0
127.887772 56.0
128.016098 144.0
128.052139 180.0
128.083664 148.0
128.460129 144.0
128.480423 156.0
128.570679 52.0
128.636139 92.0
128.902664 100.0
129.074249 312.0
129.117432 72.0
129.47049 132.0
129.642654 100.0
129.767334 96.0
130.046371 100.0
130.065994 492.0
130.318878 72.0
130.650818 136.0
130.796463 48.0
130.933075 84.0
131.026474 188.0
131.046982 136.0
131.071686 176.0
131.115341 184.0
131.284058 180.0
131.415573 152.0
131.544159 220.0
131.735992 148.0
131.898239 156.0
131.957672 64.0
132.07637 208.0
132.092606 348.0
132.406189 112.0
132.740784 96.0
132.988556 120.0
133.044693 132.0
133.073502 76.0
133.282516 156.0
133.414658 120.0
133.477905 128.0
133.871414 152.0
134.047821 356.0
134.098434 160.0
134.713287 172.0
134.798782 112.0
134.923035 100.0
135.059601 1516.0
135.245148 72.0
135.36322 200.0
135.446594 60.0
135.502197 132.0
135.699203 132.0
135.794281 200.0
136.064545 304.0
136.330597 344.0
136.418915 124.0
136.632874 144.0
136.679413 84.0
136.723633 176.0
136.947144 212.0
137.080429 168.0
137.119553 188.0
137.23378 36.0
137.413376 104.0
137.581421 160.0
137.943512 108.0
138.070602 356.0
138.093628 204.0
138.308441 168.0
138.657425 100.0
139.086823 172.0
139.283905 136.0
139.305054 120.0
139.660004 92.0
139.761154 72.0
139.782333 180.0
139.869415 136.0
139.895309 176.0
140.06015 332.0
140.114334 140.0
140.460876 232.0
140.628418 204.0
140.663818 124.0
140.706314 148.0
140.843292 152.0
140.864548 152.0
141.102631 1020.0
141.157623 140.0
141.221481 48.0
141.261688 52.0
141.339767 172.0
141.377625 124.0
141.402466 152.0
141.46521 108.0
141.532578 132.0
141.640442 252.0
141.794449 108.0
142.0 184.0
142.044357 184.0
142.062393 144.0
142.094879 208.0
142.22139 232.0
142.491257 92.0
142.59668 120.0
142.912964 144.0
142.996246 168.0
143.046234 60.0
143.072418 124.0
143.158142 168.0
143.239792 172.0
143.26532 96.0
143.291534 216.0
143.801849 104.0
143.875854 168.0
144.076965 324.0
144.528351 152.0
144.64563 60.0
144.760544 56.0
145.062897 316.0
145.292252 92.0
145.427048 248.0
145.458252 116.0
145.779556 196.0
145.823364 164.0
145.878647 120.0
145.90509 84.0
145.948364 132.0
146.010895 140.0
146.052063 972.0
146.096497 1684.0
146.152832 64.0
146.367065 100.0
146.429672 124.0
146.542892 116.0
146.598312 96.0
146.661636 88.0
146.697144 136.0
146.868011 168.0
146.90213 168.0
146.94313 148.0
146.981735 36.0
146.999619 220.0
147.034622 176.0
147.060669 21164.0
147.088455 612.0
147.134933 60.0
147.170013 56.0
147.2061 72.0
147.242462 120.0
147.259369 48.0
147.310104 72.0
147.351166 80.0
147.438156 28.0
147.471588 116.0
147.488342 84.0
147.561295 68.0
147.684769 84.0
147.717133 160.0
147.769928 60.0
147.849564 184.0
147.949997 100.0
147.984863 112.0
148.01149 172.0
148.063156 3232.0
148.091415 36.0
148.10994 328.0
148.406464 32.0
148.433136 44.0
148.471939 80.0
148.558258 136.0
148.585052 160.0
148.602921 60.0
148.632034 44.0
148.653351 128.0
148.714554 136.0
148.765533 72.0
148.97438 184.0
148.998672 80.0
149.025406 160.0
149.075851 17284.0
149.104599 156.0
149.154205 100.0
149.178513 64.0
149.203766 64.0
149.239304 84.0
149.311981 108.0
149.374878 64.0
149.413651 76.0
149.497147 40.0
149.543396 72.0
149.648071 36.0
149.696762 88.0
149.724823 100.0
149.755219 68.0
149.798294 152.0
149.862411 52.0
149.923325 124.0
150.047653 116.0
150.0793 2044.0
150.115494 408.0
150.186768 88.0
150.484375 88.0
150.567413 72.0
150.914413 44.0
150.97554 80.0
151.0 40.0
151.046478 180.0
151.084763 148.0
151.105347 124.0
151.166367 128.0
151.308334 108.0
151.345062 132.0
151.571411 156.0
151.830261 268.0
151.984818 116.0
152.276947 196.0
152.380127 48.0
152.429276 140.0
152.584122 112.0
152.660355 140.0
152.702164 200.0
153.470505 44.0
153.934402 52.0
154.272903 56.0
154.411377 180.0
154.601883 84.0
155.058136 216.0
155.089798 124.0
155.414688 52.0
155.737411 128.0
155.86412 52.0
155.929565 192.0
155.993362 96.0
156.070435 200.0
156.279373 224.0
156.346558 88.0
156.488449 64.0
156.869629 160.0
156.951904 40.0
157.029221 116.0
157.046677 156.0
157.066635 176.0
157.411057 148.0
157.715851 88.0
157.733353 124.0
157.79335 40.0
158.072281 172.0
158.095688 500.0
158.188629 40.0
158.322113 208.0
158.351395 76.0
158.677155 136.0
158.724808 92.0
159.078568 88.0
159.41011 84.0
159.533264 176.0
159.568466 56.0
160.077194 112.0
160.112 160.0
160.437057 112.0
160.616104 56.0
160.702789 212.0
160.835632 172.0
160.865921 68.0
161.037628 76.0
161.069107 200.0
161.115936 152.0
161.201843 164.0
161.4319 48.0
161.47995 80.0
161.540649 240.0
161.634262 104.0
161.824112 68.0
162.249756 88.0
162.483078 200.0
162.861328 176.0
163.077301 128.0
163.313766 48.0
163.756653 44.0
164.093033 164.0
164.955933 188.0
165.134933 164.0
165.216782 228.0
165.398483 144.0
165.728851 248.0
165.803177 168.0
166.108292 72.0
166.264816 72.0
166.560089 52.0
166.796494 104.0
166.865906 144.0
167.115387 284.0
167.310989 116.0
167.666473 280.0
167.821136 188.0
168.05069 180.0
168.936874 112.0
169.061066 156.0
169.340683 64.0
169.619553 172.0
169.820175 160.0
170.094559 156.0
170.165329 120.0
170.484833 80.0
170.555008 48.0
170.92952 112.0
171.023209 96.0
171.067459 172.0
171.085678 148.0
171.189835 160.0
171.442535 156.0
171.684982 132.0
171.807587 56.0
172.086853 160.0
172.105118 180.0
172.423828 216.0
172.551926 104.0
172.588516 76.0
172.780655 148.0
172.889359 132.0
173.051651 308.0
173.069977 176.0
173.108994 156.0
173.347641 196.0
173.557358 176.0
173.877396 144.0
174.091156 824.0
174.289703 48.0
174.460541 136.0
174.820892 88.0
174.881424 96.0
175.088318 1044.0
175.458328 176.0
175.529526 156.0
175.782761 112.0
176.0177 160.0
176.054077 160.0
176.08699 276.0
176.509201 204.0
176.535645 72.0
176.734055 136.0
176.793701 80.0
176.916672 176.0
177.073166 448.0
177.400101 108.0
177.916138 40.0
178.100983 948.0
178.383698 52.0
178.468781 44.0
178.540573 176.0
178.734772 104.0
178.889145 172.0
178.915771 208.0
179.038254 220.0
179.111984 160.0
179.758041 140.0
179.931534 68.0
180.081085 156.0
180.115799 52.0
180.522064 156.0
180.711975 128.0
181.046585 180.0
181.220703 136.0
181.623276 144.0
182.063004 132.0
182.089874 108.0
182.334351 180.0
182.471451 60.0
182.50769 160.0
182.53598 128.0
182.584396 60.0
182.66777 172.0
182.756561 128.0
183.017654 60.0
183.05896 456.0
183.181946 144.0
183.246597 148.0
183.322052 128.0
183.467606 104.0
183.570053 144.0
183.748077 52.0
183.988281 128.0
184.020691 160.0
184.072662 324.0
184.096985 172.0
184.577301 100.0
185.069229 176.0
185.103287 472.0
185.31897 136.0
185.495132 72.0
185.663239 52.0
186.085266 176.0
186.339157 44.0
186.702744 100.0
187.054398 112.0
187.086426 532.0
187.123917 176.0
187.53653 168.0
187.637405 148.0
188.041122 104.0
188.103973 160.0
188.215851 76.0
188.617462 112.0
188.784241 120.0
189.005814 172.0
189.077103 160.0
189.120758 144.0
189.156342 152.0
189.60556 140.0
190.104691 160.0
190.140366 76.0
190.348999 120.0
190.56601 116.0
191.041641 140.0
191.294815 236.0
191.556427 72.0
192.237457 128.0
192.433441 120.0
192.798065 192.0
192.916916 188.0
192.958389 200.0
193.22113 72.0
193.611435 140.0
193.788727 76.0
194.002136 48.0
194.176819 144.0
194.404312 132.0
194.748581 148.0
194.806915 132.0
195.062576 152.0
195.093536 88.0
195.730316 100.0
195.760941 120.0
196.036743 168.0
196.056244 96.0
196.148224 40.0
196.16774 68.0
196.323883 60.0
196.460556 80.0
196.533096 184.0
196.81781 156.0
197.077881 180.0
197.111404 116.0
197.2285 80.0
197.911118 40.0
198.082687 216.0
198.538834 188.0
198.634201 32.0
198.923233 216.0
198.993423 52.0
199.088898 180.0
199.473831 80.0
199.583481 84.0
199.825363 56.0
199.954819 104.0
199.988342 212.0
200.132172 188.0
200.239182 48.0
200.411026 196.0
201.052841 360.0
201.093475 156.0
201.118484 168.0
201.129227 144.0
201.356064 160.0
201.771454 192.0
201.878891 52.0
201.980713 172.0
202.058167 264.0
202.09137 180.0
202.201416 140.0
202.385422 64.0
202.526871 144.0
202.597839 120.0
202.810379 136.0
202.906769 120.0
203.065765 6780.0
203.106354 200.0
203.18187 112.0
203.43161 80.0
203.465683 72.0
203.559372 144.0
203.636063 32.0
203.817871 140.0
204.06871 916.0
204.099289 48.0
204.309753 96.0
204.466263 48.0
204.497574 212.0
204.671234 80.0
205.024475 84.0
205.064377 116.0
205.162155 184.0
205.204056 396.0
205.352341 76.0
205.392273 84.0
205.469299 116.0
205.649689 132.0
206.103165 48.0
206.131729 200.0
206.586349 192.0
206.686493 136.0
207.144577 188.0
207.32222 52.0
207.45694 124.0
207.548691 104.0
207.70929 140.0
207.878571 128.0
207.927353 132.0
208.01059 176.0
208.047272 160.0
208.079498 208.0
208.13118 148.0
208.329361 32.0
208.636856 112.0
208.725998 156.0
208.763382 176.0
208.818024 100.0
208.852539 144.0
208.93309 124.0
209.457016 188.0
209.811478 124.0
209.923935 120.0
210.042191 108.0
210.134506 100.0
211.550644 220.0
211.789658 208.0
211.831558 36.0
211.901077 144.0
211.94165 128.0
212.11264 124.0
212.507065 116.0
212.736343 116.0
212.90184 116.0
213.570328 148.0
214.060181 304.0
214.086609 124.0
214.15538 148.0
214.423431 48.0
214.458405 64.0
214.656662 84.0
214.717896 120.0
214.954208 176.0
215.010971 132.0
215.066956 488.0
215.109299 176.0
215.178955 156.0
215.506088 168.0
216.128891 172.0
216.155228 152.0
216.464691 56.0
216.861038 184.0
216.940186 44.0
217.081589 1668.0
217.365479 32.0
217.538635 156.0
217.588547 96.0
217.811737 96.0
217.896927 184.0
218.082138 628.0
218.11734 64.0
218.270218 160.0
218.387863 100.0
218.579086 100.0
218.709946 156.0
218.811615 160.0
219.085526 132.0
219.61908 152.0
219.692825 144.0
219.999741 172.0
220.407333 188.0
221.075653 208.0
221.425003 112.0
222.081314 152.0
222.183853 132.0
222.961838 204.0
223.080734 176.0
223.122345 144.0
223.23288 184.0
223.256149 152.0
224.068787 160.0
224.521881 184.0
224.781418 68.0
225.105804 180.0
225.387589 232.0
225.761261 120.0
226.099335 216.0
226.129257 32.0
226.219055 76.0
226.458618 152.0
226.506531 172.0
226.533951 80.0
227.073044 248.0
227.136032 152.0
227.163025 168.0
227.526154 80.0
227.559189 84.0
227.721344 92.0
228.068878 224.0
228.154068 192.0
228.20517 104.0
228.436752 200.0
228.60524 124.0
228.761765 152.0
228.957474 180.0
229.086441 588.0
229.154099 104.0
230.138123 436.0
230.326828 132.0
230.834579 108.0
231.097748 92.0
231.127853 136.0
231.249054 40.0
231.367111 84.0
231.863892 140.0
231.885101 92.0
231.909348 176.0
232.145828 160.0
232.203461 148.0
232.476501 104.0
232.74971 128.0
232.837769 156.0
232.956238 212.0
233.409103 124.0
234.300919 96.0
234.572144 144.0
234.797775 172.0
235.023514 148.0
235.227997 104.0
235.377609 96.0
235.505875 188.0
235.539474 60.0
235.979553 124.0
236.007065 160.0
236.056 140.0
236.184448 100.0
236.303757 64.0
236.826584 112.0
236.909958 104.0
237.106064 176.0
237.130585 176.0
237.302246 208.0
238.567154 88.0
238.588684 52.0
238.742416 128.0
238.871597 176.0
238.951584 144.0
239.277832 180.0
239.327103 116.0
239.561935 160.0
239.684418 64.0
239.844666 244.0
239.881668 140.0
240.393661 176.0
240.74559 204.0
240.968002 140.0
241.014343 176.0
241.078293 144.0
241.277069 188.0
241.9608 144.0
242.053696 84.0
242.097046 184.0
242.363449 148.0
242.530807 72.0
242.924622 140.0
243.020798 208.0
243.097977 2848.0
243.172867 76.0
243.477127 48.0
243.72876 132.0
243.862396 208.0
243.94632 168.0
243.971191 152.0
244.011612 48.0
244.033371 148.0
244.100372 596.0
244.14418 448.0
244.213745 56.0
244.26973 36.0
244.381729 60.0
244.664963 48.0
244.801956 60.0
244.842453 244.0
244.944824 152.0
245.107239 268.0
245.14537 344.0
245.235016 52.0
245.278656 172.0
245.359711 92.0
245.565521 92.0
246.128479 9092.0
246.195969 152.0
246.405258 60.0
246.452118 152.0
246.639633 120.0
246.714661 164.0
246.833466 180.0
247.131516 1364.0
247.230774 104.0
247.503113 72.0
247.543823 104.0
247.581406 112.0
247.750549 176.0
248.023178 56.0
248.137695 328.0
248.214432 160.0
248.28656 32.0
248.343002 108.0
248.732101 88.0
248.882797 84.0
249.118347 104.0
249.894897 136.0
250.179153 296.0
250.291504 104.0
250.442673 276.0
250.527725 108.0
251.019424 104.0
251.060425 108.0
251.16748 140.0
251.445312 136.0
251.622101 112.0
252.073776 232.0
252.219162 344.0
252.766312 176.0
252.978363 200.0
253.073059 176.0
253.383743 196.0
254.074905 160.0
254.33194 148.0
254.5923 56.0
254.986252 168.0
255.098663 164.0
256.099854 152.0
256.122162 128.0
256.482208 164.0
256.64801 192.0
256.756439 140.0
256.845734 184.0
257.496887 100.0
257.963379 204.0
258.043304 104.0
258.136627 156.0
258.222382 136.0
259.112305 136.0
259.30777 168.0
259.3815 240.0
259.475922 164.0
259.782349 184.0
259.897858 172.0
260.048676 84.0
260.395447 48.0
260.488586 68.0
260.735992 140.0
261.9104 80.0
262.152039 152.0
262.293854 80.0
262.335754 152.0
262.980896 36.0
263.148773 108.0
263.239197 168.0
263.271484 124.0
263.594543 160.0
264.522766 76.0
264.713806 168.0
265.167358 196.0
265.939301 208.0
266.1828 72.0
266.260742 164.0
266.36142 156.0
267.103271 172.0
267.330322 168.0
267.997894 60.0
268.382507 80.0
268.865295 88.0
268.978973 136.0
269.116669 140.0
269.34201 68.0
269.558594 108.0
269.855103 124.0
269.920471 84.0
270.038208 236.0
270.499603 80.0
270.738617 156.0
271.000671 116.0
271.115356 160.0
271.29892 84.0
271.554688 100.0
271.653107 152.0
271.790894 148.0
272.122101 100.0
272.496826 96.0
272.578979 176.0
272.758881 120.0
273.03595 56.0
273.078705 40.0
273.105011 120.0
273.315552 204.0
273.661163 44.0
273.700684 140.0
273.792908 144.0
273.852173 68.0
273.924652 152.0
273.983948 132.0
274.020203 128.0
274.139282 17508.0
274.234375 108.0
274.326691 88.0
274.379425 64.0
274.406952 76.0
274.435486 72.0
274.467133 48.0
274.491547 40.0
274.651276 160.0
274.675537 96.0
274.854401 32.0
274.880798 36.0
274.913788 52.0
275.030304 132.0
275.062317 88.0
275.141449 2488.0
275.263733 56.0
275.339691 136.0
275.376007 184.0
275.491608 88.0
275.574219 124.0
275.78241 188.0
275.836395 72.0
276.040283 96.0
276.151489 144.0
276.245361 64.0
276.278442 48.0
276.347931 60.0
276.592804 124.0
276.812347 104.0
276.88089 128.0
277.059753 56.0
277.097412 88.0
277.133423 100.0
277.169098 192.0
277.2453 140.0
277.278442 116.0
277.331482 100.0
277.533722 52.0
277.736023 144.0
278.031311 200.0
278.081085 120.0
278.795135 92.0
279.486847 44.0
279.526764 128.0
279.776398 188.0
279.806366 176.0
280.046112 144.0
280.276001 120.0
281.179749 108.0
282.157074 132.0
282.359131 176.0
282.446075 64.0
282.660217 88.0
283.825928 108.0
284.470093 112.0
284.597687 88.0
285.08139 64.0
285.158691 44.0
285.538635 164.0
285.912079 168.0
286.107758 152.0
286.151062 144.0
286.491241 136.0
286.541748 196.0
287.151917 164.0
287.674927 120.0
288.140991 196.0
288.170288 348.0
288.201813 152.0
288.259247 188.0
288.374146 108.0
288.989624 104.0
289.048676 116.0
289.148682 180.0
289.267151 148.0
289.50415 116.0
289.978485 44.0
290.134399 156.0
290.909637 136.0
291.10144 116.0
292.070068 100.0
292.26059 100.0
292.705078 96.0
292.856354 64.0
293.125488 156.0
293.797211 140.0
293.90979 72.0
294.924103 108.0
295.272858 212.0
295.63208 160.0
295.977814 160.0
296.026398 196.0
296.119904 248.0
296.262115 80.0
296.690491 152.0
296.786499 196.0
296.988831 136.0
297.194672 140.0
297.506989 112.0
297.772797 148.0
298.692566 144.0
298.812988 124.0
298.960938 104.0
299.053864 172.0
299.122711 164.0
299.188141 160.0
299.291412 80.0
299.770233 148.0
300.154907 2932.0
300.208038 124.0
300.232178 52.0
300.283936 124.0
300.332214 56.0
300.370148 32.0
300.787689 112.0
301.160095 424.0
301.253876 68.0
301.354065 156.0
301.488831 104.0
301.779205 132.0
301.924438 56.0
302.158173 220.0
302.87973 188.0
303.168427 188.0
303.465424 160.0
303.871216 100.0
304.152191 104.0
304.360626 52.0
304.426605 144.0
304.461334 36.0
304.874756 136.0
304.965118 204.0
306.106262 84.0
306.186371 144.0
306.360535 164.0
306.411133 212.0
307.228607 44.0
307.375153 204.0
307.430969 56.0
307.626434 184.0
307.832428 140.0
308.118866 104.0
308.167786 104.0
308.412415 52.0
308.489319 100.0
308.88446 152.0
308.933441 116.0
309.43042 100.0
309.882233 88.0
310.043427 164.0
310.201141 164.0
310.292297 188.0
310.937744 92.0
311.117157 208.0
311.527649 152.0
311.738464 72.0
311.795624 108.0
311.896637 120.0
312.188446 76.0
313.350067 80.0
313.589691 128.0
313.836456 88.0
313.981049 36.0
314.171509 124.0
314.888092 136.0
315.174255 160.0
315.531219 148.0
316.102814 80.0
316.143158 188.0
316.805298 56.0
316.957642 128.0
317.542603 136.0
317.812225 180.0
318.202637 76.0
318.994873 156.0
319.083771 128.0
319.713379 28.0
319.781006 168.0
320.065796 148.0
320.137024 64.0
320.19043 124.0
320.265228 112.0
320.514618 68.0
320.938812 152.0
320.962524 212.0
321.017242 128.0
321.623779 188.0
322.170135 88.0
322.945831 156.0
323.128296 152.0
323.181946 128.0
323.300049 120.0
323.403839 148.0
323.453949 104.0
323.51123 164.0
323.797699 88.0
323.923065 92.0
324.102203 196.0
324.154785 1608.0
324.796692 100.0
325.088318 112.0
325.139191 528.0
325.16922 288.0
325.332397 108.0
325.774139 152.0
325.85675 144.0
326.093933 156.0
326.169342 5680.0
326.392303 36.0
326.431885 100.0
326.528961 48.0
326.595184 68.0
326.820374 80.0
327.108276 160.0
327.173004 952.0
327.2883 60.0
327.482758 128.0
327.810638 72.0
327.933167 40.0
327.99707 88.0
328.048523 32.0
328.185974 1596.0
328.567841 28.0
328.712158 52.0
328.89621 120.0
328.975647 208.0
329.066254 164.0
329.186462 408.0
329.33313 84.0
329.50293 124.0
329.643829 56.0
329.734192 188.0
329.95108 128.0
330.001709 84.0
330.189331 184.0
330.348907 36.0
330.609406 160.0
331.065552 152.0
331.964294 96.0
332.532837 124.0
332.631897 148.0
332.93689 88.0
333.260193 124.0
333.550934 132.0
334.052765 60.0
334.281982 132.0
334.503998 136.0
335.928864 192.0
336.264557 204.0
336.808624 112.0
336.983978 160.0
337.046082 80.0
337.071655 160.0
337.115509 116.0
337.151672 264.0
337.192261 116.0
337.941925 108.0
338.066345 44.0
338.11026 164.0
338.157837 112.0
338.206268 172.0
338.282288 76.0
338.425079 188.0
338.527618 192.0
338.641144 144.0
338.809662 128.0
338.908569 112.0
339.421753 160.0
339.509766 76.0
339.641815 120.0
339.869263 68.0
339.905975 48.0
340.184906 120.0
340.313416 164.0
340.361145 344.0
340.406555 152.0
340.544769 44.0
340.75415 112.0
341.07019 68.0
341.140045 176.0
341.185455 428.0
341.268738 144.0
341.294464 120.0
341.368011 140.0
341.567352 100.0
341.695374 168.0
341.96402 152.0
342.084045 300.0
342.11557 116.0
342.164551 19740.0
342.222809 248.0
342.273163 192.0
342.343231 132.0
342.41156 72.0
342.419586 92.0
342.468445 116.0
342.512817 80.0
342.579834 132.0
342.632996 48.0
342.711578 112.0
342.833191 212.0
342.858032 168.0
342.910339 124.0
342.973236 64.0
343.028534 164.0
343.083832 48.0
343.168213 5400.0
343.235016 208.0
343.338257 32.0
343.444275 140.0
343.482117 76.0
343.507935 40.0
343.637054 96.0
343.677643 132.0
343.740387 52.0
343.81604 36.0
343.860474 200.0
344.17453 536.0
344.260895 128.0
344.345825 184.0
344.405914 120.0
344.429138 116.0
344.75592 116.0
344.877899 72.0
344.917938 96.0
344.981384 92.0
345.110992 80.0
345.164368 164.0
345.218048 44.0
345.269806 92.0
345.369659 128.0
345.458466 68.0
345.488861 148.0
345.554657 28.0
345.617554 108.0
345.683228 144.0
345.743378 92.0
345.802582 112.0
346.002472 60.0
346.035797 136.0
346.192566 212.0
346.424683 144.0
346.64328 160.0
347.191925 96.0
347.428711 116.0
347.492401 100.0
347.744751 168.0
348.108582 124.0
348.810791 124.0
348.862854 140.0
349.234711 48.0
349.260742 112.0
349.610474 120.0
349.99762 112.0
350.027405 120.0
350.384979 136.0
350.75766 76.0
350.787476 68.0
351.294647 108.0
352.150696 468.0
352.463257 104.0
352.691223 60.0
352.814606 184.0
352.941711 48.0
353.165802 200.0
353.174011 460.0
353.540253 68.0
353.832214 140.0
354.090607 112.0
354.166168 2600.0
354.543945 192.0
354.577667 156.0
354.690125 116.0
354.761322 72.0
354.825073 60.0
354.870056 104.0
355.06131 120.0
355.168884 968.0
355.207581 180.0
355.378845 200.0
355.459869 168.0
355.725464 48.0
356.173401 244.0
356.89389 52.0
357.145172 128.0
357.193054 144.0
357.525879 232.0
357.593628 212.0
357.63501 116.0
357.706543 120.0
358.312866 172.0
358.80658 156.0
358.938568 128.0
359.183716 152.0
359.270477 116.0
359.421387 120.0
359.700684 144.0
360.153809 176.0
360.26712 160.0
360.493835 88.0
360.981506 56.0
361.265167 156.0
361.495972 112.0
362.003265 124.0
362.370667 196.0
363.261597 124.0
364.058685 80.0
364.506958 52.0
365.001129 124.0
365.510834 92.0
365.613586 140.0
366.051392 124.0
366.394196 152.0
366.558044 52.0
366.725739 196.0
366.946838 132.0
367.142944 144.0
367.170593 188.0
367.22522 168.0
367.385437 112.0
367.480804 88.0
367.587646 136.0
367.934998 164.0
368.167328 160.0
368.263397 120.0
368.309235 104.0
368.402832 144.0
368.57666 148.0
368.748627 68.0
368.821259 108.0
368.870941 172.0
368.91684 84.0
368.985657 80.0
369.174988 2756.0
369.272461 44.0
369.324707 96.0
369.391022 44.0
369.537445 104.0
369.63913 52.0
369.723907 156.0
369.85788 36.0
369.930603 96.0
370.014832 52.0
370.053101 92.0
370.084839 140.0
370.181183 1040.0
370.23999 180.0
370.325012 88.0
370.355652 92.0
370.428284 100.0
370.464417 176.0
370.506989 128.0
370.562531 44.0
370.619415 224.0
370.648895 252.0
370.663727 136.0
370.678284 172.0
370.711975 32.0
370.76178 92.0
370.797394 152.0
370.834595 176.0
370.88443 188.0
370.9151 124.0
370.9841 304.0
371.037201 196.0
371.074097 176.0
371.115845 88.0
371.192627 80064.0
371.296478 168.0
371.373413 84.0
371.386047 72.0
371.39856 84.0
371.449493 96.0
371.461639 84.0
371.527405 48.0
371.592194 92.0
371.623688 68.0
371.667969 116.0
371.699036 100.0
371.735565 276.0
371.790741 80.0
371.824005 104.0
371.850586 92.0
371.88797 168.0
371.903259 52.0
371.998077 176.0
372.028656 304.0
372.100525 112.0
372.194489 17380.0
372.292511 72.0
372.365479 36.0
372.412567 92.0
372.48053 208.0
372.504852 228.0
372.569672 76.0
372.616821 28.0
372.652802 172.0
372.695862 128.0
372.738617 236.0
372.786987 88.0
372.836609 80.0
372.866394 96.0
372.926361 156.0
372.995636 76.0
373.052032 60.0
373.091736 60.0
373.199829 2420.0
373.306183 156.0
373.331573 96.0
373.426971 68.0
373.484192 76.0
373.553223 76.0
373.58017 72.0
373.618469 104.0
373.664795 76.0
373.699432 76.0
373.775452 84.0
373.839508 80.0
373.938019 140.0
373.970734 108.0
374.034241 160.0
374.165131 44.0
374.201385 256.0
374.273865 216.0
374.325714 104.0
374.374023 148.0
374.413361 60.0
374.456451 96.0
374.496307 36.0
374.541718 76.0
374.581055 52.0
374.631134 60.0
374.67627 56.0
374.800659 72.0
374.947113 112.0
374.977936 64.0
375.008759 52.0
375.111542 60.0
375.213074 140.0
375.255493 60.0
375.317169 132.0
375.42804 60.0
375.562561 128.0
375.716187 80.0
375.953674 120.0
375.996124 36.0
376.027008 96.0
376.189117 36.0
376.347412 84.0
376.455536 48.0
376.513489 52.0
376.547546 68.0
376.602295 60.0
376.71048 48.0
376.741364 128.0
377.100739 100.0
377.572449 128.0
377.781311 40.0
378.168274 92.0
378.520569 48.0
378.640625 60.0
378.667725 76.0
378.741943 76.0
379.210175 136.0
380.137085 60.0
380.209259 252.0
381.131165 56.0
381.220551 164.0
381.597595 84.0
381.753143 104.0
381.990387 48.0
382.25885 36.0
382.371704 184.0
382.924591 64.0
383.190613 136.0
384.148529 92.0
384.203156 112.0
384.784668 100.0
384.921326 156.0
385.401794 56.0
385.550293 116.0
386.641449 64.0
386.778442 44.0
387.240479 180.0
387.906586 64.0
388.134003 108.0
388.196747 80.0
388.628235 88.0
390.002747 152.0
390.368378 208.0
391.738098 144.0
392.041504 140.0
392.199158 60.0
392.628906 180.0
393.603638 172.0
393.820862 76.0
394.21991 164.0
394.350311 88.0
394.441223 124.0
394.99881 88.0
395.608215 56.0
396.34491 136.0
396.483612 84.0
396.665924 108.0
397.336151 96.0
397.949921 200.0
398.082397 80.0
398.99231 84.0
399.051941 116.0
400.026642 44.0
400.787354 184.0
401.185913 156.0
404.12146 188.0
404.533661 144.0
406.008209 132.0
406.722382 48.0
407.332733 160.0
407.646149 140.0
409.516937 104.0
409.613586 116.0
411.771576 104.0
412.595917 140.0
412.878967 68.0
413.07312 136.0
413.271362 80.0
413.607269 204.0
414.008087 36.0
414.636047 212.0
414.688751 140.0
415.041443 112.0
415.649902 132.0
418.304321 176.0
418.389404 144.0
418.829193 128.0
419.175507 76.0
419.225281 408.0
419.273315 132.0
419.371124 84.0
420.052094 44.0
420.117371 80.0
420.229736 200.0
420.815277 60.0
421.30127 52.0
421.77124 132.0
421.857086 184.0
422.237335 48.0
422.27005 140.0
422.327332 156.0
422.957458 116.0
423.149872 192.0
423.534821 120.0
424.567688 168.0
426.789307 116.0
427.554474 84.0
427.966125 108.0
428.188507 112.0
429.209778 316.0
429.301239 128.0
430.21701 144.0
430.890442 44.0
431.228149 248.0
431.353302 96.0
431.605499 156.0
431.952911 196.0
432.014954 92.0
432.226288 140.0
432.95871 144.0
433.667175 72.0
433.745941 84.0
434.35965 184.0
435.484528 80.0
436.353058 44.0
438.455231 80.0
438.642792 104.0
440.591675 124.0
442.030029 68.0
442.227661 88.0
442.523956 152.0
443.546143 88.0
444.221283 100.0
446.283417 152.0
446.783936 64.0
446.964844 136.0
447.214844 100.0
447.246826 104.0
447.840546 76.0
447.903717 92.0
448.093292 156.0
448.131226 176.0
448.169128 144.0
448.236542 208.0
448.776093 60.0
449.328613 64.0
450.206604 80.0
450.2742 68.0
451.497406 64.0
451.5802 32.0
454.079102 104.0
454.486359 64.0
456.669983 128.0
457.644531 148.0
458.240814 136.0
459.242645 104.0
460.241272 136.0
460.864899 32.0
460.928986 112.0
461.309387 124.0
463.689301 212.0
465.139069 128.0
465.250702 100.0
466.870636 32.0
468.183228 172.0
468.35553 140.0
468.484741 212.0
468.626923 88.0
469.191528 72.0
469.566681 28.0
470.295868 124.0
470.762146 108.0
470.831268 176.0
471.068817 148.0
471.630585 108.0
471.760254 168.0
471.859711 60.0
472.789703 64.0
472.826935 120.0
472.884918 88.0
472.945526 60.0
473.226929 108.0
473.590698 132.0
473.684753 152.0
473.729309 100.0
473.783875 88.0
473.889618 124.0
473.967621 60.0
474.233185 232.0
474.409698 84.0
474.552765 240.0
474.687195 124.0
474.756592 32.0
474.838989 60.0
474.951752 76.0
475.009094 128.0
475.119598 156.0
475.235931 160.0
475.278809 208.0
475.318665 336.0
475.401337 168.0
475.446381 156.0
475.5495 148.0
475.585449 188.0
475.654724 64.0
475.729218 196.0
475.834961 168.0
475.930634 232.0
475.990326 188.0
476.029144 116.0
476.132599 196.0
476.187622 384.0
476.250427 42524.0
476.37265 280.0
476.444214 108.0
476.546295 148.0
476.595917 184.0
476.649689 88.0
476.702057 172.0
476.729706 152.0
476.74826 164.0
476.766785 124.0
476.812805 168.0
476.885132 60.0
476.94281 176.0
476.992859 88.0
477.00827 48.0
477.024231 120.0
477.056885 124.0
477.072723 96.0
477.133087 156.0
477.252167 19676.0
477.339935 80.0
477.345856 236.0
477.366089 184.0
477.376465 108.0
477.449615 120.0
477.486389 72.0
477.516968 48.0
477.573792 68.0
477.631714 108.0
477.708466 140.0
477.729126 52.0
477.745941 128.0
477.786652 116.0
477.818756 152.0
477.853729 64.0
477.892914 56.0
477.953827 176.0
478.014038 76.0
478.075653 72.0
478.127899 156.0
478.158356 44.0
478.254028 1496.0
478.345093 76.0
478.415161 40.0
478.464935 56.0
478.474854 68.0
478.644928 52.0
478.733032 100.0
478.780945 32.0
478.841919 44.0
478.872406 48.0
478.910858 68.0
478.94165 40.0
478.95752 88.0
479.016144 44.0
479.076874 68.0
479.155365 92.0
479.259857 328.0
479.32547 68.0
479.363159 56.0
479.394226 96.0
479.512878 28.0
479.54776 132.0
479.629425 92.0
479.723785 148.0
479.781403 120.0
479.835449 184.0
479.91394 92.0
479.98996 120.0
480.022949 68.0
480.070923 44.0
480.113068 48.0
480.168121 124.0
480.196381 152.0
480.239044 44.0
480.350525 152.0
480.402405 28.0
480.755829 52.0
480.799469 48.0
480.845184 144.0
480.939148 76.0
481.008698 60.0
481.509949 96.0
481.541687 88.0
481.581024 60.0
481.649689 72.0
481.725159 128.0
481.799438 72.0
482.048492 96.0
482.148987 140.0
482.699829 44.0
482.743561 56.0
482.927246 92.0
484.179016 72.0
484.36734 40.0
485.217529 40.0
487.878052 92.0
488.401367 72.0
490.60318 68.0
491.657379 60.0
491.710358 108.0
491.79422 32.0
492.253357 32.0
493.008789 48.0
493.216522 68.0
493.950562 40.0
495.185516 152.0
495.562042 64.0
496.15152 60.0
499.335388 76.0
500.332153 72.0
504.311279 100.0
505.026703 96.0
505.939575 120.0
506.674072 72.0
509.940887 92.0
511.672791 108.0
512.596191 84.0
513.069458 72.0
514.603455 84.0
514.878906 72.0
515.656006 68.0
519.427795 104.0
522.225891 52.0
526.606079 48.0
527.126892 120.0
527.186279 36.0
534.279785 84.0
534.762939 68.0
541.267822 44.0
541.365051 68.0
542.968628 56.0
544.93219 80.0
546.322327 132.0
561.093811 64.0
564.838806 136.0
568.396912 36.0
570.672119 48.0
571.014526 104.0
574.396423 108.0
576.736206 44.0
578.137573 32.0
578.506104 48.0
580.345886 72.0
580.389038 36.0
583.476318 60.0
590.966736 52.0
595.922058 100.0
602.54834 96.0
605.924194 92.0
607.360535 56.0
610.041748 140.0
637.876953 56.0
641.864502 116.0
643.948792 72.0
646.84613 116.0
648.396057 56.0
648.522766 32.0
649.628235 52.0
651.587891 80.0
654.762024 124.0
658.086914 40.0
665.141663 48.0
665.454834 104.0
665.69104 76.0
666.122498 60.0
666.425598 48.0
671.037354 80.0
671.888367 64.0
672.027649 64.0
675.152954 76.0
683.46344 76.0
689.538879 172.0
692.38501 68.0
695.903687 64.0
698.652466 120.0
702.830627 40.0
704.747375 112.0
706.248779 76.0
707.386475 72.0
707.990112 60.0
711.85614 48.0
712.403198 36.0
713.248108 88.0
716.377136 36.0
717.181763 52.0
721.901489 44.0
722.184937 52.0
724.840393 76.0
725.515747 28.0
728.510315 80.0
735.116882 192.0
738.109619 76.0
738.655823 84.0
743.185059 124.0
743.906921 136.0
748.68634 124.0
749.781433 44.0
757.184448 112.0
758.528198 116.0
758.57074 32.0
760.441162 48.0
761.094482 68.0
762.786682 136.0
764.2276 32.0
766.920593 180.0
770.071167 44.0
770.292114 208.0
771.209351 136.0
771.906006 48.0
772.497803 148.0
774.3078 48.0
777.723267 48.0
789.093445 48.0
790.553406 200.0
791.65625 36.0
794.425171 60.0
798.886902 168.0
802.507141 40.0
803.635193 108.0
804.538269 152.0
805.605591 56.0
805.645142 156.0
805.865479 112.0
807.991394 40.0
810.063416 40.0
815.340332 68.0
816.812988 248.0
817.006409 220.0
817.120178 240.0
818.862122 188.0
819.152588 148.0
821.478455 144.0
826.872498 172.0
827.198792 180.0
831.807678 172.0
832.031555 144.0
834.145691 104.0
835.013916 156.0
835.082947 56.0
835.163513 64.0
836.29126 196.0
837.068481 168.0
838.030457 156.0
839.298523 164.0
840.186768 116.0
841.999268 128.0
842.559631 216.0
842.669373 192.0
843.339722 112.0
844.444092 140.0
845.410278 116.0
845.873291 64.0
847.216858 184.0
848.602051 36.0
850.893799 260.0
852.758545 44.0
853.351501 112.0
854.450745 216.0
854.95697 148.0
855.748657 164.0
856.779541 64.0
858.172546 140.0
858.767334 180.0
861.616089 144.0
863.978027 180.0
864.118469 192.0
865.171936 128.0
866.765076 208.0
869.392273 168.0
869.468567 148.0
870.261047 184.0
870.689697 256.0
871.394592 168.0
872.687683 180.0
874.099426 132.0
874.140198 60.0
875.830322 144.0
875.918701 176.0
876.00708 124.0
876.725891 152.0
879.267822 76.0
879.368164 136.0
882.238953 148.0
885.564575 120.0
885.629761 240.0
885.896301 156.0
885.979248 144.0
886.619202 212.0
887.674438 128.0
888.154846 72.0
888.700623 152.0
889.460266 192.0
890.33313 148.0
890.849854 68.0
892.401062 148.0
893.650146 36.0
893.864319 168.0
894.513062 192.0
896.871948 132.0
898.225586 148.0
898.529846 164.0
898.583496 144.0
899.04895 144.0
899.556274 188.0
899.920471 136.0
900.416138 132.0
900.70282 192.0
901.706665 56.0
902.208801 112.0
902.675171 208.0
903.183533 76.0
903.638184 144.0
903.895447 208.0
903.967285 132.0
904.009155 120.0
904.230591 52.0
904.338318 148.0
905.272339 120.0
905.362183 232.0
906.931946 180.0
907.789246 140.0
909.229065 60.0
909.577209 160.0
910.88031 164.0
911.469116 120.0
912.731445 152.0
914.042786 132.0
914.102966 144.0
915.541748 68.0
915.854919 52.0
916.089844 48.0
917.156494 208.0
917.512146 152.0
918.55542 196.0
919.032043 44.0
920.19696 192.0
920.74646 132.0
920.969971 132.0
924.065186 48.0
924.28302 212.0
927.571655 164.0
927.771729 128.0
928.214355 88.0
928.861877 184.0
929.233398 132.0
929.360779 220.0
929.59137 192.0
930.562622 160.0
931.005859 136.0
931.911011 136.0
932.324219 156.0
932.470093 152.0
932.895569 172.0
932.998901 176.0
933.071899 40.0
933.175232 208.0
933.880676 124.0
934.884521 188.0
935.493225 168.0
936.613708 164.0
937.198547 152.0
937.881104 152.0
938.112732 80.0
939.137085 184.0
939.576416 160.0
940.027954 116.0
940.858093 164.0
941.065674 160.0
941.175537 180.0
941.273254 212.0
941.679504 116.0
941.786255 156.0
942.165039 132.0
942.419312 208.0
942.562195 160.0
942.812744 124.0
943.014404 128.0
943.112244 196.0
943.411743 48.0
946.483154 172.0
946.770996 140.0
947.355286 196.0
948.284302 164.0
948.977051 144.0
949.516663 148.0
950.584167 212.0
951.56012 172.0
952.192627 212.0
952.727051 192.0
953.55658 180.0
953.654907 196.0
953.863892 52.0
954.663208 220.0
955.087585 148.0
955.4198 232.0
955.512085 176.0
955.690491 124.0
955.739746 208.0
956.582886 192.0
958.64624 168.0
959.237976 76.0
959.429077 116.0
959.583191 104.0
960.008667 116.0
961.489319 212.0
961.927551 156.0
962.810547 168.0
963.279968 132.0
964.126465 120.0
965.554626 212.0
965.981384 220.0
966.098938 92.0
966.247437 144.0
967.435669 76.0
967.565674 44.0
967.701904 156.0
967.78241 76.0
968.514282 176.0
969.473511 116.0
970.483948 240.0
970.915222 204.0
972.239502 176.0
972.388428 224.0
974.002808 148.0
974.139465 172.0
974.6427 184.0
975.295288 104.0
977.111145 176.0
977.316467 140.0
977.521851 168.0
979.252563 192.0
979.352234 156.0
979.825684 168.0
980.635803 44.0
981.302795 88.0
981.633301 208.0
981.758057 144.0
982.313171 152.0
982.449158 60.0
983.024414 140.0
983.398865 116.0
983.692261 156.0
984.578918 176.0
984.722595 172.0
984.797546 108.0
985.153564 172.0
985.409729 232.0
985.528442 172.0
986.934814 76.0
987.629028 240.0
988.135742 136.0
988.630066 168.0
988.730225 176.0
988.905457 208.0
989.475098 120.0
990.64624 136.0
990.69635 176.0
990.953247 144.0
991.266541 160.0
991.786743 180.0
991.874512 144.0
992.394836 196.0
992.720947 172.0
992.959229 216.0
993.523804 184.0
993.636719 100.0
993.950439 176.0
994.1073 132.0
994.19519 136.0
994.703613 148.0
995.959473 188.0
996.078796 176.0
996.826477 188.0
997.13446 208.0
998.272339 132.0
998.479919 176.0
999.543091 196.0
999.832581 52.0
1000.203918 148.0
1001.330994 196.0
1001.727844 120.0
1002.496521 176.0
1002.572144 256.0
1002.918762 216.0
1003.341125 160.0
1003.505066 212.0
1003.549194 220.0
1003.605957 264.0
1003.769897 60.0
1004.211365 160.0
1004.488892 200.0
1005.132446 92.0
1005.182922 120.0
1005.264954 232.0
1005.965576 152.0
1006.091858 192.0
1006.331787 196.0
1006.622192 160.0
1006.792725 200.0
1007.740295 136.0
1008.49231 188.0
1008.992859 156.0
1009.143433 192.0
1009.295227 148.0
1009.396362 72.0
1009.945679 212.0
1010.028809 252.0
1010.89563 164.0
1011.231079 144.0
1011.655151 136.0
1011.705811 140.0
1011.832458 188.0
1012.370667 156.0
1013.07373 40.0
1013.225769 132.0
1013.365173 192.0
1013.808716 72.0
1014.043213 232.0
1014.379211 176.0
1014.708191 148.0
1014.873718 288.0
1014.949768 220.0
1014.994202 172.0
1015.932861 148.0
1016.630859 52.0
1017.68457 164.0
1018.243408 204.0
1018.54834 140.0
1018.700745 148.0
1019.075623 188.0
1019.831848 40.0
1020.340393 92.0
1022.420471 208.0
1022.846924 112.0
1022.942383 156.0
1023.305298 168.0
1023.687378 136.0
1024.037598 160.0
1024.64917 160.0
1024.751099 108.0
1024.853027 168.0
1024.929565 172.0
1025.050659 160.0
1025.337402 136.0
1026.446655 188.0
1026.599731 176.0
1026.982422 152.0
1027.199219 240.0
1028.590332 156.0
1028.852051 176.0
1029.209717 184.0
1029.364746 164.0
1029.803589 136.0
1030.270874 128.0
1030.717163 132.0
1031.637573 88.0
1032.846191 204.0
1032.961304 88.0
1033.249146 68.0
1033.479492 48.0
1033.620239 136.0
1033.735474 196.0
1034.260254 144.0
1034.465088 76.0
1034.676392 164.0
1034.727661 192.0
1034.778809 148.0
1035.361572 172.0
1035.528076 212.0
1035.585693 156.0
1036.07251 204.0
1036.317139 188.0
1036.418579 168.0
1036.777344 152.0
1036.880005 168.0
1036.924805 164.0
1037.738892 124.0
1037.918457 136.0
1037.976196 144.0
1038.617554 184.0
1039.451538 64.0
1039.804565 112.0
1039.859985 228.0
1040.414429 120.0
1041.242676 144.0
1041.467529 184.0
1041.563843 44.0
1041.910767 168.0
1042.090698 64.0
1042.238403 160.0
1042.309204 164.0
1042.977539 172.0
1044.199219 172.0
1044.507935 112.0
1044.591553 144.0
1044.893921 204.0
1044.990479 180.0
1045.131958 240.0
1045.292847 156.0
1045.531006 184.0
1046.065186 176.0
1046.67688 176.0
1047.43689 104.0
1047.590332 228.0
1048.944702 76.0
1049.286377 188.0
1050.331177 192.0
1050.479492 196.0
1050.692383 68.0
1050.898926 172.0
1051.524902 208.0
1051.621704 212.0
1051.860474 100.0
1052.157471 168.0
1052.499634 368.0
1052.68689 92.0
1053.255249 160.0
1054.85791 232.0
1054.961304 144.0
1055.200562 208.0
1056.396973 144.0
1056.558716 184.0
1057.102173 80.0
1057.199341 184.0
1057.328735 96.0
1057.45813 124.0
1058.396851 92.0
1058.623535 132.0
1059.86731 140.0
1060.871826 116.0
1060.962646 164.0
1062.305054 208.0
1062.619385 152.0
1062.739746 148.0
1062.901978 220.0
1062.953857 208.0
1063.05127 236.0
1063.252441 88.0
1063.531494 40.0
1064.609253 168.0
1064.702515 176.0
1064.758667 164.0
1065.252319 140.0
1065.447144 104.0
1065.62915 128.0
1065.895508 212.0
1065.993042 196.0
1066.436768 268.0
1066.662476 196.0
1066.838013 120.0
1067.208618 164.0
1067.364624 148.0
1067.897949 172.0
1067.962891 176.0
1068.015015 148.0
1068.151611 112.0
1068.392334 204.0
1069.283813 152.0
1069.41394 116.0
1069.791504 216.0
1069.928223 256.0
1070.188599 160.0
1070.240723 80.0
1070.624878 144.0
1070.976685 44.0
1071.080811 172.0
1071.999512 156.0
1072.286255 176.0
1072.449219 160.0
1073.648926 208.0
1074.699097 220.0
1075.403931 228.0
1075.599731 156.0
1076.618408 220.0
1076.853516 72.0
1077.398071 76.0
1077.460938 152.0
1077.885742 140.0
1078.571899 132.0
1079.081909 160.0
1079.493774 136.0
1079.807739 72.0
1080.566528 156.0
1080.867554 240.0
1082.104614 196.0
1082.3927 148.0
1082.608887 128.0
1082.805298 244.0
1083.912476 208.0
1084.305664 172.0
1084.384277 184.0
1084.83667 196.0
1085.085815 180.0
1085.473145 208.0
1085.675903 164.0
1086.036621 116.0
1086.108765 44.0
1086.246582 184.0
1086.318726 120.0
1086.410522 108.0
1087.204468 184.0
1087.834595 220.0
1088.307373 200.0
1088.589722 148.0
1088.780151 140.0
1088.891846 180.0
1089.253052 300.0
1089.804932 168.0
1090.002075 168.0
1090.146606 144.0
1090.192627 244.0
1090.269653 216.0
1090.797363 220.0
1091.175781 200.0
1091.632324 216.0
1091.862549 124.0
1091.908569 184.0
1092.033569 180.0
1092.112427 232.0
1092.316406 120.0
1092.744019 184.0
1094.672607 156.0
1094.982178 152.0
1095.02832 120.0
1095.654053 124.0
1096.009888 156.0
1096.095581 228.0
1097.3479 124.0
1097.835815 204.0
1098.944092 188.0
1099.432373 168.0
1099.498413 200.0
1100.270752 188.0
1100.501831 56.0
1100.633789 164.0
1100.779175 148.0
1100.851807 184.0
1100.950806 132.0
1101.155518 44.0
1101.426392 192.0
1101.670776 184.0
1101.743408 256.0
1102.192749 192.0
1102.29187 164.0
1102.390991 188.0
1102.503296 204.0
1102.886719 144.0
1103.561035 48.0
1103.951172 124.0
1104.447144 180.0
1104.691895 88.0
1106.154419 220.0
1106.353027 136.0
1106.604614 120.0
1107.3927 172.0
1107.889526 116.0
1108.532227 252.0
1108.757568 92.0
1108.956421 168.0
1109.469849 156.0
1109.632568 164.0
1111.171265 136.0
1112.179688 200.0
1112.241699 160.0
1112.283569 124.0
1112.472046 88.0
1112.664551 164.0
1113.640747 40.0
1114.092529 296.0
1114.192139 68.0
1114.324951 84.0
1114.597412 168.0
1114.697144 168.0
1114.796753 152.0
1114.903076 144.0
1115.308594 180.0
1115.620972 184.0
1115.773926 196.0
1116.445557 216.0
1116.778076 180.0
1117.163818 96.0
1117.603027 168.0
1117.829224 204.0
1118.454834 80.0
1119.679932 104.0
1119.913086 168.0
1119.993042 224.0
1120.092896 188.0
1120.147339 204.0
1120.232788 32.0
1120.739136 244.0
1120.885742 216.0
1120.965698 196.0
1121.239014 168.0
1121.71228 196.0
1121.757812 172.0
1121.838867 112.0
1121.885498 208.0
1122.134521 176.0
1122.488892 112.0
1122.718994 140.0
1123.192627 168.0
1123.632935 160.0
1124.08667 232.0
1124.260132 128.0
1125.321533 244.0
1125.481812 204.0
1126.112305 192.0
1126.189697 164.0
1126.554688 136.0
1126.637207 156.0
1126.899414 168.0
1127.245239 124.0
1127.291992 200.0
1127.853394 136.0
1128.615601 112.0
1128.876343 112.0
1129.291016 256.0
1129.40564 148.0
1129.826172 184.0
1130.388306 140.0
1130.635864 164.0
1130.696045 128.0
1130.763062 192.0
1130.816528 104.0
1130.923706 232.0
1131.512817 148.0
1131.613159 168.0
1131.676147 200.0
1131.733765 108.0
1131.914551 136.0
1132.041748 196.0
1132.12207 180.0
1133.079956 188.0
1133.267578 124.0
1133.810425 208.0
1134.125366 176.0
1134.212524 144.0
1134.480713 228.0
1134.541016 124.0
1134.815918 128.0
1135.084106 256.0
1136.19751 188.0
1136.465942 168.0
1136.76123 152.0
1136.875244 136.0
1137.150391 164.0
1137.418945 152.0
1137.754639 200.0
1137.824707 152.0
1138.473022 168.0
1139.85022 168.0
1139.937622 208.0
1140.233276 112.0
1140.589478 196.0
1140.87854 176.0
1141.268555 164.0
1141.524048 176.0
1141.732544 132.0
1141.988159 192.0
1143.508667 168.0
1144.161621 136.0
1144.363647 204.0
1144.714844 216.0
1144.801392 172.0
1145.047729 204.0
1145.697266 112.0
1146.182373 132.0
1146.283447 160.0
1147.456299 188.0
1147.746216 164.0
1148.474609 176.0
1149.101929 176.0
1149.250366 176.0
1149.574341 164.0
1149.661987 48.0
1150.202026 28.0
1150.269531 136.0
1150.634033 164.0
1150.94458 240.0
1151.201538 156.0
1151.863159 64.0
1152.55896 156.0
1152.903687 212.0
1153.194336 180.0
1153.687744 132.0
1154.052856 160.0
1154.289551 188.0
1154.424805 128.0
1154.96582 72.0
1155.432617 188.0
1155.513794 140.0
1155.594971 168.0
1155.64917 176.0
1155.716797 112.0
1155.90625 236.0
1156.177002 168.0
1156.407104 40.0
1156.657471 80.0
1156.914795 164.0
1156.997437 156.0
1157.056885 160.0
1158.18103 188.0
1158.506226 204.0
1158.797607 176.0
1159.217651 120.0
1159.616089 180.0
1159.785278 216.0
1160.180176 56.0
1160.898926 80.0
1161.061646 300.0
1161.63147 112.0
1161.706055 180.0
1161.87561 160.0
1161.987549 144.0
1162.35437 148.0
1162.591309 196.0
1162.791748 204.0
1163.093506 132.0
1163.151489 148.0
1163.300781 172.0
1163.606323 160.0
1163.973022 172.0
1164.584229 208.0
1164.6521 56.0
1164.978149 188.0
1165.269043 164.0
1165.997437 132.0
1166.072266 112.0
1166.516724 368.0
1166.615967 160.0
1166.68396 168.0
1167.202759 200.0
1167.397949 156.0
1168.15979 64.0
1168.258057 164.0
1168.438721 144.0
1168.799316 164.0
1169.085083 196.0
1169.398193 204.0
1169.997192 108.0
1170.18103 136.0
1170.623657 220.0
1170.998169 192.0
1171.686279 108.0
1171.849731 152.0
1172.49707 236.0
1172.88562 56.0
1173.233276 160.0
1173.367432 176.0
1173.690063 172.0
1173.901489 208.0
1174.275757 204.0
1174.365234 116.0
1174.494873 112.0
1175.061035 168.0
1175.600098 80.0
1175.957642 136.0
1176.030151 96.0
1176.152954 212.0
1176.883545 60.0
1177.040527 208.0
1177.22937 140.0
1177.436646 136.0
1177.566406 176.0
1178.140259 116.0
1178.440796 168.0
1178.837158 128.0
1179.103638 204.0
1179.151489 148.0
1179.315552 116.0
1179.449463 172.0
1179.500122 176.0
1179.609497 128.0
1179.862427 76.0
1180.238525 160.0
1180.361572 172.0
1180.484619 180.0
1180.539307 100.0
1180.929199 156.0
1181.264404 84.0
1181.353271 152.0
1181.473022 212.0
1181.900635 128.0
1182.192749 152.0
1182.25647 184.0
1182.400269 160.0
1182.489258 188.0
1182.961548 208.0
1183.098389 196.0
1183.755737 232.0
1183.94751 100.0
1184.06897 168.0
1184.858521 164.0
1185.447754 184.0
1187.401733 200.0
1188.595337 40.0
1188.945435 148.0
1189.06897 140.0
1189.288574 44.0
1189.370972 184.0
1189.491943 264.0
1189.927002 256.0
1190.020264 192.0
1190.380127 200.0
1190.744141 40.0
1191.417358 108.0
1191.925781 156.0
1192.21167 236.0
1192.537476 160.0
1192.956055 148.0
1193.417358 140.0
1193.548096 48.0
1193.685547 168.0
1194.373291 144.0
1194.476562 168.0
1195.721924 76.0
1195.797607 172.0
1195.880249 172.0
1196.095947 220.0
1196.439697 420.0
1197.0 156.0
1197.078125 36.0
1197.26416 156.0
1197.450073 208.0
1197.911621 232.0
1198.028687 144.0
1198.276733 140.0
1198.324951 120.0
1198.463257 156.0
1198.697021 148.0
1198.924438 80.0
1200.289429 44.0
1201.158447 236.0
1201.297485 204.0
1201.778931 220.0
1201.93811 160.0
1202.026489 176.0
1202.089844 196.0
1202.176147 200.0
1202.489258 120.0
1202.572998 176.0
1202.987183 204.0
1203.235718 68.0
1204.071167 184.0
1204.216309 120.0
1204.686035 144.0
1204.755127 176.0
1204.89502 208.0
1205.052124 156.0
1205.224854 168.0
1205.738403 212.0
1206.074951 212.0
1206.171753 204.0
1206.552002 204.0
1207.381714 188.0
1207.457764 132.0
1207.540771 124.0
1208.377808 36.0
1208.723755 144.0
1208.910645 212.0
1209.229004 148.0
1209.415894 40.0
1210.696777 196.0
1210.966919 184.0
1211.022339 192.0
1211.237061 72.0
1211.450439 152.0
1211.524048 188.0
1211.625 156.0
1212.019897 152.0
1212.130737 200.0
1212.32959 176.0
1213.30188 164.0
1213.399292 164.0
1213.510132 108.0
1213.875366 204.0
1214.016357 156.0
1214.694824 196.0
1214.925049 204.0
1215.056885 212.0
1215.1521 176.0
1215.230347 152.0
1215.424561 212.0
1215.487061 164.0
1215.766724 176.0
1215.8479 40.0
1215.972778 48.0
1216.126953 100.0
1216.264404 200.0
1216.625366 148.0
1216.722534 152.0
1216.840576 168.0
1217.000244 148.0
1217.132202 76.0
1217.63916 180.0
1217.757202 212.0
1217.998169 304.0
1218.022705 208.0
1218.319824 148.0
1218.910522 172.0
1219.000854 200.0
1219.348267 208.0
1219.661011 136.0
1219.932129 200.0
1220.342407 132.0
1220.564819 76.0
1220.694458 128.0
1220.794312 156.0
1221.065552 152.0
1221.538574 176.0
1221.740356 188.0
1222.011719 168.0
1222.373535 136.0
1222.825928 156.0
1223.299194 44.0
1223.515015 180.0
1223.890991 112.0
1223.958984 136.0
1224.023315 236.0
1224.33667 108.0
1224.48291 128.0
1224.796387 136.0
1225.590576 152.0
1226.036621 104.0
1226.138306 204.0
1226.272217 172.0
1226.977661 148.0
1227.124023 140.0
1227.179565 144.0
1227.319214 84.0
1227.402954 176.0
1227.856201 156.0
1227.932983 164.0
1228.204956 84.0
1228.397095 196.0
1228.637451 112.0
1229.53064 136.0
1229.984375 160.0
1230.089111 192.0
1230.256592 208.0
1230.347412 56.0
1230.43811 176.0
1230.626587 156.0
1230.96875 216.0
1231.05957 100.0
1231.166748 184.0
1231.408813 124.0
1231.60437 168.0
1231.792969 220.0
1231.869751 36.0
1231.953613 140.0
1232.072388 32.0
1232.367554 180.0
1232.498657 152.0
1232.652344 124.0
1233.169556 180.0
1234.370117 224.0
1234.525879 76.0
1234.630737 284.0
1235.162354 144.0
1235.37915 160.0
1235.470093 208.0
1235.687012 180.0
1235.79895 156.0
1235.987915 120.0
1236.134888 72.0
1236.239746 32.0
1236.98877 280.0
1237.065674 164.0
1237.786865 208.0
1238.368164 84.0
1238.543213 172.0
1238.641357 112.0
1238.872559 176.0
1238.935547 192.0
1238.998657 144.0
1240.37915 208.0
1240.703735 132.0
1241.108276 184.0
1241.206543 204.0
1241.334595 92.0
1241.402832 128.0
1241.585205 156.0
1241.893799 160.0
1241.942871 60.0
1242.42688 128.0
1242.835083 180.0
1243.647949 212.0
1244.420166 184.0
1244.497437 112.0
1244.918701 84.0
1245.445435 208.0
1245.866943 168.0
1246.323608 96.0
1246.808594 204.0
1246.857788 192.0
1247.082642 152.0
1247.863037 204.0
1247.996582 184.0
1248.320068 176.0
1248.622437 152.0
1248.974121 208.0
1249.206299 100.0
1249.645874 100.0
1249.733887 224.0
1250.050537 120.0
1250.099854 116.0
1250.845947 100.0
1251.240112 48.0
1251.944336 140.0
1252.169678 176.0
1252.226074 180.0
1252.303833 200.0
1252.706665 116.0
1252.761353 52.0
1252.94458 172.0
1253.19812 168.0
1253.726685 72.0
1253.973389 220.0
1254.09314 240.0
1254.643066 92.0
1254.741699 144.0
1255.170044 176.0
1255.305786 160.0
1256.130981 140.0
1256.288452 196.0
1256.58252 176.0
1256.829468 100.0
1256.977661 148.0
1257.093994 168.0
1258.255493 172.0
1258.55896 216.0
1258.968506 92.0
1259.088501 152.0
1259.272095 140.0
1259.342773 164.0
1259.660645 84.0
1259.731323 160.0
1260.035034 196.0
1260.444946 136.0
1260.621582 44.0
1260.826538 156.0
1261.045654 144.0
1261.194092 172.0
1261.406128 164.0
1261.469727 184.0
1262.138916 168.0
1262.275757 140.0
1262.650513 144.0
1263.237671 212.0
1263.34375 176.0
1263.73999 168.0
1263.803589 160.0
1263.90979 204.0
1264.341431 132.0
1264.468872 196.0
1264.688232 160.0
1264.829834 140.0
1265.162598 120.0
1265.703125 164.0
1266.139771 156.0
1266.281372 100.0
1266.430176 108.0
1267.025146 136.0
1267.538086 136.0
1267.620361 112.0
1267.783325 248.0
1268.307861 56.0
1268.421265 128.0
1268.555908 144.0
1268.612671 136.0
1268.766602 180.0
1269.175415 192.0
1269.293335 188.0
1269.350098 160.0
1269.640869 160.0
1269.952881 184.0
1270.059326 208.0
1270.215332 196.0
1270.449463 116.0
1270.591309 180.0
1270.790039 140.0
1271.634521 164.0
1271.797729 196.0
1271.939697 200.0
1272.202393 132.0
1272.514771 44.0
1272.607056 56.0
1272.812988 116.0
1273.267456 140.0
1274.692993 188.0
1274.894409 188.0
1275.000977 200.0
1275.072021 140.0
1275.121826 104.0
1275.55542 204.0
1276.282593 244.0
1276.522339 160.0
1276.586304 72.0
1276.685913 184.0
1276.828125 152.0
1278.159058 228.0
1278.806152 128.0
1279.005371 164.0
1279.325684 216.0
1279.610474 168.0
1279.717285 108.0
1280.101807 188.0
1280.821167 208.0
1281.084717 244.0
1281.341187 168.0
1281.611938 112.0
1282.410156 388.0
1282.467163 184.0
1283.087402 148.0
1283.315552 208.0
1283.586548 124.0
1284.098511 156.0
1284.338623 324.0
1284.663452 168.0
1284.727661 176.0
1284.834717 200.0
1284.913208 188.0
1285.098755 140.0
1285.384155 168.0
1285.598267 148.0
1285.703735 184.0
1286.112061 56.0
1286.219116 180.0
1286.383301 88.0
1286.493042 144.0
1287.282959 144.0
1287.440063 168.0
1287.597168 76.0
1287.740112 184.0
1288.054321 92.0
1288.697388 112.0
1288.781494 156.0
1289.004639 116.0
1289.397705 228.0
1290.19104 200.0
1290.455688 216.0
1290.863159 156.0
1290.956177 100.0
1291.108765 140.0
1291.443604 212.0
1291.649902 164.0
1291.794556 148.0
1292.129272 148.0
1292.973633 144.0
1293.181274 200.0
1293.345825 100.0
1293.832642 208.0
1294.126221 192.0
1294.283691 104.0
1294.340942 168.0
1295.186157 172.0
1295.279175 96.0
1295.479858 132.0
1295.666016 236.0
1295.737671 212.0
1295.816528 116.0
1295.880981 128.0
1296.081665 76.0
1296.583252 160.0
1297.135254 152.0
1297.57251 192.0
1297.834473 272.0
1297.895142 128.0
1297.973999 156.0
1298.131836 120.0
1298.425903 108.0
1298.512695 148.0
1298.777344 180.0
1298.955811 204.0
1299.057007 180.0
1299.22876 120.0
1299.387085 176.0
1299.630981 184.0
1299.835693 144.0
1300.427612 156.0
1300.513794 140.0
1300.585571 236.0
1301.113159 244.0
1302.057373 148.0
1302.20105 188.0
1302.509888 120.0
1302.66626 152.0
1302.775757 188.0
1302.94812 172.0
1303.120605 112.0
1303.221558 176.0
1303.508667 132.0
1303.903931 160.0
1304.076416 52.0
1304.633301 144.0
1305.054077 140.0
1305.499878 112.0
1305.737305 144.0
1305.917114 112.0
1305.996216 220.0
1306.262329 164.0
1306.924194 120.0
1309.076538 124.0
1309.234985 88.0
1309.364868 124.0
1309.417603 188.0
1309.645508 140.0
1310.027344 212.0
1310.541748 220.0
1310.646973 68.0
1310.697388 108.0
1310.882324 144.0
1311.605469 144.0
1311.86499 168.0
1311.968872 240.0
1312.15332 256.0
1312.251343 80.0
1312.376831 96.0
1312.542725 184.0
1312.898071 188.0
1313.018677 40.0
1313.653442 88.0
1313.999756 148.0
1314.165649 212.0
1314.641968 184.0
1314.750244 148.0
1315.168823 60.0
1315.370972 116.0
1315.775146 124.0
1316.345581 56.0
1316.417847 104.0
1316.518921 176.0
1316.930664 140.0
1317.183472 180.0
1317.537476 160.0
1317.973511 232.0
1318.178101 184.0
1319.330078 168.0
1319.611694 164.0
1319.756348 80.0
1319.87207 196.0
1320.074463 228.0
1320.580811 192.0
1321.114136 124.0
1321.347534 188.0
1321.658691 180.0
1321.745483 152.0
1322.78772 128.0
1323.098999 100.0
1323.649292 156.0
1323.808594 144.0
1324.373535 248.0
1324.569092 244.0
1325.018311 176.0
1325.184937 204.0
1325.286377 208.0
1325.380615 44.0
1325.750122 188.0
1325.909546 180.0
1326.460449 188.0
1326.793945 96.0
1326.895386 168.0
1326.97522 252.0
1327.026001 168.0
1327.446533 152.0
1327.823608 68.0
1327.953979 124.0
1328.077515 124.0
1328.332397 188.0
1328.469238 152.0
1329.49231 164.0
1330.109253 228.0
1330.189087 148.0
1330.377808 152.0
1331.906372 184.0
1332.21521 200.0
1332.265991 140.0
1332.767334 140.0
1333.08606 80.0
1333.140015 164.0
1333.203369 168.0
1333.544922 76.0
1333.857544 60.0
1334.599121 156.0
1334.766357 72.0
1335.01355 188.0
1335.086304 156.0
1335.646362 48.0
1335.820923 224.0
1336.373901 76.0
1336.483032 60.0
1336.679443 140.0
1336.950195 120.0
1337.174561 136.0
1337.255737 196.0
1337.312622 52.0
1337.363647 196.0
1337.720337 80.0
1338.135254 116.0
1338.193481 156.0
1339.045532 104.0
1339.191162 164.0
1339.293213 68.0
1339.562744 132.0
1339.657349 80.0
1339.854126 148.0
1339.948853 228.0
1340.353638 192.0
1340.837891 152.0
1341.034668 104.0
1341.282471 192.0
1341.34082 136.0
1341.399048 220.0
1341.581299 32.0
1341.756348 188.0
1341.931274 132.0
1342.056641 188.0
1342.152954 204.0
1342.295898 152.0
1342.346924 196.0
1342.529297 84.0
1342.602173 124.0
1342.711548 176.0
1342.937622 152.0
1342.98877 100.0
1343.652588 192.0
1343.732788 140.0
1343.798462 96.0
1344.119507 144.0
1344.243652 212.0
1344.618896 176.0
1344.788818 188.0
1344.958862 168.0
1345.199707 140.0
1345.338501 44.0
1345.680176 164.0
1346.15625 404.0
1346.285156 296.0
1347.06189 64.0
1347.621704 352.0
1347.874756 324.0
1347.99707 196.0
1348.092163 76.0
1348.25293 168.0
1348.384521 164.0
1348.786499 148.0
1349.554077 180.0
1349.948975 140.0
1350.014771 204.0
1350.804688 52.0
1351.14856 120.0
1351.397339 228.0
1351.543701 60.0
1351.748535 116.0
1351.807129 112.0
1351.982788 156.0
1352.04126 156.0
1352.758667 120.0
1353.161255 204.0
1353.322388 152.0
1353.417603 152.0
1354.090942 168.0
1354.625977 208.0
1354.982422 168.0
1354.999878 108.0
1355.024292 172.0
1355.11499 176.0
1355.256104 104.0
1355.307373 172.0
1355.431885 172.0
1355.563843 172.0
1355.717773 256.0
1355.864258 152.0
1356.047485 120.0
1357.007935 164.0
1357.198486 184.0
1357.290894 168.0
1357.352539 260.0
1357.613525 176.0
1357.807129 168.0
1357.895142 108.0
1357.961182 80.0
1358.467285 180.0
1358.570068 168.0
1359.33313 176.0
1359.391846 188.0
1359.553345 64.0
1359.912964 220.0
1360.228516 140.0
1360.492798 212.0
1360.881958 136.0
1361.087524 48.0
1361.182983 176.0
1361.410645 108.0
1361.498779 76.0
1361.667725 160.0
1361.966064 288.0
1362.328857 248.0
1362.46106 184.0
1362.608032 144.0
1362.799072 140.0
1363.078247 152.0
1363.820557 168.0
1364.006104 196.0
1364.412476 184.0
1364.496826 180.0
1364.776245 172.0
1365.004272 292.0
1365.114502 160.0
1365.268921 160.0
1365.357178 148.0
1365.953369 164.0
1366.122925 84.0
1366.328247 148.0
1367.27002 52.0
1367.321655 128.0
1367.535034 92.0
1367.77063 180.0
1369.471558 252.0
1369.523071 208.0
1369.935547 144.0
1370.10498 196.0
1370.488159 96.0
1370.731323 148.0
1371.004028 200.0
1371.217773 124.0
1371.365112 176.0
1371.704224 204.0
1371.931396 168.0
1372.190796 160.0
1372.552124 164.0
1372.60376 188.0
1372.942993 144.0
1373.164185 184.0
1373.658447 168.0
1373.776489 208.0
1373.931396 156.0
1374.177368 140.0
1374.285522 152.0
1374.900879 188.0
1375.209595 216.0
1375.303955 88.0
1375.51062 184.0
1375.569702 56.0
1375.650879 124.0
1375.724731 236.0
1376.012695 128.0
1376.086426 204.0
1376.145508 160.0
1376.234131 176.0
1376.839722 204.0
1377.171997 160.0
1377.563599 128.0
1377.630005 196.0
1377.739746 192.0
1378.302368 160.0
1378.9823 192.0
1379.152344 180.0
1379.300171 80.0
1379.758423 160.0
1379.810181 128.0
1380.401733 108.0
1380.492432 200.0
1380.823364 136.0
1381.26709 96.0
1381.873779 124.0
1382.228882 72.0
1382.384277 64.0
1382.510132 100.0
1383.368774 148.0
1383.946289 196.0
1384.057251 172.0
1384.427612 84.0
1384.574341 156.0
1384.694214 132.0
1384.849731 156.0
1385.020142 244.0
1385.071899 148.0
1385.131226 204.0
1385.575684 48.0
1386.768799 152.0
1386.835449 108.0
1386.998535 176.0
1387.398926 248.0
1387.45813 64.0
1387.884155 152.0
1388.110718 160.0
1388.296021 100.0
1388.548218 156.0
1388.622437 136.0
1389.149048 204.0
1390.380737 200.0
1390.447632 184.0
1390.588623 208.0
1391.38147 148.0
1391.546265 128.0
1391.853027 204.0
1392.006592 228.0
1392.37793 108.0
1392.459595 156.0
1392.645264 116.0
1393.02417 412.0
1393.748047 120.0
1394.085449 260.0
1394.636597 168.0
1394.93396 136.0
1394.993408 152.0
1395.134644 176.0
1395.781616 160.0
1395.848511 124.0
1395.967529 156.0
1396.726074 76.0
1396.845093 168.0
1396.971558 220.0
1397.313843 48.0
1397.536987 148.0
1398.022705 192.0
1398.109985 316.0
1398.504517 168.0
1398.809692 148.0
1399.018066 188.0
1399.129761 128.0
1399.345703 96.0
1399.516968 216.0
1399.608032 192.0
1399.755249 176.0
1399.919067 180.0
1400.012939 132.0
1400.164795 192.0
1400.351074 164.0
1400.552124 156.0
1400.857544 168.0
1401.453613 152.0
1401.87085 188.0
1401.967773 192.0
1402.019897 48.0
1402.101929 136.0
1402.221191 184.0
1402.489502 128.0
1402.623657 168.0
1403.212646 160.0
1403.66748 100.0
1403.900513 196.0
1404.167114 140.0
1404.675049 220.0
1405.062256 188.0
1405.308472 228.0
1405.457764 80.0
1405.574585 200.0
1405.666626 56.0
1405.897949 204.0
1406.022827 224.0
1406.286133 156.0
1406.368164 120.0
1406.539917 160.0
1406.778809 216.0
1407.181885 200.0
1407.292236 124.0
1407.520508 128.0
1407.622437 132.0
1407.697144 148.0
1407.95105 160.0
1408.033203 224.0
1408.369385 168.0
1408.533691 156.0
1408.653198 168.0
1408.742798 60.0
1408.975708 156.0
1409.071533 180.0
1409.318115 72.0
1409.654419 144.0
1410.042969 204.0
1410.379395 200.0
1411.007324 104.0
1411.254028 188.0
1411.388672 144.0
1411.523193 188.0
1411.650391 172.0
1411.77002 188.0
1411.89624 204.0
1412.196289 96.0
1412.428223 140.0
1412.547852 224.0
1412.682495 204.0
1413.056641 128.0
1413.288574 208.0
1413.490601 220.0
1413.617798 132.0
1413.909668 160.0
1414.05188 172.0
1414.253784 224.0
1414.59082 120.0
1414.650757 172.0
1414.837891 132.0
1415.234741 64.0
1415.421875 176.0
1415.481812 196.0
1415.661499 156.0
1415.743896 212.0
1416.245728 156.0
1416.636353 132.0
1416.994873 156.0
1417.099731 164.0
1417.227173 220.0
1417.279541 168.0
1417.526855 152.0
1418.208862 176.0
1418.336304 176.0
1418.538696 200.0
1418.651123 164.0
1418.831055 120.0
1419.183472 136.0
1419.309326 180.0
1419.520874 132.0
1419.865845 128.0
1419.948364 132.0
1420.143433 148.0
1420.330933 136.0
1420.398438 172.0
1420.495972 136.0
1421.006104 196.0
1421.794067 128.0
1421.854004 136.0
1422.011475 164.0
1422.124268 116.0
1422.184326 152.0
1423.602539 212.0
1423.700928 208.0
1423.776001 176.0
1424.316772 120.0
1424.512085 232.0
1424.662354 176.0
1424.722534 68.0
1424.790161 108.0
1425.038086 108.0
1425.278442 144.0
1425.550171 180.0
1425.676758 176.0
1425.812012 240.0
1426.255493 164.0
1426.41333 156.0
1426.667603 136.0
1427.032227 136.0
1427.247925 168.0
1427.571289 180.0
1427.731323 228.0
1427.96228 184.0
1428.067627 52.0
1428.503906 164.0
1428.692017 160.0
1428.797363 52.0
1429.148804 140.0
1429.579834 236.0
1429.835693 192.0
1429.941162 160.0
1430.219604 136.0
1430.445435 48.0
1430.829346 136.0
1431.123047 80.0
1431.258545 60.0
1431.650146 120.0
1432.177368 140.0
1432.380737 40.0
1432.659424 148.0
1433.427979 248.0
1433.578735 136.0
1433.955566 48.0
1434.106323 144.0
1434.25708 140.0
1434.543457 176.0
1435.030029 284.0
1435.365356 200.0
1435.523682 48.0
1435.583984 232.0
1435.900757 144.0
1436.187378 168.0
1436.39856 52.0
1436.526855 176.0
1436.632446 196.0
1437.400391 180.0
1437.675415 200.0
1437.907715 148.0
1438.688232 216.0
1439.115601 164.0
1439.243896 80.0
1439.357178 248.0
1439.440186 144.0
1439.598877 64.0
1439.858154 232.0
1439.97644 108.0
1440.104858 196.0
1440.338989 112.0
1440.459839 56.0
1440.678955 260.0
1440.867798 96.0
1441.238037 180.0
1441.592651 156.0
1441.766968 140.0
1442.046631 124.0
1442.122314 184.0
1442.326294 188.0
1442.515381 152.0
1442.733521 184.0
1443.121826 140.0
1443.362061 128.0
1444.583618 172.0
1445.427246 176.0
1445.601318 156.0
1445.669312 156.0
1446.19165 192.0
1446.290039 56.0
1446.441406 180.0
1446.585205 164.0
1446.643311 220.0
1446.66748 148.0
1446.693115 200.0
1447.079712 236.0
1447.213623 212.0
1447.334717 220.0
1447.554321 204.0
1447.630127 84.0
1447.864868 164.0
1448.008789 152.0
1448.15271 172.0
1448.304199 108.0
1448.758667 152.0
1449.592163 176.0
1449.955933 196.0
1450.016602 40.0
1450.387939 172.0
1450.471313 240.0
1450.64563 92.0
1450.925659 172.0
1451.07019 172.0
1451.290161 164.0
1451.424438 224.0
1451.552002 184.0
1451.942261 208.0
1452.488403 184.0
1452.924194 312.0
1453.35022 160.0
1453.406372 168.0
1454.028687 172.0
1454.468872 72.0
1454.924438 200.0
1455.349609 180.0
1455.493896 196.0
1455.562256 192.0
1455.858398 156.0
1455.97229 148.0
1456.215332 248.0
1456.435547 188.0
1456.549683 200.0
1457.202881 56.0
1457.278809 196.0
1457.34729 236.0
1457.453613 160.0
1457.848633 152.0
1458.137573 192.0
1458.760864 132.0
1459.5896 72.0
1459.688477 420.0
1460.183472 188.0
1460.327271 200.0
1460.630249 252.0
1460.79126 144.0
1461.065186 56.0
1461.262939 76.0
1461.50647 168.0
1461.559692 140.0
1461.651001 140.0
1461.947876 176.0
1462.03833 180.0
1462.062744 160.0
1462.078613 196.0
1462.282715 56.0
1462.388672 140.0
1463.036377 164.0
1463.104858 188.0
1463.508423 204.0
1463.837036 176.0
1464.166016 216.0
1464.277466 196.0
1464.452637 56.0
1464.825928 168.0
1464.90979 200.0
1464.971802 208.0
1465.153564 208.0
1465.542114 88.0
1465.656372 104.0
1465.767944 132.0
1466.753906 164.0
1466.898682 128.0
1467.089233 176.0
1467.24939 208.0
1467.950928 144.0
1468.14917 240.0
1468.942383 144.0
1469.070679 216.0
1469.308594 140.0
1469.468872 176.0
1469.705322 128.0
1469.903809 176.0
1469.980103 116.0
1470.125122 112.0
1470.186157 112.0
1470.605957 132.0
1470.743286 188.0
1471.328491 212.0
1471.422729 144.0
1472.835571 128.0
1473.225098 204.0
1473.461914 112.0
1473.576538 140.0
1474.249023 168.0
1474.452271 320.0
1474.70752 44.0
1474.814575 164.0
1475.089722 168.0
1475.3573 132.0
1475.449097 172.0
1475.525513 188.0
1476.129517 272.0
1476.236206 136.0
1476.450806 64.0
1476.741455 36.0
1476.805908 288.0
1477.093262 172.0
1477.383911 216.0
1477.720581 132.0
1477.881226 108.0
1478.539429 120.0
1478.646484 140.0
1478.952759 224.0
1479.220581 164.0
1479.488525 60.0
1479.702881 200.0
1479.986206 192.0
1481.13501 172.0
1481.256348 288.0
1481.501221 184.0
1481.527954 148.0
1481.839844 160.0
1481.962402 156.0
1482.26123 192.0
1483.050659 76.0
1483.47229 236.0
1483.594971 172.0
1483.679199 188.0
1484.392334 188.0
1484.453735 212.0
1484.609131 176.0
1484.814087 160.0
1484.890869 124.0
1484.98291 168.0
1485.335693 148.0
1485.450806 204.0
1485.857422 88.0
1485.918701 140.0
1486.148926 196.0
1486.210327 148.0
1486.40979 68.0
1487.904053 160.0
1488.659058 204.0
1488.720459 184.0
1488.844604 172.0
1488.971436 180.0
1489.106445 164.0
1489.188965 144.0
1489.572998 136.0
1489.718018 132.0
1489.834229 236.0
1490.188354 172.0
1490.287598 212.0
1490.471924 104.0
1490.525757 64.0
1490.786987 136.0
1490.921265 136.0
1491.386475 68.0
1491.447998 204.0
1491.563354 132.0
1491.632446 192.0
1491.686279 128.0
1492.4552 116.0
1492.639648 152.0
1492.85498 132.0
1493.085693 120.0
1493.431885 184.0
1493.947266 52.0
1494.016479 160.0
1494.3396 156.0
1494.760742 204.0
1495.463989 196.0
1495.593994 88.0
1495.786499 88.0
1495.994263 164.0
1496.055908 168.0
1496.209839 180.0
1496.425415 168.0
1496.502441 32.0
1496.702637 52.0
1496.902832 124.0
1497.103027 144.0
1497.280151 56.0
1497.551392 108.0
1497.657593 144.0
1497.810669 204.0
1498.166016 136.0
1498.435669 196.0
1498.55127 180.0
1498.713013 160.0
1498.836304 196.0
1499.033936 256.0
1499.576172 188.0
1499.691772 148.0
1499.915405 152.0
1500.108032 176.0
1500.401001 68.0
1500.624634 196.0
1500.786499 184.0
1501.719727 108.0
1502.336792 192.0
1502.452515 176.0
1502.514282 192.0
1502.730225 140.0
1502.915405 180.0
1503.617676 160.0
1503.807007 268.0
1503.988159 160.0
1504.142578 144.0
1504.366455 156.0
