>compound MLS001066337-01!(S)-(+)-2-Fluoro-alpha-methyl-4-biphenylacetic acid
>formula C15H13FO2
>ionization [M+H]+
>parentmass 245.099
#inchi InChI=1S/C15H13FO2/c1-10(15(17)18)12-7-8-13(14(16)9-12)11-5-3-2-4-6-11/h2-10H,1H3,(H,17,18)/t10-/m0/s1
#inchikey SYTBZMRGLBWNTM
#Ion_Source LC-ESI
#Instrument qTof
#Compound_Source NIH Pharmacologically Active Library
#PI Dorrestein
#Data_Collector VP/LMS
#Scan -1
#Precursor_MZ 245.099
#ExactMass 244.09
#Charge 1
#CAS_Number N/A
#Pubmed_ID N/A
#Smiles C[C@H](C(=O)O)c1ccc(c(F)c1)c2ccccc2
#INCHI_AUX N/A
#Library_Class 1
#SpectrumID CCMSLIB00000085799
#IonMode Positive
#UpdateWorkflowName UPDATE-SINGLE-ANNOTATED-GOLD
#LibraryQualityString Gold
#TaskID d252d724072548979f1f6f1ced849daf
##Scan# 2197
#SpectrumFile p4-F07_GF7_01_18391.mzXML
#LibraryName Pharm_Active_Library.mgf
#MQScore -1
#Organism Pharm_Active_Library
#TIC_Query 0
#RT_Query -1
#MZErrorPPM -1
#SharedPeaks 0
#MassDiff 0
#LibMZ -1
#SpecMZ 245.099
#SpecCharge 0
#internalFilename spec-00000.mgf

>collision 10
44.982986 168.0
45.085835 212.0
45.112568 156.0
45.172745 152.0
45.78886 156.0
45.80637 148.0
46.786861 48.0
46.814095 176.0
46.958561 132.0
47.088226 180.0
47.413849 108.0
48.122303 128.0
48.217621 52.0
49.496132 120.0
50.344116 132.0
50.472713 136.0
50.656708 40.0
51.237766 144.0
51.517391 180.0
51.890934 160.0
52.09473 224.0
52.360836 152.0
52.404053 140.0
52.487656 112.0
52.546795 184.0
52.897984 116.0
52.925491 176.0
53.736561 64.0
53.751152 124.0
54.028767 160.0
54.304165 144.0
54.907192 204.0
55.535793 44.0
55.786751 196.0
56.09938 168.0
56.607391 120.0
56.800735 188.0
56.959854 148.0
57.364658 48.0
57.59705 108.0
58.12392 140.0
58.439976 164.0
58.484112 164.0
59.319687 136.0
59.466942 180.0
60.107166 80.0
60.966644 92.0
61.11282 160.0
61.953732 148.0
62.076626 144.0
62.305794 156.0
62.590485 132.0
63.335934 196.0
63.681721 168.0
64.702316 160.0
64.955521 172.0
65.071068 68.0
65.455368 160.0
65.868256 180.0
65.968445 132.0
66.433228 204.0
66.762962 44.0
66.976181 152.0
67.62114 104.0
67.847198 144.0
68.223152 44.0
68.560593 120.0
68.804718 200.0
68.860863 76.0
68.956696 48.0
69.320793 156.0
69.559631 80.0
69.596153 128.0
70.076851 168.0
70.504044 108.0
70.810219 204.0
71.229553 136.0
71.323654 32.0
71.466606 200.0
71.72934 208.0
71.786667 112.0
72.883598 172.0
73.244446 212.0
73.701508 152.0
74.000839 140.0
74.110458 208.0
74.309357 92.0
74.917976 132.0
75.399399 200.0
76.052376 64.0
76.076683 176.0
76.097519 148.0
76.654137 132.0
78.330902 104.0
78.542427 204.0
79.11676 208.0
79.487206 192.0
79.942131 140.0
80.567993 220.0
80.585861 208.0
80.830833 60.0
80.99913 204.0
81.21244 204.0
81.488899 104.0
81.670471 168.0
81.692055 68.0
82.415039 184.0
82.664581 160.0
82.87645 92.0
82.983391 176.0
83.079514 152.0
83.291908 212.0
83.571884 132.0
83.639221 120.0
83.737541 180.0
84.173416 176.0
86.201492 220.0
86.340141 184.0
86.732666 96.0
87.096367 164.0
87.514809 200.0
88.399612 120.0
88.699287 196.0
88.826797 140.0
89.129074 188.0
89.313316 156.0
89.631493 188.0
89.778076 196.0
90.782745 148.0
91.966156 80.0
92.882721 44.0
93.05928 128.0
93.161072 172.0
93.561089 160.0
94.154999 196.0
94.818611 64.0
95.039688 216.0
95.154205 252.0
95.611015 128.0
96.045509 164.0
96.213333 128.0
96.510315 172.0
96.811676 152.0
97.176788 232.0
97.242996 52.0
98.037567 208.0
99.123459 180.0
99.195824 188.0
99.658249 136.0
99.678123 80.0
100.648216 156.0
100.674179 100.0
100.716125 136.0
100.965965 188.0
100.985962 164.0
101.045975 248.0
101.214111 148.0
101.268181 204.0
101.342308 216.0
101.757492 208.0
101.988518 156.0
102.004601 108.0
102.310387 152.0
102.832474 256.0
103.030373 144.0
103.054939 316.0
103.388275 184.0
103.442924 48.0
103.564423 120.0
103.63533 124.0
103.663696 136.0
104.148598 64.0
104.327423 80.0
104.828133 132.0
104.860748 244.0
105.223854 200.0
105.724663 148.0
106.413422 80.0
106.631172 256.0
108.499336 80.0
109.039047 160.0
109.176262 200.0
109.834435 144.0
109.861557 136.0
110.682961 132.0
111.307854 228.0
111.831337 172.0
112.244263 188.0
112.303314 112.0
112.535454 100.0
112.784744 152.0
114.855095 112.0
115.049286 192.0
116.512039 164.0
116.610886 80.0
116.658173 128.0
116.703323 160.0
116.748482 108.0
117.041145 176.0
119.541412 120.0
119.916008 144.0
121.046928 184.0
121.144066 208.0
121.185692 140.0
121.205414 164.0
121.374199 132.0
121.479477 120.0
121.887856 160.0
121.91642 180.0
122.041718 132.0
122.373711 136.0
123.349098 96.0
123.468498 184.0
123.718536 152.0
123.968834 220.0
124.607895 160.0
124.685669 116.0
124.770134 136.0
125.06601 128.0
126.732033 168.0
127.515228 136.0
127.659119 144.0
128.436142 208.0
128.555725 132.0
128.72052 104.0
129.623108 60.0
129.645767 156.0
130.888397 40.0
131.522186 192.0
131.921951 136.0
133.04776 160.0
133.251221 112.0
133.998978 228.0
134.337875 228.0
134.774246 112.0
134.815842 236.0
135.62822 212.0
135.980789 184.0
137.094818 148.0
137.600998 72.0
137.743454 128.0
138.199341 176.0
138.96553 112.0
142.909134 148.0
143.743134 172.0
144.015289 116.0
144.034409 72.0
144.323593 136.0
144.404892 124.0
145.017853 240.0
146.049896 200.0
146.408951 136.0
146.944092 60.0
147.294144 144.0
147.843002 176.0
148.3759 80.0
148.414703 172.0
149.03891 176.0
149.157608 200.0
150.0466 168.0
150.143723 172.0
150.942291 120.0
151.022995 200.0
151.05011 616.0
151.076813 176.0
151.135544 48.0
151.152664 140.0
151.248123 136.0
152.060974 1380.0
152.626923 56.0
152.685944 136.0
153.066376 980.0
153.308807 96.0
153.597275 156.0
153.920593 132.0
154.068893 276.0
154.682098 128.0
155.042801 176.0
155.10321 152.0
155.98941 100.0
156.044098 128.0
156.511887 172.0
157.045197 196.0
157.368271 44.0
158.114578 80.0
159.058792 528.0
159.079605 176.0
159.308136 128.0
159.433762 80.0
159.98967 156.0
160.056381 136.0
161.551834 140.0
162.248276 124.0
162.319275 144.0
162.337021 32.0
164.152756 52.0
164.30069 72.0
164.594208 132.0
164.900787 60.0
165.0681 732.0
165.430283 120.0
165.983704 96.0
166.076233 148.0
166.176086 52.0
167.837708 132.0
168.875885 232.0
169.038879 72.0
169.056992 44.0
169.261505 180.0
169.562012 184.0
170.048019 200.0
170.09375 132.0
171.061874 296.0
171.125854 40.0
171.216995 208.0
171.675674 152.0
172.063477 156.0
172.942825 48.0
173.068497 192.0
173.542755 192.0
174.577377 168.0
175.061722 168.0
175.757523 120.0
175.934357 80.0
176.060303 1668.0
176.751083 204.0
176.822525 100.0
177.068329 1664.0
177.161469 192.0
177.219757 164.0
177.285995 80.0
177.370819 40.0
177.439743 88.0
177.577637 44.0
177.657211 120.0
177.795197 232.0
177.954468 144.0
178.022217 172.0
178.076553 15084.0
178.169601 52.0
178.198822 48.0
178.262604 48.0
178.281204 88.0
178.46463 36.0
178.525787 88.0
178.605576 32.0
178.916931 164.0
178.970184 132.0
179.083633 10400.0
179.135315 108.0
179.174042 148.0
179.264999 132.0
179.384308 88.0
179.543884 56.0
179.58046 48.0
179.651489 128.0
179.737869 104.0
179.836609 76.0
179.911346 68.0
179.975433 76.0
180.086121 1396.0
180.16507 60.0
180.274612 112.0
180.301346 108.0
180.459061 128.0
180.517883 48.0
180.661301 168.0
180.927277 56.0
181.069199 108.0
181.093292 272.0
181.296921 40.0
181.441666 92.0
181.530151 56.0
182.023911 40.0
182.381241 108.0
182.456512 132.0
182.483398 28.0
182.507599 224.0
182.800797 152.0
182.865387 136.0
182.964996 156.0
183.0 140.0
183.059006 6304.0
183.169662 152.0
183.210068 32.0
183.455322 132.0
183.571259 224.0
183.654861 76.0
183.868011 136.0
183.907761 176.0
183.981384 148.0
184.011078 148.0
184.066925 5952.0
184.121796 48.0
184.15007 196.0
184.192032 52.0
184.340622 52.0
184.364944 44.0
184.773254 80.0
184.805725 88.0
184.997879 88.0
185.069077 456.0
185.122437 208.0
185.195557 180.0
185.287674 60.0
185.496338 104.0
185.545135 52.0
185.715988 84.0
185.848923 96.0
185.886902 92.0
186.125793 272.0
186.228989 196.0
186.506134 100.0
186.753571 64.0
186.984848 48.0
187.080124 144.0
187.428741 124.0
187.496872 68.0
188.296265 176.0
189.944046 80.0
190.454605 120.0
190.723892 128.0
193.524078 188.0
194.727631 76.0
195.063858 340.0
195.561768 56.0
196.029663 124.0
196.067154 604.0
196.213623 52.0
196.539963 72.0
196.651596 48.0
197.073746 2288.0
197.123581 128.0
197.495422 36.0
198.079239 628.0
198.40361 64.0
198.422348 216.0
198.554153 96.0
198.764557 212.0
198.787003 88.0
198.991913 160.0
199.038528 152.0
199.091812 5316.0
199.209671 164.0
199.250305 32.0
199.368317 56.0
199.452637 76.0
199.573532 136.0
199.629776 40.0
199.800003 84.0
199.902649 176.0
200.095505 732.0
201.096024 284.0
202.361267 56.0
205.081055 208.0
207.154526 40.0
208.086594 188.0
217.91304 52.0
218.436356 168.0
221.085968 132.0
223.427155 92.0
230.044464 168.0
242.042892 48.0
242.191544 140.0
242.774231 52.0
271.631897 96.0
283.335052 108.0
299.765289 36.0
306.484467 44.0
325.553558 92.0
392.091339 180.0
406.026886 88.0
512.329163 44.0
516.884949 84.0
541.234314 68.0
544.206543 48.0
764.034485 60.0
795.788513 120.0
904.284363 188.0
945.607788 176.0
1063.084106 208.0
1066.487427 184.0
1072.026123 192.0
1077.017212 112.0
1105.354126 188.0
1116.379639 208.0
1147.490723 184.0
1148.650635 156.0
1154.006226 136.0
1160.906494 40.0
1169.875488 164.0
1193.019531 64.0
1200.704102 48.0
1204.134277 196.0
1210.940186 192.0
1213.296265 64.0
1215.175781 188.0
1217.647095 152.0
1223.495117 268.0
1225.647339 220.0
1225.779785 252.0
1242.841919 140.0
1243.087524 132.0
1247.498535 180.0
1255.814697 68.0
1256.068726 128.0
1295.696045 192.0
1305.796143 176.0
1321.587769 212.0
1322.210083 136.0
1326.722778 144.0
1332.637939 184.0
1335.182251 276.0
1338.741089 212.0
1344.004272 116.0
1345.259644 220.0
1346.311035 148.0
1346.369507 64.0
1346.493652 84.0
1348.919556 108.0
1355.682617 304.0
1376.77478 96.0
1391.755737 160.0
1400.807129 176.0
1404.139038 136.0
1407.893066 144.0
1415.550903 216.0
1422.186035 88.0
1423.462402 144.0
1424.987183 188.0
1427.20459 268.0
1433.550415 204.0
1442.199707 180.0
1442.721313 228.0
1443.71936 160.0
1446.412964 188.0
1448.904541 76.0
1456.954102 160.0
1465.483032 108.0
1477.646118 152.0
1485.690552 148.0
1491.073486 148.0
1494.980347 184.0
1498.082397 148.0
1498.730591 40.0
1500.495605 124.0
