>compound MLS001140239-01!3-(4-chlorophenyl)-2-[[2-[(4,8,8-trimethyl-2-oxo-9,10-dihydropyrano[2,3-h]chromen-5-yl)oxy]acetyl]amino]propanoic acid
>formula C26H26ClNO7
>ionization [M+H]+
>parentmass 500.145569
#inchi InChI=1S/C26H26ClNO7/c1-14-10-22(30)34-24-17-8-9-26(2,3)35-19(17)12-20(23(14)24)33-13-21(29)28-18(25(31)32)11-15-4-6-16(27)7-5-15/h4-7,10,12,18H,8-9,11,13H2,1-3H3,(H,28,29)(H,31,32)
#inchikey UTJDAYALMCIMIH
#Ion_Source LC-ESI
#Instrument qTof
#Compound_Source NIH Natural Product Library
#PI Dorrestein
#Data_Collector VVP/LMS
#Scan -1
#Precursor_MZ 500.148
#ExactMass 499.14
#Charge 1
#CAS_Number N/A
#Pubmed_ID N/A
#Smiles Cc1cc(=O)oc2c3CCC(C)(C)Oc3cc(OCC(=O)NC(Cc4ccc(Cl)cc4)C(=O)O)c12
#INCHI_AUX N/A
#Library_Class 1
#SpectrumID CCMSLIB00000079819
#IonMode Positive
#UpdateWorkflowName UPDATE-SINGLE-ANNOTATED-GOLD
#LibraryQualityString Gold
#TaskID b1d8e8f6646f4e71acdff9ca3d919d08
##Scan# 2344
#SpectrumFile p1-E11_GE11_01_17931.mzXML
#LibraryName NIH_Natural_Products_Library.mgf
#MQScore -1
#Organism NIH_Natural_Products_Library
#TIC_Query 0
#RT_Query -1
#MZErrorPPM -1
#SharedPeaks 0
#MassDiff 0
#LibMZ -1
#SpecMZ 500.148
#SpecCharge 0
#internalFilename spec-00000.mgf

>collision 10
94.986702 56.0
95.017738 116.0
95.039848 172.0
95.070129 200.0
95.116707 80.0
95.134178 96.0
95.165237 176.0
95.375046 188.0
95.491707 220.0
95.505318 40.0
95.600647 244.0
95.63179 224.0
95.704231 224.0
95.754448 168.0
95.974648 152.0
96.048798 180.0
96.078018 184.0
96.117035 156.0
96.226341 144.0
96.253677 188.0
96.390411 180.0
96.449036 200.0
96.464676 112.0
96.527237 100.0
96.598656 144.0
96.642639 188.0
96.732666 148.0
96.78553 172.0
96.844276 136.0
96.926559 116.0
96.98143 124.0
97.063766 152.0
97.234436 212.0
97.248177 148.0
97.265793 168.0
97.391502 132.0
97.491699 256.0
97.52578 188.0
97.560493 152.0
97.599312 172.0
97.739471 236.0
97.804413 172.0
97.912697 188.0
97.934364 176.0
97.965881 148.0
98.088051 132.0
98.109375 172.0
98.14917 132.0
98.230026 176.0
98.277054 172.0
98.283081 144.0
98.306976 204.0
98.344475 216.0
98.378029 144.0
98.393822 88.0
98.409615 120.0
98.427391 204.0
98.480705 48.0
98.500458 176.0
98.541946 168.0
98.638779 160.0
98.664482 144.0
98.749901 160.0
98.786644 248.0
98.814781 52.0
98.881897 188.0
98.889153 172.0
98.977081 44.0
98.997612 200.0
99.018005 156.0
99.048378 152.0
99.115738 256.0
99.268372 192.0
99.331833 112.0
99.351669 116.0
99.365555 236.0
99.383415 116.0
99.482643 100.0
99.52037 120.0
99.560081 212.0
99.60775 228.0
99.663376 144.0
99.806488 176.0
99.876091 204.0
99.899963 84.0
99.937759 148.0
99.961639 164.0
100.039261 144.0
100.09301 140.0
100.11293 132.0
100.334091 152.0
100.42981 204.0
100.609398 124.0
100.631363 176.0
100.653328 108.0
100.673294 172.0
100.787155 152.0
100.827118 180.0
100.941063 92.0
100.990639 184.0
101.015068 184.0
101.097099 208.0
101.195175 156.0
101.215202 168.0
101.248711 196.0
101.290802 160.0
101.449745 176.0
101.525063 388.0
101.688301 176.0
101.752541 160.0
101.821365 156.0
101.840897 120.0
101.987564 200.0
102.017715 160.0
102.047874 228.0
102.084068 80.0
102.1605 156.0
102.192688 176.0
102.259094 220.0
102.337601 232.0
102.560921 164.0
102.623703 88.0
102.649918 48.0
102.692268 220.0
102.758835 116.0
102.797173 196.0
102.838394 160.0
102.926361 176.0
102.960693 136.0
103.015221 144.0
103.05349 620.0
103.116249 192.0
103.187004 156.0
103.2052 48.0
103.265862 128.0
103.379158 144.0
103.435829 164.0
103.487228 236.0
103.54921 172.0
103.567444 148.0
103.593773 208.0
103.610382 100.0
103.628212 148.0
103.662659 132.0
103.727264 140.0
103.790359 232.0
103.812668 140.0
103.861343 196.0
103.901909 304.0
104.013519 140.0
104.033821 144.0
104.049721 184.0
104.061638 148.0
104.165817 272.0
104.24099 116.0
104.260078 160.0
104.285698 124.0
104.312119 160.0
104.328384 120.0
104.53627 184.0
104.655937 148.0
104.690552 120.0
104.712959 108.0
104.912148 148.0
105.014595 204.0
105.069618 200.0
105.13884 120.0
105.283989 148.0
105.510796 164.0
105.529198 180.0
105.58506 200.0
105.615089 48.0
105.733749 68.0
105.86068 184.0
105.928261 152.0
106.010216 92.0
106.073753 136.0
106.202934 144.0
106.326035 260.0
106.574501 148.0
106.588882 84.0
106.615601 88.0
106.734825 108.0
106.909676 32.0
106.9282 164.0
106.950836 48.0
107.047218 340.0
107.066132 232.0
107.134102 196.0
107.151367 168.0
107.169128 168.0
107.204155 104.0
107.247437 136.0
107.278358 120.0
107.325775 224.0
107.34021 80.0
107.408264 40.0
107.494919 180.0
107.591919 208.0
107.66832 248.0
107.746811 144.0
107.841866 156.0
107.889412 136.0
108.027962 208.0
108.09417 148.0
108.129349 184.0
108.170746 292.0
108.209984 180.0
108.362976 184.0
108.423027 204.0
108.42778 164.0
108.434441 180.0
108.460739 212.0
108.47525 180.0
108.520859 208.0
108.580994 180.0
108.636993 280.0
108.759422 192.0
108.850769 112.0
109.028343 736.0
109.062317 328.0
109.143997 168.0
109.303917 224.0
109.328888 72.0
109.366348 120.0
109.416306 224.0
109.453621 176.0
109.499336 252.0
109.578751 148.0
109.63501 196.0
109.687119 152.0
109.703796 36.0
109.743408 116.0
109.810135 156.0
109.93322 168.0
110.029587 156.0
110.093964 156.0
110.171104 120.0
110.243294 68.0
110.296623 48.0
110.430443 284.0
110.55806 156.0
110.587357 148.0
110.666908 224.0
110.710876 164.0
110.771614 180.0
110.800949 136.0
110.905724 172.0
110.937164 48.0
111.035713 152.0
111.058784 80.0
111.079758 52.0
111.119614 204.0
111.190964 204.0
111.235039 172.0
111.26046 184.0
111.28862 144.0
111.39463 172.0
111.498436 256.0
111.581657 164.0
111.667877 120.0
111.703629 128.0
111.796204 204.0
111.922508 252.0
111.954094 124.0
112.019386 164.0
112.055199 164.0
112.09523 132.0
112.225914 124.0
112.244888 188.0
112.265976 208.0
112.297615 196.0
112.356674 212.0
112.476959 132.0
112.726173 56.0
112.836082 124.0
112.952522 128.0
113.018036 132.0
113.043365 188.0
113.106857 176.0
113.318626 76.0
113.344048 60.0
113.394913 132.0
113.471222 148.0
113.534836 220.0
113.564522 128.0
113.643013 84.0
113.79583 92.0
113.842545 52.0
113.923256 220.0
113.989113 152.0
114.022781 228.0
114.25914 92.0
114.314461 236.0
114.350639 184.0
114.43792 320.0
114.457085 176.0
114.597656 56.0
114.62323 160.0
114.719131 296.0
114.802284 116.0
114.836411 72.0
114.872673 56.0
114.902534 192.0
114.954071 132.0
114.994293 128.0
115.053185 872.0
115.090355 172.0
115.150146 104.0
115.278328 232.0
115.325348 188.0
115.400162 120.0
115.479286 96.0
115.545601 176.0
115.639748 148.0
115.658432 236.0
115.680107 136.0
115.708252 100.0
115.986732 192.0
116.040245 188.0
116.064003 892.0
116.095123 200.0
116.117523 88.0
116.162567 72.0
116.20446 144.0
116.222633 64.0
116.239799 112.0
116.321358 208.0
116.581238 96.0
116.607025 104.0
116.71666 140.0
116.811287 148.0
116.850014 156.0
116.877983 96.0
116.916718 160.0
117.0308 184.0
117.059052 732.0
117.088943 160.0
117.148239 136.0
117.171349 204.0
117.248367 72.0
117.267761 128.0
117.343361 176.0
117.366928 144.0
117.535759 176.0
117.565384 108.0
117.662865 220.0
117.686264 136.0
117.746727 228.0
117.777573 156.0
117.856895 156.0
118.02549 92.0
118.063835 1248.0
118.148766 140.0
118.261292 152.0
118.345711 64.0
118.562332 140.0
118.599174 180.0
118.723671 256.0
118.750946 152.0
118.820358 76.0
118.972275 168.0
119.022209 216.0
119.052666 332.0
119.072121 1292.0
119.111252 164.0
119.180862 92.0
119.289436 160.0
119.3461 124.0
119.461227 40.0
119.48951 232.0
119.596138 136.0
119.624565 184.0
119.674507 176.0
119.752899 144.0
119.999702 108.0
120.012009 232.0
120.112541 32.0
120.134354 60.0
120.153984 132.0
120.180168 156.0
120.197624 196.0
120.252182 172.0
120.295837 156.0
120.391899 168.0
120.60717 168.0
120.647545 144.0
120.667221 180.0
120.890327 160.0
120.981323 160.0
121.006332 136.0
121.026039 152.0
121.063255 1012.0
121.203453 96.0
121.365204 156.0
121.420479 196.0
121.477501 56.0
121.523575 144.0
121.57843 76.0
121.613548 120.0
121.653061 152.0
121.749229 180.0
121.782608 192.0
121.800179 176.0
121.916626 164.0
121.95179 152.0
122.022133 204.0
122.063911 200.0
122.180481 180.0
122.195877 112.0
122.228882 160.0
122.261887 144.0
122.283897 104.0
122.353592 180.0
122.420395 144.0
122.462234 124.0
122.490868 168.0
122.510696 152.0
122.537132 136.0
122.674538 164.0
122.726677 104.0
122.772987 144.0
122.796051 348.0
122.819298 116.0
122.856804 156.0
122.872246 156.0
122.934021 128.0
123.011269 176.0
123.039398 232.0
123.084129 136.0
123.123878 48.0
123.143753 216.0
123.176888 176.0
123.263046 344.0
123.298409 168.0
123.355873 88.0
123.428833 52.0
123.530563 124.0
123.550476 120.0
123.592514 124.0
123.707596 172.0
123.731949 140.0
123.747444 156.0
123.762939 100.0
123.805016 180.0
123.913551 172.0
123.933304 236.0
124.011055 200.0
124.048737 116.0
124.084206 172.0
124.144073 124.0
124.185059 152.0
124.361488 172.0
124.414764 88.0
124.496918 64.0
124.552437 32.0
124.627975 216.0
124.652412 96.0
124.712418 104.0
124.831932 428.0
124.857719 136.0
124.883362 204.0
124.957031 68.0
125.015556 13012.0
125.057167 96.0
125.107574 44.0
125.123947 44.0
125.157341 100.0
125.188515 112.0
125.21524 156.0
125.253105 188.0
125.312469 136.0
125.368958 116.0
125.513855 196.0
125.672218 68.0
125.759247 148.0
125.835144 192.0
125.950745 180.0
125.967064 152.0
126.017921 1088.0
126.080856 188.0
126.143433 108.0
126.201096 96.0
126.266411 124.0
126.333885 120.0
126.35141 52.0
126.373146 140.0
126.391685 168.0
126.472244 212.0
126.492462 128.0
126.55732 216.0
126.590553 164.0
126.698532 156.0
126.714943 112.0
126.752182 168.0
126.959213 124.0
127.012482 3632.0
127.050377 184.0
127.108711 132.0
127.126663 120.0
127.16114 156.0
127.194 72.0
127.216446 260.0
127.308502 232.0
127.380371 60.0
127.401627 164.0
127.497009 188.0
127.529556 212.0
127.582619 244.0
127.654564 40.0
127.694168 72.0
127.755775 200.0
127.863777 196.0
127.937218 128.0
127.965073 144.0
128.015564 652.0
128.043884 144.0
128.10437 136.0
128.149765 160.0
128.235397 96.0
128.377426 196.0
128.45636 172.0
128.494705 136.0
128.600769 172.0
128.639145 160.0
128.693329 176.0
128.770096 228.0
128.82431 188.0
128.874008 172.0
128.903381 152.0
128.961487 180.0
129.018661 56.0
129.054825 164.0
129.1091 84.0
129.167908 136.0
129.231247 148.0
129.575668 156.0
129.652573 124.0
129.672821 88.0
129.770294 212.0
129.799774 124.0
129.989212 164.0
130.022614 156.0
130.065689 8196.0
130.13559 120.0
130.153748 124.0
130.184494 112.0
130.212784 172.0
130.30365 244.0
130.34227 160.0
130.485474 240.0
130.501389 92.0
130.566498 88.0
130.660583 148.0
130.701126 240.0
130.753845 228.0
130.822159 200.0
130.879654 180.0
130.89502 108.0
131.022217 252.0
131.072739 30548.0
131.10524 184.0
131.116074 108.0
131.136368 68.0
131.141434 48.0
131.17276 44.0
131.19577 40.0
131.216278 108.0
131.305206 96.0
131.337143 124.0
131.362228 76.0
131.423828 92.0
131.467194 172.0
131.515686 48.0
131.544785 28.0
131.610992 144.0
131.626984 40.0
131.654388 64.0
131.672653 124.0
131.706909 156.0
131.754883 44.0
131.773163 168.0
131.798294 124.0
131.821442 60.0
131.846283 160.0
131.930847 184.0
131.946854 188.0
131.98114 200.0
132.000992 88.0
132.07547 2636.0
132.118378 188.0
132.184723 244.0
132.200745 92.0
132.233475 92.0
132.320129 200.0
132.40567 124.0
132.472412 104.0
132.492355 212.0
132.548813 152.0
132.571716 120.0
132.596924 144.0
132.654236 152.0
132.728088 112.0
132.780334 28.0
132.822083 80.0
132.855057 112.0
132.927811 84.0
132.991425 92.0
133.03273 124.0
133.067337 652.0
133.162186 64.0
133.198074 244.0
133.253204 68.0
133.362671 132.0
133.473846 52.0
133.542847 100.0
133.640564 268.0
133.703888 144.0
133.740616 200.0
133.806198 144.0
133.837402 160.0
133.869644 116.0
133.897278 128.0
134.000931 160.0
134.044708 120.0
134.067749 192.0
134.08963 196.0
134.170685 164.0
134.188934 140.0
134.206055 188.0
134.226807 88.0
134.24295 56.0
134.325989 248.0
134.369812 160.0
134.397507 32.0
134.450577 64.0
134.473648 184.0
134.531189 216.0
134.612167 168.0
134.912521 176.0
135.016571 160.0
135.041901 1132.0
135.074402 176.0
135.157684 188.0
135.185455 172.0
135.201645 188.0
135.264145 184.0
135.528152 188.0
135.563431 180.0
135.639389 156.0
135.683441 140.0
135.702148 176.0
135.757629 144.0
135.773865 172.0
135.806335 204.0
135.894485 152.0
136.051743 164.0
136.270615 192.0
136.361237 56.0
136.482117 60.0
136.519333 128.0
136.724045 60.0
136.779907 180.0
136.992188 168.0
137.01506 1692.0
137.064743 200.0
137.090286 172.0
137.172989 172.0
137.329788 124.0
137.367111 192.0
137.399765 196.0
137.467438 148.0
137.551453 156.0
137.635498 120.0
137.738251 196.0
137.756943 172.0
137.90181 76.0
137.941544 136.0
137.978958 124.0
138.019577 340.0
138.063126 188.0
138.095871 172.0
138.119263 116.0
138.233902 148.0
138.250275 116.0
138.301773 148.0
138.318146 40.0
138.772629 152.0
138.800766 152.0
138.855148 104.0
138.925064 144.0
138.979034 92.0
139.029877 2356.0
139.070557 144.0
139.171494 152.0
139.227859 208.0
139.277176 132.0
139.460449 124.0
139.53566 228.0
139.641479 200.0
139.665009 80.0
139.783966 168.0
139.93689 180.0
140.005203 88.0
140.029419 400.0
140.046539 200.0
140.218292 176.0
140.621597 120.0
140.668808 152.0
140.725464 128.0
140.749069 160.0
141.026749 1056.0
141.055389 296.0
141.1082 164.0
141.347092 132.0
141.384964 76.0
141.512787 136.0
141.583817 148.0
141.624084 200.0
141.673828 152.0
141.69751 60.0
141.744904 132.0
141.766235 108.0
141.782822 192.0
141.82074 156.0
141.889481 240.0
142.044647 260.0
142.076828 180.0
142.1931 256.0
142.252441 144.0
142.345032 88.0
142.373535 188.0
142.637253 132.0
142.706192 236.0
143.003555 132.0
143.022598 156.0
143.053146 232.0
143.070648 260.0
143.158295 40.0
143.264404 192.0
143.367935 88.0
143.384613 72.0
143.460892 148.0
143.484726 84.0
143.508575 160.0
143.539566 148.0
143.623032 76.0
143.651657 136.0
143.713684 84.0
143.759018 176.0
143.780502 132.0
143.852112 124.0
143.907013 256.0
143.928513 132.0
143.997757 180.0
144.057632 324.0
144.077591 200.0
144.119583 196.0
144.181717 160.0
144.210403 180.0
144.237183 172.0
144.296448 48.0
144.332321 52.0
144.477386 104.0
144.590668 52.0
144.807129 152.0
145.068008 376.0
145.263947 96.0
145.301605 156.0
145.349319 172.0
145.400711 172.0
145.436722 156.0
145.532745 136.0
145.745804 136.0
145.933502 180.0
145.967651 112.0
146.037384 108.0
146.109314 160.0
146.167297 96.0
146.198578 200.0
146.268372 88.0
146.290039 152.0
146.330963 128.0
146.383942 204.0
146.43692 152.0
146.516418 148.0
146.533279 180.0
146.593506 172.0
146.624847 188.0
146.834579 152.0
146.863525 140.0
146.910431 144.0
147.015518 136.0
147.041565 340.0
147.077652 156.0
147.505249 172.0
147.583176 96.0
147.62912 168.0
147.706512 124.0
147.764572 340.0
147.791183 116.0
147.812958 108.0
147.890411 192.0
147.921875 144.0
147.972488 88.0
148.006607 156.0
148.047577 156.0
148.09137 168.0
148.156769 104.0
148.21492 144.0
148.239151 124.0
148.275497 116.0
148.362762 180.0
148.38942 116.0
148.503403 80.0
148.530075 164.0
148.636826 208.0
148.656387 188.0
148.79715 304.0
148.848007 68.0
148.865005 160.0
148.902969 132.0
148.985229 112.0
149.015274 1496.0
149.059494 2692.0
149.137589 216.0
149.193008 180.0
149.241638 80.0
149.268372 64.0
149.297562 176.0
149.363937 220.0
149.436203 156.0
149.465408 144.0
149.489731 52.0
149.531113 192.0
149.572479 160.0
149.662567 168.0
149.694214 112.0
149.85498 308.0
149.903122 164.0
149.923203 48.0
150.025574 144.0
150.062607 280.0
150.115784 124.0
150.210907 96.0
150.245056 212.0
150.28653 148.0
150.332077 192.0
150.584 172.0
150.667404 100.0
150.717789 204.0
150.765137 136.0
150.833572 120.0
150.86644 160.0
150.924026 120.0
150.941132 172.0
150.98027 156.0
151.030762 1800.0
151.068314 152.0
151.171082 168.0
151.200439 108.0
151.24205 132.0
151.32283 92.0
151.401184 140.0
151.447723 116.0
151.48468 204.0
151.605698 140.0
151.626572 160.0
151.653534 140.0
151.682953 272.0
151.859497 168.0
151.896286 184.0
151.940445 164.0
151.967422 128.0
152.026932 1448.0
152.087677 200.0
152.109756 144.0
152.244797 132.0
152.389725 180.0
152.485565 168.0
152.53717 44.0
152.578964 224.0
152.647446 212.0
152.694534 176.0
152.74028 188.0
152.765869 164.0
152.797852 152.0
153.026306 644.0
153.07106 120.0
153.186813 128.0
153.250854 120.0
153.373276 148.0
153.477615 48.0
153.696503 216.0
153.714828 192.0
153.825485 204.0
153.850952 100.0
153.899536 68.0
153.929169 172.0
154.041199 10664.0
154.176712 172.0
154.220688 180.0
154.280014 128.0
154.322037 176.0
154.372711 212.0
154.408127 192.0
154.470428 44.0
154.524857 220.0
154.552063 120.0
154.569382 140.0
154.673325 84.0
154.700562 120.0
154.752548 168.0
154.891235 48.0
155.006165 152.0
155.043747 800.0
155.101852 84.0
155.121674 92.0
155.270447 180.0
155.329971 160.0
155.432388 156.0
155.534576 148.0
155.595505 164.0
155.694824 144.0
155.774307 128.0
155.99794 144.0
156.037766 3084.0
156.079987 36.0
156.144653 184.0
156.22673 116.0
156.27063 136.0
156.317963 152.0
156.371048 204.0
156.413361 88.0
156.512939 180.0
156.55278 152.0
156.612549 228.0
156.639954 76.0
156.664871 136.0
156.722168 176.0
156.899124 152.0
157.018875 148.0
157.040314 572.0
157.148514 196.0
157.411896 224.0
157.443069 100.0
157.503006 48.0
157.62793 68.0
157.8629 96.0
157.906235 244.0
158.01297 224.0
158.052948 168.0
158.10556 76.0
158.173126 168.0
158.198166 164.0
158.335876 132.0
158.406006 212.0
158.448593 100.0
158.558853 124.0
158.844681 244.0
158.887329 176.0
158.997726 176.0
159.044037 1480.0
159.120728 36.0
159.158386 112.0
159.203583 228.0
159.437225 404.0
159.459839 100.0
159.500046 56.0
159.530212 72.0
159.635818 176.0
159.698685 300.0
159.741455 144.0
159.794281 120.0
160.044098 340.0
160.086258 172.0
160.234863 164.0
160.285263 100.0
160.318008 292.0
160.431442 160.0
160.549942 216.0
160.734085 268.0
160.799698 136.0
160.829987 188.0
160.855225 44.0
160.888046 196.0
160.986526 172.0
161.058548 1748.0
161.148178 120.0
161.226517 228.0
161.309921 144.0
161.395874 136.0
161.469208 172.0
161.561676 36.0
161.717148 128.0
161.772842 152.0
161.803223 152.0
161.954025 116.0
162.01088 240.0
162.057846 304.0
162.124893 236.0
162.180649 180.0
162.226288 68.0
162.337845 100.0
162.370804 52.0
162.506714 220.0
162.573029 152.0
162.604218 72.0
162.680359 84.0
162.713364 148.0
162.763245 168.0
162.880966 212.0
162.954636 188.0
162.980042 164.0
163.039032 2140.0
163.16304 196.0
163.305435 212.0
163.351227 180.0
163.515579 256.0
163.542068 208.0
163.633347 140.0
163.643723 120.0
163.651764 132.0
163.699905 100.0
163.720276 192.0
163.753983 172.0
163.832352 88.0
163.860367 60.0
163.883301 132.0
163.949554 192.0
163.99028 208.0
164.025955 9124.0
164.066803 160.0
164.153488 96.0
164.321838 192.0
164.346619 140.0
164.513229 40.0
164.566849 180.0
164.6409 44.0
164.666626 248.0
164.691986 48.0
164.737961 196.0
164.824417 224.0
164.906601 220.0
165.009979 2776.0
165.053558 172.0
165.109344 172.0
165.165451 84.0
165.236008 184.0
165.279816 68.0
165.2939 116.0
165.351624 84.0
165.407928 164.0
165.447296 136.0
165.492401 124.0
165.528259 200.0
165.546173 32.0
165.575684 260.0
165.594833 100.0
165.628128 104.0
165.70755 120.0
165.74086 96.0
165.763245 136.0
165.772324 100.0
165.793564 176.0
165.828842 108.0
165.886795 164.0
165.898148 156.0
165.909378 276.0
165.920166 196.0
165.92984 164.0
165.937759 184.0
165.976227 576.0
166.04184 88712.0
166.097763 276.0
166.150742 256.0
166.185135 68.0
166.204956 128.0
166.225479 40.0
166.261459 192.0
166.324066 212.0
166.35759 220.0
166.404007 116.0
166.42157 132.0
166.443237 96.0
166.463211 284.0
166.497589 104.0
166.535019 112.0
166.574646 76.0
166.596909 72.0
166.614716 120.0
166.636307 52.0
166.675735 112.0
166.699036 184.0
166.720886 48.0
166.739639 56.0
166.815094 192.0
166.841476 48.0
166.862335 76.0
166.886246 156.0
166.94989 92.0
167.044464 8228.0
167.111938 36.0
167.147964 52.0
167.170242 164.0
167.197205 148.0
167.245193 72.0
167.297241 116.0
167.325562 48.0
167.344498 216.0
167.407959 40.0
167.428558 128.0
167.495529 28.0
167.516129 60.0
167.563293 156.0
167.604584 144.0
167.693375 56.0
167.727432 72.0
167.773834 40.0
167.795486 216.0
167.847015 192.0
167.879547 140.0
167.897598 200.0
167.936966 120.0
167.947418 88.0
167.997711 120.0
168.038544 29740.0
168.102142 180.0
168.124619 60.0
168.149017 120.0
168.165344 132.0
168.186722 132.0
168.244324 148.0
168.262711 96.0
168.299759 136.0
168.340332 148.0
168.360535 156.0
168.386108 124.0
168.4263 124.0
168.493851 88.0
168.519165 160.0
168.557907 228.0
168.604965 60.0
168.651474 84.0
168.685089 60.0
168.767807 56.0
168.791077 172.0
168.835541 84.0
168.975143 204.0
168.998001 80.0
169.040695 2464.0
169.073914 96.0
169.106873 60.0
169.145523 172.0
169.162384 148.0
169.182587 112.0
169.232101 72.0
169.267197 28.0
169.290497 44.0
169.358398 112.0
169.425186 68.0
169.445908 92.0
169.484772 112.0
169.502914 64.0
169.523651 116.0
169.661011 108.0
169.764725 156.0
169.80571 160.0
169.839935 192.0
169.884033 72.0
169.91777 200.0
169.941116 184.0
170.032715 204.0
170.078659 84.0
170.139297 188.0
170.27597 60.0
170.317535 84.0
170.377274 100.0
170.395462 180.0
170.413651 132.0
170.489014 132.0
170.562912 88.0
170.629364 96.0
170.647568 40.0
170.714706 176.0
170.834808 196.0
170.975098 48.0
171.04039 60.0
171.089844 180.0
171.222641 52.0
171.321625 112.0
171.391968 72.0
171.537903 156.0
171.681305 48.0
171.71521 228.0
171.837814 64.0
172.096207 88.0
172.184982 88.0
172.213715 196.0
172.252899 100.0
172.571716 176.0
172.877762 152.0
172.937958 76.0
172.982452 36.0
173.056503 304.0
173.08194 136.0
173.100266 136.0
173.336014 152.0
173.745041 56.0
174.006744 200.0
174.107254 104.0
174.316467 208.0
174.36998 124.0
174.509293 160.0
174.669708 152.0
175.011826 156.0
175.042419 260.0
175.069504 200.0
175.275223 156.0
175.372742 96.0
175.449173 136.0
175.559921 224.0
175.581024 96.0
175.702347 124.0
175.792068 36.0
175.822342 152.0
175.855408 68.0
175.91687 112.0
176.024841 1756.0
176.230377 212.0
176.412735 148.0
176.457687 128.0
176.481476 40.0
176.521133 160.0
176.592545 96.0
176.708939 164.0
176.825363 164.0
176.843887 144.0
176.949783 68.0
177.01445 320.0
177.054306 4516.0
177.237717 100.0
177.305313 196.0
177.408096 64.0
177.519455 184.0
177.591049 60.0
177.630844 336.0
177.707779 84.0
177.867386 84.0
177.986465 196.0
178.024445 1160.0
178.056335 644.0
178.22287 96.0
178.276016 36.0
178.343552 156.0
178.380753 216.0
178.516098 164.0
178.738937 224.0
178.759384 88.0
178.887054 156.0
178.951645 96.0
179.023148 472.0
179.063477 216.0
179.119415 76.0
179.221268 68.0
179.289642 188.0
179.431198 100.0
179.511185 96.0
179.607208 100.0
179.688232 96.0
179.751266 136.0
179.801971 88.0
180.019806 344.0
180.060928 240.0
180.109009 204.0
180.277328 124.0
180.386902 56.0
180.560699 108.0
180.595474 64.0
180.999207 296.0
181.024353 252.0
181.156509 100.0
181.304947 60.0
181.352982 208.0
181.519409 156.0
182.03595 768.0
182.308609 184.0
182.416122 84.0
182.88147 48.0
182.921844 148.0
183.019424 1188.0
183.080688 116.0
183.131866 64.0
183.18573 80.0
183.215363 72.0
183.234222 152.0
183.319885 96.0
183.867889 200.0
184.023407 144.0
184.049255 788.0
184.081161 196.0
184.326965 188.0
184.578354 124.0
184.659485 68.0
184.989594 156.0
185.008469 152.0
185.012085 104.0
185.050293 120.0
185.09938 164.0
185.165588 140.0
185.203506 176.0
185.321014 156.0
185.395859 156.0
185.425674 128.0
185.726624 44.0
185.881256 172.0
186.043427 128.0
186.073975 136.0
186.25592 192.0
186.296661 136.0
186.364578 36.0
186.685333 108.0
186.742447 160.0
187.037964 1952.0
187.069275 236.0
187.43663 104.0
187.638321 224.0
187.709213 128.0
187.755569 108.0
187.77858 172.0
187.908325 148.0
187.945511 216.0
187.981995 112.0
188.047501 140.0
188.121201 184.0
188.227676 128.0
188.37117 180.0
188.44072 216.0
188.470764 60.0
188.965652 80.0
189.02037 308.0
189.055069 6452.0
189.09613 316.0
189.173645 180.0
189.321487 108.0
189.406387 80.0
189.436523 72.0
189.543381 76.0
189.583008 156.0
189.792801 268.0
189.932678 148.0
190.054825 568.0
190.086304 124.0
190.163147 180.0
190.25647 52.0
190.382782 120.0
190.427475 176.0
190.558578 100.0
190.668488 140.0
191.03363 264.0
191.056183 148.0
191.421906 164.0
191.471817 136.0
191.537918 164.0
191.592133 100.0
191.744553 212.0
191.849304 172.0
191.984406 148.0
192.037308 212.0
192.058868 176.0
192.320999 84.0
192.845779 132.0
192.865128 252.0
193.00058 172.0
193.048096 308.0
193.119095 164.0
193.127945 140.0
193.136597 172.0
193.175674 128.0
193.293777 152.0
193.33252 72.0
193.673065 44.0
193.781097 156.0
193.881439 224.0
193.919647 136.0
194.000031 116.0
194.035889 7356.0
194.088745 36.0
194.131393 256.0
194.288437 168.0
194.349487 116.0
194.529877 36.0
194.585403 180.0
194.718689 160.0
194.749237 44.0
194.840897 132.0
194.900253 232.0
194.982605 84.0
195.036789 920.0
195.243942 136.0
195.299561 72.0
195.405273 60.0
195.491531 88.0
195.580582 56.0
195.700287 132.0
195.825607 64.0
195.900818 68.0
195.98996 144.0
196.032715 2396.0
196.132095 44.0
196.159958 40.0
196.374664 100.0
196.446075 100.0
196.547623 252.0
196.611282 128.0
196.664825 240.0
196.71228 124.0
196.771088 128.0
196.857468 56.0
196.963593 120.0
197.01709 164.0
197.039017 296.0
197.097687 120.0
197.217865 52.0
197.665314 112.0
197.855652 92.0
197.934036 124.0
198.03833 120.0
198.356445 228.0
198.376709 148.0
198.56456 136.0
198.690796 208.0
198.906876 112.0
199.027588 76.0
199.050049 212.0
199.115509 208.0
199.156769 140.0
199.269135 112.0
199.367477 204.0
199.443359 132.0
199.620483 132.0
199.642975 220.0
200.046921 364.0
200.088837 160.0
200.124146 28.0
200.425522 92.0
200.557983 156.0
201.045654 184.0
201.088226 196.0
201.124924 36.0
201.356445 144.0
201.53157 188.0
201.650269 96.0
201.751602 188.0
202.049194 528.0
202.138092 124.0
202.190445 136.0
202.501862 156.0
202.606674 216.0
202.660507 172.0
202.8022 120.0
202.824875 184.0
203.034607 316.0
203.069611 168.0
203.116928 152.0
203.159485 116.0
203.292831 116.0
203.324051 60.0
203.423386 188.0
203.45462 76.0
203.522751 48.0
203.678955 120.0
203.934677 108.0
203.954559 144.0
204.018677 952.0
204.038757 860.0
204.10524 100.0
204.162109 144.0
204.207611 84.0
204.241745 208.0
204.292953 148.0
204.315704 176.0
204.344162 160.0
204.37915 244.0
204.42952 52.0
204.46936 160.0
204.505615 212.0
204.537674 88.0
204.583221 96.0
204.640717 120.0
204.661331 100.0
204.688553 156.0
204.796783 220.0
204.834686 208.0
204.895966 176.0
204.924728 112.0
204.971069 180.0
204.998398 468.0
205.049423 78016.0
205.126633 188.0
205.146744 196.0
205.229874 124.0
205.273239 108.0
205.301224 100.0
205.342575 88.0
205.364487 44.0
205.39299 104.0
205.460129 96.0
205.469177 136.0
205.514465 100.0
205.650055 104.0
205.686386 148.0
205.757751 96.0
205.77774 52.0
205.80629 72.0
205.86911 48.0
205.917664 120.0
205.971924 52.0
206.016296 556.0
206.052887 8980.0
206.109055 48.0
206.171921 140.0
206.280533 52.0
206.340576 44.0
206.379883 32.0
206.443512 84.0
206.49498 164.0
206.537888 80.0
206.592239 72.0
206.663757 40.0
206.712402 80.0
206.81543 144.0
206.851929 48.0
206.945618 84.0
207.014908 160.0
207.053497 1304.0
207.170502 100.0
207.239258 72.0
207.279373 144.0
207.307785 96.0
207.391678 64.0
207.454208 28.0
207.477142 124.0
207.501831 136.0
207.541397 368.0
207.634842 188.0
207.703674 36.0
207.740967 36.0
207.769653 192.0
207.792603 96.0
207.881546 244.0
207.993484 216.0
208.053772 212.0
208.329453 160.0
208.461624 128.0
208.521973 92.0
208.590958 88.0
208.852615 68.0
209.022354 148.0
209.046219 148.0
209.174881 32.0
209.652985 52.0
209.699097 136.0
209.727921 180.0
209.886475 144.0
209.906662 48.0
210.501099 116.0
211.342239 52.0
211.438522 116.0
211.475357 56.0
211.547714 92.0
211.582458 160.0
211.759094 76.0
211.840195 36.0
211.970444 196.0
212.04454 2412.0
212.327133 188.0
212.46637 128.0
213.048187 652.0
213.759308 104.0
213.928116 60.0
214.007935 144.0
214.04277 956.0
214.096985 148.0
214.187271 172.0
214.440765 72.0
214.612747 188.0
214.738144 88.0
214.787735 76.0
214.89859 40.0
215.021149 128.0
215.043091 108.0
215.071762 176.0
215.105621 552.0
215.50296 104.0
215.628616 140.0
215.678299 168.0
215.824478 80.0
215.891724 248.0
215.944366 128.0
216.014572 108.0
216.036728 180.0
216.06723 160.0
216.113068 512.0
216.157928 44.0
216.336456 88.0
216.368668 44.0
216.415512 28.0
216.465286 92.0
216.51799 116.0
216.638092 132.0
216.693741 108.0
216.740631 136.0
216.831467 64.0
216.869568 100.0
216.907669 168.0
216.936981 188.0
216.967468 244.0
216.998779 104.0
217.049225 20596.0
217.109818 144.0
217.177429 28.0
217.304443 124.0
217.335846 72.0
217.462784 152.0
217.535416 80.0
217.564774 140.0
217.666061 136.0
217.732132 116.0
217.758575 80.0
217.884872 120.0
218.051773 2972.0
218.21698 64.0
218.275787 128.0
218.32283 96.0
218.365097 272.0
218.622894 72.0
218.655273 212.0
218.678818 92.0
218.714142 44.0
218.76123 176.0
218.7995 120.0
218.840714 44.0
218.890228 64.0
218.926117 116.0
218.976181 92.0
219.057907 1052.0
219.101837 388.0
219.166 64.0
219.297913 100.0
219.329742 72.0
219.376907 248.0
219.503677 76.0
219.572983 168.0
219.837021 44.0
220.017059 164.0
220.067261 200.0
220.312378 68.0
220.643372 68.0
220.672928 144.0
220.90361 172.0
220.942062 160.0
221.06781 132.0
221.119598 184.0
221.158081 104.0
221.208405 76.0
221.386047 68.0
221.72673 200.0
221.821579 44.0
221.869003 128.0
221.922379 80.0
222.028732 744.0
222.685013 204.0
222.732544 168.0
222.857315 104.0
222.949432 48.0
223.027161 188.0
223.062363 104.0
223.826965 60.0
223.972885 120.0
224.024277 436.0
224.074173 116.0
225.017044 140.0
225.081635 160.0
225.443756 176.0
225.515472 136.0
225.7995 212.0
225.970001 284.0
226.868454 156.0
227.069351 100.0
227.108337 188.0
227.498428 108.0
227.573486 72.0
227.795715 44.0
227.864807 220.0
228.018066 84.0
228.039093 196.0
228.291626 144.0
228.661667 156.0
228.706818 40.0
228.818192 196.0
229.047195 92.0
229.069611 176.0
229.785629 176.0
230.049988 140.0
230.419632 204.0
230.495178 160.0
230.558624 148.0
230.637207 144.0
230.736969 92.0
231.064163 300.0
231.096832 300.0
231.196732 116.0
231.302658 232.0
231.496429 220.0
231.632721 124.0
231.723602 164.0
231.832672 128.0
231.899353 120.0
232.049988 144.0
232.070572 192.0
232.108597 164.0
232.269257 156.0
232.4422 60.0
232.722961 20.0
233.042999 1100.0
233.088974 128.0
233.11647 204.0
233.313873 176.0
233.456787 100.0
233.493271 200.0
234.022751 132.0
234.056488 156.0
234.403503 148.0
234.467484 120.0
234.516251 140.0
235.065598 180.0
235.233063 136.0
235.391815 84.0
235.843964 28.0
236.165009 160.0
236.244537 124.0
236.688324 136.0
237.64769 156.0
237.675308 132.0
239.273529 204.0
239.630783 96.0
239.77562 108.0
239.908157 140.0
239.994476 104.0
240.04129 4780.0
240.090073 188.0
240.127075 44.0
240.179504 28.0
240.241211 56.0
240.386215 88.0
240.417068 76.0
240.454102 84.0
240.540527 44.0
240.579361 172.0
240.772095 116.0
240.84314 36.0
240.960526 64.0
241.043365 668.0
241.093384 204.0
241.176834 108.0
241.427261 152.0
241.637589 56.0
242.037918 1668.0
242.092606 136.0
242.324905 76.0
242.557327 120.0
242.597626 76.0
242.631729 124.0
242.771255 144.0
243.040161 116.0
243.101501 768.0
243.329773 124.0
243.373245 60.0
243.823669 96.0
243.988403 72.0
244.056808 220.0
244.097672 152.0
244.258957 196.0
244.333618 88.0
244.545212 136.0
244.592239 216.0
244.660385 168.0
244.691513 100.0
244.729813 172.0
244.840973 152.0
244.975571 132.0
245.043976 19796.0
245.18367 44.0
245.217941 60.0
245.242874 28.0
245.273041 176.0
245.327042 56.0
245.351974 40.0
245.37381 100.0
245.60144 68.0
245.632462 68.0
245.679428 36.0
245.748062 152.0
245.857285 44.0
245.882248 88.0
245.947784 68.0
245.975876 36.0
246.012375 196.0
246.045731 3572.0
246.085403 144.0
246.247528 124.0
246.403702 104.0
246.428711 128.0
246.490189 204.0
246.553696 60.0
246.609955 32.0
246.666214 140.0
246.752731 112.0
246.825653 40.0
246.988281 32.0
247.047562 568.0
247.154083 76.0
247.421509 108.0
247.48587 128.0
247.620514 44.0
247.65184 208.0
247.705093 152.0
247.764603 108.0
247.846069 52.0
248.084259 64.0
248.617462 220.0
249.229782 108.0
249.396347 176.0
249.531525 240.0
249.789383 128.0
249.89949 148.0
250.352768 172.0
250.462997 180.0
251.273163 100.0
251.430923 80.0
251.97403 112.0
252.54303 152.0
253.229843 140.0
253.765381 64.0
254.396698 148.0
254.469727 100.0
254.542419 76.0
255.089203 172.0
255.419052 148.0
255.54715 96.0
257.121307 164.0
257.169159 124.0
258.061737 168.0
258.399445 180.0
258.671478 88.0
259.033295 232.0
259.062439 156.0
259.098633 296.0
259.30246 120.0
259.773773 156.0
260.05368 176.0
260.102936 1148.0
260.351532 260.0
260.431824 100.0
260.881683 116.0
260.945953 72.0
261.042419 176.0
261.110565 4764.0
261.187164 60.0
261.460632 68.0
261.486389 68.0
261.631226 56.0
261.814758 112.0
261.933929 40.0
261.966125 100.0
262.065399 172.0
262.113861 804.0
262.543091 92.0
262.649506 100.0
263.053894 452.0
263.116608 144.0
263.223969 44.0
263.500885 124.0
263.634216 56.0
264.049316 260.0
265.058044 196.0
265.404846 68.0
265.599426 68.0
265.842773 76.0
265.901184 48.0
266.345978 108.0
266.553925 52.0
266.58316 120.0
267.799896 124.0
268.096375 164.0
268.347351 48.0
268.879059 196.0
269.042267 192.0
269.675964 148.0
270.922821 152.0
271.04715 128.0
271.647125 136.0
272.819458 100.0
272.91568 176.0
273.037781 188.0
273.058136 256.0
273.108734 4800.0
273.197632 164.0
273.266724 108.0
273.297852 88.0
273.345703 64.0
273.441132 36.0
273.533295 40.0
273.628754 60.0
273.678131 96.0
273.879028 92.0
273.971252 84.0
274.115234 532.0
274.165649 228.0
274.268982 92.0
275.122528 324.0
275.161804 168.0
275.270752 60.0
275.303772 168.0
275.356628 180.0
276.060547 128.0
276.543549 84.0
276.76535 72.0
276.795166 124.0
277.985168 188.0
278.097992 172.0
279.833252 44.0
282.05835 116.0
282.573334 132.0
282.901306 140.0
284.540649 116.0
284.873108 136.0
285.118408 108.0
287.040588 152.0
287.958496 192.0
288.415771 192.0
288.783142 72.0
288.884644 160.0
289.517548 176.0
289.985077 64.0
290.67691 44.0
291.128387 144.0
292.059601 132.0
292.148041 80.0
292.321564 88.0
292.804993 52.0
294.254181 132.0
294.401001 180.0
294.465881 60.0
294.739166 128.0
294.80069 80.0
295.850708 48.0
296.100677 168.0
296.124664 144.0
297.194183 56.0
297.290283 148.0
298.372223 108.0
298.478821 88.0
298.829651 72.0
300.024719 92.0
300.61795 280.0
301.109009 4032.0
301.322327 92.0
301.3638 156.0
301.477814 60.0
301.647186 132.0
301.730133 60.0
301.947998 68.0
302.106659 716.0
302.158997 100.0
302.210876 88.0
302.252411 40.0
302.508514 88.0
302.619293 64.0
302.660858 36.0
302.70932 212.0
303.007202 224.0
303.04184 36.0
303.111603 160.0
303.412689 204.0
303.596436 56.0
303.901703 56.0
304.467499 128.0
304.641174 100.0
304.818359 80.0
305.291138 92.0
305.360687 88.0
305.38504 76.0
306.774353 148.0
308.278656 120.0
309.065399 124.0
309.905731 188.0
311.045502 132.0
311.084106 60.0
313.694244 132.0
314.089172 72.0
315.056396 144.0
315.476929 64.0
316.071106 140.0
316.417969 92.0
317.371033 196.0
318.127319 204.0
318.279358 88.0
318.620331 88.0
318.783783 116.0
319.117432 428.0
319.213898 180.0
321.311798 44.0
322.443726 52.0
323.098083 52.0
324.077545 132.0
324.290466 124.0
325.072296 168.0
325.829895 208.0
325.862213 56.0
326.095795 140.0
327.613922 84.0
328.371216 40.0
329.055206 192.0
329.070312 140.0
330.05307 180.0
330.368683 172.0
330.65451 168.0
330.839111 200.0
331.04187 96.0
331.552673 52.0
331.719391 48.0
331.868042 48.0
332.05661 56.0
332.134186 112.0
332.234344 220.0
332.393982 172.0
333.015656 80.0
334.119812 156.0
336.225891 64.0
336.656677 72.0
336.773529 160.0
337.266785 112.0
337.413025 160.0
337.581207 192.0
337.625092 52.0
337.778717 136.0
338.239746 44.0
338.452087 48.0
340.066681 180.0
340.30368 124.0
340.619507 56.0
341.064117 132.0
341.100891 160.0
341.600983 64.0
341.910034 180.0
342.071991 120.0
342.226624 88.0
343.053436 116.0
343.206696 164.0
344.084808 140.0
344.236176 56.0
344.823578 152.0
345.452148 108.0
346.099823 164.0
346.136841 44.0
346.547974 68.0
346.759216 160.0
347.04834 68.0
347.118805 128.0
347.322784 64.0
347.411804 100.0
349.012512 224.0
349.101746 108.0
349.618835 192.0
350.669067 48.0
350.769714 108.0
350.833099 112.0
351.832886 148.0
352.083038 108.0
352.65094 180.0
353.082611 156.0
354.061401 148.0
354.780792 152.0
354.923279 188.0
354.960754 80.0
355.110779 48.0
356.071564 176.0
356.124146 100.0
357.263092 112.0
357.767365 96.0
358.073761 272.0
358.449066 184.0
358.799591 132.0
360.080872 152.0
360.705963 132.0
360.91391 208.0
361.031128 92.0
361.084076 152.0
362.283966 88.0
363.743896 140.0
364.780914 80.0
365.465454 136.0
366.093536 40.0
366.325867 68.0
368.064972 52.0
368.09552 104.0
368.771698 152.0
369.031647 132.0
369.0737 176.0
369.108124 96.0
369.586243 168.0
369.662781 40.0
370.083588 496.0
370.125946 100.0
370.735016 124.0
371.083832 136.0
372.082947 124.0
372.098755 164.0
372.188843 64.0
372.572906 172.0
373.791718 136.0
373.818634 108.0
374.245911 64.0
374.735046 68.0
375.133026 356.0
375.602417 164.0
375.737457 148.0
376.038422 52.0
376.243011 160.0
376.783661 52.0
377.143036 148.0
377.371124 136.0
378.369293 132.0
379.035492 120.0
380.065399 156.0
381.018097 160.0
381.048462 160.0
381.084381 216.0
381.60498 124.0
381.659393 72.0
382.065002 316.0
382.546417 168.0
382.773621 148.0
383.029297 260.0
383.188995 124.0
384.0466 112.0
384.276764 92.0
385.19809 112.0
386.081085 108.0
390.261444 112.0
391.245026 188.0
391.662415 60.0
391.780609 220.0
391.942139 68.0
394.444244 68.0
394.630035 104.0
395.278717 76.0
396.740204 52.0
396.886902 136.0
397.156555 88.0
397.392609 120.0
397.620758 96.0
397.847015 132.0
398.078796 7316.0
398.275879 148.0
398.338135 148.0
398.387085 68.0
398.56192 108.0
398.588562 68.0
398.599976 48.0
398.649323 68.0
398.72998 96.0
398.836121 60.0
399.029938 164.0
399.077393 1624.0
399.150177 152.0
399.201874 68.0
399.249603 56.0
399.325165 76.0
399.444824 48.0
399.715027 136.0
400.073517 1708.0
400.148865 76.0
400.23645 76.0
400.478271 128.0
400.704285 96.0
400.75824 68.0
400.865814 84.0
401.076691 524.0
401.200623 32.0
401.259949 136.0
401.308258 136.0
401.384033 56.0
401.511627 72.0
401.594147 104.0
401.644104 144.0
401.696075 116.0
401.762909 56.0
401.806793 36.0
401.84671 160.0
402.18988 36.0
403.028534 56.0
403.080475 120.0
403.372223 156.0
403.50415 68.0
403.832062 160.0
403.984039 44.0
404.18808 84.0
404.764496 64.0
404.8526 128.0
408.505005 64.0
409.503235 76.0
410.184174 76.0
411.830444 168.0
412.258667 124.0
413.119873 104.0
413.471893 92.0
413.888855 172.0
414.068848 208.0
414.103485 268.0
415.14502 76.0
415.315338 112.0
415.501953 28.0
416.098999 144.0
416.374664 144.0
417.337708 128.0
417.638641 72.0
418.102448 88.0
418.407745 140.0
419.417999 108.0
424.073425 40.0
425.016632 172.0
425.837677 112.0
426.074646 432.0
426.158081 124.0
426.754028 104.0
427.074585 292.0
428.056946 204.0
428.243713 128.0
428.729858 56.0
428.894958 316.0
429.070709 156.0
431.437531 196.0
432.081299 476.0
432.301971 44.0
432.393005 112.0
432.475769 80.0
433.038879 188.0
433.07019 248.0
433.763977 120.0
434.085968 320.0
434.249084 160.0
434.294708 64.0
435.058228 128.0
435.08728 128.0
435.469299 44.0
435.502533 108.0
435.636688 120.0
436.134094 100.0
436.17981 64.0
436.337769 156.0
437.631683 128.0
437.789917 40.0
437.848236 68.0
437.985657 44.0
438.027313 100.0
438.277283 100.0
438.32312 44.0
438.585663 180.0
438.877502 40.0
439.732666 100.0
439.874573 124.0
439.953888 116.0
440.012329 64.0
441.223877 116.0
441.838654 52.0
442.357574 172.0
442.491547 128.0
442.731598 48.0
442.767883 132.0
442.813965 40.0
442.866974 152.0
443.006653 76.0
443.10199 216.0
443.157471 160.0
443.203552 72.0
443.245453 88.0
443.287354 184.0
443.375702 100.0
443.56723 128.0
443.605896 188.0
443.677155 180.0
443.713379 144.0
443.78952 144.0
443.834412 236.0
443.871063 172.0
443.952454 160.0
443.962891 164.0
443.976532 260.0
444.007294 136.0
444.08374 29980.0
444.167786 32.0
444.226501 36.0
444.284637 56.0
444.333008 52.0
444.400146 92.0
444.475952 44.0
444.515991 108.0
444.561371 84.0
444.608002 52.0
444.651459 72.0
444.71405 144.0
444.792999 56.0
444.853516 204.0
444.921265 36.0
444.951691 104.0
445.011292 212.0
445.087646 8256.0
445.164276 64.0
445.196045 80.0
445.244598 92.0
445.340424 100.0
445.372437 36.0
445.42215 72.0
445.479034 80.0
445.524048 196.0
445.600769 68.0
445.660797 100.0
445.758942 36.0
445.800964 216.0
445.828644 96.0
445.903625 244.0
446.010773 152.0
446.081329 13892.0
446.329254 56.0
446.393677 60.0
446.43573 88.0
446.56311 56.0
446.591339 120.0
446.655518 188.0
446.774689 64.0
446.90686 72.0
446.943115 148.0
447.08316 2064.0
447.164948 180.0
447.230896 68.0
447.270386 52.0
447.306641 136.0
447.361389 56.0
447.466614 80.0
447.499603 48.0
447.535706 112.0
447.57608 148.0
447.689789 72.0
447.721771 64.0
447.75296 44.0
447.790863 104.0
447.891937 72.0
447.921417 120.0
447.976196 40.0
448.026733 76.0
448.087036 756.0
448.191071 40.0
448.251221 116.0
448.330109 84.0
448.460754 60.0
448.523621 48.0
448.743805 104.0
448.804016 260.0
448.844391 112.0
448.928741 72.0
448.987762 124.0
449.062866 84.0
449.361877 116.0
449.422241 56.0
449.502411 112.0
449.540405 76.0
449.578369 72.0
449.658569 28.0
449.776733 68.0
449.937164 76.0
449.970917 92.0
450.076477 96.0
450.220062 48.0
450.296082 52.0
450.638245 52.0
450.714294 64.0
450.841064 144.0
451.060822 160.0
451.251068 72.0
451.585144 36.0
452.516083 48.0
452.571136 68.0
452.710876 124.0
454.020355 188.0
454.141846 184.0
454.283325 64.0
455.142792 292.0
455.913727 72.0
456.135803 160.0
456.171967 196.0
456.929962 152.0
458.01123 80.0
458.100677 148.0
459.100555 152.0
459.592834 64.0
462.21637 120.0
462.95694 52.0
463.025452 88.0
465.36676 76.0
470.7966 36.0
471.029846 64.0
482.664246 112.0
483.928741 64.0
484.279053 76.0
487.784912 52.0
489.491943 48.0
490.518463 68.0
495.937561 56.0
496.988556 144.0
498.312866 164.0
498.54718 152.0
499.707703 104.0
499.7789 148.0
500.059235 196.0
500.145569 4080.0
500.224609 176.0
500.335236 148.0
500.468781 40.0
500.517761 72.0
500.695892 144.0
500.742126 188.0
500.851776 64.0
500.954224 56.0
501.145508 1664.0
501.223785 128.0
501.301758 52.0
501.466644 84.0
501.555786 76.0
501.620544 72.0
501.792053 140.0
501.845551 32.0
501.890137 44.0
501.983795 108.0
502.059601 124.0
502.146729 1736.0
502.36734 148.0
503.072418 84.0
503.152374 372.0
503.353699 104.0
503.590393 28.0
503.630585 112.0
503.845001 140.0
504.154938 176.0
504.765717 112.0
506.358856 32.0
508.421112 44.0
508.820587 104.0
508.959778 40.0
509.067535 64.0
509.283112 84.0
509.61554 96.0
509.647003 56.0
512.44104 80.0
512.810547 36.0
513.229797 64.0
515.23822 80.0
515.708191 72.0
517.8573 36.0
521.237 84.0
521.809692 176.0
537.174438 52.0
537.359009 36.0
541.324829 68.0
542.464539 44.0
544.10675 72.0
548.414246 32.0
553.426819 40.0
556.788147 92.0
563.742371 76.0
565.672058 48.0
566.306519 56.0
573.061584 220.0
575.069153 108.0
577.563293 56.0
583.052979 104.0
587.695007 84.0
591.629028 80.0
594.571167 92.0
595.862793 88.0
597.710388 72.0
604.894409 108.0
608.03125 84.0
621.885193 144.0
623.991394 68.0
629.766907 120.0
637.135437 88.0
644.359863 68.0
649.858215 68.0
652.148499 68.0
652.321289 36.0
655.120117 80.0
656.307556 92.0
659.447083 76.0
665.358337 148.0
668.642944 80.0
668.713623 76.0
668.797302 32.0
674.098999 120.0
675.696655 172.0
679.660278 76.0
682.054382 76.0
688.629822 100.0
688.922302 124.0
691.505371 92.0
692.976807 20.0
699.283508 92.0
700.104797 72.0
708.259399 40.0
709.398682 60.0
711.180908 72.0
717.766968 76.0
723.24823 64.0
731.525391 112.0
732.052979 72.0
734.909851 104.0
737.172302 64.0
742.461243 48.0
746.458008 92.0
754.226868 100.0
762.420593 200.0
765.908752 36.0
770.012268 36.0
775.694702 88.0
785.420044 188.0
790.006104 92.0
797.233337 104.0
801.904419 76.0
804.645874 248.0
806.261353 72.0
808.744202 164.0
810.091858 76.0
810.958801 72.0
812.404724 148.0
817.302124 120.0
817.905334 228.0
822.899109 104.0
824.024292 116.0
824.692871 200.0
828.320496 108.0
832.231689 72.0
837.228699 60.0
839.562622 60.0
844.413818 168.0
847.348572 116.0
850.735413 104.0
857.267029 72.0
858.071411 232.0
862.005371 96.0
862.735962 88.0
863.835327 72.0
866.586853 76.0
868.157776 104.0
868.234009 68.0
880.238831 88.0
885.15863 248.0
913.508728 204.0
914.092285 116.0
919.630676 160.0
920.264526 168.0
921.442261 88.0
926.766479 168.0
926.9422 52.0
927.83313 96.0
932.725952 52.0
935.731079 160.0
936.943054 76.0
945.668945 168.0
946.134155 184.0
946.311707 68.0
952.198425 180.0
953.40155 120.0
953.494751 200.0
955.025635 160.0
958.738098 256.0
964.212097 164.0
969.664551 188.0
969.912476 160.0
970.724609 56.0
971.977661 44.0
972.952087 216.0
974.374268 264.0
975.157166 72.0
985.264221 36.0
987.589539 164.0
990.10553 32.0
993.391724 240.0
1002.437195 152.0
1004.000549 176.0
1009.323853 76.0
1013.190979 100.0
1015.942322 120.0
1017.325745 156.0
1017.776489 228.0
1021.513428 212.0
1022.035095 172.0
1022.11145 44.0
1022.276917 188.0
1022.620605 104.0
1023.537292 180.0
1025.053345 112.0
1027.201904 80.0
1029.793335 136.0
1037.587158 132.0
1042.60022 216.0
1043.615845 160.0
1047.271118 80.0
1048.970947 172.0
1050.165039 148.0
1058.838379 132.0
1059.82312 120.0
1060.41272 124.0
1066.325317 48.0
1069.0177 148.0
1069.232422 152.0
1070.710205 212.0
1072.703979 96.0
1073.897217 196.0
1074.047241 112.0
1077.552734 160.0
1077.768433 112.0
1079.480957 156.0
1080.62561 100.0
1085.675903 152.0
1086.830322 80.0
1090.159546 44.0
1092.81604 52.0
1093.118652 72.0
1093.605713 52.0
1094.527344 92.0
1096.45752 108.0
1097.373657 44.0
1097.789062 128.0
1099.31958 160.0
1100.560547 116.0
1100.73877 176.0
1103.315552 180.0
1103.665894 160.0
1103.86438 76.0
1105.451904 88.0
1109.227051 100.0
1109.531982 108.0
1110.619507 172.0
1112.928833 176.0
1115.586304 120.0
1117.015991 184.0
1119.904785 156.0
1121.690552 148.0
1125.125977 160.0
1127.22998 164.0
1129.589966 228.0
1129.710449 80.0
1130.566895 80.0
1132.602173 176.0
1133.834961 176.0
1136.638062 96.0
1137.396362 152.0
1137.779053 152.0
1137.936523 212.0
1141.279419 184.0
1141.380249 124.0
1142.025879 200.0
1142.920532 148.0
1143.540649 172.0
1144.758179 232.0
1145.896484 76.0
1146.496216 140.0
1148.741455 168.0
1149.827759 152.0
1151.34668 148.0
1154.211914 132.0
1154.813721 148.0
1156.017944 116.0
1156.674438 80.0
1156.960693 196.0
1157.805176 164.0
1157.879639 156.0
1158.028687 192.0
1158.387695 188.0
1159.437866 124.0
1160.210571 204.0
1160.31897 144.0
1161.370117 200.0
1162.781372 148.0
1163.514404 212.0
1165.232666 168.0
1165.728638 148.0
1166.014038 144.0
1166.115967 160.0
1166.177124 124.0
1169.414673 72.0
1170.135864 224.0
1170.279907 152.0
1171.198486 188.0
1172.240845 20.0
1172.602051 80.0
1172.963257 176.0
1173.017822 212.0
1176.892822 208.0
1177.213745 180.0
1177.473267 168.0
1179.721313 96.0
1185.30603 84.0
1185.395142 208.0
1186.765991 180.0
1188.370972 196.0
1190.134888 56.0
1190.39209 160.0
1191.419189 132.0
1191.584106 232.0
1191.721558 268.0
1192.360596 164.0
1192.95166 200.0
1194.086182 200.0
1194.320068 144.0
1194.753418 180.0
1195.20752 180.0
1195.4552 144.0
1195.579102 84.0
1195.682373 212.0
1199.112061 28.0
1199.29126 108.0
1201.270264 176.0
1205.302124 172.0
1205.405762 56.0
1206.235107 200.0
1207.666382 164.0
1208.039917 208.0
1208.370239 76.0
1208.842529 132.0
1208.946289 52.0
1209.036255 88.0
1209.416992 124.0
1210.123047 160.0
1210.54541 176.0
1215.029907 180.0
1216.431641 164.0
1217.382812 120.0
1218.223267 132.0
1220.725342 164.0
1220.940918 148.0
1221.246948 116.0
1221.552979 164.0
1222.332153 100.0
1222.673218 228.0
1224.14209 116.0
1224.775757 132.0
1226.085693 192.0
1226.925781 156.0
1227.061523 136.0
1227.591431 144.0
1228.428345 80.0
1229.809937 180.0
1229.963501 196.0
1230.012329 136.0
1230.375366 152.0
1231.227173 180.0
1231.792969 192.0
1232.736206 204.0
1233.400146 128.0
1234.791504 100.0
1234.889404 172.0
1235.204102 212.0
1235.875732 168.0
1237.282471 164.0
1237.688599 160.0
1239.839111 132.0
1240.813477 168.0
1241.837158 156.0
1242.040649 220.0
1242.251099 152.0
1242.580811 208.0
1243.493042 160.0
1244.145752 180.0
1244.953247 60.0
1245.058594 160.0
1245.676636 180.0
1246.231689 96.0
1246.899292 100.0
1247.363159 124.0
1247.869263 140.0
1248.052124 60.0
1248.347412 148.0
1250.732422 80.0
1250.816895 228.0
1252.753296 176.0
1253.042969 160.0
1253.225342 164.0
1253.894775 128.0
1254.085083 236.0
1254.992676 160.0
1255.946533 160.0
1257.851685 136.0
1258.402344 92.0
1258.451782 144.0
1258.882446 200.0
1260.768677 236.0
1261.744019 176.0
1262.231934 180.0
1262.345093 144.0
1263.108887 200.0
1263.880005 60.0
1264.460327 160.0
1264.700928 164.0
1264.750488 332.0
1265.430054 36.0
1267.519531 160.0
1267.569092 172.0
1267.724976 144.0
1267.788818 148.0
1270.681763 148.0
1270.972656 32.0
1271.554321 160.0
1271.980469 188.0
1273.649048 56.0
1274.508667 228.0
1278.092285 200.0
1278.163452 124.0
1278.405396 312.0
1278.690063 160.0
1278.839478 208.0
1278.981812 192.0
1279.643921 124.0
1283.213257 192.0
1284.332886 124.0
1286.045288 60.0
1286.466431 124.0
1286.966187 140.0
1287.580322 40.0
1291.032104 44.0
1291.489746 108.0
1292.484131 104.0
1293.056641 188.0
1296.379639 144.0
1299.226074 88.0
1300.345459 192.0
1300.539185 112.0
1301.364746 152.0
1301.616089 236.0
1301.716553 136.0
1303.009521 164.0
1303.138794 180.0
1303.886108 172.0
1304.259888 164.0
1305.863281 56.0
1307.424438 324.0
1307.640259 88.0
1308.19458 56.0
1310.009277 148.0
1311.176514 40.0
1311.673828 164.0
1312.452393 156.0
1312.805664 224.0
1313.887695 172.0
1314.248413 128.0
1315.865112 196.0
1315.980591 196.0
1316.558228 268.0
1317.143311 128.0
1318.010254 260.0
1318.104126 188.0
1318.299316 168.0
1318.769043 144.0
1319.137695 164.0
1320.453613 112.0
1320.504272 80.0
1321.119019 228.0
1321.36499 92.0
1321.640015 160.0
1323.007812 208.0
1323.449463 208.0
1324.079468 148.0
1325.042847 152.0
1325.114746 260.0
1325.361694 220.0
1325.434082 156.0
1327.391235 160.0
1327.717529 140.0
1328.043945 196.0
1328.181763 100.0
1329.393311 96.0
1329.915894 140.0
1330.242554 124.0
1330.554688 216.0
1330.997559 160.0
1331.898071 176.0
1332.428345 196.0
1332.602783 168.0
1333.067749 156.0
1333.176758 180.0
1333.307617 184.0
1335.103271 112.0
1335.466919 100.0
1335.539551 148.0
1336.965576 220.0
1337.744385 180.0
1338.53064 140.0
1339.025879 116.0
1339.66687 40.0
1339.790649 124.0
1339.965576 184.0
1340.133057 160.0
1340.184082 176.0
1342.319824 172.0
1343.092896 128.0
1344.033936 132.0
1344.749146 136.0
1346.012085 44.0
1346.486694 208.0
1347.049072 132.0
1347.421631 160.0
1347.47644 208.0
1348.941772 144.0
1351.216064 204.0
1352.255127 184.0
1353.331177 224.0
1354.891235 228.0
1360.310547 152.0
1360.442627 188.0
1362.271118 180.0
1362.329956 192.0
1362.741333 228.0
1363.740723 204.0
1363.983276 160.0
1364.96106 168.0
1365.093506 40.0
1365.174316 52.0
1365.402344 84.0
1365.725952 180.0
1365.778687 92.0
1366.285034 120.0
1366.395386 44.0
1366.498291 180.0
1367.396118 172.0
1367.918701 80.0
1369.21167 144.0
1369.553345 144.0
1371.137329 128.0
1371.240601 176.0
1371.306885 180.0
1371.40271 180.0
1371.800781 140.0
1372.552734 204.0
1373.577881 200.0
1374.721436 144.0
1375.164185 208.0
1375.437256 112.0
1376.042603 164.0
1376.286255 56.0
1376.507812 172.0
1377.30542 192.0
1378.805298 128.0
1379.197021 172.0
1379.27832 168.0
1379.396606 140.0
1379.598633 228.0
1380.342896 160.0
1380.646118 108.0
1380.727417 176.0
1381.075073 136.0
1382.262695 244.0
1383.909302 160.0
1384.017212 196.0
1385.516479 200.0
1386.487061 180.0
1388.192139 236.0
1388.414673 164.0
1389.050293 236.0
1389.786987 140.0
1390.306396 184.0
1392.273682 112.0
1392.979248 184.0
1393.120361 88.0
1393.246704 48.0
1394.599121 144.0
1395.045044 152.0
1397.26123 236.0
1397.685303 124.0
1398.369873 204.0
1398.794189 128.0
1398.976807 156.0
1399.717407 144.0
1399.806763 132.0
1400.030151 164.0
1401.363403 168.0
1404.225952 168.0
1404.278198 148.0
1404.337769 212.0
1404.397461 180.0
1404.680908 184.0
1405.613525 164.0
1406.046265 200.0
1406.180664 112.0
1407.248169 104.0
1407.838013 124.0
1407.972412 168.0
1408.375732 200.0
1409.630859 160.0
1411.11084 140.0
1411.185547 200.0
1411.50708 176.0
1412.015625 148.0
1412.367065 76.0
1414.185303 136.0
1414.424805 164.0
1416.334106 148.0
1417.675293 128.0
1417.967529 108.0
1418.552124 140.0
1418.896973 172.0
1419.946777 144.0
1420.944458 124.0
1422.136597 128.0
1425.547119 160.0
1426.223511 200.0
1426.990356 252.0
1428.065674 60.0
1428.712524 116.0
1429.359619 180.0
1429.637939 132.0
1429.74646 184.0
1429.799194 132.0
1429.871338 148.0
1430.067017 148.0
1430.661621 168.0
1431.738281 204.0
1432.47644 196.0
1432.792847 152.0
1433.184692 60.0
1434.058472 180.0
1434.299927 124.0
1434.752319 192.0
1434.918091 224.0
1435.468506 148.0
1435.521362 160.0
1435.770142 192.0
1435.936157 172.0
1436.660278 188.0
1440.268433 100.0
1441.084351 196.0
1441.303467 152.0
1441.356323 196.0
1441.40918 204.0
1442.059082 152.0
1442.23291 168.0
1443.134155 184.0
1443.707275 140.0
1443.911377 172.0
1443.971924 172.0
1445.908691 188.0
1446.037354 152.0
1447.116211 216.0
1447.384888 124.0
1448.475342 204.0
1448.761963 196.0
1449.058716 100.0
1450.559204 140.0
1451.378052 148.0
1452.098389 196.0
1452.265259 148.0
1452.644531 144.0
1453.069336 140.0
1453.919189 104.0
1454.21936 252.0
1455.30835 164.0
1455.444946 192.0
1456.356323 132.0
1456.576538 196.0
1457.161499 156.0
1458.156982 184.0
1458.894287 184.0
1459.43396 60.0
1459.654541 176.0
1460.141235 148.0
1460.536743 120.0
1460.772461 196.0
1461.890991 128.0
1462.416016 188.0
1463.41333 220.0
1463.527466 140.0
1463.733032 128.0
1463.801636 256.0
1463.984375 68.0
1464.235718 124.0
1465.454468 116.0
1466.544189 140.0
1466.605225 124.0
1467.817383 184.0
1468.496094 172.0
1468.587524 216.0
1469.022339 168.0
1470.464478 164.0
1470.540771 148.0
1471.487305 128.0
1471.746948 72.0
1472.652344 176.0
1472.670898 100.0
1472.697144 176.0
1474.856201 216.0
1476.744751 212.0
1477.119507 144.0
1477.272461 180.0
1477.570801 92.0
1478.144653 172.0
1479.101318 56.0
1479.912842 160.0
1480.257324 160.0
1480.418213 156.0
1480.494751 184.0
1480.831787 128.0
1481.521118 232.0
1482.616821 132.0
1482.900391 148.0
1482.96167 204.0
1483.36792 184.0
1485.622437 176.0
1486.942139 144.0
1487.01123 116.0
1487.210815 140.0
1487.325928 164.0
1488.039795 144.0
1488.20105 124.0
1488.838379 176.0
1489.36731 120.0
1489.875366 132.0
1490.182617 160.0
1490.367065 176.0
1491.284058 196.0
1491.565918 208.0
1492.503784 212.0
1492.557617 104.0
1492.672974 112.0
1493.026733 232.0
1493.280518 184.0
1493.372803 84.0
1493.695923 48.0
1494.426758 164.0
1494.592285 140.0
1494.696045 132.0
1494.811401 140.0
1494.980713 140.0
1495.203857 184.0
1495.396362 64.0
1495.542603 188.0
1495.704224 144.0
1496.135254 196.0
1496.851318 180.0
1497.159302 192.0
1497.251709 84.0
1497.313354 216.0
1497.582886 212.0
1497.682983 176.0
1498.491943 148.0
1498.915649 232.0
1499.408813 104.0
1499.555298 172.0
1500.125732 228.0
1500.457153 224.0
1501.0354 40.0
1501.498169 204.0
1502.801758 108.0
1502.886597 180.0
1503.08728 132.0
1503.912964 124.0
