>compound Clofarabine
>formula C10H11ClFN5O3
>ionization [M+H]+
>parentmass 304.061035
#inchi InChI=1S/C10H11ClFN5O3/c11-10-15-7(13)5-8(16-10)17(2-14-5)9-4(12)6(19)3(1-18)20-9/h2-4,6,9,18-19H,1H2,(H2,13,15,16)/t3-,4+,6-,9-/m1/s1
#inchikey WDDPHFBMKLOVOX
#Ion_Source LC-ESI
#Instrument qTof
#Compound_Source Commercial
#PI Dorrestein
#Data_Collector Garg_Neha
#Scan -1
#Precursor_MZ 304.061
#ExactMass 303.053
#Charge 1
#CAS_Number 123318-82-1
#Pubmed_ID N/A
#Smiles N1=C(N=C2C(=C1N)N=CN2[C@H]3[C@H]([C@@H]([C@H](O3)CO)O)F)Cl
#INCHI_AUX N/A
#Library_Class 1
#SpectrumID CCMSLIB00000078054
#IonMode Positive
#UpdateWorkflowName UPDATE-SINGLE-ANNOTATED-GOLD
#LibraryQualityString Gold
#TaskID 77f51c88eb8b467eb4a01dd2d0cb90d2
##Scan# 1038
#SpectrumFile Plate1_41_60_GG3_01_16490.mzXML
#LibraryName FDALibrary_2_04302014.mgf
#MQScore -1
#Organism FDALibrary_2_04302014
#TIC_Query 0
#RT_Query -1
#MZErrorPPM -1
#SharedPeaks 0
#MassDiff 0
#LibMZ -1
#SpecMZ 304.061
#SpecCharge 0
#internalFilename spec-00000.mgf

>collision 10
44.928249 160.0
44.960274 180.0
45.246326 216.0
45.540005 144.0
45.71344 160.0
46.168072 180.0
46.335922 148.0
46.364292 188.0
46.643982 152.0
47.349411 196.0
47.579784 160.0
48.36063 192.0
48.415405 168.0
49.018326 140.0
49.093605 184.0
49.268085 152.0
49.420483 148.0
49.643208 160.0
49.827087 144.0
50.46981 204.0
50.626888 152.0
50.747337 148.0
51.241959 184.0
51.577324 204.0
51.594479 200.0
52.447197 264.0
53.041298 204.0
53.102196 188.0
53.158836 200.0
53.337421 172.0
53.394127 176.0
54.424393 176.0
54.541924 160.0
54.587502 164.0
55.094543 148.0
55.156609 156.0
55.206879 160.0
55.263088 144.0
55.506012 184.0
55.532707 140.0
56.145477 192.0
56.248432 180.0
56.342514 140.0
56.442657 160.0
56.679165 204.0
56.929684 180.0
57.209354 148.0
57.364521 196.0
58.231564 184.0
58.391151 244.0
58.528114 152.0
58.778107 168.0
58.912464 184.0
59.927986 160.0
59.980537 200.0
60.06596 192.0
60.787888 216.0
61.037991 212.0
61.103317 192.0
61.18269 148.0
62.065472 216.0
62.156452 188.0
62.206676 208.0
62.308758 268.0
63.251823 196.0
63.334164 148.0
63.386135 204.0
63.54501 144.0
63.737137 140.0
63.972527 196.0
64.131821 160.0
64.471779 188.0
65.252426 172.0
66.951759 144.0
67.313568 172.0
67.568558 188.0
68.109543 168.0
68.47963 156.0
69.120186 176.0
69.270851 180.0
69.299019 164.0
69.410072 156.0
69.921745 184.0
70.46537 160.0
70.806625 204.0
71.12352 188.0
71.194038 164.0
71.563522 176.0
71.595978 176.0
71.646515 200.0
71.725716 164.0
72.157898 152.0
72.365845 172.0
72.383949 208.0
73.186119 232.0
73.347961 148.0
73.875641 144.0
73.914993 176.0
74.118759 208.0
74.315948 224.0
74.929764 156.0
75.010765 260.0
75.440613 144.0
75.487297 280.0
75.632622 176.0
75.69149 144.0
76.163223 144.0
76.390945 264.0
76.67128 156.0
76.946892 212.0
77.042946 164.0
77.468063 168.0
77.608269 180.0
77.638084 168.0
77.67141 168.0
78.244308 168.0
78.328842 184.0
78.966049 196.0
79.049194 224.0
79.593407 176.0
79.8013 224.0
80.077133 152.0
80.750008 184.0
80.778633 204.0
80.869888 220.0
81.036438 208.0
81.266174 236.0
81.283882 164.0
81.529907 172.0
81.587433 188.0
81.742111 164.0
81.909554 176.0
82.629875 180.0
83.111839 164.0
84.447212 220.0
84.719749 176.0
84.747444 224.0
84.780426 140.0
85.732399 208.0
85.92601 384.0
86.293556 228.0
86.52298 168.0
87.335793 212.0
87.378578 140.0
87.793968 212.0
88.556511 204.0
89.198242 168.0
89.902672 264.0
90.168961 148.0
90.642082 216.0
90.683777 188.0
91.327446 204.0
91.350273 184.0
91.828384 172.0
91.845551 188.0
92.690598 188.0
92.953308 184.0
93.037766 144.0
93.201019 180.0
93.335571 164.0
93.936485 176.0
94.452255 164.0
94.525772 184.0
94.639977 160.0
95.050919 156.0
95.539474 152.0
95.606705 168.0
95.68457 168.0
96.039238 152.0
96.26564 152.0
96.364113 164.0
96.517723 176.0
96.623344 192.0
96.817131 172.0
96.871971 176.0
97.979996 144.0
98.161331 156.0
98.761726 188.0
99.003189 192.0
99.147812 140.0
99.44532 164.0
100.105377 140.0
100.949516 164.0
100.993515 176.0
101.099556 228.0
101.130501 216.0
101.365898 200.0
101.498199 244.0
101.552086 184.0
101.658684 164.0
101.753029 152.0
101.909691 160.0
102.317978 204.0
102.706917 148.0
102.880463 228.0
103.040009 176.0
103.203728 184.0
103.391861 148.0
103.819328 168.0
103.843666 176.0
103.928871 188.0
104.056747 188.0
104.313545 196.0
104.392372 160.0
104.442863 156.0
104.524246 176.0
104.548668 180.0
105.231544 192.0
105.313232 168.0
105.681213 192.0
106.832458 160.0
107.035057 640.0
107.050385 208.0
107.413132 164.0
107.778564 212.0
107.943932 240.0
107.96875 192.0
108.03701 148.0
109.629608 172.0
110.157494 244.0
110.78299 188.0
110.83886 120.0
111.196075 200.0
111.788734 144.0
112.184715 176.0
113.58252 140.0
114.27935 180.0
115.056007 200.0
115.593788 196.0
115.743637 144.0
115.795029 148.0
115.990013 140.0
116.170151 184.0
116.384773 220.0
116.464233 188.0
116.649033 164.0
116.788803 220.0
116.861946 156.0
117.034843 344.0
117.387535 140.0
117.687477 192.0
117.907822 196.0
118.682816 160.0
118.743538 164.0
119.351608 180.0
119.39727 184.0
119.482109 192.0
119.614677 148.0
119.797783 212.0
120.456589 172.0
120.760246 148.0
121.104065 168.0
121.196075 196.0
121.29908 156.0
121.729118 172.0
121.779633 216.0
121.827957 200.0
122.613503 196.0
122.814148 148.0
124.121208 160.0
124.232101 140.0
124.642853 176.0
125.716217 168.0
125.988625 156.0
126.395554 168.0
126.686676 176.0
126.937653 148.0
127.674255 148.0
128.568649 140.0
128.744751 176.0
128.839615 140.0
129.201355 212.0
129.649689 176.0
130.855896 152.0
130.999374 204.0
131.28656 152.0
131.327621 144.0
131.35498 196.0
132.042511 144.0
132.488876 256.0
132.979599 192.0
133.087509 184.0
133.496597 152.0
133.602341 140.0
133.892365 196.0
133.959167 148.0
134.046509 11196.0
134.268036 156.0
134.420303 160.0
135.044556 1240.0
135.943008 208.0
135.975754 140.0
136.407532 144.0
136.547043 248.0
136.700592 176.0
137.192047 168.0
138.116791 140.0
138.268875 156.0
138.664703 204.0
138.866333 160.0
138.927322 260.0
139.427475 168.0
139.935577 188.0
140.105057 204.0
140.220612 196.0
140.572006 172.0
140.704193 140.0
141.240646 200.0
142.057892 172.0
142.107346 176.0
142.49527 160.0
143.165527 276.0
145.108246 152.0
145.144943 144.0
145.439301 148.0
145.749115 140.0
145.871689 284.0
146.99646 272.0
147.600372 204.0
147.873749 240.0
147.953629 172.0
148.479462 152.0
149.018356 180.0
149.137436 152.0
149.169037 144.0
149.621536 192.0
149.643448 160.0
150.577423 208.0
150.653152 216.0
150.980682 204.0
151.142151 156.0
151.673599 180.0
151.754501 144.0
152.056381 1764.0
152.223175 212.0
152.73439 216.0
153.413666 204.0
153.821091 204.0
153.99147 176.0
154.928986 236.0
155.14212 156.0
155.444717 164.0
156.974609 188.0
157.306442 224.0
157.516205 196.0
158.185638 212.0
158.25148 152.0
159.825287 164.0
161.386642 152.0
161.626938 192.0
161.702866 148.0
161.83197 220.0
162.57724 208.0
163.364914 152.0
163.453964 240.0
163.520126 196.0
163.619415 168.0
163.637238 172.0
163.77475 164.0
164.603622 144.0
164.884781 216.0
165.066147 148.0
165.283585 200.0
167.069351 180.0
167.473495 144.0
167.525024 168.0
167.934875 160.0
169.195938 164.0
169.471649 168.0
169.506958 152.0
169.756714 256.0
169.845764 164.0
169.900879 160.0
169.939789 164.0
169.979034 216.0
170.023422 92944.0
170.188049 140.0
170.213776 108.0
170.450241 112.0
170.80687 228.0
171.024963 5112.0
171.180389 164.0
171.4422 308.0
171.587433 200.0
171.753983 116.0
171.83345 132.0
171.873093 192.0
171.982025 356.0
172.02037 19880.0
172.05484 212.0
172.096298 156.0
172.120132 132.0
173.019928 816.0
175.071274 156.0
176.054962 204.0
176.07872 188.0
177.489258 168.0
177.629822 144.0
178.659027 192.0
179.13443 168.0
180.230972 144.0
182.326584 152.0
184.780472 176.0
188.030502 172.0
200.214142 152.0
202.071564 176.0
206.043488 244.0
206.807007 172.0
208.263611 196.0
208.329681 200.0
212.06369 196.0
212.928314 144.0
213.637573 160.0
213.960602 180.0
214.028259 168.0
215.053772 172.0
217.101791 284.0
218.50882 160.0
219.327499 152.0
220.062088 196.0
221.973602 212.0
223.923172 232.0
224.569946 204.0
225.818451 140.0
226.482925 168.0
228.807281 160.0
231.776367 204.0
231.855164 168.0
233.111557 140.0
234.548126 236.0
237.10643 152.0
241.797119 156.0
243.052216 208.0
244.397675 172.0
244.917587 160.0
244.998581 172.0
245.026611 140.0
245.943451 152.0
248.556732 160.0
248.619492 204.0
249.9897 176.0
250.663605 152.0
252.01413 152.0
253.777161 236.0
256.960968 220.0
257.851929 176.0
260.077972 184.0
260.3862 152.0
260.707489 196.0
260.963348 120.0
261.775543 200.0
261.968781 192.0
262.968414 188.0
263.459229 156.0
264.193115 172.0
264.944183 164.0
265.083527 144.0
265.466034 156.0
270.267639 176.0
270.617859 144.0
272.024353 192.0
274.145844 192.0
277.133057 160.0
279.736877 184.0
279.833435 184.0
281.3237 192.0
281.524048 168.0
282.995361 200.0
284.067841 144.0
284.128235 156.0
285.798096 180.0
286.043793 140.0
287.101776 384.0
287.273773 172.0
290.134857 252.0
291.159607 172.0
293.749878 176.0
296.427032 148.0
298.304443 160.0
298.558899 188.0
301.9422 180.0
302.156586 164.0
302.329681 148.0
302.516602 160.0
302.79129 132.0
303.346466 188.0
303.486603 156.0
303.616455 236.0
303.667023 200.0
303.863586 168.0
303.965393 176.0
303.997192 168.0
304.061035 51476.0
304.167175 244.0
304.429016 136.0
304.743988 120.0
304.836151 160.0
304.861328 168.0
305.0625 6616.0
305.163452 96.0
305.310547 132.0
306.0578 10392.0
306.254425 168.0
306.640472 116.0
306.74408 172.0
306.995941 96.0
307.059021 784.0
307.104919 224.0
307.186371 112.0
308.118591 148.0
309.065277 100.0
324.074005 144.0
799.122498 148.0
1121.998657 164.0
1223.187256 220.0
1272.286743 156.0
1291.849365 192.0
1343.432617 184.0
1345.790039 184.0
1352.018188 184.0
1399.619873 168.0
1454.27002 236.0
1464.511963 204.0
1476.724365 196.0
1486.016724 196.0
1499.582031 172.0
1501.625244 220.0
1549.872437 192.0
1552.475098 148.0
1553.753662 172.0
1555.34668 152.0
1562.765503 144.0
1578.470459 224.0
1598.779175 176.0
1607.768799 208.0
1646.498535 200.0
1646.781128 204.0
1650.159058 176.0
1652.528931 160.0
1654.358032 196.0
1654.803345 180.0
1667.799561 140.0
1670.678223 164.0
1673.429199 152.0
1674.50415 156.0
1681.262817 140.0
1685.26416 196.0
1686.171265 240.0
1689.646606 216.0
1700.824585 176.0
1702.171021 188.0
1702.74585 140.0
1712.978271 160.0
1720.69751 244.0
1735.82312 208.0
1736.511475 208.0
1741.599487 232.0
1742.521606 140.0
1745.30603 160.0
1751.53125 144.0
1759.862793 172.0
1764.901245 224.0
1769.586914 176.0
1769.997192 188.0
1770.516357 196.0
1779.102783 200.0
1793.588745 172.0
1794.743652 148.0
1796.9198 160.0
1801.757568 156.0
1809.936523 176.0
1820.06958 204.0
1821.03772 180.0
1827.677246 152.0
1833.093018 208.0
1833.732178 204.0
1834.857422 208.0
1835.539551 160.0
1837.808594 168.0
1839.737427 180.0
1856.774048 268.0
1865.369141 156.0
1873.966797 172.0
1879.295288 160.0
1883.655151 184.0
1897.675415 172.0
1906.755615 156.0
1910.590332 240.0
1915.500244 144.0
1922.161255 216.0
1928.021118 172.0
1928.265747 188.0
1928.685303 228.0
1936.096069 220.0
1941.652588 256.0
1943.784302 168.0
1943.959839 324.0
1952.96521 172.0
1956.714111 152.0
1962.229492 180.0
1963.084717 164.0
1966.949219 208.0
1969.960449 172.0
1988.537964 164.0
1995.369263 204.0
2000.64502 156.0
