>compound Altrenogest
>formula C21H26O2
>ionization [M+H]+
>parentmass 311.20166
#inchi InChI=1S/C21H26O2/c1-3-10-21(23)12-9-19-18-6-4-14-13-15(22)5-7-16(14)17(18)8-11-20(19,21)2/h3,8,11,13,18-19,23H,1,4-7,9-10,12H2,2H3/t18-,19+,20+,21-/m1/s1
#inchikey VWAUPFMBXBWEQY
#Ion_Source LC-ESI
#Instrument qTof
#Compound_Source Commercial
#PI Dorrestein
#Data_Collector Garg_Neha
#Scan -1
#Precursor_MZ 311.201
#ExactMass 310.193
#Charge 1
#CAS_Number 850-52-2
#Pubmed_ID N/A
#Smiles C1C(C=C2C(C1)=C3[C@@](CC2)([C@]4([C@](C=C3)([C@](CC4)(CC=C)O)C)[H])[H])=O
#INCHI_AUX N/A
#Library_Class 1
#SpectrumID CCMSLIB00000078596
#IonMode Positive
#UpdateWorkflowName UPDATE-SINGLE-ANNOTATED-GOLD
#LibraryQualityString Gold
#TaskID 77f51c88eb8b467eb4a01dd2d0cb90d2
##Scan# 1625
#SpectrumFile Plate9_61_80_GC7_01_15756.mzXML
#LibraryName FDALibrary_2_04302014.mgf
#MQScore -1
#Organism FDALibrary_2_04302014
#TIC_Query 0
#RT_Query -1
#MZErrorPPM -1
#SharedPeaks 0
#MassDiff 0
#LibMZ -1
#SpecMZ 311.201
#SpecCharge 0
#internalFilename spec-00000.mgf

>collision 10
45.432796 144.0
45.756687 144.0
46.01825 188.0
47.617012 208.0
48.029934 172.0
48.071323 152.0
48.59853 156.0
49.170471 164.0
49.343681 196.0
50.193165 160.0
51.827869 172.0
52.136395 188.0
53.742352 140.0
54.771519 196.0
55.427483 180.0
56.202183 200.0
57.513855 156.0
57.894859 156.0
58.166256 192.0
58.532658 148.0
59.558872 164.0
60.157883 160.0
60.460835 204.0
63.008171 168.0
63.31979 156.0
65.101227 160.0
65.699989 272.0
66.18486 184.0
66.770683 172.0
66.788582 140.0
66.939934 188.0
67.316628 212.0
67.553619 160.0
67.900871 172.0
72.054482 268.0
72.182945 152.0
73.311829 168.0
75.365898 176.0
75.672043 220.0
75.907692 148.0
76.209717 160.0
76.916779 156.0
76.951897 172.0
77.14212 164.0
77.651657 152.0
78.661644 144.0
79.202736 160.0
80.190643 156.0
84.554527 188.0
85.176094 160.0
85.870003 156.0
86.648232 176.0
87.845467 160.0
88.731911 176.0
88.921371 156.0
89.146736 144.0
89.420181 240.0
90.270264 168.0
91.05484 164.0
91.429367 156.0
91.715057 152.0
91.793221 208.0
92.68782 172.0
93.069534 256.0
93.35585 148.0
93.649963 180.0
93.77169 236.0
94.355026 124.0
94.929718 144.0
95.022514 124.0
95.084946 164.0
96.487419 180.0
96.684982 156.0
99.065529 200.0
100.641602 148.0
100.688614 196.0
100.832458 156.0
101.458984 204.0
101.655365 216.0
101.806107 164.0
102.494072 176.0
103.054619 168.0
103.101479 180.0
103.846527 200.0
104.71032 208.0
104.934471 152.0
104.967094 160.0
105.070442 472.0
105.289528 244.0
105.921532 204.0
106.517441 132.0
107.049522 448.0
107.085281 360.0
107.911591 216.0
109.062134 336.0
109.098274 164.0
110.237579 184.0
110.287735 140.0
111.831482 180.0
112.556694 152.0
113.047112 204.0
113.246117 156.0
113.587379 156.0
114.55246 152.0
114.652596 164.0
115.053604 320.0
115.111252 168.0
115.958427 156.0
116.059181 144.0
116.732697 152.0
116.995926 204.0
117.068466 392.0
117.873764 224.0
118.961014 144.0
119.086922 556.0
120.295448 152.0
121.062889 432.0
121.102463 228.0
122.105331 152.0
122.788071 188.0
122.845421 144.0
123.081711 616.0
123.203049 176.0
123.397537 156.0
123.472717 152.0
125.097946 140.0
125.123634 144.0
125.143669 168.0
125.51577 164.0
125.707611 152.0
125.848236 156.0
126.051498 148.0
127.053551 156.0
128.014343 148.0
128.059723 608.0
128.226105 180.0
128.559875 180.0
129.073914 520.0
129.2061 200.0
130.071457 292.0
130.567093 152.0
130.614853 200.0
131.044479 168.0
131.083557 1636.0
131.362015 148.0
132.04953 160.0
132.091904 192.0
132.601303 176.0
132.837479 152.0
133.063339 1056.0
133.099976 292.0
133.181793 148.0
133.91481 144.0
133.973099 196.0
134.067398 204.0
134.104446 176.0
135.080597 660.0
135.39827 176.0
135.504822 156.0
136.080002 152.0
136.39827 144.0
137.380966 168.0
140.874161 228.0
141.004105 164.0
141.069183 488.0
142.079941 360.0
142.810776 220.0
143.084579 696.0
144.055771 908.0
144.090927 364.0
144.669617 184.0
145.066025 416.0
145.104065 924.0
146.072205 284.0
146.581451 152.0
147.010696 148.0
147.0793 940.0
147.119583 316.0
147.970306 172.0
149.092255 156.0
149.132263 140.0
150.718765 208.0
152.058289 156.0
152.107376 180.0
153.067291 436.0
154.080399 404.0
155.058395 164.0
155.084656 1772.0
155.528595 152.0
155.545975 176.0
155.685013 164.0
156.089462 576.0
156.383621 144.0
157.065475 1616.0
157.100632 1444.0
157.571365 112.0
158.071182 168.0
158.108276 224.0
159.080032 6088.0
159.115158 404.0
159.333374 200.0
159.404724 216.0
159.741638 180.0
160.085342 776.0
160.116669 292.0
161.093781 628.0
161.471954 232.0
162.041504 180.0
162.099579 156.0
163.679779 200.0
164.18689 160.0
164.516037 236.0
164.756104 184.0
164.975876 144.0
165.068161 720.0
165.127701 196.0
165.433792 180.0
165.705261 144.0
166.074585 524.0
167.083984 732.0
167.172028 172.0
167.343887 148.0
167.480362 208.0
168.083267 472.0
168.56134 156.0
169.016434 148.0
169.100098 2408.0
169.534348 200.0
170.079788 248.0
170.105286 600.0
170.388016 204.0
170.848175 156.0
171.079758 636.0
171.118973 644.0
172.089279 172.0
172.123093 328.0
172.187958 224.0
172.833664 248.0
173.095581 656.0
173.126831 148.0
173.496292 160.0
174.107315 184.0
175.076569 176.0
175.10704 252.0
176.019501 188.0
176.119858 148.0
176.587692 196.0
176.929031 160.0
177.058777 140.0
177.087921 148.0
177.130737 192.0
178.026764 140.0
178.075211 1132.0
178.138306 208.0
179.085159 720.0
180.09259 620.0
180.855499 148.0
180.903687 172.0
181.067978 276.0
181.100098 1988.0
181.750595 176.0
181.820374 176.0
182.064667 144.0
182.104095 576.0
182.446213 164.0
183.003128 148.0
183.077957 1080.0
183.118134 1784.0
183.409927 144.0
184.085953 428.0
184.12056 468.0
184.21405 196.0
184.459946 164.0
185.009094 140.0
185.096436 2244.0
185.130234 1024.0
186.016525 268.0
186.10141 596.0
186.138855 140.0
186.44397 148.0
186.949799 216.0
187.107666 520.0
187.335297 144.0
187.535339 168.0
187.848907 176.0
189.06752 144.0
189.125076 488.0
190.128113 336.0
190.287308 160.0
190.853317 204.0
191.083786 232.0
191.177902 196.0
191.974045 160.0
192.09581 520.0
192.572922 140.0
193.100143 1320.0
193.161667 160.0
194.069199 132.0
194.105835 700.0
194.250305 228.0
194.780502 168.0
195.050751 148.0
195.081375 408.0
195.11731 1720.0
195.266907 160.0
196.084 1040.0
196.122314 392.0
196.394928 200.0
196.71582 192.0
197.095154 2512.0
197.130402 1460.0
197.184433 140.0
197.582138 204.0
198.101807 3520.0
198.744873 172.0
199.109695 5076.0
199.143951 288.0
199.351395 148.0
199.548157 168.0
200.115829 1732.0
200.794205 96.0
201.069275 184.0
201.123077 680.0
202.120514 148.0
202.582001 156.0
202.841049 204.0
203.08223 232.0
203.1745 172.0
204.080505 152.0
204.102798 152.0
204.305176 144.0
205.102097 820.0
205.302094 188.0
206.110458 180.0
207.07933 172.0
207.115463 1248.0
208.121521 296.0
209.094528 1680.0
209.131729 608.0
209.466644 148.0
209.662567 152.0
210.037384 144.0
210.10318 2256.0
210.44429 160.0
210.565582 168.0
211.11084 3608.0
211.623947 196.0
212.117661 3100.0
212.417038 140.0
212.90564 188.0
213.124878 2580.0
213.219391 164.0
213.690475 148.0
214.095078 144.0
214.134247 2052.0
215.1427 2292.0
216.151794 252.0
216.237976 140.0
217.09259 152.0
217.146225 188.0
217.800751 216.0
218.104904 444.0
218.270981 196.0
219.033218 252.0
219.117462 500.0
219.463486 148.0
220.123596 296.0
220.316437 148.0
220.854431 160.0
221.134811 212.0
222.107208 140.0
222.135071 280.0
223.111252 4148.0
223.149155 316.0
223.221085 156.0
223.698914 252.0
224.115036 1104.0
224.534393 188.0
224.625763 176.0
224.661331 168.0
224.686508 164.0
224.740219 140.0
224.784973 152.0
224.883453 140.0
225.023758 164.0
225.127197 6708.0
226.131088 1588.0
226.548996 176.0
226.716797 172.0
227.14267 19748.0
227.189697 116.0
227.268539 148.0
227.453491 192.0
228.08757 148.0
228.145004 3520.0
228.21167 236.0
228.40657 252.0
229.14978 328.0
229.610291 148.0
230.882675 148.0
231.114822 148.0
233.132706 804.0
233.290863 184.0
234.088013 176.0
234.144989 392.0
235.141968 424.0
235.741394 188.0
236.117859 408.0
236.149765 216.0
236.652939 148.0
237.125259 2356.0
238.130096 700.0
238.312256 172.0
238.744629 176.0
239.007156 148.0
239.140869 1108.0
239.327271 184.0
239.706146 148.0
239.767776 180.0
240.104935 132.0
240.153168 288.0
240.619125 148.0
241.120438 372.0
241.156723 612.0
241.635941 208.0
242.126892 260.0
242.165726 328.0
243.172928 244.0
243.94014 144.0
246.142853 168.0
247.151443 460.0
247.368423 152.0
248.143799 128.0
248.383698 140.0
248.851288 144.0
249.162216 136.0
250.132751 708.0
251.077866 116.0
251.143036 8468.0
251.210449 148.0
251.7285 180.0
252.000916 164.0
252.101059 312.0
252.148819 5380.0
252.354904 148.0
252.758179 112.0
253.155441 1160.0
253.497574 152.0
254.132416 152.0
254.15741 460.0
255.011398 148.0
255.135117 624.0
256.175659 172.0
257.474152 160.0
258.152466 144.0
259.948761 204.0
262.29657 200.0
263.238678 144.0
264.149872 444.0
265.15921 648.0
266.02713 168.0
266.156494 324.0
266.360809 140.0
266.406281 180.0
266.516083 156.0
267.13446 308.0
267.172516 120.0
267.715393 164.0
267.824554 200.0
268.033051 140.0
268.196014 164.0
268.264465 200.0
268.53183 164.0
268.600311 212.0
268.69046 140.0
268.920074 184.0
269.040863 152.0
269.153351 22448.0
269.302948 152.0
269.564209 204.0
269.949921 140.0
270.158539 5816.0
271.163879 1208.0
271.81308 144.0
271.918091 172.0
272.192322 164.0
272.315369 156.0
273.229187 160.0
273.314728 152.0
273.337769 144.0
275.180969 536.0
276.625 252.0
278.163727 516.0
278.654602 164.0
279.166809 156.0
280.713959 132.0
281.606018 152.0
282.158173 656.0
283.172638 168.0
283.667175 168.0
284.965973 180.0
285.157501 184.0
285.523956 172.0
286.688782 164.0
287.501526 188.0
287.81546 264.0
289.93985 152.0
290.095764 152.0
290.957458 144.0
291.170349 148.0
291.446533 220.0
292.364655 144.0
292.895782 152.0
292.954254 120.0
293.100189 164.0
293.189697 13984.0
293.308105 208.0
293.434235 160.0
294.19281 2496.0
294.246216 168.0
295.192108 496.0
296.003693 192.0
296.134399 120.0
296.209167 196.0
296.250275 204.0
300.406433 220.0
300.527161 172.0
300.565125 148.0
300.775635 156.0
305.123199 144.0
306.358673 140.0
306.682739 168.0
308.774078 184.0
309.134644 136.0
309.191803 120.0
309.361938 152.0
309.677063 152.0
310.130859 148.0
310.197968 304.0
310.342896 140.0
310.50589 140.0
310.552551 188.0
310.601074 116.0
310.63092 216.0
310.724976 208.0
310.865845 180.0
310.953583 136.0
310.982849 284.0
311.012604 120.0
311.050323 288.0
311.09433 304.0
311.20166 149524.0
311.429077 136.0
311.522369 148.0
311.578217 156.0
311.656525 228.0
311.683014 132.0
311.711304 136.0
311.778412 2396.0
311.825897 224.0
311.879028 308.0
311.93103 164.0
311.992188 192.0
312.043976 96.0
312.09903 276.0
312.203278 35788.0
312.31131 156.0
312.413544 188.0
312.465332 96.0
312.517059 152.0
312.595703 244.0
313.083252 212.0
313.205933 4548.0
313.269562 128.0
313.323303 148.0
313.570801 168.0
313.706299 128.0
313.726868 164.0
313.963104 180.0
313.986755 128.0
314.076508 180.0
314.13974 108.0
314.191833 384.0
314.21579 272.0
314.370392 108.0
314.64447 104.0
315.106293 96.0
315.424774 136.0
315.617188 156.0
315.721436 128.0
318.22879 156.0
371.988953 144.0
384.84259 188.0
643.747192 140.0
717.878357 140.0
749.239075 152.0
1267.243774 144.0
1288.495605 160.0
1290.58252 196.0
1364.147095 220.0
1470.964355 204.0
1504.704712 144.0
1591.606812 172.0
1628.783569 156.0
1629.104858 160.0
1674.996704 148.0
1682.441895 152.0
1718.52124 208.0
1725.673828 140.0
1746.064697 148.0
1758.703979 260.0
1767.094116 160.0
1774.313477 164.0
1784.985229 140.0
1830.639282 152.0
1840.419922 188.0
1851.862061 140.0
1870.374146 228.0
1896.294922 216.0
1898.098145 156.0
1908.04834 248.0
1919.663696 176.0
1926.183228 180.0
1933.273926 204.0
1948.249878 208.0
1974.782593 176.0
2000.497559 144.0
