>compound MLS001074091-01!
>formula C24H32O4
>ionization [M+H]+
>parentmass 385.23733595609053
#inchi InChI=1S/C24H32O4/c1-14-12-18-19(22(4)9-6-17(27)13-21(14)22)7-10-23(5)20(18)8-11-24(23,15(2)25)28-16(3)26/h12-13,18-20H,6-11H2,1-5H3/t18-,19+,20+,22-,23+,24+/m1/s1
#inchikey RQZAXGRLVPAYTJ
#Ion_Source LC-ESI
#Instrument qTof
#Compound_Source NIH Pharmacologically Active Library
#PI Dorrestein
#Data_Collector VP/LMS
#Scan -1
#Precursor_MZ 385.24
#ExactMass 384.23
#Charge 1
#CAS_Number N/A
#Pubmed_ID N/A
#Smiles CC(=O)O[C@@]1(CC[C@H]2[C@@H]3C=C(C)C4=CC(=O)CC[C@]4(C)[C@H]3CC[C@@]21C)C(=O)C
#INCHI_AUX N/A
#Library_Class 1
#SpectrumID CCMSLIB00000085414
#IonMode Positive
#UpdateWorkflowName UPDATE-SINGLE-ANNOTATED-GOLD
#LibraryQualityString Gold
#TaskID d252d724072548979f1f6f1ced849daf
##Scan# 2422
#SpectrumFile p4-A07_GA7_01_18324.mzXML
#LibraryName Pharm_Active_Library.mgf
#MQScore -1
#Organism Pharm_Active_Library
#TIC_Query 0
#RT_Query -1
#MZErrorPPM -1
#SharedPeaks 0
#MassDiff 0
#LibMZ -1
#SpecMZ 385.24
#SpecCharge 0
#internalFilename spec-00000.mgf

>collision 0
105.07 5.6
119.0857 5.25
131.0856 6.96
133.1016 13.11
142.0771 4.81
143.0853 6.88
145.101 12.65
147.1166 5.2
155.0853 5.58
157.1022 11.38
159.1166 7.21
161.0967 8.88
167.0859 4.12
169.1019 15.56
171.1166 12.44
173.0963 7.76
173.1318 4.06
175.1125 23.11
179.0858 6.09
181.1016 5.81
183.1166 29.45
185.1332 6.01
187.1125 22.05
189.128 4.33
193.102 5.14
194.1088 11.16
195.1168 10.99
196.1231 4.4
197.1328 19.51
198.1397 12.56
199.1467 7.36
207.1178 5.43
208.1245 6.03
209.1335 71.0
211.148 32.76
221.1321 4.64
223.1486 24.56
224.1574 100.0
225.1626 35.58
234.1396 6.64
235.1478 4.04
237.1638 6.52
241.1586 7.09
249.1648 19.58
253.1589 4.39
265.1583 4.54
265.1956 12.72
267.1755 76.06
281.1908 13.23
283.2051 12.96
307.2063 6.02
325.2169 8.95
385.2397 0.0
