>compound Nisoldipine (Sular)
>formula C20H24N2O6
>ionization [M+H]+
>parentmass 389.17071294009054
#inchi InChI=1S/C20H24N2O6/c1-11(2)10-28-20(24)17-13(4)21-12(3)16(19(23)27-5)18(17)14-7-6-8-15(9-14)22(25)26/h6-9,11,18,21H,10H2,1-5H3
#inchikey MRSJBSHLMOBYSH
#Ion_Source LC-ESI
#Instrument qTof
#Compound_Source Commercial
#PI Dorrestein
#Data_Collector Garg_Neha
#Scan -1
#Precursor_MZ 389.171
#ExactMass 388.163
#Charge 1
#CAS_Number 63675-72-9
#Pubmed_ID N/A
#Smiles C1(=C(C(C(=C(N1)C)C(OC)=O)C2=CC=CC(=C2)[N+](=O)[O-])C(OCC(C)C)=O)C
#INCHI_AUX N/A
#Library_Class 1
#SpectrumID CCMSLIB00000078275
#IonMode Positive
#UpdateWorkflowName UPDATE-SINGLE-ANNOTATED-GOLD
#LibraryQualityString Gold
#TaskID 77f51c88eb8b467eb4a01dd2d0cb90d2
##Scan# 2161
#SpectrumFile Plate4_41_60_GH4_01_16505.mzXML
#LibraryName FDALibrary_2_04302014.mgf
#MQScore -1
#Organism FDALibrary_2_04302014
#TIC_Query 0
#RT_Query -1
#MZErrorPPM -1
#SharedPeaks 0
#MassDiff 0
#LibMZ -1
#SpecMZ 389.171
#SpecCharge 0
#internalFilename spec-00000.mgf

>collision 0
142.0651 6.17
154.0629 7.02
168.0784 12.67
170.0602 6.91
170.0822 5.5
179.0611 3.64
180.068 7.61
181.0754 4.47
183.0902 19.78
193.0758 10.55
194.0827 17.72
195.0913 49.63
196.0977 19.6
197.0724 3.64
198.0772 4.35
209.0691 8.37
210.0808 3.67
211.0859 38.52
212.0929 15.63
213.0657 4.0
213.0993 11.05
222.0789 10.43
223.0858 23.45
226.0851 11.17
227.0826 10.11
228.0891 4.55
239.0812 100.0
240.087 80.9
241.0931 31.62
253.0977 26.77
254.1046 48.81
255.0777 6.55
256.0828 13.46
257.092 19.48
258.0977 5.23
270.0761 15.4
271.1086 39.26
296.1511 15.96
313.1552 74.73
314.1583 15.28
315.0969 75.67
357.1449 76.96
371.1572 4.41
389.1689 3.32
