>compound Protoporphyrin IX
>formula C34H34N4O4 
>ionization [M+H]+
>parentmass 563.265625
#inchi InChI=1S/C34H34N4O4/c1-7-21-17(3)25-13-26-19(5)23(9-11-33(39)40)31(37-26)16-32-24(10-12-34(41)42)20(6)28(38-32)15-30-22(8-2)18(4)27(36-30)14-29(21)35-25/h7-8,13-16,35-36H,1-2,9-12H2,3-6H3,(H,39,40)(H,41,42)
#inchikey ZCFFYALKHPIRKJ
#Ion_Source DI-ESI
#Instrument LTQ-FT-ICR
#Compound_Source Standard
#PI Dorrestein
#Data_Collector J Watrous
#Scan -1
#Precursor_MZ 563.264
#ExactMass 0.0
#Charge 1
#CAS_Number N/A
#Pubmed_ID N/A
#Smiles N/A
#INCHI_AUX N/A
#Library_Class 1
#SpectrumID CCMSLIB00000072235
#IonMode Positive
#UpdateWorkflowName UPDATE-SINGLE-ANNOTATED-GOLD
#LibraryQualityString Gold
#TaskID 3bbf0c46eeeb406782b2f3cd0ad9b2b3
##Scan# 1
#SpectrumFile Protoporphyrin_IX_standard_1H_FTMS_563_2639.mzXML
#LibraryName gnps_library.mgf
#MQScore -1
#Organism GNPS_JDW_Batch_Library_Centroid
#TIC_Query 0
#RT_Query -1
#MZErrorPPM -1
#SharedPeaks 0
#MassDiff 0
#LibMZ -1
#SpecMZ 563.264
#SpecCharge 0
#internalFilename spec-00000.mgf

>collision 0
430.2155 0.37
431.2234 13.61
444.2307 0.38
445.2388 11.3
459.2538 3.16
472.2251 0.94
473.2344 1.96
475.2125 1.87
485.2336 3.99
489.2281 8.15
490.237 15.06
491.2437 4.73
503.2442 22.65
504.2514 100.0
517.2601 1.36
527.2438 0.46
533.2183 0.28
545.2553 27.1
548.2414 4.49
563.2662 11.89
