>compound Lacidipine (Lacipil, Motens)
>formula C26H33NO6
>ionization [M+Na]+
>parentmass 478.220551
#inchi InChI=1S/C26H33NO6/c1-8-31-24(29)21-16(3)27-17(4)22(25(30)32-9-2)23(21)19-13-11-10-12-18(19)14-15-20(28)33-26(5,6)7/h10-15,23,27H,8-9H2,1-7H3/b15-14+
#inchikey GKQPCPXONLDCMU
#Ion_Source LC-ESI
#Instrument qTof
#Compound_Source Commercial
#PI Dorrestein
#Data_Collector Garg_Neha
#Scan -1
#Precursor_MZ 478.22
#ExactMass 455.231
#Charge 1
#CAS_Number 103890-78-4
#Pubmed_ID N/A
#Smiles C1=CC=CC(=C1C2C(=C(NC(=C2C(OCC)=O)C)C)C(OCC)=O)/C=C/C(=O)OC(C)(C)C
#INCHI_AUX N/A
#Library_Class 1
#SpectrumID CCMSLIB00000078376
#IonMode Positive
#UpdateWorkflowName UPDATE-SINGLE-ANNOTATED-GOLD
#LibraryQualityString Gold
#TaskID 77f51c88eb8b467eb4a01dd2d0cb90d2
##Scan# 2898
#SpectrumFile Plate6_1_20_GD7_01_15774.mzXML
#LibraryName FDALibrary_2_04302014.mgf
#MQScore -1
#Organism FDALibrary_2_04302014
#TIC_Query 0
#RT_Query -1
#MZErrorPPM -1
#SharedPeaks 0
#MassDiff 0
#LibMZ -1
#SpecMZ 478.22
#SpecCharge 0
#internalFilename spec-00000.mgf

>collision 0
268.1291 0.21
290.1126 0.47
332.1244 2.39
376.1167 0.35
394.1291 0.26
422.1585 100.0
423.1602 26.23
424.1632 3.44
478.2206 54.23
