>compound Docetaxel
>formula C43H53NO14 
>ionization [M+H]+
>parentmass 808.3538818280905
#inchi InChI=1S/C43H53NO14/c1-22-26(55-37(51)32(48)30(24-15-11-9-12-16-24)44-38(52)58-39(3,4)5)20-43(53)35(56-36(50)25-17-13-10-14-18-25)33-41(8,34(49)31(47)29(22)40(43,6)7)27(46)19-28-42(33,21-54-28)57-23(2)45/h9-18,26-28,30-33,35,46-48,53H,19-21H2,1-8H3,(H,44,52)/t26-,27-,28+,30-,31+,32+,33-,35-,41+,42-,43+/m0/s1
#inchikey ZDZOTLJHXYCWBA
#Ion_Source LC-ESI
#Instrument qTof
#Compound_Source Isolated
#PI Sirenas
#Data_Collector Ed Esquenazi 
#Scan -1
#Precursor_MZ 808.35
#ExactMass 0.0
#Charge 1
#CAS_Number N/A
#Pubmed_ID N/A
#Smiles N/A
#INCHI_AUX N/A
#Library_Class 3
#SpectrumID CCMSLIB00000005882
#IonMode Positive
#UpdateWorkflowName UPDATE-SINGLE-ANNOTATED-BRONZE
#LibraryQualityString Bronze
#TaskID d19310cd93df49b68e9fcbec27720eb5
##Scan# 3
#SpectrumFile Docetaxel.mgf
#LibraryName fda_library.mgf
#MQScore -1
#Organism fda_library
#TIC_Query 0
#RT_Query -1
#MZErrorPPM -1
#SharedPeaks 0
#MassDiff 0
#LibMZ -1
#SpecMZ 808.35
#SpecCharge 0
#internalFilename spec-00000.mgf

>collision 0
105.0325 100.0
119.0474 14.15
119.084 5.73
121.0637 18.23
123.0422 4.6
123.0789 4.94
133.0632 8.46
133.0997 6.72
136.0739 12.72
137.0947 6.34
147.0799 5.49
151.0735 6.53
161.0949 10.01
171.0802 6.43
173.0947 4.86
180.0636 10.54
182.0791 35.81
189.0893 5.52
191.0694 4.31
221.1272 4.91
223.1071 10.78
267.133 8.25
287.1265 4.34
291.1364 10.93
299.1603 11.84
309.1457 39.71
327.1553 35.37
345.1646 14.97
387.178 5.23
808.3539 0.0
