>compound MLS001201765-01!4-Amino-N-(4-methyl-pyrimidin-2-yl)-benzenesulfonamide
>formula C11H12N4O2S
>ionization [M+H]+
>parentmass 265.0753730760905
#inchi InChI=1S/C11H12N4O2S/c1-8-6-7-13-11(14-8)15-18(16,17)10-4-2-9(12)3-5-10/h2-7H,12H2,1H3,(H,13,14,15)
#inchikey QPPBRPIAZZHUNT
#Ion_Source LC-ESI
#Instrument qTof
#Compound_Source NIH Pharmacologically Active Library
#PI Dorrestein
#Data_Collector VP/LMS
#Scan -1
#Precursor_MZ 265.073
#ExactMass 264.068
#Charge 1
#CAS_Number N/A
#Pubmed_ID N/A
#Smiles Cc1ccnc(NS(=O)(=O)c2ccc(N)cc2)n1
#INCHI_AUX N/A
#Library_Class 1
#SpectrumID CCMSLIB00000085957
#IonMode Positive
#UpdateWorkflowName UPDATE-SINGLE-ANNOTATED-GOLD
#LibraryQualityString Gold
#TaskID d252d724072548979f1f6f1ced849daf
##Scan# 1190
#SpectrumFile p4-H07_GH7_01_18415.mzXML
#LibraryName Pharm_Active_Library.mgf
#MQScore -1
#Organism Pharm_Active_Library
#TIC_Query 0
#RT_Query -1
#MZErrorPPM -1
#SharedPeaks 0
#MassDiff 0
#LibMZ -1
#SpecMZ 265.073
#SpecCharge 0
#internalFilename spec-00000.mgf

>collision 0
92.051 7.6
93.0458 5.16
108.0451 100.0
110.0717 61.75
143.0731 1.36
146.0837 1.33
156.0107 16.34
182.072 6.32
184.0752 2.12
199.0982 15.25
265.0754 0.0
