>compound Glyburide (Diabeta)
>formula C23H28ClN3O5S
>ionization [M+H]+
>parentmass 494.153076
#inchi InChI=1S/C23H28ClN3O5S/c1-32-21-12-9-17(24)15-20(21)22(28)25-14-13-16-7-10-19(11-8-16)33(30,31)27-23(29)26-18-5-3-2-4-6-18/h7-12,15,18H,2-6,13-14H2,1H3,(H,25,28)(H2,26,27,29)
#inchikey ZNNLBTZKUZBEKO
#Ion_Source LC-ESI
#Instrument qTof
#Compound_Source Commercial
#PI Dorrestein
#Data_Collector Garg_Neha
#Scan -1
#Precursor_MZ 494.151
#ExactMass 493.144
#Charge 1
#CAS_Number 10238-21-8
#Pubmed_ID N/A
#Smiles C1CCCC(C1)NC(NS(C2=CC=C(C=C2)CCNC(C3=C(C=CC(=C3)Cl)OC)=O)(=O)=O)=O
#INCHI_AUX N/A
#Library_Class 1
#SpectrumID CCMSLIB00000078252
#IonMode Positive
#UpdateWorkflowName UPDATE-SINGLE-ANNOTATED-GOLD
#LibraryQualityString Gold
#TaskID 77f51c88eb8b467eb4a01dd2d0cb90d2
##Scan# 1870
#SpectrumFile Plate4_21_40_GH3_01_16504.mzXML
#LibraryName FDALibrary_2_04302014.mgf
#MQScore -1
#Organism FDALibrary_2_04302014
#TIC_Query 0
#RT_Query -1
#MZErrorPPM -1
#SharedPeaks 0
#MassDiff 0
#LibMZ -1
#SpecMZ 494.151
#SpecCharge 0
#internalFilename spec-00000.mgf

>collision 0
103.0534 0.72
105.0707 0.6
119.0476 0.74
127.9809 0.31
131.0601 0.31
145.0622 0.47
155.9747 0.33
166.026 0.68
167.0163 2.08
168.0218 0.42
169.0048 70.08
170.0077 6.32
171.0016 17.25
172.0031 2.0
198.0298 1.68
199.0324 0.59
200.027 0.51
208.0893 0.54
209.0946 0.61
210.0325 0.32
210.1049 1.05
217.0386 0.32
245.0374 0.42
245.0674 0.36
245.9957 0.37
246.0395 0.31
247.9929 0.42
259.05 4.6
260.0553 1.2
261.0499 1.41
262.06 1.38
263.0615 0.93
264.061 0.38
288.0783 2.71
289.078 0.91
290.072 0.83
304.0711 6.07
305.075 1.66
306.0697 2.15
307.0712 0.43
352.04 0.74
354.036 0.4
369.067 100.0
370.0691 18.61
373.0631 0.78
395.0461 5.21
412.0757 0.32
494.1512 0.79
