>compound MLS000736760-01!
>formula C18H16N2O
>ionization [M+H]+
>parentmass 277.135101
#inchi InChI=1S/C18H16N2O/c1-10-15-9-19-7-6-13(15)11(2)18-17(10)14-8-12(21-3)4-5-16(14)20-18/h4-9,20H,1-3H3
#inchikey BKRMCDAOAQWNTG
#Ion_Source LC-ESI
#Instrument qTof
#Compound_Source NIH Natural Product Library
#PI Dorrestein
#Data_Collector VVP/LMS
#Scan -1
#Precursor_MZ 277.134
#ExactMass 276.126
#Charge 1
#CAS_Number N/A
#Pubmed_ID N/A
#Smiles COc1ccc2[nH]c3c(C)c4ccncc4c(C)c3c2c1
#INCHI_AUX N/A
#Library_Class 1
#SpectrumID CCMSLIB00000080289
#IonMode Positive
#UpdateWorkflowName UPDATE-SINGLE-ANNOTATED-GOLD
#LibraryQualityString Gold
#TaskID b1d8e8f6646f4e71acdff9ca3d919d08
##Scan# 1657
#SpectrumFile p2-G06_GG6_01_18054.mzXML
#LibraryName NIH_Natural_Products_Library.mgf
#MQScore -1
#Organism NIH_Natural_Products_Library
#TIC_Query 0
#RT_Query -1
#MZErrorPPM -1
#SharedPeaks 0
#MassDiff 0
#LibMZ -1
#SpecMZ 277.134
#SpecCharge 0
#internalFilename spec-00000.mgf

>collision 0
207.0922 1.08
219.0927 18.86
233.1086 40.26
234.1166 100.0
247.0871 4.42
261.1023 5.58
262.1118 98.74
277.1351 50.92
