>compound Piroxicam (Feldene)
>formula C15H13N3O4S
>ionization [M+Na]+
>parentmass 354.052704
#inchi InChI=1S/C15H13N3O4S/c1-18-13(15(20)17-12-8-4-5-9-16-12)14(19)10-6-2-3-7-11(10)23(18,21)22/h2-9,19H,1H3,(H,16,17,20)
#inchikey QYSPLQLAKJAUJT
#Ion_Source LC-ESI
#Instrument qTof
#Compound_Source Commercial
#PI Dorrestein
#Data_Collector Garg_Neha
#Scan -1
#Precursor_MZ 354.052
#ExactMass 331.063
#Charge 1
#CAS_Number 36322-90-4
#Pubmed_ID N/A
#Smiles C1=CN=C(C=C1)NC(C2N(S(C3=C(C=2O)C=CC=C3)(=O)=O)C)=O
#INCHI_AUX N/A
#Library_Class 1
#SpectrumID CCMSLIB00000078248
#IonMode Positive
#UpdateWorkflowName UPDATE-SINGLE-ANNOTATED-GOLD
#LibraryQualityString Gold
#TaskID 77f51c88eb8b467eb4a01dd2d0cb90d2
##Scan# 1264
#SpectrumFile Plate4_21_40_GH3_01_16504.mzXML
#LibraryName FDALibrary_2_04302014.mgf
#MQScore -1
#Organism FDALibrary_2_04302014
#TIC_Query 0
#RT_Query -1
#MZErrorPPM -1
#SharedPeaks 0
#MassDiff 0
#LibMZ -1
#SpecMZ 354.052
#SpecCharge 0
#internalFilename spec-00000.mgf

>collision 0
101.0374 3.56
115.0395 3.87
117.0408 65.35
118.0499 4.25
171.0411 3.71
186.0644 23.5
187.0621 3.34
234.0188 16.83
245.9614 3.18
259.9969 100.0
261.9922 7.58
275.0443 3.18
354.0527 130.33
