>compound MLS002154065-01!Thonzonium bromide553-08-2
>formula C32H55N4O
>ionization [M+H]+
>parentmass 512.4448638320905
#inchi InChI=1S/C32H55N4O/c1-5-6-7-8-9-10-11-12-13-14-15-16-17-18-27-36(2,3)28-26-35(32-33-24-19-25-34-32)29-30-20-22-31(37-4)23-21-30/h19-25H,5-18,26-29H2,1-4H3/q+1
#inchikey IOYZYMQFUSNATM
#origInchi InChI=1S/C32H55N4O.BrH/c1-5-6-7-8-9-10-11-12-13-14-15-16-17-18-27-36(2,3)28-26-35(32-33-24-19-25-34-32)29-30-20-22-31(37-4)23-21-30;/h19-25H,5-18,26-29H2,1-4H3;1H/q+1;/p-1
#Ion_Source LC-ESI
#Instrument qTof
#Compound_Source NIH Pharmacologically Active Library
#PI Dorrestein
#Data_Collector VP/LMS
#Scan -1
#Precursor_MZ 511.441
#ExactMass 511.438
#Charge 1
#CAS_Number N/A
#Pubmed_ID N/A
#Smiles CCCCCCCCCCCCCCCC[N+](C)(C)CCN(Cc1ccc(OC)cc1)c2ncccn2.[Br-]
#INCHI_AUX N/A
#Library_Class 1
#SpectrumID CCMSLIB00000084801
#IonMode Positive
#UpdateWorkflowName UPDATE-SINGLE-ANNOTATED-GOLD
#LibraryQualityString Gold
#TaskID d252d724072548979f1f6f1ced849daf
##Scan# 2871
#SpectrumFile p3-A10_GA10_01_18231.mzXML
#LibraryName Pharm_Active_Library.mgf
#MQScore -1
#Organism Pharm_Active_Library
#TIC_Query 0
#RT_Query -1
#MZErrorPPM -1
#SharedPeaks 0
#MassDiff 0
#LibMZ -1
#SpecMZ 511.441
#SpecCharge 0
#internalFilename spec-00000.mgf

>collision 0
91.055 1.93
103.0548 0.53
105.0337 0.21
106.0409 1.39
107.0485 0.44
120.0554 1.79
122.0695 47.63
136.0878 3.96
245.1379 0.33
512.4474 0.05
