>compound 4'-Methoxy-7-O-??-D-glucopyranosyl-8,3'-dihydroxyflavanone
>formula C22H24O11
>ionization [M+H]+
>parentmass 465.13913804009053
#inchi InChI=1S/C22H24O11/c1-30-13-4-2-9(6-12(13)25)15-7-11(24)10-3-5-14(18(27)21(10)31-15)32-22-20(29)19(28)17(26)16(8-23)33-22/h2-6,15-17,19-20,22-23,25-29H,7-8H2,1H3/t15?,16-,17-,19+,20-,22-/m1/s1
#inchikey MVIJSQNWYLPBGP
#Ion_Source LC-ESI
#Instrument qTof
#Compound_Source Isolated
#PI Norberto Lopes
#Data_Collector Denise Silva
#Scan -1
#Precursor_MZ 465.1
#ExactMass 464.132
#Charge 1
#CAS_Number 1499726-61-2
#Pubmed_ID N/A
#Smiles O=C1C2=CC=C(O[C@H]3[C@H](O)[C@@H](O)[C@H](O)[C@@H](CO)O3)C(O)=C2OC(C4=CC(O)=C(OC)C=C4)C1
#INCHI_AUX N/A
#Library_Class 3
#SpectrumID CCMSLIB00000081760
#IonMode Positive
#UpdateWorkflowName UPDATE-SINGLE-ANNOTATED-BRONZE
#LibraryQualityString Bronze
#TaskID 445bf109b7eb4fc091fb6c19942b2a28
##Scan# 1
#SpectrumFile gnps_4_methoxy_7_O_beta_D_glucopyranosyl_8_3_dihydroxyflavanone_pos_MplusH.mgf
#LibraryName gnps_library.mgf
#MQScore -1
#Organism batch_27_05_V03
#TIC_Query 0
#RT_Query -1
#MZErrorPPM -1
#SharedPeaks 0
#MassDiff 0
#LibMZ -1
#SpecMZ 465.1
#SpecCharge 0
#internalFilename spec-00000.mgf

>collision 0
153.02 11.11
285.074 11.11
288.0613 2.78
303.091 100.0
465.1391 0.0
