>compound MLS001140519-01!1-[(2S)-2-aminopropanoyl]-N-[(2S)-1-[(4-methoxyphenyl)methylamino]-1-oxo-3-phenylpropan-2-yl]piperidine-4-carboxamide
>formula C26H34N4O4
>ionization [M+H]+
>parentmass 467.26709
#inchi InChI=1S/C26H34N4O4/c1-18(27)26(33)30-14-12-21(13-15-30)24(31)29-23(16-19-6-4-3-5-7-19)25(32)28-17-20-8-10-22(34-2)11-9-20/h3-11,18,21,23H,12-17,27H2,1-2H3,(H,28,32)(H,29,31)/t18-,23-/m0/s1
#inchikey IQQTXPAGMXORCF
#Ion_Source LC-ESI
#Instrument qTof
#Compound_Source NIH Natural Product Library
#PI Dorrestein
#Data_Collector VVP/LMS
#Scan -1
#Precursor_MZ 467.266
#ExactMass 466.258
#Charge 1
#CAS_Number N/A
#Pubmed_ID N/A
#Smiles COc1ccc(CNC(=O)[C@H](Cc2ccccc2)NC(=O)C3CCN(CC3)C(=O)[C@H](C)N)cc1
#INCHI_AUX N/A
#Library_Class 1
#SpectrumID CCMSLIB00000080109
#IonMode Positive
#UpdateWorkflowName UPDATE-SINGLE-ANNOTATED-GOLD
#LibraryQualityString Gold
#TaskID b1d8e8f6646f4e71acdff9ca3d919d08
##Scan# 1650
#SpectrumFile p2-C04_GC4_01_18004.mzXML
#LibraryName NIH_Natural_Products_Library.mgf
#MQScore -1
#Organism NIH_Natural_Products_Library
#TIC_Query 0
#RT_Query -1
#MZErrorPPM -1
#SharedPeaks 0
#MassDiff 0
#LibMZ -1
#SpecMZ 467.266
#SpecCharge 0
#internalFilename spec-00000.mgf

>collision 0
106.0433 0.54
107.0486 0.54
112.077 36.15
121.0666 100.0
129.0694 0.72
132.0804 0.27
138.0901 0.34
146.0983 4.07
147.1029 0.9
166.0878 0.53
231.1499 6.65
259.144 4.52
285.1605 3.13
302.1882 5.02
330.183 2.57
378.2165 0.31
396.2307 2.99
467.2671 0.78
