>compound MLS002153391-01!IB-MECA152918-18-8
>formula C18H19IN6O4
>ionization [M+H]+
>parentmass 511.05719
#inchi InChI=1S/C18H19IN6O4/c1-20-17(28)14-12(26)13(27)18(29-14)25-8-24-11-15(22-7-23-16(11)25)21-6-9-3-2-4-10(19)5-9/h2-5,7-8,12-14,18,26-27H,6H2,1H3,(H,20,28)(H,21,22,23)/t12-,13+,14-,18+/m0/s1
#inchikey HUJXGQILHAUCCV
#Ion_Source LC-ESI
#Instrument qTof
#Compound_Source NIH Pharmacologically Active Library
#PI Dorrestein
#Data_Collector VP/LMS
#Scan -1
#Precursor_MZ 511.062
#ExactMass 510.051
#Charge 1
#CAS_Number N/A
#Pubmed_ID N/A
#Smiles CNC(=O)[C@H]1O[C@H]([C@H](O)[C@@H]1O)n2cnc3c(NCc4cccc(I)c4)ncnc23
#INCHI_AUX N/A
#Library_Class 1
#SpectrumID CCMSLIB00000084766
#IonMode Positive
#UpdateWorkflowName UPDATE-SINGLE-ANNOTATED-GOLD
#LibraryQualityString Gold
#TaskID d252d724072548979f1f6f1ced849daf
##Scan# 1815
#SpectrumFile p3-A05_GA5_01_18227.mzXML
#LibraryName Pharm_Active_Library.mgf
#MQScore -1
#Organism Pharm_Active_Library
#TIC_Query 0
#RT_Query -1
#MZErrorPPM -1
#SharedPeaks 0
#MassDiff 0
#LibMZ -1
#SpecMZ 511.062
#SpecCharge 0
#internalFilename spec-00000.mgf

>collision 0
89.0389 0.21
90.0465 0.56
148.0616 1.71
149.0608 0.26
208.0743 0.23
224.0948 0.4
225.1016 0.98
231.9617 0.53
267.1129 0.24
334.9797 0.64
352.0092 100.0
353.0115 17.06
354.0113 1.06
364.0048 0.64
378.0238 0.51
388.0097 0.21
392.0039 0.93
393.0103 0.9
394.0187 2.33
406.0159 0.3
422.0154 0.45
424.0271 1.27
425.0342 0.29
434.0132 0.75
452.0235 3.9
453.0269 0.89
481.0242 0.79
511.0618 2.12
