>compound MLS002222273-01!
>formula C21H27NO
>ionization [M+H]+
>parentmass 310.21654093609055
#inchi InChI=1S/C21H27NO/c23-21(19-11-4-1-5-12-19,20-13-6-2-7-14-20)15-10-18-22-16-8-3-9-17-22/h1-2,4-7,11-14,23H,3,8-10,15-18H2
#inchikey OGAKLTJNUQRZJU
#origInchi InChI=1S/C21H27NO.ClH/c23-21(19-11-4-1-5-12-19,20-13-6-2-7-14-20)15-10-18-22-16-8-3-9-17-22;/h1-2,4-7,11-14,23H,3,8-10,15-18H2;1H
#Ion_Source LC-ESI
#Instrument qTof
#Compound_Source NIH Pharmacologically Active Library
#PI Dorrestein
#Data_Collector VP/LMS
#Scan -1
#Precursor_MZ 310.222
#ExactMass 309.209
#Charge 1
#CAS_Number N/A
#Pubmed_ID N/A
#Smiles OC(CCCN1CCCCC1)(c2ccccc2)c3ccccc3.Cl
#INCHI_AUX N/A
#Library_Class 1
#SpectrumID CCMSLIB00000085459
#IonMode Positive
#UpdateWorkflowName UPDATE-SINGLE-ANNOTATED-GOLD
#LibraryQualityString Gold
#TaskID d252d724072548979f1f6f1ced849daf
##Scan# 1619
#SpectrumFile p4-B03_GB3_01_18339.mzXML
#LibraryName Pharm_Active_Library.mgf
#MQScore -1
#Organism Pharm_Active_Library
#TIC_Query 0
#RT_Query -1
#MZErrorPPM -1
#SharedPeaks 0
#MassDiff 0
#LibMZ -1
#SpecMZ 310.222
#SpecCharge 0
#internalFilename spec-00000.mgf

>collision 0
91.055 15.58
96.0806 0.48
98.0965 3.96
102.0467 0.98
103.0542 6.91
115.0541 0.88
117.071 0.46
124.1121 7.08
126.0475 0.92
127.0544 7.93
128.0627 53.05
129.0707 100.0
141.0701 0.51
145.0649 3.12
165.0701 5.59
166.0772 6.51
181.1009 5.11
192.0931 2.59
207.1159 2.13
292.2058 44.59
310.2153 0.0
