>compound AMLEXANOX
>formula C16H14N2O4
>ionization [M+H]+
>parentmass 299.10263338009054
#inchi InChI=1S/C16H14N2O4/c1-7(2)8-3-4-12-9(5-8)13(19)10-6-11(16(20)21)14(17)18-15(10)22-12/h3-7H,1-2H3,(H2,17,18)(H,20,21)
#inchikey SGRYPYWGNKJSDL
#Ion_Source LC-ESI
#Instrument qTof
#Compound_Source Commercial
#PI Dorrestein
#Data_Collector Garg_Neha
#Scan -1
#Precursor_MZ 299.103
#ExactMass 298.095
#Charge 1
#CAS_Number N/A
#Pubmed_ID N/A
#Smiles CC(C)c1ccc2oc3nc(N)c(cc3c(=O)c2c1)C(=O)O
#INCHI_AUX N/A
#Library_Class 1
#SpectrumID CCMSLIB00000078918
#IonMode Positive
#UpdateWorkflowName UPDATE-SINGLE-ANNOTATED-GOLD
#LibraryQualityString Gold
#TaskID 278b19f5865741e282cec7349aa7e7a1
##Scan# 1459
#SpectrumFile NCP003272_C2_D11_BC1_01_15714.mzXML
#LibraryName NIHcollectionI_05062014.mgf
#MQScore -1
#Organism NIHcollectionI_05062014
#TIC_Query 0
#RT_Query -1
#MZErrorPPM -1
#SharedPeaks 0
#MassDiff 0
#LibMZ -1
#SpecMZ 299.103
#SpecCharge 0
#internalFilename spec-00000.mgf

>collision 0
182.0964 0.89
196.0393 2.29
213.0657 4.74
214.0513 1.76
223.0629 0.89
226.0866 16.96
237.0664 1.19
238.0859 7.08
239.0446 4.24
240.052 0.91
241.0605 0.65
244.0978 8.74
253.0986 21.57
256.0983 6.64
257.0565 8.43
263.0816 2.18
265.0609 2.28
266.0683 4.83
281.0947 100.0
282.0974 15.57
284.0792 0.79
299.1071 243.41
