>compound FINASTERIDE
>formula C23H36N2O2
>ionization [M+H]+
>parentmass 373.2849548440905
#inchi InChI=1S/C23H36N2O2/c1-21(2,3)25-20(27)17-8-7-15-14-6-9-18-23(5,13-11-19(26)24-18)16(14)10-12-22(15,17)4/h11,13-18H,6-10,12H2,1-5H3,(H,24,26)(H,25,27)/t14-,15-,16-,17+,18+,22-,23+/m0/s1
#inchikey DBEPLOCGEIEOCV
#Ion_Source LC-ESI
#Instrument qTof
#Compound_Source Commercial
#PI Dorrestein
#Data_Collector Garg_Neha
#Scan -1
#Precursor_MZ 373.285
#ExactMass 372.278
#Charge 1
#CAS_Number N/A
#Pubmed_ID N/A
#Smiles CC(C)(C)NC(=O)[C@H]1CC[C@H]2[C@@H]3CC[C@H]4NC(=O)C=C[C@]4(C)[C@H]3CC[C@]12C
#INCHI_AUX N/A
#Library_Class 1
#SpectrumID CCMSLIB00000078916
#IonMode Positive
#UpdateWorkflowName UPDATE-SINGLE-ANNOTATED-GOLD
#LibraryQualityString Gold
#TaskID 278b19f5865741e282cec7349aa7e7a1
##Scan# 1492
#SpectrumFile NCP003272_C2_D11_BC1_01_15714.mzXML
#LibraryName NIHcollectionI_05062014.mgf
#MQScore -1
#Organism NIHcollectionI_05062014
#TIC_Query 0
#RT_Query -1
#MZErrorPPM -1
#SharedPeaks 0
#MassDiff 0
#LibMZ -1
#SpecMZ 373.285
#SpecCharge 0
#internalFilename spec-00000.mgf

>collision 0
108.0451 0.37
110.0598 0.65
119.0857 0.48
121.1015 0.33
133.1022 0.41
135.1172 0.57
136.075 0.34
145.1009 0.55
147.1166 0.76
148.0762 0.63
150.093 0.74
159.1171 0.52
161.1331 0.84
173.1327 1.56
175.1106 0.55
175.1488 1.92
176.1073 0.77
177.1632 0.4
185.1326 1.03
187.1484 1.03
188.106 0.46
189.1653 1.05
190.123 0.43
197.1321 0.37
203.1428 0.59
213.1623 0.66
215.1429 0.54
216.1393 0.77
220.1703 0.87
227.1803 0.54
232.1703 1.33
237.1635 1.09
239.1803 0.47
241.1589 0.44
246.1855 4.34
249.197 1.03
255.1753 1.48
256.17 0.81
258.1858 0.54
265.1581 0.38
272.2009 2.3
274.2154 0.48
282.1857 3.93
299.2133 0.42
300.1964 4.79
305.26 25.69
317.2241 100.0
355.2734 0.68
357.2566 0.57
373.2876 136.42
