>compound Venlafaxine hydrochloride
>formula C17H27NO2
>ionization [M+H]+
>parentmass 278.2114555560905
#inchi InChI=1S/C17H27NO2/c1-18(2)13-16(17(19)11-5-4-6-12-17)14-7-9-15(20-3)10-8-14/h7-10,16,19H,4-6,11-13H2,1-3H3
#inchikey PNVNVHUZROJLTJ
#Ion_Source LC-ESI
#Instrument qTof
#Compound_Source Commercial
#PI Dorrestein
#Data_Collector Garg_Neha
#Scan -1
#Precursor_MZ 278.211
#ExactMass 277.204
#Charge 1
#CAS_Number N/A
#Pubmed_ID N/A
#Smiles COc1ccc(cc1)C(CN(C)C)C2(O)CCCCC2
#INCHI_AUX N/A
#Library_Class 1
#SpectrumID CCMSLIB00000078939
#IonMode Positive
#UpdateWorkflowName UPDATE-SINGLE-ANNOTATED-GOLD
#LibraryQualityString Gold
#TaskID 278b19f5865741e282cec7349aa7e7a1
##Scan# 1090
#SpectrumFile NCP003272_E2_F11_BC2_01_15715.mzXML
#LibraryName NIHcollectionI_05062014.mgf
#MQScore -1
#Organism NIHcollectionI_05062014
#TIC_Query 0
#RT_Query -1
#MZErrorPPM -1
#SharedPeaks 0
#MassDiff 0
#LibMZ -1
#SpecMZ 278.211
#SpecCharge 0
#internalFilename spec-00000.mgf

>collision 0
91.0555 0.66
105.07 0.35
106.0403 0.23
107.0854 1.02
115.0546 0.28
117.0709 0.35
119.084 0.33
121.0654 26.77
129.0705 0.26
131.0491 0.41
132.0578 1.22
135.0799 1.92
141.0709 0.56
144.0572 0.9
146.072 0.26
147.0808 19.38
155.085 0.2
158.0739 1.45
159.0803 4.79
161.096 0.93
173.0964 6.08
187.1104 0.33
200.1201 0.25
215.1438 28.21
260.203 100.0
278.2137 103.18
