>compound Crizotinib (PF-02341066)
>formula C21H22Cl2FN5O
>ionization [M+H]+
>parentmass 450.124603
#inchi InChI=1S/C21H22Cl2FN5O/c1-12(19-16(22)2-3-17(24)20(19)23)30-18-8-13(9-27-21(18)25)14-10-28-29(11-14)15-4-6-26-7-5-15/h2-3,8-12,15,26H,4-7H2,1H3,(H2,25,27)/t12-/m1/s1
#inchikey KTEIFNKAUNYNJU
#Ion_Source LC-ESI
#Instrument qTof
#Compound_Source Commercial
#PI Dorrestein
#Data_Collector Garg_Neha
#Scan -1
#Precursor_MZ 450.126
#ExactMass 449.119
#Charge 1
#CAS_Number 877399-52-5, 877399-53-6 (acetate)
#Pubmed_ID N/A
#Smiles C1(=CC(=C(N=C1)N)O[C@@H](C2=C(C=CC(=C2Cl)F)Cl)C)C3=CN(N=C3)C4CCNCC4
#INCHI_AUX N/A
#Library_Class 1
#SpectrumID CCMSLIB00000078015
#IonMode Positive
#UpdateWorkflowName UPDATE-SINGLE-ANNOTATED-GOLD
#LibraryQualityString Gold
#TaskID 77f51c88eb8b467eb4a01dd2d0cb90d2
##Scan# 1106
#SpectrumFile Plate1_1_20_GG1_01_16488.mzXML
#LibraryName FDALibrary_2_04302014.mgf
#MQScore -1
#Organism FDALibrary_2_04302014
#TIC_Query 0
#RT_Query -1
#MZErrorPPM -1
#SharedPeaks 0
#MassDiff 0
#LibMZ -1
#SpecMZ 450.126
#SpecCharge 0
#internalFilename spec-00000.mgf

>collision 0
45.0333 16.25
100.0741 37.55
114.1288 18.77
128.108 69.68
131.0044 15.16
167.0389 16.61
177.0763 62.82
178.0735 19.86
189.0964 20.94
237.0608 20.58
239.0573 75.45
248.1305 21.3
249.1034 18.05
259.1424 77.98
260.1494 100.0
266.0941 14.44
267.0984 16.61
269.1207 20.94
283.0694 14.8
337.0469 15.16
359.0149 18.77
363.0008 15.16
367.0651 16.97
431.0857 15.16
450.1214 131.41
