>compound Loteprednol etabonate
>formula C24H31ClO7
>ionization [M+Na]+
>parentmass 489.16452
#inchi InChI=1S/C24H31ClO7/c1-4-30-21(29)32-24(20(28)31-13-25)10-8-17-16-6-5-14-11-15(26)7-9-22(14,2)19(16)18(27)12-23(17,24)3/h7,9,11,16-19,27H,4-6,8,10,12-13H2,1-3H3/t16-,17-,18+,19-,22-,23-,24+/m0/s1
#inchikey DMKSVUSAATWOCU
#Ion_Source LC-ESI
#Instrument qTof
#Compound_Source Commercial
#PI Dorrestein
#Data_Collector Garg_Neha
#Scan -1
#Precursor_MZ 489.165
#ExactMass 466.176
#Charge 1
#CAS_Number 82034-46-6
#Pubmed_ID N/A
#Smiles C1C(C=C2[C@](C=1)([C@]3([C@@](CC2)([C@]4([C@](C[C@H]3O)([C@@](CC4)(C(OCCl)=O)OC(OCC)=O)C)[H])[H])[H])C)=O
#INCHI_AUX N/A
#Library_Class 1
#SpectrumID CCMSLIB00000078232
#IonMode Positive
#UpdateWorkflowName UPDATE-SINGLE-ANNOTATED-GOLD
#LibraryQualityString Gold
#TaskID 77f51c88eb8b467eb4a01dd2d0cb90d2
##Scan# 2138
#SpectrumFile Plate4_1_20_GH2_01_16503.mzXML
#LibraryName FDALibrary_2_04302014.mgf
#MQScore -1
#Organism FDALibrary_2_04302014
#TIC_Query 0
#RT_Query -1
#MZErrorPPM -1
#SharedPeaks 0
#MassDiff 0
#LibMZ -1
#SpecMZ 489.165
#SpecCharge 0
#internalFilename spec-00000.mgf

>collision 0
207.1145 5.82
222.1373 4.2
242.1127 5.6
298.0236 6.25
305.1495 100.0
312.0979 5.06
323.1643 24.89
345.1696 4.2
361.1355 4.53
369.1233 20.26
370.1001 4.63
371.1157 8.73
389.1245 3.88
395.1486 10.45
396.1306 6.14
399.1332 10.67
401.1353 7.76
489.1645 83.41
