>compound Reserpine
>formula C33H40N2O9 
>ionization [M+H]+
>parentmass 609.280884
#inchi InChI=1S/C33H40N2O9/c1-38-19-7-8-20-21-9-10-35-16-18-13-27(44-32(36)17-11-25(39-2)30(41-4)26(12-17)40-3)31(42-5)28(33(37)43-6)22(18)15-24(35)29(21)34-23(20)14-19/h7-8,11-12,14,18,22,24,27-28,31,34H,9-10,13,15-16H2,1-6H3/t18-,22+,24-,27-,28+,31+/m1/s1
#inchikey QEVHRUUCFGRFIF
#Ion_Source LC-ESI
#Instrument qTof
#Compound_Source Isolated
#PI Sirenas
#Data_Collector Ed Esquenazi 
#Scan -1
#Precursor_MZ 609.282
#ExactMass 0.0
#Charge 1
#CAS_Number N/A
#Pubmed_ID N/A
#Smiles N/A
#INCHI_AUX N/A
#Library_Class 3
#SpectrumID CCMSLIB00000006372
#IonMode Positive
#UpdateWorkflowName UPDATE-SINGLE-ANNOTATED-BRONZE
#LibraryQualityString Bronze
#TaskID d19310cd93df49b68e9fcbec27720eb5
##Scan# 2
#SpectrumFile Reserpine.mgf
#LibraryName fda_library.mgf
#MQScore -1
#Organism fda_library
#TIC_Query 0
#RT_Query -1
#MZErrorPPM -1
#SharedPeaks 0
#MassDiff 0
#LibMZ -1
#SpecMZ 609.282
#SpecCharge 0
#internalFilename spec-00000.mgf

>collision 0
120.0785 2.22
131.0741 1.42
148.0749 1.84
160.0752 1.68
167.0714 1.32
174.0914 25.71
189.101 4.19
192.0991 1.27
195.0651 74.64
215.1171 2.34
236.1254 5.13
261.1124 0.89
287.1426 2.02
288.1382 1.21
336.1554 4.62
348.162 1.68
365.1855 7.93
366.1687 1.13
380.1827 1.06
397.2119 100.0
436.1949 6.55
577.2489 12.54
580.2554 1.09
591.2708 1.41
609.2809 815.13
