>compound Moxifloxacin
>formula C21H24FN3O4
>ionization [M+H]+
>parentmass 402.18236092009056
#inchi InChI=1S/C21H24FN3O4/c1-29-20-17-13(19(26)14(21(27)28)9-25(17)12-4-5-12)7-15(22)18(20)24-8-11-3-2-6-23-16(11)10-24/h7,9,11-12,16,23H,2-6,8,10H2,1H3,(H,27,28)/t11-,16+/m0/s1
#inchikey FABPRXSRWADJSP
#Ion_Source DI-ESI
#Instrument qTof
#Compound_Source Commercial
#PI Norberto Lopes
#Data_Collector Denise Silva
#Scan -1
#Precursor_MZ 402.178
#ExactMass 401.175
#Charge 1
#CAS_Number 151096-09-2
#Pubmed_ID N/A
#Smiles O=C1C(C(O)=O)=CN(C2CC2)C3=C(OC)C(N4C[C@](NCCC5)([H])[C@]5([H])C4)=C(F)C=C31
#INCHI_AUX N/A
#Library_Class 3
#SpectrumID CCMSLIB00000081725
#IonMode Positive
#UpdateWorkflowName UPDATE-SINGLE-ANNOTATED-BRONZE
#LibraryQualityString Bronze
#TaskID 52bd5f0db6314c93924d5ce5c86348eb
##Scan# 1
#SpectrumFile gnps_Moxifloxacin_pos_MplusH.mgf
#LibraryName gnps_library.mgf
#MQScore -1
#Organism batch_27_05_V02
#TIC_Query 0
#RT_Query -1
#MZErrorPPM -1
#SharedPeaks 0
#MassDiff 0
#LibMZ -1
#SpecMZ 402.178
#SpecCharge 0
#internalFilename spec-00000.mgf

>collision 0
205.0533 1.72
207.0527 2.1
216.0635 1.95
220.061 5.64
231.0889 6.66
232.0641 4.17
233.0668 3.05
234.077 5.5
243.0939 2.32
245.0683 7.54
246.0759 5.04
248.0564 7.32
249.0986 2.64
260.056 31.53
261.0997 19.31
278.0664 4.07
285.0925 2.5
295.1263 2.76
298.107 10.43
302.1254 2.49
312.1112 8.09
323.129 6.17
330.1216 2.28
338.1807 2.36
341.1468 41.33
343.1452 4.65
358.1892 13.2
364.1619 44.68
384.1719 100.0
402.1845 0.0
