>compound Nimodipine (Nimotop)
>formula C21H26N2O7
>ionization [M+H]+
>parentmass 419.181
#inchi InChI=1S/C21H26N2O7/c1-12(2)30-21(25)18-14(4)22-13(3)17(20(24)29-10-9-28-5)19(18)15-7-6-8-16(11-15)23(26)27/h6-8,11-12,19,22H,9-10H2,1-5H3
#inchikey UIAGMCDKSXEBJQ
#Ion_Source LC-ESI
#Instrument qTof
#Compound_Source Commercial
#PI Dorrestein
#Data_Collector Garg_Neha
#Scan -1
#Precursor_MZ 419.181
#ExactMass 418.174
#Charge 1
#CAS_Number 66085-59-4
#Pubmed_ID N/A
#Smiles C1(=C(C(C(=C(N1)C)C(OCCOC)=O)C2=CC=CC(=C2)[N+](=O)[O-])C(OC(C)C)=O)C
#INCHI_AUX N/A
#Library_Class 1
#SpectrumID CCMSLIB00000078273
#IonMode Positive
#UpdateWorkflowName UPDATE-SINGLE-ANNOTATED-GOLD
#LibraryQualityString Gold
#TaskID 77f51c88eb8b467eb4a01dd2d0cb90d2
##Scan# 1990
#SpectrumFile Plate4_41_60_GH4_01_16505.mzXML
#LibraryName FDALibrary_2_04302014.mgf
#MQScore -1
#Organism FDALibrary_2_04302014
#TIC_Query 0
#RT_Query -1
#MZErrorPPM -1
#SharedPeaks 0
#MassDiff 0
#LibMZ -1
#SpecMZ 419.181
#SpecCharge 0
#internalFilename spec-00000.mgf

>collision 0
182.0946 0.72
198.091 0.9
210.0908 1.64
212.07 1.28
226.0845 1.4
227.093 1.35
240.0641 0.38
241.0725 0.4
254.0797 6.34
255.0869 11.34
259.0833 0.32
273.0867 0.79
283.0702 4.37
284.0774 7.24
287.0779 5.39
301.0817 49.89
343.1295 100.0
359.1237 11.61
387.153 0.55
419.181 0.0
