>compound Moexipril HCl
>formula C27H34N2O7
>ionization [M+H]+
>parentmass 499.245544
#inchi InChI=1S/C27H34N2O7/c1-5-36-27(33)21(12-11-18-9-7-6-8-10-18)28-17(2)25(30)29-16-20-15-24(35-4)23(34-3)14-19(20)13-22(29)26(31)32/h6-10,14-15,17,21-22,28H,5,11-13,16H2,1-4H3,(H,31,32)/t17-,21-,22-/m0/s1
#inchikey UWWDHYUMIORJTA
#origInchi InChI=1S/C27H34N2O7.ClH/c1-5-36-27(33)21(12-11-18-9-7-6-8-10-18)28-17(2)25(30)29-16-20-15-24(35-4)23(34-3)14-19(20)13-22(29)26(31)32;/h6-10,14-15,17,21-22,28H,5,11-13,16H2,1-4H3,(H,31,32);1H/t17-,21-,22-;/m0./s1
#Ion_Source LC-ESI
#Instrument qTof
#Compound_Source Commercial
#PI Dorrestein
#Data_Collector Garg_Neha
#Scan -1
#Precursor_MZ 499.244
#ExactMass 498.237
#Charge 1
#CAS_Number 82586-52-5
#Pubmed_ID N/A
#Smiles C1(=C(C=C2C(=C1)C[C@H](N(C2)C(=O)[C@H](C)N[C@H](C(=O)OCC)CCC3=CC=CC=C3)C(O)=O)OC)OC.Cl
#INCHI_AUX N/A
#Library_Class 1
#SpectrumID CCMSLIB00000078423
#IonMode Positive
#UpdateWorkflowName UPDATE-SINGLE-ANNOTATED-GOLD
#LibraryQualityString Gold
#TaskID 77f51c88eb8b467eb4a01dd2d0cb90d2
##Scan# 1134
#SpectrumFile Plate6_61_80_GD10_01_15777.mzXML
#LibraryName FDALibrary_2_04302014.mgf
#MQScore -1
#Organism FDALibrary_2_04302014
#TIC_Query 0
#RT_Query -1
#MZErrorPPM -1
#SharedPeaks 0
#MassDiff 0
#LibMZ -1
#SpecMZ 499.244
#SpecCharge 0
#internalFilename spec-00000.mgf

>collision 0
91.0562 0.89
102.0547 1.88
117.0693 8.72
130.0861 8.28
134.0952 7.68
144.0804 0.5
160.1118 15.42
188.1075 0.4
192.1013 4.25
206.116 1.11
220.0978 0.24
234.1492 100.0
238.1078 4.79
317.1635 0.23
425.2058 3.67
499.2455 86.05
