>compound MLS002153486-01!
>formula C17H19N3
>ionization [M+H]+
>parentmass 266.163605
#inchi InChI=1S/C17H19N3/c1-3-7-15(8-4-1)13-20(14-17-18-11-12-19-17)16-9-5-2-6-10-16/h1-10H,11-14H2,(H,18,19)
#inchikey REYFJDPCWQRWAA
#origInchi InChI=1S/C17H19N3.ClH/c1-3-7-15(8-4-1)13-20(14-17-18-11-12-19-17)16-9-5-2-6-10-16;/h1-10H,11-14H2,(H,18,19);1H
#Ion_Source LC-ESI
#Instrument qTof
#Compound_Source NIH Pharmacologically Active Library
#PI Dorrestein
#Data_Collector VP/LMS
#Scan -1
#Precursor_MZ 266.165
#ExactMass 265.158
#Charge 1
#CAS_Number N/A
#Pubmed_ID N/A
#Smiles C(N(Cc1ccccc1)c2ccccc2)C3=NCCN3.Cl
#INCHI_AUX N/A
#Library_Class 1
#SpectrumID CCMSLIB00000085250
#IonMode Positive
#UpdateWorkflowName UPDATE-SINGLE-ANNOTATED-GOLD
#LibraryQualityString Gold
#TaskID d252d724072548979f1f6f1ced849daf
##Scan# 1597
#SpectrumFile p3-G06_GG6_01_18299.mzXML
#LibraryName Pharm_Active_Library.mgf
#MQScore -1
#Organism Pharm_Active_Library
#TIC_Query 0
#RT_Query -1
#MZErrorPPM -1
#SharedPeaks 0
#MassDiff 0
#LibMZ -1
#SpecMZ 266.165
#SpecCharge 0
#internalFilename spec-00000.mgf

>collision 0
91.0541 100.0
104.0487 1.88
106.0644 8.36
117.0568 1.51
118.0645 5.39
145.0745 1.71
146.0716 1.89
161.1054 4.01
165.0706 1.75
174.1006 8.95
179.0846 1.57
180.082 0.88
196.1121 55.94
266.1636 0.9
