>compound MLS001074069-01!D(-)-Norgestrel
>formula C21H28O2
>ionization [M+H]+
>parentmass 313.21620658809053
#inchi InChI=1S/C21H28O2/c1-3-20-11-9-17-16-8-6-15(22)13-14(16)5-7-18(17)19(20)10-12-21(20,23)4-2/h2,13,16-19,23H,3,5-12H2,1H3/t16-,17+,18+,19-,20-,21-/m0/s1
#inchikey WWYNJERNGUHSAO
#Ion_Source LC-ESI
#Instrument qTof
#Compound_Source NIH Pharmacologically Active Library
#PI Dorrestein
#Data_Collector VP/LMS
#Scan -1
#Precursor_MZ 313.218
#ExactMass 312.209
#Charge 1
#CAS_Number N/A
#Pubmed_ID N/A
#Smiles CC[C@@]12CC[C@H]3[C@@H](CC/C/4=C/C(=O)CC[C@H]34)[C@@H]2CC[C@@]1(O)C#C
#INCHI_AUX N/A
#Library_Class 1
#SpectrumID CCMSLIB00000085097
#IonMode Positive
#UpdateWorkflowName UPDATE-SINGLE-ANNOTATED-GOLD
#LibraryQualityString Gold
#TaskID d252d724072548979f1f6f1ced849daf
##Scan# 2235
#SpectrumFile p3-E10_GE10_01_18279.mzXML
#LibraryName Pharm_Active_Library.mgf
#MQScore -1
#Organism Pharm_Active_Library
#TIC_Query 0
#RT_Query -1
#MZErrorPPM -1
#SharedPeaks 0
#MassDiff 0
#LibMZ -1
#SpecMZ 313.218
#SpecCharge 0
#internalFilename spec-00000.mgf

>collision 0
91.0543 28.22
93.0698 12.11
103.0549 11.54
105.069 67.26
107.0489 30.67
107.0838 22.66
109.0643 100.0
115.0529 35.55
116.0609 18.35
117.069 48.02
119.0856 49.48
121.0649 16.16
121.1001 14.03
123.0807 19.85
128.0625 44.49
129.0692 42.46
130.0768 18.61
131.0854 49.79
133.0647 14.71
133.1009 38.2
135.0794 37.84
135.1168 14.24
141.0705 34.77
143.0844 39.19
145.0998 41.32
147.0797 9.56
147.1163 22.56
148.0882 10.45
149.0952 22.56
154.0778 13.93
157.1003 40.12
159.1168 21.05
161.0961 19.44
163.1105 17.31
169.101 22.3
173.1331 14.81
175.1475 12.21
183.1169 19.39
185.1323 22.14
199.1489 11.95
227.1807 16.84
245.1896 36.07
295.2063 9.3
313.2162 17.0
