>compound MLS002207023-01!Kinetin-9-riboside4338-47-0
>formula C15H17N5O5
>ionization [M+H]+
>parentmass 348.1302450960905
#inchi InChI=1S/C15H17N5O5/c21-5-9-11(22)12(23)15(25-9)20-7-19-10-13(17-6-18-14(10)20)16-4-8-2-1-3-24-8/h1-3,6-7,9,11-12,15,21-23H,4-5H2,(H,16,17,18)/t9-,11-,12-,15-/m1/s1
#inchikey CAGLGYNQQSIUGX
#Ion_Source LC-ESI
#Instrument qTof
#Compound_Source NIH Pharmacologically Active Library
#PI Dorrestein
#Data_Collector VP/LMS
#Scan -1
#Precursor_MZ 348.137
#ExactMass 347.123
#Charge 1
#CAS_Number N/A
#Pubmed_ID N/A
#Smiles OC[C@H]1O[C@H]([C@H](O)[C@@H]1O)n2cnc3c(NCc4ccco4)ncnc23
#INCHI_AUX N/A
#Library_Class 1
#SpectrumID CCMSLIB00000085557
#IonMode Positive
#UpdateWorkflowName UPDATE-SINGLE-ANNOTATED-GOLD
#LibraryQualityString Gold
#TaskID d252d724072548979f1f6f1ced849daf
##Scan# 1299
#SpectrumFile p4-C07_GC7_01_18355.mzXML
#LibraryName Pharm_Active_Library.mgf
#MQScore -1
#Organism Pharm_Active_Library
#TIC_Query 0
#RT_Query -1
#MZErrorPPM -1
#SharedPeaks 0
#MassDiff 0
#LibMZ -1
#SpecMZ 348.137
#SpecCharge 0
#internalFilename spec-00000.mgf

>collision 0
119.036 4.0
121.052 2.06
145.0521 1.25
148.0627 100.0
173.0696 1.89
188.0924 8.46
198.0768 1.73
216.0879 56.14
348.1302 0.0
