>compound Quetiapine
>formula C21H25N3O2S
>ionization [M+H]+
>parentmass 384.17402449209055
#inchi InChI=1S/C21H25N3O2S/c25-14-16-26-15-13-23-9-11-24(12-10-23)21-17-5-1-3-7-19(17)27-20-8-4-2-6-18(20)22-21/h1-8,25H,9-16H2
#inchikey URKOMYMAXPYINW
#Ion_Source DI-ESI
#Instrument qTof
#Compound_Source Commercial
#PI Norberto Lopes
#Data_Collector Norberto Lopes
#Scan -1
#Precursor_MZ 384.165
#ExactMass 383.167
#Charge 1
#CAS_Number 111974-69-7
#Pubmed_ID N/A
#Smiles OCCOCCN(CC1)CCN1C2=NC3=CC=CC=C3SC4=C2C=CC=C4
#INCHI_AUX N/A
#Library_Class 3
#SpectrumID CCMSLIB00000081589
#IonMode Positive
#UpdateWorkflowName UPDATE-SINGLE-ANNOTATED-BRONZE
#LibraryQualityString Bronze
#TaskID 4a07f16a650f4095b43fe6b0b09ff8bb
##Scan# 1
#SpectrumFile gnps_Quetiapine_pos_MplusH.mgf
#LibraryName gnps_library.mgf
#MQScore -1
#Organism batch_27_05
#TIC_Query 0
#RT_Query -1
#MZErrorPPM -1
#SharedPeaks 0
#MassDiff 0
#LibMZ -1
#SpecMZ 384.165
#SpecCharge 0
#internalFilename spec-00000.mgf

>collision 0
132.0966 2.64
158.1125 16.3
211.031 7.01
219.0854 1.28
221.1017 80.53
222.102 15.83
247.1162 23.41
248.1184 4.26
253.0775 100.0
254.0746 46.65
255.0695 13.87
281.0885 4.73
384.174 0.0
