>compound Loteprednol etabonate
>formula C24H31ClO7
>ionization [M+H]+
>parentmass 467.18310746409054
#inchi InChI=1S/C24H31ClO7/c1-4-30-21(29)32-24(20(28)31-13-25)10-8-17-16-6-5-14-11-15(26)7-9-22(14,2)19(16)18(27)12-23(17,24)3/h7,9,11,16-19,27H,4-6,8,10,12-13H2,1-3H3/t16-,17-,18+,19-,22-,23-,24+/m0/s1
#inchikey DMKSVUSAATWOCU
#Ion_Source LC-ESI
#Instrument qTof
#Compound_Source Commercial
#PI Dorrestein
#Data_Collector Garg_Neha
#Scan -1
#Precursor_MZ 467.183
#ExactMass 466.176
#Charge 1
#CAS_Number 82034-46-6
#Pubmed_ID N/A
#Smiles C1C(C=C2[C@](C=1)([C@]3([C@@](CC2)([C@]4([C@](C[C@H]3O)([C@@](CC4)(C(OCCl)=O)OC(OCC)=O)C)[H])[H])[H])C)=O
#INCHI_AUX N/A
#Library_Class 1
#SpectrumID CCMSLIB00000078233
#IonMode Positive
#UpdateWorkflowName UPDATE-SINGLE-ANNOTATED-GOLD
#LibraryQualityString Gold
#TaskID 77f51c88eb8b467eb4a01dd2d0cb90d2
##Scan# 2141
#SpectrumFile Plate4_1_20_GH2_01_16503.mzXML
#LibraryName FDALibrary_2_04302014.mgf
#MQScore -1
#Organism FDALibrary_2_04302014
#TIC_Query 0
#RT_Query -1
#MZErrorPPM -1
#SharedPeaks 0
#MassDiff 0
#LibMZ -1
#SpecMZ 467.183
#SpecCharge 0
#internalFilename spec-00000.mgf

>collision 0
105.0696 1.81
107.085 2.3
121.0648 5.61
128.0603 3.2
129.0702 2.19
131.0836 3.87
135.0795 7.26
145.1008 2.26
147.0795 24.94
157.1012 7.64
159.0805 7.2
171.0797 33.08
173.0948 12.72
193.0775 4.58
195.0801 2.75
198.1003 1.88
208.0849 2.15
209.0957 14.86
210.1018 3.35
223.1114 15.09
224.1163 3.84
225.1277 2.73
235.1129 1.99
237.1236 5.54
238.132 3.17
251.1427 5.32
263.1417 4.74
265.1574 100.0
283.168 2.53
293.1502 9.97
311.1624 1.92
359.1386 71.08
449.1719 31.16
467.1796 2.06
