>compound MLS001075540-01!
>formula C23H27N3O4
>ionization [M+H]+
>parentmass 410.207672
#inchi InChI=1S/C23H27N3O4/c1-30-20-7-3-2-5-17(20)12-24-21(27)9-10-22(28)25-13-16-11-18(15-25)19-6-4-8-23(29)26(19)14-16/h2-8,16,18H,9-15H2,1H3,(H,24,27)/t16-,18+/m1/s1
#inchikey RVMFLZWSHDZGGQ
#Ion_Source LC-ESI
#Instrument qTof
#Compound_Source NIH Natural Product Library
#PI Dorrestein
#Data_Collector VVP/LMS
#Scan -1
#Precursor_MZ 410.208
#ExactMass 409.2
#Charge 1
#CAS_Number N/A
#Pubmed_ID N/A
#Smiles COc1ccccc1CNC(=O)CCC(=O)N2C[C@H]3C[C@@H](C2)c4cccc(=O)n4C3
#INCHI_AUX N/A
#Library_Class 1
#SpectrumID CCMSLIB00000079670
#IonMode Positive
#UpdateWorkflowName UPDATE-SINGLE-ANNOTATED-GOLD
#LibraryQualityString Gold
#TaskID b1d8e8f6646f4e71acdff9ca3d919d08
##Scan# 1650
#SpectrumFile p1-F09_GF9_01_17941.mzXML
#LibraryName NIH_Natural_Products_Library.mgf
#MQScore -1
#Organism NIH_Natural_Products_Library
#TIC_Query 0
#RT_Query -1
#MZErrorPPM -1
#SharedPeaks 0
#MassDiff 0
#LibMZ -1
#SpecMZ 410.208
#SpecCharge 0
#internalFilename spec-00000.mgf

>collision 0
121.0656 30.34
132.0441 0.65
132.0809 0.76
146.0599 1.62
146.097 0.44
148.0755 5.51
160.0752 7.58
174.092 2.29
189.1011 3.15
191.1177 33.82
217.0965 1.19
227.1188 2.74
245.1286 100.0
255.1133 0.72
273.1236 76.89
365.1858 0.88
393.1791 1.76
410.2072 0.43
