>compound Venlafaxine
>formula C17H27NO2 
>ionization [M+H]+
>parentmass 278.210571
#inchi InChI=1S/C17H27NO2/c1-18(2)13-16(17(19)11-5-4-6-12-17)14-7-9-15(20-3)10-8-14/h7-10,16,19H,4-6,11-13H2,1-3H3
#inchikey PNVNVHUZROJLTJ
#Ion_Source LC-ESI
#Instrument qTof
#Compound_Source Isolated
#PI Sirenas
#Data_Collector Ed Esquenazi 
#Scan -1
#Precursor_MZ 278.212
#ExactMass 0.0
#Charge 1
#CAS_Number N/A
#Pubmed_ID N/A
#Smiles N/A
#INCHI_AUX N/A
#Library_Class 3
#SpectrumID CCMSLIB00000004419
#IonMode Positive
#UpdateWorkflowName UPDATE-SINGLE-ANNOTATED-BRONZE
#LibraryQualityString Bronze
#TaskID d19310cd93df49b68e9fcbec27720eb5
##Scan# 2
#SpectrumFile Venlafaxine.mgf
#LibraryName fda_library.mgf
#MQScore -1
#Organism fda_library
#TIC_Query 0
#RT_Query -1
#MZErrorPPM -1
#SharedPeaks 0
#MassDiff 0
#LibMZ -1
#SpecMZ 278.212
#SpecCharge 0
#internalFilename spec-00000.mgf

>collision 0
107.0852 8.84
115.0549 0.45
117.0688 0.47
121.0648 100.0
129.0682 0.21
131.0492 0.24
132.0568 1.64
133.065 0.74
135.0804 4.78
141.0681 0.35
143.0495 0.3
144.057 0.2
147.0803 46.48
158.0709 0.68
159.08 10.16
173.0952 12.92
215.1427 44.75
260.201 24.51
278.2113 5.76
