>compound RIFAXIMIN
>formula C43H51N3O11
>ionization [M+Na]+
>parentmass 808.342773
#inchi InChI=1S/C43H51N3O11/c1-19-14-16-46-28(18-19)44-32-29-30-37(50)25(7)40-31(29)41(52)43(9,57-40)55-17-15-27(54-10)22(4)39(56-26(8)47)24(6)36(49)23(5)35(48)20(2)12-11-13-21(3)42(53)45-33(34(32)46)38(30)51/h11-18,20,22-24,27,35-36,39,48-51H,1-10H3,(H,45,53)/t20-,22+,23+,24+,27-,35-,36+,39+,43-/m0/s1
#inchikey NZCRJKRKKOLAOJ
#Ion_Source LC-ESI
#Instrument qTof
#Compound_Source Commercial
#PI Dorrestein
#Data_Collector Garg_Neha
#Scan -1
#Precursor_MZ 808.342
#ExactMass 785.352
#Charge 1
#CAS_Number N/A
#Pubmed_ID N/A
#Smiles CO[C@H]1C=CO[C@@]2(C)Oc3c(C2=O)c4c5nc6cc(C)ccn6c5c(NC(=O)C(=CC=C[C@H](C)[C@H](O)[C@@H](C)[C@@H](O)[C@@H](C)[C@H](OC(=O)C)[C@@H]1C)C)c(O)c4c(O)c3C
#INCHI_AUX N/A
#Library_Class 1
#SpectrumID CCMSLIB00000079275
#IonMode Positive
#UpdateWorkflowName UPDATE-SINGLE-ANNOTATED-GOLD
#LibraryQualityString Gold
#TaskID 278b19f5865741e282cec7349aa7e7a1
##Scan# 1651
#SpectrumFile NCP003512_A2_B11_BD4_01_15728.mzXML
#LibraryName NIHcollectionI_05062014.mgf
#MQScore -1
#Organism NIHcollectionI_05062014
#TIC_Query 0
#RT_Query -1
#MZErrorPPM -1
#SharedPeaks 0
#MassDiff 0
#LibMZ -1
#SpecMZ 808.342
#SpecCharge 0
#internalFilename spec-00000.mgf

>collision 0
347.1044 22.92
361.1925 8.1
369.0844 100.0
383.0871 59.26
384.0943 37.73
402.2163 6.48
430.2152 6.6
447.2322 10.65
477.1297 12.85
506.1712 13.54
507.1691 9.84
508.1783 10.65
534.1669 8.8
535.1697 6.83
536.1739 23.96
547.2089 8.33
550.195 8.68
578.1963 9.03
592.2028 9.84
593.217 15.63
636.2282 7.75
644.2704 7.18
662.2821 76.74
663.2939 74.77
664.288 23.38
690.2892 7.99
716.2966 83.91
717.3017 43.06
718.3002 19.91
719.3132 7.29
722.3043 14.58
723.303 10.42
730.3125 6.48
748.3204 45.37
749.3283 58.22
750.3304 26.74
751.3403 7.06
776.3133 89.93
777.3177 59.26
778.3275 37.85
790.3253 6.94
808.345 585.88
