>compound Ciprofloxacin
>formula C17H18FN3O3
>ionization [M+H]+
>parentmass 332.138641
#inchi InChI=1S/C17H18FN3O3/c18-13-7-11-14(8-15(13)20-5-3-19-4-6-20)21(10-1-2-10)9-12(16(11)22)17(23)24/h7-10,19H,1-6H2,(H,23,24)
#inchikey MYSWGUAQZAJSOK
#Ion_Source DI-ESI
#Instrument qTof
#Compound_Source Commercial
#PI Norberto Lopes
#Data_Collector Denise Silva
#Scan -1
#Precursor_MZ 332.139
#ExactMass 331.133
#Charge 1
#CAS_Number 85721-33-1
#Pubmed_ID N/A
#Smiles O=C1C(C(O)=O)=CN(C2CC2)C3=CC(N4CCNCC4)=C(F)C=C31
#INCHI_AUX N/A
#Library_Class 3
#SpectrumID CCMSLIB00000081726
#IonMode Positive
#UpdateWorkflowName UPDATE-SINGLE-ANNOTATED-BRONZE
#LibraryQualityString Bronze
#TaskID 52bd5f0db6314c93924d5ce5c86348eb
##Scan# 1
#SpectrumFile gnps_Ciprofloxacin_pos_MplusH.mgf
#LibraryName gnps_library.mgf
#MQScore -1
#Organism batch_27_05_V02
#TIC_Query 0
#RT_Query -1
#MZErrorPPM -1
#SharedPeaks 0
#MassDiff 0
#LibMZ -1
#SpecMZ 332.139
#SpecCharge 0
#internalFilename spec-00000.mgf

>collision 0
175.0666 1.03
176.0701 1.53
203.0573 13.64
204.0642 18.46
205.0729 16.19
215.0593 1.07
219.0894 3.11
227.0981 3.49
229.0733 1.89
230.079 1.59
245.1056 89.02
257.1026 1.02
268.1387 12.17
271.1072 1.81
286.1306 5.56
314.131 100.0
332.1386 98.78
