>compound LEVOCETIRIZINE
>formula C21H25ClN2O3
>ionization [M+H]+
>parentmass 389.164459
#inchi InChI=1S/C21H25ClN2O3/c22-19-8-6-18(7-9-19)21(17-4-2-1-3-5-17)24-12-10-23(11-13-24)14-15-27-16-20(25)26/h1-9,21H,10-16H2,(H,25,26)/t21-/m1/s1
#inchikey ZKLPARSLTMPFCP
#Ion_Source LC-ESI
#Instrument qTof
#Compound_Source Commercial
#PI Dorrestein
#Data_Collector Garg_Neha
#Scan -1
#Precursor_MZ 389.163
#ExactMass 388.155
#Charge 1
#CAS_Number N/A
#Pubmed_ID N/A
#Smiles OC(=O)COCCN1CCN(CC1)[C@H](c2ccccc2)c3ccc(Cl)cc3
#INCHI_AUX N/A
#Library_Class 1
#SpectrumID CCMSLIB00000079138
#IonMode Positive
#UpdateWorkflowName UPDATE-SINGLE-ANNOTATED-GOLD
#LibraryQualityString Gold
#TaskID 278b19f5865741e282cec7349aa7e7a1
##Scan# 1201
#SpectrumFile NCP003512_G2_H11_BD7_01_15731.mzXML
#LibraryName NIHcollectionI_05062014.mgf
#MQScore -1
#Organism NIHcollectionI_05062014
#TIC_Query 0
#RT_Query -1
#MZErrorPPM -1
#SharedPeaks 0
#MassDiff 0
#LibMZ -1
#SpecMZ 389.163
#SpecCharge 0
#internalFilename spec-00000.mgf

>collision 0
141.0692 0.34
165.0709 17.77
166.0789 38.15
167.0822 4.55
183.0797 0.87
202.0508 21.26
203.0452 46.74
389.1645 29.44
