>compound Carbamazepine (Carbatrol)
>formula C15H12N2O
>ionization [M+H]+
>parentmass 237.102219
#inchi InChI=1S/C15H12N2O/c16-15(18)17-13-7-3-1-5-11(13)9-10-12-6-2-4-8-14(12)17/h1-10H,(H2,16,18)
#inchikey FFGPTBGBLSHEPO
#Ion_Source LC-ESI
#Instrument qTof
#Compound_Source Commercial
#PI Dorrestein
#Data_Collector Garg_Neha
#Scan -1
#Precursor_MZ 237.102
#ExactMass 236.095
#Charge 1
#CAS_Number 298-46-4
#Pubmed_ID N/A
#Smiles N1(C(=O)N)C2=C(C=CC3=C1C=CC=C3)C=CC=C2
#INCHI_AUX N/A
#Library_Class 1
#SpectrumID CCMSLIB00000078241
#IonMode Positive
#UpdateWorkflowName UPDATE-SINGLE-ANNOTATED-GOLD
#LibraryQualityString Gold
#TaskID 77f51c88eb8b467eb4a01dd2d0cb90d2
##Scan# 1237
#SpectrumFile Plate4_1_20_GH2_01_16503.mzXML
#LibraryName FDALibrary_2_04302014.mgf
#MQScore -1
#Organism FDALibrary_2_04302014
#TIC_Query 0
#RT_Query -1
#MZErrorPPM -1
#SharedPeaks 0
#MassDiff 0
#LibMZ -1
#SpecMZ 237.102
#SpecCharge 0
#internalFilename spec-00000.mgf

>collision 0
116.049 0.58
165.0698 3.38
179.0726 6.29
192.0807 26.57
194.0965 100.0
220.0764 1.8
237.1022 91.13
