>compound Lansoprazole
>formula C16H14F3N3O2S
>ionization [M+Na]+
>parentmass 392.06546
#inchi InChI=1S/C16H14F3N3O2S/c1-10-13(20-7-6-14(10)24-9-16(17,18)19)8-25(23)15-21-11-4-2-3-5-12(11)22-15/h2-7H,8-9H2,1H3,(H,21,22)
#inchikey MJIHNNLFOKEZEW
#Ion_Source LC-ESI
#Instrument qTof
#Compound_Source Commercial
#PI Dorrestein
#Data_Collector Garg_Neha
#Scan -1
#Precursor_MZ 392.065
#ExactMass 369.076
#Charge 1
#CAS_Number 103577-45-3, 226904-00-3 (sodium salt)
#Pubmed_ID N/A
#Smiles C1=CC=C2C(=C1)N=C(N2)S(CC3=NC=CC(=C3C)OCC(F)(F)F)=O
#INCHI_AUX N/A
#Library_Class 1
#SpectrumID CCMSLIB00000078113
#IonMode Positive
#UpdateWorkflowName UPDATE-SINGLE-ANNOTATED-GOLD
#LibraryQualityString Gold
#TaskID 77f51c88eb8b467eb4a01dd2d0cb90d2
##Scan# 1126
#SpectrumFile Plate2_21_40_GG6_01_16494.mzXML
#LibraryName FDALibrary_2_04302014.mgf
#MQScore -1
#Organism FDALibrary_2_04302014
#TIC_Query 0
#RT_Query -1
#MZErrorPPM -1
#SharedPeaks 0
#MassDiff 0
#LibMZ -1
#SpecMZ 392.065
#SpecCharge 0
#internalFilename spec-00000.mgf

>collision 0
142.0623 4.9
149.0241 11.05
166.0129 5.35
188.0023 100.0
189.0019 10.93
189.9941 7.52
235.0827 6.72
244.0539 27.9
248.0461 5.69
253.0363 4.9
274.0101 46.13
276.0342 4.67
288.0332 5.35
298.0636 5.24
344.0963 6.26
374.0539 21.64
392.0655 217.08
