>compound Rifamycin S
>formula C37H45NO12 
>ionization [M+H]+
>parentmass 696.3014523320905
#inchi InChI=1S/C37H45NO12/c1-16-11-10-12-17(2)36(46)38-23-15-24(40)26-27(32(23)44)31(43)21(6)34-28(26)35(45)37(8,50-34)48-14-13-25(47-9)18(3)33(49-22(7)39)20(5)30(42)19(4)29(16)41/h10-16,18-20,25,29-30,33,41-43H,1-9H3,(H,38,46)/b11-10+,14-13+,17-12-/t16-,18+,19+,20+,25-,29-,30+,33+,37-/m0/s1
#inchikey BTVYFIMKUHNOBZ
#Ion_Source LC-ESI
#Instrument qTof
#Compound_Source Isolated
#PI Fenical-Jensen-Moore
#Data_Collector Max
#Scan -1
#Precursor_MZ 696.304
#ExactMass 695.297
#Charge 1
#CAS_Number N/A
#Pubmed_ID N/A
#Smiles N/A
#INCHI_AUX N/A
#Library_Class 1
#SpectrumID CCMSLIB00000001653
#IonMode Positive
#UpdateWorkflowName UPDATE-SINGLE-ANNOTATED-GOLD
#LibraryQualityString Gold
#TaskID d14a5843653040ba9fa2c4376f2be358
##Scan# 2
#SpectrumFile e3.mgf
#LibraryName gnps_library.mgf
#MQScore -1
#Organism gnps_library
#TIC_Query 0
#RT_Query -1
#MZErrorPPM -1
#SharedPeaks 0
#MassDiff 0
#LibMZ -1
#SpecMZ 696.304
#SpecCharge 0
#internalFilename spec-00000.mgf

>collision 0
105.0704 25.11
107.0856 65.95
109.0649 48.2
109.1001 24.87
111.08 26.05
117.0698 6.12
119.0845 18.73
121.0639 22.63
121.1001 20.53
123.0803 100.0
125.0955 8.61
131.0844 4.54
133.0642 9.34
133.1004 22.27
135.0805 26.17
137.095 16.81
143.0837 7.08
145.1007 25.4
147.1165 16.74
149.0948 8.34
151.0752 95.72
153.0899 11.07
161.0952 23.18
163.1114 45.72
173.096 12.68
177.0913 6.69
191.105 13.93
244.0616 5.55
272.0549 58.94
395.1322 8.71
480.1658 5.27
586.246 8.23
587.2507 4.66
604.2586 7.14
605.2567 4.7
664.2781 9.15
696.3015 0.0
