>compound DorzolamideHCl
>formula C10H16N2O4S3 
>ionization [M+H]+
>parentmass 325.035
#inchi InChI=1S/C10H16N2O4S3/c1-3-12-8-4-6(2)18(13,14)10-7(8)5-9(17-10)19(11,15)16/h5-6,8,12H,3-4H2,1-2H3,(H2,11,15,16)/t6-,8-/m0/s1
#inchikey IAVUPMFITXYVAF
#Ion_Source LC-ESI
#Instrument qTof
#Compound_Source Isolated
#PI Sirenas
#Data_Collector Ed Esquenazi 
#Scan -1
#Precursor_MZ 325.035
#ExactMass 0.0
#Charge 1
#CAS_Number N/A
#Pubmed_ID N/A
#Smiles N/A
#INCHI_AUX N/A
#Library_Class 3
#SpectrumID CCMSLIB00000004223
#IonMode Positive
#UpdateWorkflowName UPDATE-SINGLE-ANNOTATED-BRONZE
#LibraryQualityString Bronze
#TaskID d19310cd93df49b68e9fcbec27720eb5
##Scan# 3
#SpectrumFile DorzolamideHCl.mgf
#LibraryName fda_library.mgf
#MQScore -1
#Organism fda_library
#TIC_Query 0
#RT_Query -1
#MZErrorPPM -1
#SharedPeaks 0
#MassDiff 0
#LibMZ -1
#SpecMZ 325.035
#SpecCharge 0
#internalFilename spec-00000.mgf

>collision 0
102.0464 2.38
121.0108 1.7
123.0263 12.06
126.9664 3.22
127.9738 2.04
134.0184 15.72
135.0263 100.0
138.9669 1.87
151.0208 25.36
153.9908 0.69
154.9615 3.5
155.9696 7.04
198.9869 0.94
215.0071 2.25
325.0348 0.0
