>compound MLS002695970-01!
>formula C30H44O9
>ionization [M+H]+
>parentmass 549.306
#inchi InChI=1S/C30H44O9/c1-16-24(33)26(36-3)25(34)27(38-16)39-19-6-10-29(15-31)18(13-19)4-5-22-21(29)7-9-28(2)20(8-11-30(22,28)35)17-12-23(32)37-14-17/h12,15-16,18-22,24-27,33-35H,4-11,13-14H2,1-3H3
#inchikey PMTSPAGBAFCORP
#Ion_Source LC-ESI
#Instrument qTof
#Compound_Source NIH Natural Product Library
#PI Dorrestein
#Data_Collector VVP/LMS
#Scan -1
#Precursor_MZ 549.306
#ExactMass 548.299
#Charge 1
#CAS_Number N/A
#Pubmed_ID N/A
#Smiles COC1C(O)C(C)OC(OC2CCC3(C=O)C(CCC4C3CCC5(C)C(CCC45O)C6=CC(=O)OC6)C2)C1O
#INCHI_AUX N/A
#Library_Class 3
#SpectrumID CCMSLIB00000079913
#IonMode Positive
#UpdateWorkflowName UPDATE-SINGLE-ANNOTATED-BRONZE
#LibraryQualityString Bronze
#TaskID b1d8e8f6646f4e71acdff9ca3d919d08
##Scan# 1800
#SpectrumFile p1-G12_GG12_01_17956.mzXML
#LibraryName NIH_Natural_Products_Library.mgf
#MQScore -1
#Organism NIH_Natural_Products_Library
#TIC_Query 0
#RT_Query -1
#MZErrorPPM -1
#SharedPeaks 0
#MassDiff 0
#LibMZ -1
#SpecMZ 549.306
#SpecCharge 0
#internalFilename spec-00000.mgf

>collision 0
105.0679 25.72
107.0839 20.64
111.0446 19.14
117.0698 26.92
119.0869 18.25
121.1029 18.84
125.0607 35.29
129.0713 27.92
131.0851 21.83
133.0992 26.92
135.0819 15.05
143.0695 18.74
143.0866 26.32
145.1008 39.28
147.1155 25.92
157.0997 28.91
159.1164 29.91
173.1323 24.93
181.1028 33.1
185.1334 32.6
187.1487 34.1
197.1322 34.3
199.1478 24.93
219.1168 20.64
223.1493 33.7
227.1084 15.45
237.1628 17.75
257.1512 18.15
265.1588 16.75
267.1749 14.86
269.1519 35.29
283.1688 22.03
307.2036 45.16
317.1894 16.45
325.1797 17.95
325.2154 56.63
335.2007 73.08
353.2102 100.0
371.2186 23.33
549.306 0.0
