>compound MLS001195659-01!sumatriptan
>formula C14H21N3O2S
>ionization [M+H]+
>parentmass 296.14272436409055
#inchi InChI=1S/C14H21N3O2S/c1-15-20(18,19)10-11-4-5-14-13(8-11)12(9-16-14)6-7-17(2)3/h4-5,8-9,15-16H,6-7,10H2,1-3H3
#inchikey KQKPFRSPSRPDEB
#Ion_Source LC-ESI
#Instrument qTof
#Compound_Source NIH Pharmacologically Active Library
#PI Dorrestein
#Data_Collector VP/LMS
#Scan -1
#Precursor_MZ 296.138
#ExactMass 295.135
#Charge 1
#CAS_Number N/A
#Pubmed_ID N/A
#Smiles CNS(=O)(=O)Cc1ccc2[nH]cc(CCN(C)C)c2c1
#INCHI_AUX N/A
#Library_Class 1
#SpectrumID CCMSLIB00000085309
#IonMode Positive
#UpdateWorkflowName UPDATE-SINGLE-ANNOTATED-GOLD
#LibraryQualityString Gold
#TaskID d252d724072548979f1f6f1ced849daf
##Scan# 1190
#SpectrumFile p3-H03_GH3_01_18308.mzXML
#LibraryName Pharm_Active_Library.mgf
#MQScore -1
#Organism Pharm_Active_Library
#TIC_Query 0
#RT_Query -1
#MZErrorPPM -1
#SharedPeaks 0
#MassDiff 0
#LibMZ -1
#SpecMZ 296.138
#SpecCharge 0
#internalFilename spec-00000.mgf

>collision 0
74.0456 0.95
103.0554 2.2
104.0925 1.13
115.0574 1.15
127.0536 0.91
130.0655 9.38
142.0664 2.41
144.0752 1.15
154.067 1.16
156.0807 64.42
157.0878 100.0
159.0988 1.92
251.0852 13.18
296.1427 0.0
