>compound Bendrofluazide
>formula C15H14F3N3O4S2 
>ionization [M+H]+
>parentmass 422.045563
#inchi InChI=1S/C15H14F3N3O4S2/c16-15(17,18)10-7-11-13(8-12(10)26(19,22)23)27(24,25)21-14(20-11)6-9-4-2-1-3-5-9/h1-5,7-8,14,20-21H,6H2,(H2,19,22,23)
#inchikey HDWIHXWEUNVBIY
#Ion_Source LC-ESI
#Instrument qTof
#Compound_Source Commercial
#PI Dorrestein
#Data_Collector Garg_Neha
#Scan -1
#Precursor_MZ 422.048
#ExactMass 421.038
#Charge 1
#CAS_Number N/A
#Pubmed_ID N/A
#Smiles N/A
#INCHI_AUX N/A
#Library_Class 1
#SpectrumID CCMSLIB00000077089
#IonMode Positive
#UpdateWorkflowName UPDATE-SINGLE-ANNOTATED-GOLD
#LibraryQualityString Gold
#TaskID 48f7f52fc6d249b5abbcc6e7b3df5969
##Scan# 1420
#SpectrumFile NCP003106_A2_B11_BB2_01_15705.mzXML
#LibraryName NIH_Clinical_Collection_2.mgf
#MQScore -1
#Organism NIHcollection2_04212014_2_mgf
#TIC_Query 0
#RT_Query -1
#MZErrorPPM -1
#SharedPeaks 0
#MassDiff 0
#LibMZ -1
#SpecMZ 422.048
#SpecCharge 0
#internalFilename spec-00000.mgf

>collision 0
91.0542 5.74
105.0335 28.0
118.0647 5.7
119.0729 42.29
120.0803 26.18
136.0754 3.68
163.0491 2.53
191.043 3.91
217.074 4.36
233.0562 2.47
235.0678 2.44
237.0816 3.75
239.0077 16.05
241.0128 2.24
242.0716 2.6
249.073 2.02
250.003 3.68
255.0028 8.17
261.0764 40.28
262.0801 6.57
270.9819 39.35
271.9824 4.52
272.9765 6.57
276.0285 3.84
277.0933 4.93
279.0327 3.3
281.9921 5.61
282.0386 2.69
282.9817 5.16
286.9764 26.34
295.0528 2.72
301.0483 3.94
302.9719 2.56
311.0222 7.24
312.026 3.4
320.9803 5.51
341.0545 24.7
342.0583 3.46
344.996 4.68
356.0196 5.48
357.049 3.68
359.0129 26.21
360.0161 7.15
361.0133 2.92
376.0156 6.79
387.0073 14.32
402.0421 2.34
405.0181 100.0
422.0453 303.01
