>compound Lafutidine
>formula C22H29N3O4S
>ionization [M+Na]+
>parentmass 454.176331
#inchi InChI=1S/C22H29N3O4S/c26-21(18-30(27)17-20-7-6-14-28-20)23-9-2-5-13-29-22-15-19(8-10-24-22)16-25-11-3-1-4-12-25/h2,5-8,10,14-15H,1,3-4,9,11-13,16-18H2,(H,23,26)/b5-2-
#inchikey KMZQAVXSMUKBPD
#Ion_Source LC-ESI
#Instrument qTof
#Compound_Source Commercial
#PI Dorrestein
#Data_Collector Garg_Neha
#Scan -1
#Precursor_MZ 454.177
#ExactMass 431.188
#Charge 1
#CAS_Number 118288-08-7
#Pubmed_ID N/A
#Smiles C1=C(N=CC=C1CN2CCCCC2)OC/C=C\CNC(CS(=O)CC3=CC=CO3)=O
#INCHI_AUX N/A
#Library_Class 1
#SpectrumID CCMSLIB00000078417
#IonMode Positive
#UpdateWorkflowName UPDATE-SINGLE-ANNOTATED-GOLD
#LibraryQualityString Gold
#TaskID 77f51c88eb8b467eb4a01dd2d0cb90d2
##Scan# 1022
#SpectrumFile Plate6_61_80_GD10_01_15777.mzXML
#LibraryName FDALibrary_2_04302014.mgf
#MQScore -1
#Organism FDALibrary_2_04302014
#TIC_Query 0
#RT_Query -1
#MZErrorPPM -1
#SharedPeaks 0
#MassDiff 0
#LibMZ -1
#SpecMZ 454.177
#SpecCharge 0
#internalFilename spec-00000.mgf

>collision 0
120.0425 1.2
131.0339 29.75
164.011 1.3
190.0137 1.45
215.1142 1.33
228.1598 1.14
233.1261 1.24
235.1117 1.27
242.1029 1.02
284.1729 8.46
290.0667 2.47
292.0761 1.11
296.1626 1.08
356.1425 2.41
357.1445 0.99
373.1426 100.0
374.1454 20.51
376.1434 1.08
454.1763 47.67
