>compound Erythromycin (E-Mycin)
>formula C37H67NO13
>ionization [M+Na]+
>parentmass 756.450745
#inchi InChI=1S/C37H67NO13/c1-14-25-37(10,45)30(41)20(4)27(39)18(2)16-35(8,44)32(51-34-28(40)24(38(11)12)15-19(3)47-34)21(5)29(22(6)33(43)49-25)50-26-17-36(9,46-13)31(42)23(7)48-26/h18-26,28-32,34,40-42,44-45H,14-17H2,1-13H3/t18-,19?,20+,21+,22-,23-,24-,25-,26-,28-,29+,30-,31-,32-,34-,35+,36-,37-/m1/s1
#inchikey ULGZDMOVFRHVEP
#Ion_Source LC-ESI
#Instrument qTof
#Compound_Source Commercial
#PI Dorrestein
#Data_Collector Garg_Neha
#Scan -1
#Precursor_MZ 756.45
#ExactMass 733.461
#Charge 1
#CAS_Number 114-07-8
#Pubmed_ID N/A
#Smiles C1[C@H](C([C@@H]([C@@H](O)[C@@]([C@H](OC([C@@H]([C@H]([C@@H]([C@@H](O[C@@H]2[C@@H]([C@@H](CC(C)O2)N(C)C)O)[C@@]1(C)O)C)O[C@@H]3C[C@]([C@@H]([C@H](O3)C)O)(OC)C)C)=O)CC)(O)C)C)=O)C
#INCHI_AUX N/A
#Library_Class 1
#SpectrumID CCMSLIB00000078218
#IonMode Positive
#UpdateWorkflowName UPDATE-SINGLE-ANNOTATED-GOLD
#LibraryQualityString Gold
#TaskID 77f51c88eb8b467eb4a01dd2d0cb90d2
##Scan# 1124
#SpectrumFile Plate3_61_88_GH1_01_16501.mzXML
#LibraryName FDALibrary_2_04302014.mgf
#MQScore -1
#Organism FDALibrary_2_04302014
#TIC_Query 0
#RT_Query -1
#MZErrorPPM -1
#SharedPeaks 0
#MassDiff 0
#LibMZ -1
#SpecMZ 756.45
#SpecCharge 0
#internalFilename spec-00000.mgf

>collision 0
291.1413 3.64
337.1846 4.43
363.2307 3.96
422.278 3.8
423.2377 8.71
441.2385 10.53
478.3 3.17
483.2565 3.17
484.2833 14.01
485.2926 4.83
485.3382 3.4
512.2732 5.62
512.2864 3.33
514.2939 3.33
518.3398 6.33
525.3206 3.17
536.3603 4.91
562.3324 7.36
563.3132 4.99
569.3665 3.48
580.3448 19.48
581.3256 3.96
581.3608 5.62
598.3564 100.0
599.3539 38.64
642.3806 6.02
712.4178 3.72
738.44 29.22
739.4474 9.9
756.4558 422.33
