>compound MLS002222322-01!110429-35-1
>formula C19H20FNO3
>ionization [M+H]+
>parentmass 330.150574
#inchi InChI=1S/C19H20FNO3/c20-15-3-1-13(2-4-15)17-7-8-21-10-14(17)11-22-16-5-6-18-19(9-16)24-12-23-18/h1-6,9,14,17,21H,7-8,10-12H2/t14-,17-/m0/s1
#inchikey AHOUBRCZNHFOSL
#origInchi InChI=1S/C19H20FNO3.ClH/c20-15-3-1-13(2-4-15)17-7-8-21-10-14(17)11-22-16-5-6-18-19(9-16)24-12-23-18;/h1-6,9,14,17,21H,7-8,10-12H2;1H/t14-,17-;/m0./s1
#Ion_Source LC-ESI
#Instrument qTof
#Compound_Source NIH Pharmacologically Active Library
#PI Dorrestein
#Data_Collector VP/LMS
#Scan -1
#Precursor_MZ 330.15
#ExactMass 329.143
#Charge 1
#CAS_Number N/A
#Pubmed_ID N/A
#Smiles Fc1ccc(cc1)[C@@H]2CCNC[C@H]2COc3ccc4OCOc4c3.Cl
#INCHI_AUX N/A
#Library_Class 1
#SpectrumID CCMSLIB00000085975
#IonMode Positive
#UpdateWorkflowName UPDATE-SINGLE-ANNOTATED-GOLD
#LibraryQualityString Gold
#TaskID d252d724072548979f1f6f1ced849daf
##Scan# 1718
#SpectrumFile p4-H10_GH10_01_18418.mzXML
#LibraryName Pharm_Active_Library.mgf
#MQScore -1
#Organism Pharm_Active_Library
#TIC_Query 0
#RT_Query -1
#MZErrorPPM -1
#SharedPeaks 0
#MassDiff 0
#LibMZ -1
#SpecMZ 330.15
#SpecCharge 0
#internalFilename spec-00000.mgf

>collision 0
91.0536 1.34
93.0694 2.19
103.0544 5.02
105.0692 0.94
107.0857 8.85
109.0448 22.83
115.0542 4.73
121.0443 1.75
123.0604 18.8
128.0622 1.19
130.0641 1.0
133.0448 6.45
134.0523 1.49
135.0603 37.34
135.1176 100.0
143.0857 1.37
146.0525 4.6
147.0605 8.75
148.0675 7.87
149.0753 4.39
150.0714 4.22
160.0671 0.93
161.076 10.45
163.0916 21.82
175.0917 1.05
178.1025 6.94
192.1192 50.53
330.151 20.36
