>compound Cefdinir
>formula C14H13N5O5S2 
>ionization [M+H]+
>parentmass 396.043
#inchi InChI=1S/C14H13N5O5S2/c1-2-5-3-25-12-8(11(21)19(12)9(5)13(22)23)17-10(20)7(18-24)6-4-26-14(15)16-6/h2,4,8,12,24H,1,3H2,(H2,15,16)(H,17,20)(H,22,23)/b18-7-/t8-,12-/m1/s1
#inchikey RTXOFQZKPXMALH
#Ion_Source LC-ESI
#Instrument qTof
#Compound_Source Isolated
#PI Sirenas
#Data_Collector Ed Esquenazi 
#Scan -1
#Precursor_MZ 396.043
#ExactMass 0.0
#Charge 1
#CAS_Number N/A
#Pubmed_ID N/A
#Smiles N/A
#INCHI_AUX N/A
#Library_Class 3
#SpectrumID CCMSLIB00000004546
#IonMode Positive
#UpdateWorkflowName UPDATE-SINGLE-ANNOTATED-BRONZE
#LibraryQualityString Bronze
#TaskID d19310cd93df49b68e9fcbec27720eb5
##Scan# 3
#SpectrumFile Cefdinir.mgf
#LibraryName fda_library.mgf
#MQScore -1
#Organism fda_library
#TIC_Query 0
#RT_Query -1
#MZErrorPPM -1
#SharedPeaks 0
#MassDiff 0
#LibMZ -1
#SpecMZ 396.043
#SpecCharge 0
#internalFilename spec-00000.mgf

>collision 0
102.0015 4.77
105.0563 1.77
106.0283 2.22
107.0601 0.77
108.0445 1.95
109.0096 1.09
111.0012 0.67
111.0263 1.14
113.0169 1.98
117.0447 1.18
120.0448 1.28
123.0144 0.95
124.0213 6.01
124.0507 13.56
125.0047 11.64
126.0126 100.0
126.9959 1.0
133.0393 0.99
135.0556 1.12
136.022 6.31
138.0373 1.25
138.9959 1.31
139.0194 0.68
152.0171 27.64
156.0231 1.46
157.984 0.97
164.0168 1.69
166.0309 13.37
167.981 0.8
180.0225 15.74
183.033 4.28
184.0001 0.77
193.0177 2.07
195.9759 1.03
198.002 1.29
209.0122 1.84
210.0222 1.32
211.028 4.5
211.9945 0.95
213.0018 6.32
225.9976 1.75
242.9984 0.95
396.0432 0.0
