>compound (8R,9S,10R,13S,14S,17R)-13-ethyl-17-ethynyl-17-hydroxy-1,2,6,7,8,9,10,11,12,14,15,16-dodecahydrocyclopenta[a]phenanthren-3-one
>formula C21H28O2
>ionization [M+H]+
>parentmass 313.217102
#inchi InChI=1S/C21H28O2/c1-3-20-11-9-17-16-8-6-15(22)13-14(16)5-7-18(17)19(20)10-12-21(20,23)4-2/h2,13,16-19,23H,3,5-12H2,1H3/t16-,17+,18+,19-,20-,21-/m0/s1
#inchikey WWYNJERNGUHSAO
#Ion_Source LC-ESI
#Instrument qTof
#Compound_Source Commercial
#PI Dorrestein
#Data_Collector Garg_Neha
#Scan -1
#Precursor_MZ 313.216
#ExactMass 312.209
#Charge 1
#CAS_Number N/A
#Pubmed_ID N/A
#Smiles CC[C@@]12CC[C@H]3[C@@H](CCC4=CC(=O)CC[C@H]34)[C@@H]2CC[C@@]1(O)C#C
#INCHI_AUX N/A
#Library_Class 1
#SpectrumID CCMSLIB00000079025
#IonMode Positive
#UpdateWorkflowName UPDATE-SINGLE-ANNOTATED-GOLD
#LibraryQualityString Gold
#TaskID 278b19f5865741e282cec7349aa7e7a1
##Scan# 1693
#SpectrumFile NCP003352_G2_H11_BC7_01_15721.mzXML
#LibraryName NIHcollectionI_05062014.mgf
#MQScore -1
#Organism NIHcollectionI_05062014
#TIC_Query 0
#RT_Query -1
#MZErrorPPM -1
#SharedPeaks 0
#MassDiff 0
#LibMZ -1
#SpecMZ 313.216
#SpecCharge 0
#internalFilename spec-00000.mgf

>collision 0
105.0696 20.07
107.0499 11.32
107.0857 11.13
109.0648 50.33
109.1013 17.68
117.0687 11.19
119.0849 18.21
121.1006 9.47
123.0799 16.42
129.0693 9.54
131.0851 48.61
133.1001 29.14
135.0801 27.95
137.0974 10.53
143.0859 12.72
145.1008 27.15
147.1164 8.08
149.0973 18.54
155.0838 10.86
157.1008 37.02
159.1181 22.65
161.095 23.71
163.1136 14.77
167.0856 10.0
169.1003 11.66
171.1158 23.77
173.0956 8.41
173.1311 17.55
175.1118 15.83
182.1104 11.32
183.1155 23.77
185.1331 25.03
187.1465 25.89
189.1263 19.07
197.1326 15.03
199.1471 24.11
209.1339 9.01
213.1271 9.54
213.1624 9.6
227.1777 11.19
235.1475 13.71
237.1628 21.06
239.1772 10.0
245.1902 100.0
253.1607 10.86
267.1747 13.77
277.196 25.63
295.206 96.16
313.2171 1846.62
