>compound MLS001201742-01!
>formula C15H12N2O2
>ionization [M+H]+
>parentmass 253.099
#inchi InChI=1S/C15H12N2O2/c16-15(19)17-12-7-3-1-5-10(12)9-14(18)11-6-2-4-8-13(11)17/h1-8H,9H2,(H2,16,19)
#inchikey CTRLABGOLIVAIY
#Ion_Source LC-ESI
#Instrument qTof
#Compound_Source NIH Pharmacologically Active Library
#PI Dorrestein
#Data_Collector VP/LMS
#Scan -1
#Precursor_MZ 253.099
#ExactMass 252.09
#Charge 1
#CAS_Number N/A
#Pubmed_ID N/A
#Smiles NC(=O)N1c2ccccc2CC(=O)c3ccccc13
#INCHI_AUX N/A
#Library_Class 1
#SpectrumID CCMSLIB00000085857
#IonMode Positive
#UpdateWorkflowName UPDATE-SINGLE-ANNOTATED-GOLD
#LibraryQualityString Gold
#TaskID d252d724072548979f1f6f1ced849daf
##Scan# 1619
#SpectrumFile p4-G04_GG4_01_18400.mzXML
#LibraryName Pharm_Active_Library.mgf
#MQScore -1
#Organism Pharm_Active_Library
#TIC_Query 0
#RT_Query -1
#MZErrorPPM -1
#SharedPeaks 0
#MassDiff 0
#LibMZ -1
#SpecMZ 253.099
#SpecCharge 0
#internalFilename spec-00000.mgf

>collision 0
104.0485 0.69
128.048 1.39
154.0658 0.78
165.0691 5.45
166.0645 2.06
167.0714 14.81
180.0806 100.0
182.0966 8.71
208.0745 17.77
210.0919 5.4
253.099 0.0
