>compound Chlorprothixene
>formula C18H18ClNS 
>ionization [M+H]+
>parentmass 316.092
#inchi InChI=1S/C18H18ClNS/c1-20(2)11-5-7-14-15-6-3-4-8-17(15)21-18-10-9-13(19)12-16(14)18/h3-4,6-10,12H,5,11H2,1-2H3/b14-7+
#inchikey WSPOMRSOLSGNFJ
#Ion_Source LC-ESI
#Instrument qTof
#Compound_Source Isolated
#PI Sirenas
#Data_Collector Ed Esquenazi 
#Scan -1
#Precursor_MZ 316.092
#ExactMass 0.0
#Charge 1
#CAS_Number N/A
#Pubmed_ID N/A
#Smiles N/A
#INCHI_AUX N/A
#Library_Class 3
#SpectrumID CCMSLIB00000006202
#IonMode Positive
#UpdateWorkflowName UPDATE-SINGLE-ANNOTATED-BRONZE
#LibraryQualityString Bronze
#TaskID d19310cd93df49b68e9fcbec27720eb5
##Scan# 3
#SpectrumFile Chlorprothixene.mgf
#LibraryName fda_library.mgf
#MQScore -1
#Organism fda_library
#TIC_Query 0
#RT_Query -1
#MZErrorPPM -1
#SharedPeaks 0
#MassDiff 0
#LibMZ -1
#SpecMZ 316.092
#SpecCharge 0
#internalFilename spec-00000.mgf

>collision 0
102.0458 0.2
128.0623 3.33
152.062 0.99
162.0231 1.76
178.0766 0.74
195.0259 1.47
196.034 3.61
202.0776 5.96
203.0853 15.31
209.042 2.32
210.0498 26.1
221.0422 89.06
231.0032 100.0
235.0576 55.08
238.0544 16.2
245.0182 6.58
255.0023 5.93
256.0099 4.98
271.0335 4.85
316.0917 0.0
