>compound Paclitaxel (Taxol)
>formula C47H51NO14
>ionization [M+Na]+
>parentmass 876.3201760120904
#inchi InChI=1S/C47H51NO14/c1-25-31(60-43(56)36(52)35(28-16-10-7-11-17-28)48-41(54)29-18-12-8-13-19-29)23-47(57)40(61-42(55)30-20-14-9-15-21-30)38-45(6,32(51)22-33-46(38,24-58-33)62-27(3)50)39(53)37(59-26(2)49)34(25)44(47,4)5/h7-21,31-33,35-38,40,51-52,57H,22-24H2,1-6H3,(H,48,54)/t31-,32+,33+,35-,36+,37+,38?,40-,45+,46-,47+/m0/s1
#inchikey RCINICONZNJXQF
#Ion_Source LC-ESI
#Instrument qTof
#Compound_Source Commercial
#PI Dorrestein
#Data_Collector Garg_Neha
#Scan -1
#Precursor_MZ 876.32
#ExactMass 853.331
#Charge 1
#CAS_Number 33069-62-4, 157069-30-2, 1203669-79-7
#Pubmed_ID N/A
#Smiles C1=CC=CC(=C1)C(=O)N[C@H]([C@H](C(O[C@H]2C[C@@]3(C(C(=C2C)[C@H](C(=O)[C@]4(C([C@]5([C@@H](C[C@H]4O)OC5)OC(C)=O)[C@@H]3OC(C6=CC=CC=C6)=O)C)OC(C)=O)(C)C)O)=O)O)C7=CC=CC=C7
#INCHI_AUX N/A
#Library_Class 1
#SpectrumID CCMSLIB00000078026
#IonMode Positive
#UpdateWorkflowName UPDATE-SINGLE-ANNOTATED-GOLD
#LibraryQualityString Gold
#TaskID 77f51c88eb8b467eb4a01dd2d0cb90d2
##Scan# 1874
#SpectrumFile Plate1_21_40_GG2_01_16489.mzXML
#LibraryName FDALibrary_2_04302014.mgf
#MQScore -1
#Organism FDALibrary_2_04302014
#TIC_Query 0
#RT_Query -1
#MZErrorPPM -1
#SharedPeaks 0
#MassDiff 0
#LibMZ -1
#SpecMZ 876.32
#SpecCharge 0
#internalFilename spec-00000.mgf

>collision 0
211.1454 3.7
221.1374 2.28
223.1087 2.73
225.1248 2.97
239.1484 2.28
247.0708 2.93
308.0877 100.0
327.1552 3.01
328.151 2.16
349.1439 4.97
350.102 2.81
366.1849 2.28
369.1694 2.4
381.1936 2.28
387.1799 2.56
409.1615 6.31
425.1947 4.11
469.1859 11.19
470.1875 3.46
471.1791 4.23
503.2014 4.6
531.1963 26.7
532.2078 8.59
533.2195 3.74
591.218 16.2
592.2244 6.47
694.2496 4.11
876.3157 135.45
