>compound RIFAPENTINE
>formula C47H64N4O12 
>ionization [M+H]+
>parentmass 877.459412
#inchi InChI=1S/C47H64N4O12/c1-24-13-12-14-25(2)46(59)49-37-32(23-48-51-20-18-50(19-21-51)31-15-10-11-16-31)41(56)34-35(42(37)57)40(55)29(6)44-36(34)45(58)47(8,63-44)61-22-17-33(60-9)26(3)43(62-30(7)52)28(5)39(54)27(4)38(24)53/h12-14,17,22-24,26-28,31,33,38-39,43,48,53-55,57H,10-11,15-16,18-21H2,1-9H3,(H,49,59)/b13-12+,22-17+,25-14-,32-23+/t24-,26+,27+,28+,33-,38-,39+,43+,47-/m0/s1
#inchikey RISDZDVHYCURHD
#Ion_Source LC-ESI
#Instrument qTof
#Compound_Source Commercial
#PI Dorrestein
#Data_Collector Garg_Neha
#Scan -1
#Precursor_MZ 877.464
#ExactMass 876.452
#Charge 1
#CAS_Number N/A
#Pubmed_ID N/A
#Smiles N/A
#INCHI_AUX N/A
#Library_Class 1
#SpectrumID CCMSLIB00000077148
#IonMode Positive
#UpdateWorkflowName UPDATE-SINGLE-ANNOTATED-GOLD
#LibraryQualityString Gold
#TaskID 48f7f52fc6d249b5abbcc6e7b3df5969
##Scan# 1990
#SpectrumFile NCP003195_E2E6F2F6G2G6H2H6_BB7_01_15711.mzXML
#LibraryName NIH_Clinical_Collection_2.mgf
#MQScore -1
#Organism NIHcollection2_04212014_2_mgf
#TIC_Query 0
#RT_Query -1
#MZErrorPPM -1
#SharedPeaks 0
#MassDiff 0
#LibMZ -1
#SpecMZ 877.464
#SpecCharge 0
#internalFilename spec-00000.mgf

>collision 0
95.0855 4.87
97.0663 1.58
107.0856 4.25
109.0639 2.63
111.0803 2.69
119.087 2.27
121.0637 1.89
121.1031 2.16
123.0812 8.98
135.0811 4.65
135.1167 2.32
137.0967 2.68
137.1324 1.51
145.1009 4.76
147.1174 3.97
151.0754 30.83
152.1306 2.29
153.0904 3.83
159.117 2.67
161.095 5.44
163.1117 15.06
165.1267 2.31
171.1169 3.76
173.0971 4.3
173.1331 2.43
175.1112 5.08
177.0919 1.93
179.1063 8.16
183.1177 1.69
185.1318 2.39
191.1066 9.23
199.148 1.56
201.1279 2.68
203.1409 1.62
209.1162 2.51
219.1391 1.51
231.1378 2.01
269.1921 1.97
315.197 2.58
451.1952 2.34
845.4333 100.0
846.4373 60.31
847.4373 15.66
877.4595 55.5
