>compound anagrelide hydrochloride
>formula C10H7Cl2N3O
>ionization [M+H]+
>parentmass 256.005676
#inchi InChI=1S/C10H7Cl2N3O/c11-6-1-2-7-5(9(6)12)3-15-4-8(16)14-10(15)13-7/h1-2H,3-4H2,(H,13,14,16)
#inchikey OTBXOEAOVRKTNQ
#Ion_Source LC-ESI
#Instrument qTof
#Compound_Source Commercial
#PI Dorrestein
#Data_Collector Garg_Neha
#Scan -1
#Precursor_MZ 256.004
#ExactMass 254.997
#Charge 1
#CAS_Number N/A
#Pubmed_ID N/A
#Smiles Clc1ccc2N=C3NC(=O)CN3Cc2c1Cl
#INCHI_AUX N/A
#Library_Class 1
#SpectrumID CCMSLIB00000079114
#IonMode Positive
#UpdateWorkflowName UPDATE-SINGLE-ANNOTATED-GOLD
#LibraryQualityString Gold
#TaskID 278b19f5865741e282cec7349aa7e7a1
##Scan# 1103
#SpectrumFile NCP003512_C2_D11_BD5_01_15729.mzXML
#LibraryName NIHcollectionI_05062014.mgf
#MQScore -1
#Organism NIHcollectionI_05062014
#TIC_Query 0
#RT_Query -1
#MZErrorPPM -1
#SharedPeaks 0
#MassDiff 0
#LibMZ -1
#SpecMZ 256.004
#SpecCharge 0
#internalFilename spec-00000.mgf

>collision 0
135.9935 0.27
137.0021 0.64
171.9725 2.74
198.9836 100.0
228.0096 39.08
256.0057 135.59
