>compound MLS001075542-01!
>formula C20H22N2O3
>ionization [M+H]+
>parentmass 339.171265
#inchi InChI=1S/C20H22N2O3/c1-25-17-7-5-14(6-8-17)10-20(24)21-11-15-9-16(13-21)18-3-2-4-19(23)22(18)12-15/h2-8,15-16H,9-13H2,1H3/t15-,16+/m1/s1
#inchikey OIENWKZQEIDMSJ
#Ion_Source LC-ESI
#Instrument qTof
#Compound_Source NIH Natural Product Library
#PI Dorrestein
#Data_Collector VVP/LMS
#Scan -1
#Precursor_MZ 339.171
#ExactMass 338.163
#Charge 1
#CAS_Number N/A
#Pubmed_ID N/A
#Smiles COc1ccc(CC(=O)N2C[C@H]3C[C@@H](C2)c4cccc(=O)n4C3)cc1
#INCHI_AUX N/A
#Library_Class 1
#SpectrumID CCMSLIB00000080500
#IonMode Positive
#UpdateWorkflowName UPDATE-SINGLE-ANNOTATED-GOLD
#LibraryQualityString Gold
#TaskID b1d8e8f6646f4e71acdff9ca3d919d08
##Scan# 1562
#SpectrumFile p2-H09_GH9_01_18069.mzXML
#LibraryName NIH_Natural_Products_Library.mgf
#MQScore -1
#Organism NIH_Natural_Products_Library
#TIC_Query 0
#RT_Query -1
#MZErrorPPM -1
#SharedPeaks 0
#MassDiff 0
#LibMZ -1
#SpecMZ 339.171
#SpecCharge 0
#internalFilename spec-00000.mgf

>collision 0
103.0557 0.37
105.0697 0.44
106.0418 0.86
106.0648 0.53
117.0576 1.33
118.0644 0.61
120.0809 2.07
121.0659 100.0
130.0666 1.23
132.0455 0.44
132.0797 0.8
133.0521 1.69
134.059 1.14
142.0657 0.73
144.0808 0.6
146.0608 2.52
147.0689 1.1
148.0764 77.46
159.0667 0.45
160.0754 6.36
162.0907 3.14
173.1073 0.34
174.0903 1.44
191.1189 96.74
321.1596 0.32
339.1707 27.55
