>compound MLS001075865-01!N-[2-[7-methoxy-6-[(Z)-(2,4,6-trioxo-1-prop-2-enyl-1,3-diazinan-5-ylidene)methyl]-1,3-benzodioxol-5-yl]ethyl]-N-methylbenzamide
>formula C26H25N3O7
>ionization [M+H]+
>parentmass 492.177
#inchi InChI=1S/C26H25N3O7/c1-4-11-29-25(32)19(23(30)27-26(29)33)14-18-17(13-20-22(21(18)34-3)36-15-35-20)10-12-28(2)24(31)16-8-6-5-7-9-16/h4-9,13-14H,1,10-12,15H2,2-3H3,(H,27,30,33)/b19-14-
#inchikey OPWCHZIQXUKNMP
#Ion_Source LC-ESI
#Instrument qTof
#Compound_Source NIH Natural Product Library
#PI Dorrestein
#Data_Collector VVP/LMS
#Scan -1
#Precursor_MZ 492.177
#ExactMass 491.169
#Charge 1
#CAS_Number N/A
#Pubmed_ID N/A
#Smiles COc1c2OCOc2cc(CCN(C)C(=O)c3ccccc3)c1/C=C\4/C(=O)NC(=O)N(CC=C)C4=O
#INCHI_AUX N/A
#Library_Class 1
#SpectrumID CCMSLIB00000079353
#IonMode Positive
#UpdateWorkflowName UPDATE-SINGLE-ANNOTATED-GOLD
#LibraryQualityString Gold
#TaskID b1d8e8f6646f4e71acdff9ca3d919d08
##Scan# 2096
#SpectrumFile p1-A05_GA5_01_17878.mzXML
#LibraryName NIH_Natural_Products_Library.mgf
#MQScore -1
#Organism NIH_Natural_Products_Library
#TIC_Query 0
#RT_Query -1
#MZErrorPPM -1
#SharedPeaks 0
#MassDiff 0
#LibMZ -1
#SpecMZ 492.177
#SpecCharge 0
#internalFilename spec-00000.mgf

>collision 0
103.0549 1.09
105.034 100.0
110.024 1.19
159.0443 1.33
162.0911 1.64
189.0539 14.61
203.0715 3.45
213.0541 2.15
217.0488 1.06
218.0821 1.71
228.0645 1.17
229.0496 6.17
231.0648 10.34
247.0615 3.92
274.0719 1.21
314.1034 1.32
357.1075 6.12
492.177 0.0
