>compound MLS001076861-01!
>formula C21H20BrN3O2S
>ionization [M+H]+
>parentmass 458.05323643209056
#inchi InChI=1S/C21H20BrN3O2S/c22-17-7-4-14(5-8-17)6-9-19(26)23-21(28)24-11-15-10-16(13-24)18-2-1-3-20(27)25(18)12-15/h1-9,15-16H,10-13H2,(H,23,26,28)/b9-6+/t15-,16-/m1/s1
#inchikey SDFDJNSQTCCFRD
#Ion_Source LC-ESI
#Instrument qTof
#Compound_Source NIH Natural Product Library
#PI Dorrestein
#Data_Collector VVP/LMS
#Scan -1
#Precursor_MZ 480.035
#ExactMass 457.046
#Charge 1
#CAS_Number N/A
#Pubmed_ID N/A
#Smiles Brc1ccc(/C=C/C(=O)NC(=S)N2C[C@H]3C[C@H](C2)c4cccc(=O)n4C3)cc1
#INCHI_AUX N/A
#Library_Class 1
#SpectrumID CCMSLIB00000079972
#IonMode Positive
#UpdateWorkflowName UPDATE-SINGLE-ANNOTATED-GOLD
#LibraryQualityString Gold
#TaskID b1d8e8f6646f4e71acdff9ca3d919d08
##Scan# 1990
#SpectrumFile p2-E02_GE2_01_18026.mzXML
#LibraryName NIH_Natural_Products_Library.mgf
#MQScore -1
#Organism NIH_Natural_Products_Library
#TIC_Query 0
#RT_Query -1
#MZErrorPPM -1
#SharedPeaks 0
#MassDiff 0
#LibMZ -1
#SpecMZ 480.035
#SpecCharge 0
#internalFilename spec-00000.mgf

>collision 0
175.037 4.19
182.9558 9.03
189.1069 7.71
208.9581 9.69
213.1002 92.51
214.1036 18.28
220.0162 10.13
225.0605 4.63
228.0773 5.51
235.0827 9.03
238.0091 9.03
238.0958 100.0
239.0968 11.45
240.1047 5.29
272.0862 4.85
279.1738 11.67
298.0623 7.27
312.1271 7.49
313.0666 3.3
322.061 11.23
458.0532 0.0
