>compound Fexofenadine HCl
>formula C32H39NO4
>ionization [M+H]+
>parentmass 502.2951851800906
#inchi InChI=1S/C32H39NO4/c1-31(2,30(35)36)25-17-15-24(16-18-25)29(34)14-9-21-33-22-19-28(20-23-33)32(37,26-10-5-3-6-11-26)27-12-7-4-8-13-27/h3-8,10-13,15-18,28-29,34,37H,9,14,19-23H2,1-2H3,(H,35,36)
#inchikey RWTNPBWLLIMQHL
#origInchi InChI=1S/C32H39NO4.ClH/c1-31(2,30(35)36)25-17-15-24(16-18-25)29(34)14-9-21-33-22-19-28(20-23-33)32(37,26-10-5-3-6-11-26)27-12-7-4-8-13-27;/h3-8,10-13,15-18,28-29,34,37H,9,14,19-23H2,1-2H3,(H,35,36);1H
#Ion_Source LC-ESI
#Instrument qTof
#Compound_Source Commercial
#PI Dorrestein
#Data_Collector Garg_Neha
#Scan -1
#Precursor_MZ 502.295
#ExactMass 501.288
#Charge 1
#CAS_Number 153439-40-8, 83799-24-0 (HCl)
#Pubmed_ID N/A
#Smiles C1(CCN(CC1)CCCC(C2=CC=C(C=C2)C(C(O)=O)(C)C)O)C(C3=CC=CC=C3)(C4=CC=CC=C4)O.Cl
#INCHI_AUX N/A
#Library_Class 1
#SpectrumID CCMSLIB00000078609
#IonMode Positive
#UpdateWorkflowName UPDATE-SINGLE-ANNOTATED-GOLD
#LibraryQualityString Gold
#TaskID 77f51c88eb8b467eb4a01dd2d0cb90d2
##Scan# 1185
#SpectrumFile Plate9_61_80_GC7_01_15756.mzXML
#LibraryName FDALibrary_2_04302014.mgf
#MQScore -1
#Organism FDALibrary_2_04302014
#TIC_Query 0
#RT_Query -1
#MZErrorPPM -1
#SharedPeaks 0
#MassDiff 0
#LibMZ -1
#SpecMZ 502.295
#SpecCharge 0
#internalFilename spec-00000.mgf

>collision 0
91.0538 0.69
115.0545 0.7
117.0701 0.61
128.0618 1.15
129.0695 4.12
131.0857 13.02
141.0712 0.97
143.0856 4.11
145.1018 1.08
155.0842 0.56
157.1023 0.59
167.0852 0.92
169.1007 0.83
171.1176 74.45
181.101 0.86
189.1268 2.67
199.1107 0.78
200.1436 0.51
217.1221 1.24
219.1166 1.06
246.1491 2.66
250.1584 4.83
252.1735 0.79
262.1593 14.99
272.1649 1.2
280.1676 1.79
298.18 4.86
466.2761 100.0
467.2784 47.34
484.2856 40.34
485.2886 13.9
502.2979 107.43
