>compound MLS000766244-01!
>formula C19H14O7
>ionization [M+H]+
>parentmass 355.081635
#inchi InChI=1S/C19H14O7/c1-22-10-4-3-9(20)14-16(21)15-11(23-2)7-12-13(18(15)26-17(10)14)8-5-6-24-19(8)25-12/h3-8,19-20H,1-2H3
#inchikey VVRUNWFPOWIBDY
#Ion_Source LC-ESI
#Instrument qTof
#Compound_Source NIH Natural Product Library
#PI Dorrestein
#Data_Collector VVP/LMS
#Scan -1
#Precursor_MZ 355.082
#ExactMass 354.074
#Charge 1
#CAS_Number N/A
#Pubmed_ID N/A
#Smiles COc1ccc(O)c2c(=O)c3c(OC)cc4OC5OC=CC5c4c3oc12
#INCHI_AUX N/A
#Library_Class 1
#SpectrumID CCMSLIB00000080000
#IonMode Positive
#UpdateWorkflowName UPDATE-SINGLE-ANNOTATED-GOLD
#LibraryQualityString Gold
#TaskID b1d8e8f6646f4e71acdff9ca3d919d08
##Scan# 2213
#SpectrumFile p2-G02_GG2_01_18050.mzXML
#LibraryName NIH_Natural_Products_Library.mgf
#MQScore -1
#Organism NIH_Natural_Products_Library
#TIC_Query 0
#RT_Query -1
#MZErrorPPM -1
#SharedPeaks 0
#MassDiff 0
#LibMZ -1
#SpecMZ 355.082
#SpecCharge 0
#internalFilename spec-00000.mgf

>collision 0
185.0585 0.56
195.0433 0.5
213.0538 1.72
240.0426 1.06
241.0486 1.96
265.0493 0.47
268.0368 4.41
269.0452 16.23
271.0237 0.48
283.059 1.06
296.0331 20.8
297.0416 100.0
307.0222 0.43
311.0564 8.32
312.0627 5.19
325.0363 67.92
327.0851 3.36
339.0511 1.23
340.0595 17.16
355.0816 16.77
