>compound Ampiroxicam
>formula C20H21N3O7S
>ionization [M+Na]+
>parentmass 470.100677
#inchi InChI=1S/C20H21N3O7S/c1-4-28-20(25)30-13(2)29-18-14-9-5-6-10-15(14)31(26,27)23(3)17(18)19(24)22-16-11-7-8-12-21-16/h5-13H,4H2,1-3H3,(H,21,22,24)
#inchikey LSNWBKACGXCGAJ
#Ion_Source LC-ESI
#Instrument qTof
#Compound_Source Commercial
#PI Dorrestein
#Data_Collector Garg_Neha
#Scan -1
#Precursor_MZ 470.099
#ExactMass 447.11
#Charge 1
#CAS_Number 99464-64-9
#Pubmed_ID N/A
#Smiles C1(C2=C(S(N(C=1C(NC3C=CC=CN=3)=O)C)(=O)=O)C=CC=C2)OC(OC(OCC)=O)C
#INCHI_AUX N/A
#Library_Class 1
#SpectrumID CCMSLIB00000078621
#IonMode Positive
#UpdateWorkflowName UPDATE-SINGLE-ANNOTATED-GOLD
#LibraryQualityString Gold
#TaskID 77f51c88eb8b467eb4a01dd2d0cb90d2
##Scan# 1616
#SpectrumFile Plate10_1_20_GC1_01_15743.mzXML
#LibraryName FDALibrary_2_04302014.mgf
#MQScore -1
#Organism FDALibrary_2_04302014
#TIC_Query 0
#RT_Query -1
#MZErrorPPM -1
#SharedPeaks 0
#MassDiff 0
#LibMZ -1
#SpecMZ 470.099
#SpecCharge 0
#internalFilename spec-00000.mgf

>collision 0
92.0475 0.96
134.0683 0.99
143.0577 3.12
146.0688 3.01
152.9981 1.87
189.0575 1.01
190.989 1.3
191.0497 1.06
210.022 2.62
211.0261 1.58
233.0913 1.56
236.0467 1.51
252.0623 1.48
259.9989 1.97
267.025 1.01
272.0815 2.28
296.0508 2.62
297.0571 1.12
314.0599 2.67
336.0415 19.91
337.0409 3.84
338.0359 2.13
340.0723 1.06
354.0494 3.04
358.0859 6.15
380.0692 100.0
381.0716 21.0
382.0644 7.17
383.0756 3.01
470.1015 53.84
