>compound MLS001401418-01!BENIDIPINE HCl
>formula C28H31N3O6
>ionization [M+H]+
>parentmass 506.227448
#inchi InChI=1S/C28H31N3O6/c1-18-24(27(32)36-3)26(21-11-7-12-22(15-21)31(34)35)25(19(2)29-18)28(33)37-23-13-8-14-30(17-23)16-20-9-5-4-6-10-20/h4-7,9-12,15,23,26,32H,8,13-14,16-17H2,1-3H3/b27-24+/t23-,26-/m1/s1
#inchikey IEQUDZMRAGKBCG
#origInchi InChI=1S/C28H31N3O6.ClH/c1-18-24(27(32)36-3)26(21-11-7-12-22(15-21)31(34)35)25(19(2)29-18)28(33)37-23-13-8-14-30(17-23)16-20-9-5-4-6-10-20;/h4-7,9-12,15,23,26,32H,8,13-14,16-17H2,1-3H3;1H/b27-24+;/t23-,26-;/m1./s1
#Ion_Source LC-ESI
#Instrument qTof
#Compound_Source NIH Pharmacologically Active Library
#PI Dorrestein
#Data_Collector VP/LMS
#Scan -1
#Precursor_MZ 506.221
#ExactMass 505.221
#Charge 1
#CAS_Number N/A
#Pubmed_ID N/A
#Smiles CO/C(=C\1/[C@H](C(=C(C)N=C1C)C(=O)O[C@@H]2CCCN(Cc3ccccc3)C2)c4cccc(c4)[N+](=O)[O-])/O.Cl
#INCHI_AUX N/A
#Library_Class 1
#SpectrumID CCMSLIB00000085341
#IonMode Positive
#UpdateWorkflowName UPDATE-SINGLE-ANNOTATED-GOLD
#LibraryQualityString Gold
#TaskID d252d724072548979f1f6f1ced849daf
##Scan# 1872
#SpectrumFile p3-H07_GH7_01_18312.mzXML
#LibraryName Pharm_Active_Library.mgf
#MQScore -1
#Organism Pharm_Active_Library
#TIC_Query 0
#RT_Query -1
#MZErrorPPM -1
#SharedPeaks 0
#MassDiff 0
#LibMZ -1
#SpecMZ 506.221
#SpecCharge 0
#internalFilename spec-00000.mgf

>collision 0
91.0542 20.1
100.0761 0.61
131.0851 0.94
168.078 1.03
174.1284 82.24
192.1382 12.24
197.0797 0.62
198.0921 0.63
200.0343 0.61
208.0741 1.22
209.0824 2.0
210.0908 6.65
211.0979 2.84
212.0672 0.71
225.0764 0.9
226.0874 14.99
229.11 1.18
236.0708 1.92
237.0767 1.15
238.0734 1.02
239.0797 1.26
240.0994 1.67
241.0722 1.14
241.1091 0.88
242.0805 0.83
243.0899 1.63
253.0712 0.84
254.0809 8.32
255.0775 2.86
256.0951 1.45
267.0899 2.72
268.0959 13.08
269.1043 21.75
283.0712 7.12
285.0626 1.27
285.0978 0.63
297.0877 0.7
298.0949 8.35
301.0943 13.26
315.0989 100.0
317.1007 2.54
331.0897 1.15
506.2285 1.23
