>compound Argatroban
>formula C23H36N6O5S
>ionization [M+H]+
>parentmass 509.255707
#inchi InChI=1S/C23H36N6O5S/c1-14-8-10-29(18(12-14)22(31)32)21(30)17(6-4-9-26-23(24)25)28-35(33,34)19-7-3-5-16-11-15(2)13-27-20(16)19/h3,5,7,14-15,17-18,27-28H,4,6,8-13H2,1-2H3,(H,31,32)(H4,24,25,26)/t14-,15?,17+,18+/m1/s1
#inchikey KXNPVXPOPUZYGB
#Ion_Source LC-ESI
#Instrument qTof
#Compound_Source Commercial
#PI Dorrestein
#Data_Collector Garg_Neha
#Scan -1
#Precursor_MZ 509.254
#ExactMass 508.247
#Charge 1
#CAS_Number 74863-84-6
#Pubmed_ID N/A
#Smiles NC(NCCC[C@@](C(N1CC[C@H](C[C@H]1C(=O)O)C)=O)(NS(C2=CC=CC3=C2NCC(C3)C)(=O)=O)[H])=N
#INCHI_AUX N/A
#Library_Class 1
#SpectrumID CCMSLIB00000078418
#IonMode Positive
#UpdateWorkflowName UPDATE-SINGLE-ANNOTATED-GOLD
#LibraryQualityString Gold
#TaskID 77f51c88eb8b467eb4a01dd2d0cb90d2
##Scan# 1185
#SpectrumFile Plate6_61_80_GD10_01_15777.mzXML
#LibraryName FDALibrary_2_04302014.mgf
#MQScore -1
#Organism FDALibrary_2_04302014
#TIC_Query 0
#RT_Query -1
#MZErrorPPM -1
#SharedPeaks 0
#MassDiff 0
#LibMZ -1
#SpecMZ 509.254
#SpecCharge 0
#internalFilename spec-00000.mgf

>collision 0
98.0956 0.5
112.0874 6.15
115.0864 0.52
126.0898 0.63
127.0975 0.39
129.1141 2.71
130.098 0.67
144.1035 0.42
146.0959 5.15
147.102 1.5
148.1129 1.06
149.0376 0.5
149.082 0.52
150.0909 0.7
155.0942 0.5
157.1084 2.8
158.0925 2.45
161.0835 1.92
162.0917 5.04
163.0949 0.93
174.1125 0.82
175.1197 2.33
179.154 1.25
193.133 0.83
195.1462 0.49
209.0703 15.4
211.0628 1.61
212.0525 0.56
220.0398 0.98
221.1745 0.84
228.0678 1.14
237.065 19.74
237.1674 0.93
238.1998 0.51
239.0631 0.93
239.1376 0.81
240.1463 1.29
254.1955 0.99
255.0733 0.67
282.1907 1.45
283.1781 1.08
304.1118 2.51
305.1152 0.4
325.1254 0.55
362.1493 0.84
366.1591 0.65
367.1409 1.43
368.1423 0.53
384.17 100.0
385.1723 16.89
387.17 0.53
509.2552 169.95
