>compound Methyclothiazide
>formula C9H11Cl2N3O4S2
>ionization [M+H]+
>parentmass 359.96225
#inchi InChI=1S/C9H11Cl2N3O4S2/c1-14-9(4-10)13-6-2-5(11)7(19(12,15)16)3-8(6)20(14,17)18/h2-3,9,13H,4H2,1H3,(H2,12,15,16)
#inchikey CESYKOGBSMNBPD
#Ion_Source LC-ESI
#Instrument qTof
#Compound_Source Commercial
#PI Dorrestein
#Data_Collector Garg_Neha
#Scan -1
#Precursor_MZ 359.964
#ExactMass 358.957
#Charge 1
#CAS_Number 135-07-9
#Pubmed_ID N/A
#Smiles C1(=C(C=C2C(=C1)S(N(C(N2)CCl)C)(=O)=O)Cl)S(=O)(=O)N
#INCHI_AUX N/A
#Library_Class 1
#SpectrumID CCMSLIB00000078644
#IonMode Positive
#UpdateWorkflowName UPDATE-SINGLE-ANNOTATED-GOLD
#LibraryQualityString Gold
#TaskID 77f51c88eb8b467eb4a01dd2d0cb90d2
##Scan# 1161
#SpectrumFile Plate10_21_40_GC2_01_15744.mzXML
#LibraryName FDALibrary_2_04302014.mgf
#MQScore -1
#Organism FDALibrary_2_04302014
#TIC_Query 0
#RT_Query -1
#MZErrorPPM -1
#SharedPeaks 0
#MassDiff 0
#LibMZ -1
#SpecMZ 359.964
#SpecCharge 0
#internalFilename spec-00000.mgf

>collision 0
120.9924 6.43
142.0055 9.0
149.9971 8.76
155.9823 11.21
157.0153 17.99
157.9998 13.67
159.011 7.71
159.9646 6.07
171.9718 8.64
184.9742 18.34
185.9765 8.18
186.9736 12.97
187.9532 6.19
189.9566 10.16
201.9881 9.11
204.9831 60.51
205.9506 6.07
206.9809 11.68
213.97 13.08
216.9586 17.99
220.9786 46.03
222.9761 27.57
229.9884 16.71
232.9788 6.31
234.979 7.59
236.9234 5.96
236.9571 9.0
245.9899 11.92
253.9489 6.89
254.9465 11.45
268.9441 93.69
270.9393 22.9
280.9542 6.89
286.9556 100.0
288.9508 46.5
311.8973 9.46
328.9221 31.78
343.9446 6.07
359.964 71.26
