>compound MLS001148580-01!6ALPHA,9ALPHA-DIFLUOROPREDNISOLONE 21-ACETATE 17-BUTYRATE
>formula C27H34F2O7
>ionization [M+H]+
>parentmass 509.2345363200905
#inchi InChI=1S/C27H34F2O7/c1-5-6-23(34)36-26(22(33)14-35-15(2)30)10-8-17-18-12-20(28)19-11-16(31)7-9-24(19,3)27(18,29)21(32)13-25(17,26)4/h7,9,11,17-18,20-21,32H,5-6,8,10,12-14H2,1-4H3/t17-,18-,20-,21-,24-,25-,26-,27-/m0/s1
#inchikey WYQPLTPSGFELIB
#Ion_Source LC-ESI
#Instrument qTof
#Compound_Source NIH Pharmacologically Active Library
#PI Dorrestein
#Data_Collector VP/LMS
#Scan -1
#Precursor_MZ 509.237
#ExactMass 508.227
#Charge 1
#CAS_Number N/A
#Pubmed_ID N/A
#Smiles CCCC(=O)O[C@@]1(CC[C@H]2[C@@H]3C[C@H](F)C4=CC(=O)C=C[C@]4(C)[C@@]3(F)[C@@H](O)C[C@@]21C)C(=O)COC(=O)C
#INCHI_AUX N/A
#Library_Class 1
#SpectrumID CCMSLIB00000084958
#IonMode Positive
#UpdateWorkflowName UPDATE-SINGLE-ANNOTATED-GOLD
#LibraryQualityString Gold
#TaskID d252d724072548979f1f6f1ced849daf
##Scan# 2334
#SpectrumFile p3-D02_GD2_01_18259.mzXML
#LibraryName Pharm_Active_Library.mgf
#MQScore -1
#Organism Pharm_Active_Library
#TIC_Query 0
#RT_Query -1
#MZErrorPPM -1
#SharedPeaks 0
#MassDiff 0
#LibMZ -1
#SpecMZ 509.237
#SpecCharge 0
#internalFilename spec-00000.mgf

>collision 0
105.0699 16.17
117.0695 16.05
119.0872 14.95
121.0655 78.93
143.0856 12.51
145.065 33.22
147.0808 35.93
159.0803 29.48
169.0642 15.13
171.0795 32.04
179.0855 17.06
185.0607 12.75
189.0712 21.9
195.0794 13.94
197.0968 12.69
207.0819 12.99
209.0962 18.69
221.0968 26.57
223.1117 15.1
229.1008 16.2
231.0796 14.18
231.1169 13.82
233.096 18.78
233.1312 18.57
235.1128 26.36
237.0914 20.8
243.1182 19.08
245.0964 33.73
246.1037 50.49
247.1499 14.23
249.1252 24.81
251.1426 21.31
257.1312 13.79
259.1105 15.45
260.1193 47.96
261.1273 100.0
263.1067 18.9
263.1427 43.8
264.1134 20.03
275.1427 63.0
279.138 53.22
285.1271 27.37
288.1165 17.98
293.1524 24.4
303.1384 33.31
321.149 21.34
509.2364 0.0
