>compound Levosimendan
>formula C14H12N6O
>ionization [M+H]+
>parentmass 281.114105
#inchi InChI=1S/C14H12N6O/c1-9-6-13(21)19-20-14(9)10-2-4-11(5-3-10)17-18-12(7-15)8-16/h2-5,9,17H,6H2,1H3,(H,19,21)/t9-/m1/s1
#inchikey WHXMKTBCFHIYNQ
#Ion_Source LC-ESI
#Instrument qTof
#Compound_Source Commercial
#PI Dorrestein
#Data_Collector Garg_Neha
#Scan -1
#Precursor_MZ 281.115
#ExactMass 280.107
#Charge 1
#CAS_Number 141505-33-1
#Pubmed_ID N/A
#Smiles C(C(C#N)=NNC1C=CC(=CC=1)C2[C@@H](CC(NN=2)=O)C)#N
#INCHI_AUX N/A
#Library_Class 1
#SpectrumID CCMSLIB00000078469
#IonMode Positive
#UpdateWorkflowName UPDATE-SINGLE-ANNOTATED-GOLD
#LibraryQualityString Gold
#TaskID 77f51c88eb8b467eb4a01dd2d0cb90d2
##Scan# 1214
#SpectrumFile Plate7_41_60_GD4_01_15769.mzXML
#LibraryName FDALibrary_2_04302014.mgf
#MQScore -1
#Organism FDALibrary_2_04302014
#TIC_Query 0
#RT_Query -1
#MZErrorPPM -1
#SharedPeaks 0
#MassDiff 0
#LibMZ -1
#SpecMZ 281.115
#SpecCharge 0
#internalFilename spec-00000.mgf

>collision 0
107.06 2.92
111.0547 6.3
117.0558 4.75
118.0659 5.65
122.0854 3.74
130.0654 4.07
132.0694 5.29
133.0769 4.75
143.0718 4.82
144.0802 4.64
145.0761 12.28
146.0839 7.06
156.0676 3.82
157.0757 4.97
159.0905 5.44
160.0879 19.22
161.1064 19.4
169.0508 4.36
171.0695 4.18
174.1012 14.61
175.1094 19.01
176.0932 6.91
187.085 5.18
188.0812 20.73
195.0653 4.36
202.099 5.65
203.105 100.0
209.0819 7.52
221.0836 2.92
229.1083 15.87
236.0931 14.51
237.0902 4.14
253.1187 52.81
265.0835 14.4
281.1146 563.43
