>compound MLS002153830-01!
>formula C17H19NO3
>ionization [M+H]+
>parentmass 286.142944
#inchi InChI=1S/C17H19NO3/c19-17(18-10-4-1-5-11-18)7-3-2-6-14-8-9-15-16(12-14)21-13-20-15/h2-3,6-9,12H,1,4-5,10-11,13H2/b6-2+,7-3+
#inchikey MXXWOMGUGJBKIW
#Ion_Source LC-ESI
#Instrument qTof
#Compound_Source NIH Natural Product Library
#PI Dorrestein
#Data_Collector VVP/LMS
#Scan -1
#Precursor_MZ 286.144
#ExactMass 285.137
#Charge 1
#CAS_Number N/A
#Pubmed_ID N/A
#Smiles O=C(/C=C/C=C/c1ccc2OCOc2c1)N3CCCCC3
#INCHI_AUX N/A
#Library_Class 1
#SpectrumID CCMSLIB00000079567
#IonMode Positive
#UpdateWorkflowName UPDATE-SINGLE-ANNOTATED-GOLD
#LibraryQualityString Gold
#TaskID b1d8e8f6646f4e71acdff9ca3d919d08
##Scan# 2269
#SpectrumFile p1-C08_GC8_01_17904.mzXML
#LibraryName NIH_Natural_Products_Library.mgf
#MQScore -1
#Organism NIH_Natural_Products_Library
#TIC_Query 0
#RT_Query -1
#MZErrorPPM -1
#SharedPeaks 0
#MassDiff 0
#LibMZ -1
#SpecMZ 286.144
#SpecCharge 0
#internalFilename spec-00000.mgf

>collision 0
103.0552 1.49
105.0336 2.39
115.0553 100.0
117.0696 3.04
122.0957 1.7
127.0534 2.24
128.0618 0.85
131.0503 0.82
135.0444 46.6
143.0496 52.67
145.0648 1.78
150.091 2.22
159.0439 13.08
171.0437 33.65
173.0591 12.65
187.0757 0.54
201.0544 99.92
258.1489 0.87
286.1416 3.57
