>compound MLS001055309-01!Viramune
>formula C15H14N4O
>ionization [M+H]+
>parentmass 267.123627
#inchi InChI=1S/C15H14N4O/c1-9-6-8-17-14-12(9)18-15(20)11-3-2-7-16-13(11)19(14)10-4-5-10/h2-3,6-8,10H,4-5H2,1H3,(H,18,20)
#inchikey NQDJXKOVJZTUJA
#Ion_Source LC-ESI
#Instrument qTof
#Compound_Source NIH Pharmacologically Active Library
#PI Dorrestein
#Data_Collector VP/LMS
#Scan -1
#Precursor_MZ 267.127
#ExactMass 266.117
#Charge 1
#CAS_Number N/A
#Pubmed_ID N/A
#Smiles Cc1ccnc2N(C3CC3)c4ncccc4C(=O)Nc12
#INCHI_AUX N/A
#Library_Class 1
#SpectrumID CCMSLIB00000085740
#IonMode Positive
#UpdateWorkflowName UPDATE-SINGLE-ANNOTATED-GOLD
#LibraryQualityString Gold
#TaskID d252d724072548979f1f6f1ced849daf
##Scan# 1464
#SpectrumFile p4-E10_GE10_01_18382.mzXML
#LibraryName Pharm_Active_Library.mgf
#MQScore -1
#Organism Pharm_Active_Library
#TIC_Query 0
#RT_Query -1
#MZErrorPPM -1
#SharedPeaks 0
#MassDiff 0
#LibMZ -1
#SpecMZ 267.127
#SpecCharge 0
#internalFilename spec-00000.mgf

>collision 0
105.0447 3.81
107.0604 9.53
117.0461 1.55
131.0603 5.5
133.0744 1.57
143.0605 2.98
144.0678 3.53
145.0751 2.8
146.0719 1.6
155.0599 3.64
158.0706 4.19
159.0554 2.6
161.0711 6.43
170.0713 6.08
171.0788 6.53
172.0859 2.96
182.0707 13.1
184.0865 24.06
197.0824 32.47
198.0897 42.97
200.0816 1.85
210.0655 9.34
223.0972 6.83
225.077 19.92
226.085 100.0
227.0922 69.46
249.1125 3.72
251.0928 16.55
267.124 55.44
