>compound Napsamycin A
>formula C39H48N8O12S 
>ionization [M+H]+
>parentmass 853.3185164280904
#inchi InChI=1S/C39H48N8O12S/c1-20(45(2)33(52)28-16-23-15-25(49)8-7-22(23)18-41-28)32(40)35(54)47(19-26-17-30(50)36(59-26)46-11-9-31(51)44-39(46)58)34(53)27(10-12-60-3)42-38(57)43-29(37(55)56)14-21-5-4-6-24(48)13-21/h4-9,11,13,15,19-20,27-30,32,36,41,48-50H,10,12,14,16-18,40H2,1-3H3,(H,55,56)(H2,42,43,57)(H,44,51,58)/b26-19+/t20?,27-,28?,29?,30?,32?,36?/m0/s1
#inchikey AUSWKQLLJQGJQP
#Ion_Source LC-ESI
#Instrument LTQ-FTICR
#Compound_Source Isolated
#PI Dorrestein
#Data_Collector Peng
#Scan -1
#Precursor_MZ 853.0
#ExactMass 852.311
#Charge 1
#CAS_Number N/A
#Pubmed_ID ChemSpider ID:?2301469
#Smiles N/A
#INCHI_AUX N/A
#Library_Class 2
#SpectrumID CCMSLIB00000075013
#IonMode Positive
#UpdateWorkflowName UPDATE-SINGLE-ANNOTATED-SILVER
#LibraryQualityString Silver
#TaskID 57d156df513b468a82f4fc631178998b
##Scan# 1
#SpectrumFile 1057_853.mzXML
#LibraryName gnps_library.mgf
#MQScore -1
#Organism compounds from Streptomyces roseosporus
#TIC_Query 0
#RT_Query -1
#MZErrorPPM -1
#SharedPeaks 0
#MassDiff 0
#LibMZ -1
#SpecMZ 853
#SpecCharge 0
#internalFilename spec-00000.mgf

>collision 0
396.2047 1.1
420.1192 1.63
421.0557 1.6
422.1622 1.81
453.1651 1.09
471.2299 0.72
497.087 5.62
515.1535 1.15
517.1154 0.75
545.26 1.91
546.2601 1.17
558.1996 1.3
560.1949 1.03
595.2975 0.79
601.2759 6.54
602.3231 5.36
603.2169 0.79
614.0995 0.86
626.2099 3.3
628.1387 3.73
646.2111 22.55
654.1623 5.02
660.1845 0.93
670.1123 1.6
672.1355 100.0
675.1926 1.83
676.1373 2.49
678.2494 11.47
690.2621 1.5
711.2004 1.51
721.2429 1.47
731.295 0.76
732.2167 0.97
739.1542 7.79
763.3158 1.04
771.1881 1.34
788.2182 5.12
789.2237 12.75
792.29 0.76
836.2791 1.1
853.319 0.0
