>compound MLS001077277-01!
>formula C21H21N
>ionization [M+H]+
>parentmass 288.173462
#inchi InChI=1S/C21H21N/c1-22-14-12-18(13-15-22)21-19-8-4-2-6-16(19)10-11-17-7-3-5-9-20(17)21/h2-11H,12-15H2,1H3
#inchikey JJCFRYNCJDLXIK
#origInchi InChI=1S/C21H21N.ClH/c1-22-14-12-18(13-15-22)21-19-8-4-2-6-16(19)10-11-17-7-3-5-9-20(17)21;/h2-11H,12-15H2,1H3;1H
#Ion_Source LC-ESI
#Instrument qTof
#Compound_Source NIH Pharmacologically Active Library
#PI Dorrestein
#Data_Collector VP/LMS
#Scan -1
#Precursor_MZ 288.178
#ExactMass 287.167
#Charge 1
#CAS_Number N/A
#Pubmed_ID N/A
#Smiles CN1CCC(=C2c3ccccc3C=Cc4ccccc24)CC1.Cl
#INCHI_AUX N/A
#Library_Class 1
#SpectrumID CCMSLIB00000085883
#IonMode Positive
#UpdateWorkflowName UPDATE-SINGLE-ANNOTATED-GOLD
#LibraryQualityString Gold
#TaskID d252d724072548979f1f6f1ced849daf
##Scan# 1751
#SpectrumFile p4-G07_GG7_01_18403.mzXML
#LibraryName Pharm_Active_Library.mgf
#MQScore -1
#Organism Pharm_Active_Library
#TIC_Query 0
#RT_Query -1
#MZErrorPPM -1
#SharedPeaks 0
#MassDiff 0
#LibMZ -1
#SpecMZ 288.178
#SpecCharge 0
#internalFilename spec-00000.mgf

>collision 0
91.0547 1.22
103.0541 0.76
115.0543 8.97
117.07 5.27
127.0539 0.62
128.0619 5.69
129.0699 7.84
141.0699 6.86
152.0623 3.47
153.0695 7.61
165.0699 8.06
167.0853 5.02
178.0777 13.68
179.0847 9.07
189.0706 7.27
190.0777 8.18
191.0866 100.0
202.0787 26.28
203.0855 27.82
204.0934 19.95
205.0996 8.87
215.0865 44.51
216.0926 24.02
217.1009 19.4
228.0933 6.06
229.1015 11.75
230.1086 8.45
231.1151 3.78
243.1169 2.12
245.1325 2.45
288.1749 25.68
