>compound IRSOGLADINE MALEATE
>formula C9H7Cl2N5
>ionization [M+H]+
>parentmass 256.0151270360905
#inchi InChI=1S/C9H7Cl2N5/c10-4-1-2-6(11)5(3-4)7-14-8(12)16-9(13)15-7/h1-3H,(H4,12,13,14,15,16)
#inchikey ATCGGEJZONJOCL
#Ion_Source LC-ESI
#Instrument qTof
#Compound_Source Commercial
#PI Dorrestein
#Data_Collector Garg_Neha
#Scan -1
#Precursor_MZ 256.015
#ExactMass 255.008
#Charge 1
#CAS_Number N/A
#Pubmed_ID N/A
#Smiles Nc1nc(N)nc(n1)c2cc(Cl)ccc2Cl
#INCHI_AUX N/A
#Library_Class 1
#SpectrumID CCMSLIB00000078910
#IonMode Positive
#UpdateWorkflowName UPDATE-SINGLE-ANNOTATED-GOLD
#LibraryQualityString Gold
#TaskID 278b19f5865741e282cec7349aa7e7a1
##Scan# 1109
#SpectrumFile NCP003272_A2_B11_BB8_01_15713.mzXML
#LibraryName NIHcollectionI_05062014.mgf
#MQScore -1
#Organism NIHcollectionI_05062014
#TIC_Query 0
#RT_Query -1
#MZErrorPPM -1
#SharedPeaks 0
#MassDiff 0
#LibMZ -1
#SpecMZ 256.015
#SpecCharge 0
#internalFilename spec-00000.mgf

>collision 0
100.0173 0.63
135.9941 0.72
137.0008 0.61
164.0016 1.27
171.9719 100.0
188.9984 16.35
196.9655 1.32
213.9941 19.24
256.0174 473.46
