>compound Desferrioxamine E
>formula C27H48N6O9 
>ionization [M+H]+
>parentmass 601.3555535680905
#inchi InChI=1S/C27H48N6O9/c34-22-10-14-26(38)32(41)20-8-3-6-18-30-24(36)12-15-27(39)33(42)21-9-2-5-17-29-23(35)11-13-25(37)31(40)19-7-1-4-16-28-22/h40-42H,1-21H2,(H,28,34)(H,29,35)(H,30,36)
#inchikey NHKCCADZVLTPPO
#Ion_Source DI-ESI
#Instrument LTQ-FT-ICR
#Compound_Source Crude
#PI Dorrestein
#Data_Collector J Watrous
#Scan -1
#Precursor_MZ 601.36
#ExactMass 0.0
#Charge 1
#CAS_Number N/A
#Pubmed_ID N/A
#Smiles N/A
#INCHI_AUX N/A
#Library_Class 3
#SpectrumID CCMSLIB00000072101
#IonMode Positive
#UpdateWorkflowName UPDATE-SINGLE-ANNOTATED-BRONZE
#LibraryQualityString Bronze
#TaskID 3bbf0c46eeeb406782b2f3cd0ad9b2b3
##Scan# 1
#SpectrumFile Desferrioxamine_E_1H_LTQ_601_3601.mzXML
#LibraryName gnps_library.mgf
#MQScore -1
#Organism GNPS_JDW_Batch_Library_Centroid
#TIC_Query 0
#RT_Query -1
#MZErrorPPM -1
#SharedPeaks 0
#MassDiff 0
#LibMZ -1
#SpecMZ 601.36
#SpecCharge 0
#internalFilename spec-00000.mgf

>collision 0
201.0909 21.52
283.0909 9.05
301.1818 6.36
319.2727 4.29
357.1818 1.44
379.2727 1.84
383.2727 4.55
384.2727 1.47
401.2727 100.0
402.2727 5.74
411.1818 1.26
419.1818 3.09
463.2727 1.64
469.2727 1.31
483.2727 4.23
484.3636 1.27
511.2727 1.63
527.2728 4.6
528.2728 2.46
544.2728 1.32
601.3556 0.0
