>compound MLS000543058-01!N,1-dimethyl-4,5,6,7-tetrahydro-1H-indazol-3-amine
>formula C9H15N3
>ionization [M+H]+
>parentmass 166.132812
#inchi InChI=1S/C9H15N3/c1-10-9-7-5-3-4-6-8(7)11-12(9)2/h10H,3-6H2,1-2H3
#inchikey NKDJNEGDJVXHKM
#Ion_Source LC-ESI
#Instrument qTof
#Compound_Source NIH Pharmacologically Active Library
#PI Dorrestein
#Data_Collector VP/LMS
#Scan -1
#Precursor_MZ 166.134
#ExactMass 165.127
#Charge 1
#CAS_Number N/A
#Pubmed_ID N/A
#Smiles CNc1c2CCCCc2nn1C
#INCHI_AUX N/A
#Library_Class 1
#SpectrumID CCMSLIB00000085172
#IonMode Positive
#UpdateWorkflowName UPDATE-SINGLE-ANNOTATED-GOLD
#LibraryQualityString Gold
#TaskID d252d724072548979f1f6f1ced849daf
##Scan# 1277
#SpectrumFile p3-F08_GF8_01_18289.mzXML
#LibraryName Pharm_Active_Library.mgf
#MQScore -1
#Organism Pharm_Active_Library
#TIC_Query 0
#RT_Query -1
#MZErrorPPM -1
#SharedPeaks 0
#MassDiff 0
#LibMZ -1
#SpecMZ 166.134
#SpecCharge 0
#internalFilename spec-00000.mgf

>collision 0
94.0635 8.78
95.0586 8.19
106.0646 5.93
107.0591 5.47
108.0542 7.65
121.0745 21.65
122.0715 9.99
122.0956 6.56
123.078 37.4
124.0853 32.51
133.0757 11.03
135.0903 16.34
138.1017 6.77
149.1065 4.89
150.1009 100.0
166.1328 66.9
