>compound MLS001066352-01!Adenine 9-beta;-D-arabinofuranoside
>formula C10H13N5O4
>ionization [M+H]+
>parentmass 268.103
#inchi InChI=1S/C10H13N5O4/c11-8-5-9(13-2-12-8)15(3-14-5)10-7(18)6(17)4(1-16)19-10/h2-4,6-7,10,16-18H,1H2,(H2,11,12,13)/t4-,6-,7+,10-/m1/s1
#inchikey OIRDTQYFTABQOQ
#Ion_Source LC-ESI
#Instrument qTof
#Compound_Source NIH Pharmacologically Active Library
#PI Dorrestein
#Data_Collector VP/LMS
#Scan -1
#Precursor_MZ 268.103
#ExactMass 267.097
#Charge 1
#CAS_Number N/A
#Pubmed_ID N/A
#Smiles Nc1ncnc2n(cnc12)[C@@H]3O[C@H](CO)[C@@H](O)[C@@H]3O
#INCHI_AUX N/A
#Library_Class 1
#SpectrumID CCMSLIB00000084979
#IonMode Positive
#UpdateWorkflowName UPDATE-SINGLE-ANNOTATED-GOLD
#LibraryQualityString Gold
#TaskID d252d724072548979f1f6f1ced849daf
##Scan# 189
#SpectrumFile p3-D05_GD5_01_18262.mzXML
#LibraryName Pharm_Active_Library.mgf
#MQScore -1
#Organism Pharm_Active_Library
#TIC_Query 0
#RT_Query -1
#MZErrorPPM -1
#SharedPeaks 0
#MassDiff 0
#LibMZ -1
#SpecMZ 268.103
#SpecCharge 0
#internalFilename spec-00000.mgf

>collision 0
92.0273 4.99
93.0306 5.91
96.0456 5.64
119.0343 14.04
136.0616 100.0
138.0679 3.94
268.103 0.0
