>compound MLS001401432-01!Loxapine
>formula C18H18ClN3O
>ionization [M+H]+
>parentmass 328.120819
#inchi InChI=1S/C18H18ClN3O/c1-21-8-10-22(11-9-21)18-14-12-13(19)6-7-16(14)23-17-5-3-2-4-15(17)20-18/h2-7,12H,8-11H2,1H3
#inchikey XJGVXQDUIWGIRW
#origInchi InChI=1S/C18H18ClN3O.C4H6O4/c1-21-8-10-22(11-9-21)18-14-12-13(19)6-7-16(14)23-17-5-3-2-4-15(17)20-18;5-3(6)1-2-4(7)8/h2-7,12H,8-11H2,1H3;1-2H2,(H,5,6)(H,7,8)
#Ion_Source LC-ESI
#Instrument qTof
#Compound_Source NIH Pharmacologically Active Library
#PI Dorrestein
#Data_Collector VP/LMS
#Scan -1
#Precursor_MZ 328.126
#ExactMass 327.114
#Charge 1
#CAS_Number N/A
#Pubmed_ID N/A
#Smiles CN1CCN(CC1)C2=Nc3ccccc3Oc4ccc(Cl)cc24.OC(=O)CCC(=O)O
#INCHI_AUX N/A
#Library_Class 1
#SpectrumID CCMSLIB00000085628
#IonMode Positive
#UpdateWorkflowName UPDATE-SINGLE-ANNOTATED-GOLD
#LibraryQualityString Gold
#TaskID d252d724072548979f1f6f1ced849daf
##Scan# 1673
#SpectrumFile p4-D07_GD7_01_18367.mzXML
#LibraryName Pharm_Active_Library.mgf
#MQScore -1
#Organism Pharm_Active_Library
#TIC_Query 0
#RT_Query -1
#MZErrorPPM -1
#SharedPeaks 0
#MassDiff 0
#LibMZ -1
#SpecMZ 328.126
#SpecCharge 0
#internalFilename spec-00000.mgf

>collision 0
104.0497 0.87
164.0485 2.89
181.0882 0.45
192.0445 0.88
193.0524 29.98
200.0267 3.38
209.0831 0.79
216.0577 0.44
228.0207 13.98
235.0871 3.27
244.0519 0.76
253.0537 0.41
261.1025 0.44
271.0639 100.0
297.0788 12.9
328.1209 2.32
