>compound N-ethyl-3-hydroxy-2-phenyl-N-(pyridin-4-ylmethyl)propanamide
>formula C17H20N2O2 
>ionization [M+H]+
>parentmass 285.16095
#inchi InChI=1S/C17H20N2O2/c1-2-19(12-14-8-10-18-11-9-14)17(21)16(13-20)15-6-4-3-5-7-15/h3-11,16,20H,2,12-13H2,1H3
#inchikey BGDKAVGWHJFAGW
#Ion_Source LC-ESI
#Instrument qTof
#Compound_Source Commercial
#PI Dorrestein
#Data_Collector Garg_Neha
#Scan -1
#Precursor_MZ 285.161
#ExactMass 284.152
#Charge 1
#CAS_Number N/A
#Pubmed_ID N/A
#Smiles N/A
#INCHI_AUX N/A
#Library_Class 1
#SpectrumID CCMSLIB00000077068
#IonMode Positive
#UpdateWorkflowName UPDATE-SINGLE-ANNOTATED-GOLD
#LibraryQualityString Gold
#TaskID 48f7f52fc6d249b5abbcc6e7b3df5969
##Scan# 1018
#SpectrumFile NCP003017_G2_H11_2_BB1_01_15712.mzXML
#LibraryName NIH_Clinical_Collection_2.mgf
#MQScore -1
#Organism NIHcollection2_04212014_2_mgf
#TIC_Query 0
#RT_Query -1
#MZErrorPPM -1
#SharedPeaks 0
#MassDiff 0
#LibMZ -1
#SpecMZ 285.161
#SpecCharge 0
#internalFilename spec-00000.mgf

>collision 0
91.0526 2.24
92.0499 3.88
93.0579 15.54
103.0545 15.32
104.0601 3.52
106.0632 3.15
107.0604 31.18
108.0674 12.09
118.0418 2.57
118.067 4.14
120.0687 2.78
121.0648 12.5
131.05 2.67
134.0481 4.03
135.0921 75.12
137.1066 30.74
146.096 5.72
168.0806 2.78
176.094 5.24
182.0966 18.94
184.1136 3.11
195.1032 5.83
196.1122 7.55
226.11 15.68
227.1183 12.64
239.1533 6.23
255.1498 100.0
257.1264 4.21
267.149 23.38
285.161 983.14
