>compound MLS000069585-01!
>formula C24H36O5
>ionization [M+H]+
>parentmass 405.2635507040905
#inchi InChI=1S/C24H36O5/c1-5-15(3)24(27)29-21-11-14(2)10-17-7-6-16(4)20(23(17)21)9-8-19-12-18(25)13-22(26)28-19/h6-7,10,14-16,18-21,23,25H,5,8-9,11-13H2,1-4H3/t14-,15-,16-,18+,19+,20-,21-,23-/m0/s1
#inchikey PCZOHLXUXFIOCF
#Ion_Source LC-ESI
#Instrument qTof
#Compound_Source NIH Pharmacologically Active Library
#PI Dorrestein
#Data_Collector VP/LMS
#Scan -1
#Precursor_MZ 405.266
#ExactMass 404.256
#Charge 1
#CAS_Number N/A
#Pubmed_ID N/A
#Smiles CC[C@H](C)C(=O)O[C@H]1C[C@@H](C)C=C2C=C[C@H](C)[C@H](CC[C@@H]3C[C@@H](O)CC(=O)O3)[C@@H]12
#INCHI_AUX N/A
#Library_Class 1
#SpectrumID CCMSLIB00000084933
#IonMode Positive
#UpdateWorkflowName UPDATE-SINGLE-ANNOTATED-GOLD
#LibraryQualityString Gold
#TaskID d252d724072548979f1f6f1ced849daf
##Scan# 2568
#SpectrumFile p3-C09_GC9_01_18254.mzXML
#LibraryName Pharm_Active_Library.mgf
#MQScore -1
#Organism Pharm_Active_Library
#TIC_Query 0
#RT_Query -1
#MZErrorPPM -1
#SharedPeaks 0
#MassDiff 0
#LibMZ -1
#SpecMZ 405.266
#SpecCharge 0
#internalFilename spec-00000.mgf

>collision 0
119.0875 27.66
128.064 16.26
129.0685 19.45
131.0856 48.63
133.102 10.79
142.0793 8.36
143.0857 64.13
144.0923 14.29
145.1011 53.65
155.0865 34.19
157.1027 59.12
158.1071 20.67
159.1152 39.67
168.093 17.78
169.101 40.88
171.1155 36.78
172.1248 11.85
173.1321 95.74
182.1092 12.46
193.1009 15.5
194.1099 9.57
197.1323 19.76
199.1473 100.0
201.1637 21.58
207.1165 12.77
215.1798 10.94
223.1474 16.72
224.1561 24.47
225.1638 55.17
239.1793 13.37
243.1727 24.16
405.2623 0.0
