>compound DIPHENOXYLATE
>formula C30H32N2O2
>ionization [M+H]+
>parentmass 453.2536547160905
#inchi InChI=1S/C30H32N2O2/c1-2-34-28(33)29(25-12-6-3-7-13-25)18-21-32(22-19-29)23-20-30(24-31,26-14-8-4-9-15-26)27-16-10-5-11-17-27/h3-17H,2,18-23H2,1H3
#inchikey HYPPXZBJBPSRLK
#Ion_Source LC-ESI
#Instrument qTof
#Compound_Source Commercial
#PI Dorrestein
#Data_Collector Garg_Neha
#Scan -1
#Precursor_MZ 453.254
#ExactMass 452.246
#Charge 1
#CAS_Number N/A
#Pubmed_ID N/A
#Smiles CCOC(=O)C1(CCN(CCC(C#N)(c2ccccc2)c3ccccc3)CC1)c4ccccc4
#INCHI_AUX N/A
#Library_Class 1
#SpectrumID CCMSLIB00000079112
#IonMode Positive
#UpdateWorkflowName UPDATE-SINGLE-ANNOTATED-GOLD
#LibraryQualityString Gold
#TaskID 278b19f5865741e282cec7349aa7e7a1
##Scan# 1476
#SpectrumFile NCP003512_C2_D11_BD5_01_15729.mzXML
#LibraryName NIHcollectionI_05062014.mgf
#MQScore -1
#Organism NIHcollectionI_05062014
#TIC_Query 0
#RT_Query -1
#MZErrorPPM -1
#SharedPeaks 0
#MassDiff 0
#LibMZ -1
#SpecMZ 453.254
#SpecCharge 0
#internalFilename spec-00000.mgf

>collision 0
117.0701 5.63
126.055 9.68
131.0846 4.78
141.0794 3.09
143.0855 13.18
144.0564 5.61
146.0962 5.13
155.095 7.02
158.0967 16.75
159.0675 3.09
159.1025 14.19
160.111 22.23
161.1183 10.51
162.0668 5.13
165.07 46.83
172.1118 34.63
174.1276 4.05
186.1274 9.78
187.0996 100.0
187.1357 34.83
190.0997 9.13
190.1237 3.52
192.0808 78.47
204.1019 41.35
205.1077 17.51
218.1165 22.66
232.1322 27.41
233.1415 49.65
249.1384 64.46
260.1627 8.17
275.1567 8.8
379.2161 42.35
407.2107 14.11
425.2226 79.1
453.2551 1553.29
