>compound Desonide
>formula C24H32O6
>ionization [M+H]+
>parentmass 417.2271651960905
#inchi InChI=1S/C24H32O6/c1-21(2)29-19-10-16-15-6-5-13-9-14(26)7-8-22(13,3)20(15)17(27)11-23(16,4)24(19,30-21)18(28)12-25/h7-9,15-17,19-20,25,27H,5-6,10-12H2,1-4H3/t15-,16-,17+,19+,20-,22-,23-,24-/m0/s1
#inchikey WBGKWQHBNHJJPZ
#Ion_Source LC-ESI
#Instrument qTof
#Compound_Source Commercial
#PI Dorrestein
#Data_Collector Garg_Neha
#Scan -1
#Precursor_MZ 417.227
#ExactMass 416.22
#Charge 1
#CAS_Number 638-94-8
#Pubmed_ID N/A
#Smiles C1C(C=C2[C@](C=1)([C@]3([C@@](CC2)([C@]4([C@](C[C@H]3O)([C@@]5([C@@](C4)(OC(O5)(C)C)[H])C(CO)=O)C)[H])[H])[H])C)=O
#INCHI_AUX N/A
#Library_Class 1
#SpectrumID CCMSLIB00000078243
#IonMode Positive
#UpdateWorkflowName UPDATE-SINGLE-ANNOTATED-GOLD
#LibraryQualityString Gold
#TaskID 77f51c88eb8b467eb4a01dd2d0cb90d2
##Scan# 1281
#SpectrumFile Plate4_1_20_GH2_01_16503.mzXML
#LibraryName FDALibrary_2_04302014.mgf
#MQScore -1
#Organism FDALibrary_2_04302014
#TIC_Query 0
#RT_Query -1
#MZErrorPPM -1
#SharedPeaks 0
#MassDiff 0
#LibMZ -1
#SpecMZ 417.227
#SpecCharge 0
#internalFilename spec-00000.mgf

>collision 0
121.065 6.84
135.0804 5.52
145.0646 2.96
147.0807 29.98
159.0804 4.65
161.0966 5.37
171.0802 11.78
173.0963 20.88
185.0956 3.35
187.1126 3.61
199.1108 3.49
207.1165 3.49
211.112 8.76
213.1279 2.8
223.1111 7.34
225.1272 19.15
226.1341 16.75
227.1427 7.32
235.1119 3.68
237.1272 8.54
239.1425 4.36
241.1587 3.7
251.1418 2.5
253.1576 2.36
261.1273 3.0
263.1416 6.95
265.1574 19.01
277.1583 11.48
281.1529 3.88
287.1429 3.76
295.1701 16.39
305.1536 14.66
323.1646 43.45
341.1751 29.42
381.2054 2.46
399.2173 100.0
417.2251 10.23
