>compound MLS000069353-01!Thalidomide50-35-1
>formula C13H10N2O4
>ionization [M+H]+
>parentmass 259.07133325209054
#inchi InChI=1S/C13H10N2O4/c16-10-6-5-9(11(17)14-10)15-12(18)7-3-1-2-4-8(7)13(15)19/h1-4,9H,5-6H2,(H,14,16,17)
#inchikey UEJJHQNACJXSKW
#Ion_Source LC-ESI
#Instrument qTof
#Compound_Source NIH Pharmacologically Active Library
#PI Dorrestein
#Data_Collector VP/LMS
#Scan -1
#Precursor_MZ 259.074
#ExactMass 258.064
#Charge 1
#CAS_Number N/A
#Pubmed_ID N/A
#Smiles O=C1N(C2CCC(=O)NC2=O)C(=O)c3ccccc13
#INCHI_AUX N/A
#Library_Class 1
#SpectrumID CCMSLIB00000085656
#IonMode Positive
#UpdateWorkflowName UPDATE-SINGLE-ANNOTATED-GOLD
#LibraryQualityString Gold
#TaskID d252d724072548979f1f6f1ced849daf
##Scan# 1464
#SpectrumFile p4-D10_GD10_01_18370.mzXML
#LibraryName Pharm_Active_Library.mgf
#MQScore -1
#Organism Pharm_Active_Library
#TIC_Query 0
#RT_Query -1
#MZErrorPPM -1
#SharedPeaks 0
#MassDiff 0
#LibMZ -1
#SpecMZ 259.074
#SpecCharge 0
#internalFilename spec-00000.mgf

>collision 0
94.042 3.62
103.0526 5.53
104.0255 6.83
115.0547 4.87
130.0287 52.76
130.0641 14.08
131.0502 6.42
140.0491 4.34
144.0434 10.4
148.0399 9.45
158.0227 3.74
158.0601 13.49
159.0425 12.48
160.039 10.64
171.0789 5.88
186.0541 100.0
188.0579 3.62
259.0713 0.0
