>compound Rufinamide (Banzel)
>formula C10H8F2N4O
>ionization [M+H]+
>parentmass 239.073837
#inchi InChI=1S/C10H8F2N4O/c11-7-2-1-3-8(12)6(7)4-16-5-9(10(13)17)14-15-16/h1-3,5H,4H2,(H2,13,17)
#inchikey POGQSBRIGCQNEG
#Ion_Source LC-ESI
#Instrument qTof
#Compound_Source Commercial
#PI Dorrestein
#Data_Collector Garg_Neha
#Scan -1
#Precursor_MZ 239.074
#ExactMass 238.067
#Charge 1
#CAS_Number 106308-44-5
#Pubmed_ID N/A
#Smiles C1=CC=C(C(=C1F)CN2N=NC(=C2)C(=O)N)F
#INCHI_AUX N/A
#Library_Class 1
#SpectrumID CCMSLIB00000078070
#IonMode Positive
#UpdateWorkflowName UPDATE-SINGLE-ANNOTATED-GOLD
#LibraryQualityString Gold
#TaskID 77f51c88eb8b467eb4a01dd2d0cb90d2
##Scan# 1119
#SpectrumFile Plate1_61_88_GG4_01_16491.mzXML
#LibraryName FDALibrary_2_04302014.mgf
#MQScore -1
#Organism FDALibrary_2_04302014
#TIC_Query 0
#RT_Query -1
#MZErrorPPM -1
#SharedPeaks 0
#MassDiff 0
#LibMZ -1
#SpecMZ 239.074
#SpecCharge 0
#internalFilename spec-00000.mgf

>collision 0
101.0209 0.7
107.0292 1.6
127.0355 100.0
136.0557 0.68
142.0464 2.45
144.0618 2.19
148.0554 1.66
156.0631 2.04
166.0453 3.62
168.0611 3.4
183.0733 2.0
211.0677 1.61
222.0473 12.54
239.0741 11.38
