>compound MLS002153464-01!4-(2-Aminoethyl)benzenesulfonyl fluoride hydrochloride30827-99-7
>formula C8H10FNO2S
>ionization [M+H]+
>parentmass 204.04890423209054
#inchi InChI=1S/C8H10FNO2S/c9-13(11,12)8-3-1-7(2-4-8)5-6-10/h1-4H,5-6,10H2
#inchikey MGSKVZWGBWPBTF
#origInchi InChI=1S/C8H10FNO2S.ClH/c9-13(11,12)8-3-1-7(2-4-8)5-6-10;/h1-4H,5-6,10H2;1H
#Ion_Source LC-ESI
#Instrument qTof
#Compound_Source NIH Pharmacologically Active Library
#PI Dorrestein
#Data_Collector VP/LMS
#Scan -1
#Precursor_MZ 204.051
#ExactMass 203.042
#Charge 1
#CAS_Number N/A
#Pubmed_ID N/A
#Smiles NCCc1ccc(cc1)S(=O)(=O)F.Cl
#INCHI_AUX N/A
#Library_Class 1
#SpectrumID CCMSLIB00000085803
#IonMode Positive
#UpdateWorkflowName UPDATE-SINGLE-ANNOTATED-GOLD
#LibraryQualityString Gold
#TaskID d252d724072548979f1f6f1ced849daf
##Scan# 1176
#SpectrumFile p4-F08_GF8_01_18392.mzXML
#LibraryName Pharm_Active_Library.mgf
#MQScore -1
#Organism Pharm_Active_Library
#TIC_Query 0
#RT_Query -1
#MZErrorPPM -1
#SharedPeaks 0
#MassDiff 0
#LibMZ -1
#SpecMZ 204.051
#SpecCharge 0
#internalFilename spec-00000.mgf

>collision 0
102.0447 4.71
103.0538 68.41
104.0617 100.0
120.0554 1.25
187.021 9.14
204.0489 0.0
