>compound Evista (Raloxifene Hydrochloride)
>formula C28H27NO4S
>ionization [M+H]+
>parentmass 474.174835
#inchi InChI=1S/C28H27NO4S/c30-21-8-4-20(5-9-21)28-26(24-13-10-22(31)18-25(24)34-28)27(32)19-6-11-23(12-7-19)33-17-16-29-14-2-1-3-15-29/h4-13,18,30-31H,1-3,14-17H2
#inchikey GZUITABIAKMVPG
#origInchi InChI=1S/C28H27NO4S.ClH/c30-21-8-4-20(5-9-21)28-26(24-13-10-22(31)18-25(24)34-28)27(32)19-6-11-23(12-7-19)33-17-16-29-14-2-1-3-15-29;/h4-13,18,30-31H,1-3,14-17H2;1H
#Ion_Source LC-ESI
#Instrument qTof
#Compound_Source Commercial
#PI Dorrestein
#Data_Collector Garg_Neha
#Scan -1
#Precursor_MZ 474.173
#ExactMass 473.166
#Charge 1
#CAS_Number 82640-04-8
#Pubmed_ID N/A
#Smiles C1(C=CC2=C(C=1)SC(=C2C(C3=CC=C(C=C3)OCCN4CCCCC4)=O)C5=CC=C(C=C5)O)O.Cl
#INCHI_AUX N/A
#Library_Class 1
#SpectrumID CCMSLIB00000078057
#IonMode Positive
#UpdateWorkflowName UPDATE-SINGLE-ANNOTATED-GOLD
#LibraryQualityString Gold
#TaskID 77f51c88eb8b467eb4a01dd2d0cb90d2
##Scan# 1147
#SpectrumFile Plate1_41_60_GG3_01_16490.mzXML
#LibraryName FDALibrary_2_04302014.mgf
#MQScore -1
#Organism FDALibrary_2_04302014
#TIC_Query 0
#RT_Query -1
#MZErrorPPM -1
#SharedPeaks 0
#MassDiff 0
#LibMZ -1
#SpecMZ 474.173
#SpecCharge 0
#internalFilename spec-00000.mgf

>collision 0
98.0969 1.24
110.0981 0.9
112.1129 100.0
121.0283 0.99
147.0438 16.05
154.996 0.56
197.0599 2.71
206.1526 0.59
213.035 1.8
214.0419 0.67
224.0293 0.72
241.0299 1.07
253.0322 0.66
269.027 48.41
270.0294 9.45
295.0388 0.75
305.0613 2.02
317.0638 1.17
318.0738 0.57
319.0427 1.08
328.0533 0.59
329.0813 0.74
333.0593 2.51
334.0601 1.45
343.041 1.21
345.0548 3.3
346.0605 1.24
361.0522 6.02
362.0595 10.93
363.0618 2.56
371.0717 0.86
374.0613 1.66
389.0795 1.17
474.1748 423.46
