>compound Viramune
>formula C15H14N4O
>ionization [M+H]+
>parentmass 267.1240375200905
#inchi InChI=1S/C15H14N4O/c1-9-6-8-17-14-12(9)18-15(20)11-3-2-7-16-13(11)19(14)10-4-5-10/h2-3,6-8,10H,4-5H2,1H3,(H,18,20)
#inchikey NQDJXKOVJZTUJA
#Ion_Source LC-ESI
#Instrument qTof
#Compound_Source Commercial
#PI Dorrestein
#Data_Collector Garg_Neha
#Scan -1
#Precursor_MZ 267.124
#ExactMass 266.117
#Charge 1
#CAS_Number N/A
#Pubmed_ID N/A
#Smiles Cc1ccnc2N(C3CC3)c4ncccc4C(=O)Nc12
#INCHI_AUX N/A
#Library_Class 1
#SpectrumID CCMSLIB00000078935
#IonMode Positive
#UpdateWorkflowName UPDATE-SINGLE-ANNOTATED-GOLD
#LibraryQualityString Gold
#TaskID 278b19f5865741e282cec7349aa7e7a1
##Scan# 1102
#SpectrumFile NCP003272_E2_F11_BC2_01_15715.mzXML
#LibraryName NIHcollectionI_05062014.mgf
#MQScore -1
#Organism NIHcollectionI_05062014
#TIC_Query 0
#RT_Query -1
#MZErrorPPM -1
#SharedPeaks 0
#MassDiff 0
#LibMZ -1
#SpecMZ 267.124
#SpecCharge 0
#internalFilename spec-00000.mgf

>collision 0
107.061 5.07
121.0391 0.54
131.0606 1.65
132.068 0.55
133.0759 0.94
143.0602 1.06
144.0686 2.36
145.076 1.34
159.0551 1.96
160.0627 4.39
161.0708 5.97
170.0717 0.82
171.0801 0.54
173.0714 1.09
182.0715 2.56
183.0782 2.11
184.0873 9.46
197.0829 5.78
198.0904 19.28
200.0813 0.85
207.0795 0.85
209.059 0.85
209.0823 0.95
210.0668 4.77
210.0895 1.9
211.0735 2.36
211.0963 2.48
212.0806 2.34
222.1022 1.51
223.0977 2.47
224.1059 2.52
225.0769 5.57
226.0861 100.0
227.0925 50.36
234.0905 0.63
235.0758 0.68
236.0813 0.73
237.0771 4.42
238.0841 2.71
239.0929 4.21
239.1294 3.39
249.1131 5.16
250.0983 2.88
251.0935 7.04
252.1005 4.53
267.1266 154.32
