>compound Centratherin
>formula C20H22O7
>ionization [M+H]+
>parentmass 375.1438294960905
#inchi InChI=1S/C20H22O7/c1-5-10(2)18(23)26-15-8-20(4)16(22)7-13(27-20)12(9-21)6-14-17(15)11(3)19(24)25-14/h5-7,14-15,17,21H,3,8-9H2,1-2,4H3/b10-5-,12-6-/t14-,15+,17+,20-/m1/s1
#inchikey BMVJFNLJSZHNNS
#Ion_Source DI-ESI
#Instrument qTof
#Compound_Source Isolated
#PI Norberto Lopes
#Data_Collector Denise Silva
#Scan -1
#Precursor_MZ 375.138
#ExactMass 374.137
#Charge 1
#CAS_Number 71939-83-8
#Pubmed_ID N/A
#Smiles O=C1C([C@]2([H])[C@@H](OC(/C(C)=C\C)=O)C[C@](O3)(C)C(C=C3/C(CO)=C\[C@@]2([H])O1)=O)=C
#INCHI_AUX N/A
#Library_Class 3
#SpectrumID CCMSLIB00000081485
#IonMode Positive
#UpdateWorkflowName UPDATE-SINGLE-ANNOTATED-BRONZE
#LibraryQualityString Bronze
#TaskID 053e8682627d4c9488a292c234ed8aed
##Scan# 1
#SpectrumFile gnps_Centratherin_pos_MplusH.mgf
#LibraryName gnps_library.mgf
#MQScore -1
#Organism blank
#TIC_Query 0
#RT_Query -1
#MZErrorPPM -1
#SharedPeaks 0
#MassDiff 0
#LibMZ -1
#SpecMZ 375.138
#SpecCharge 0
#internalFilename spec-00000.mgf

>collision 0
231.0883 1.68
375.1438 0.0
