>compound Cleviprex (Clevidipine)
>formula C21H23Cl2NO6
>ionization [M+Na]+
>parentmass 478.078644
#inchi InChI=1S/C21H23Cl2NO6/c1-5-7-15(25)29-10-30-21(27)17-12(3)24-11(2)16(20(26)28-4)18(17)13-8-6-9-14(22)19(13)23/h6,8-9,18,24H,5,7,10H2,1-4H3
#inchikey KPBZROQVTHLCDU
#Ion_Source LC-ESI
#Instrument qTof
#Compound_Source Commercial
#PI Dorrestein
#Data_Collector Garg_Neha
#Scan -1
#Precursor_MZ 478.079
#ExactMass 455.09
#Charge 1
#CAS_Number 167221-71-8
#Pubmed_ID N/A
#Smiles CCCC(OCOC(C1=C(NC(=C(C1C2=CC=CC(=C2Cl)Cl)C(OC)=O)C)C)=O)=O
#INCHI_AUX N/A
#Library_Class 1
#SpectrumID CCMSLIB00000078424
#IonMode Positive
#UpdateWorkflowName UPDATE-SINGLE-ANNOTATED-GOLD
#LibraryQualityString Gold
#TaskID 77f51c88eb8b467eb4a01dd2d0cb90d2
##Scan# 2567
#SpectrumFile Plate6_61_80_GD10_01_15777.mzXML
#LibraryName FDALibrary_2_04302014.mgf
#MQScore -1
#Organism FDALibrary_2_04302014
#TIC_Query 0
#RT_Query -1
#MZErrorPPM -1
#SharedPeaks 0
#MassDiff 0
#LibMZ -1
#SpecMZ 478.079
#SpecCharge 0
#internalFilename spec-00000.mgf

>collision 0
222.9694 1.18
242.0342 1.6
243.0391 3.29
263.0213 1.69
268.0923 1.69
270.03 1.23
271.0402 1.83
278.0126 8.79
279.0149 2.23
281.0124 1.53
282.0182 1.48
290.9817 1.11
302.056 17.22
303.0587 3.92
304.0551 5.75
305.0554 1.44
306.0079 9.62
307.0091 1.95
308.0049 5.26
309.0053 1.72
336.0167 1.78
338.0354 56.93
339.0363 13.75
340.0311 41.31
341.0333 12.12
342.0273 6.35
343.0323 1.46
360.0167 100.0
362.0133 64.7
363.0158 10.27
364.0095 4.57
378.0268 5.98
379.0315 1.3
380.0215 5.66
448.0671 1.72
478.0836 326.33
