>compound MLS002153278-01!DIHYDROOUABAIN
>formula C29H46O12
>ionization [M+H]+
>parentmass 587.3062033640905
#inchi InChI=1S/C29H46O12/c1-13-22(34)23(35)24(36)25(40-13)41-15-8-19(32)28(12-30)21-17(3-5-27(28,37)9-15)29(38)6-4-16(14-7-20(33)39-11-14)26(29,2)10-18(21)31/h13-19,21-25,30-32,34-38H,3-12H2,1-2H3/t13-,14?,15-,16+,17+,18+,19+,21+,22-,23+,24+,25-,26+,27-,28+,29-/m0/s1
#inchikey ZTFGOPUOTATSAL
#Ion_Source LC-ESI
#Instrument qTof
#Compound_Source NIH Pharmacologically Active Library
#PI Dorrestein
#Data_Collector VP/LMS
#Scan -1
#Precursor_MZ 587.311
#ExactMass 586.299
#Charge 1
#CAS_Number N/A
#Pubmed_ID N/A
#Smiles C[C@@H]1O[C@@H](O[C@H]2C[C@@H](O)[C@]3(CO)[C@H]4[C@H](O)C[C@]5(C)[C@H](CC[C@]5(O)[C@@H]4CC[C@]3(O)C2)C6COC(=O)C6)[C@H](O)[C@H](O)[C@H]1O
#INCHI_AUX N/A
#Library_Class 3
#SpectrumID CCMSLIB00000085790
#IonMode Positive
#UpdateWorkflowName UPDATE-SINGLE-ANNOTATED-BRONZE
#LibraryQualityString Bronze
#TaskID d252d724072548979f1f6f1ced849daf
##Scan# 1223
#SpectrumFile p4-F06_GF6_01_18390.mzXML
#LibraryName Pharm_Active_Library.mgf
#MQScore -1
#Organism Pharm_Active_Library
#TIC_Query 0
#RT_Query -1
#MZErrorPPM -1
#SharedPeaks 0
#MassDiff 0
#LibMZ -1
#SpecMZ 587.311
#SpecCharge 0
#internalFilename spec-00000.mgf

>collision 0
117.0691 17.17
119.0854 30.78
129.0684 25.7
131.0855 27.32
141.0692 36.72
143.0845 46.33
145.0639 13.39
145.1009 28.73
155.0846 27.65
157.1004 100.0
159.0809 15.12
159.1167 26.13
167.0855 15.98
173.0975 19.11
181.0997 31.53
183.1169 19.65
185.0948 17.06
207.1153 27.21
261.1638 38.88
265.1591 15.01
291.1742 16.74
309.1864 16.74
321.1843 60.04
323.2012 48.6
325.1814 18.9
333.1852 21.49
339.1948 72.25
351.1975 53.24
357.2046 24.19
369.2055 63.93
387.2179 32.61
587.3091 0.0
