>compound ARTEMETHER
>formula C16H26O5
>ionization [M+Na]+
>parentmass 321.167969
#inchi InChI=1S/C16H26O5/c1-9-5-6-12-10(2)13(17-4)18-14-16(12)11(9)7-8-15(3,19-14)20-21-16/h9-14H,5-8H2,1-4H3/t9-,10-,11+,12+,13+,14-,15-,16-/m1/s1
#inchikey SXYIRMFQILZOAM
#Ion_Source LC-ESI
#Instrument qTof
#Compound_Source Commercial
#PI Dorrestein
#Data_Collector Garg_Neha
#Scan -1
#Precursor_MZ 321.167
#ExactMass 298.178
#Charge 1
#CAS_Number N/A
#Pubmed_ID N/A
#Smiles CO[C@H]1O[C@@H]2O[C@@]3(C)CC[C@H]4[C@H](C)CC[C@@H]([C@H]1C)[C@@]24OO3
#INCHI_AUX N/A
#Library_Class 1
#SpectrumID CCMSLIB00000079246
#IonMode Positive
#UpdateWorkflowName UPDATE-SINGLE-ANNOTATED-GOLD
#LibraryQualityString Gold
#TaskID 278b19f5865741e282cec7349aa7e7a1
##Scan# 2492
#SpectrumFile NCP003672_E27F27G26H26_BE5_01_15741.mzXML
#LibraryName NIHcollectionI_05062014.mgf
#MQScore -1
#Organism NIHcollectionI_05062014
#TIC_Query 0
#RT_Query -1
#MZErrorPPM -1
#SharedPeaks 0
#MassDiff 0
#LibMZ -1
#SpecMZ 321.167
#SpecCharge 0
#internalFilename spec-00000.mgf

>collision 0
105.069 5.38
107.0851 7.11
119.0818 2.56
121.1 3.03
134.1049 1.66
135.1154 4.26
161.0943 2.99
164.1153 18.9
175.1467 2.6
195.1368 5.74
233.1152 2.92
243.1354 3.64
261.1449 7.83
275.1614 46.75
321.168 2.67
