>compound Erythromycin A
>formula C37H67NO13
>ionization [M+H]+
>parentmass 734.4685176560905
#inchi InChI=1S/C37H67NO13/c1-14-25-37(10,45)30(41)20(4)27(39)18(2)16-35(8,44)32(51-34-28(40)24(38(11)12)15-19(3)47-34)21(5)29(22(6)33(43)49-25)50-26-17-36(9,46-13)31(42)23(7)48-26/h18-26,28-32,34,40-42,44-45H,14-17H2,1-13H3/t18-,19-,20+,21+,22-,23+,24+,25-,26+,28-,29+,30-,31+,32-,34+,35-,36-,37-/m1/s1
#inchikey ULGZDMOVFRHVEP
#Ion_Source DI-ESI
#Instrument Ion Trap
#Compound_Source commercial
#PI Dorrestein/Moore
#Data_Collector Roland Kersten
#Scan -1
#Precursor_MZ 734.5
#ExactMass 733.461
#Charge 1
#CAS_Number N/A
#Pubmed_ID N/A
#Smiles CC[C@@H]1[C@@]([C@@H]([C@H](C(=O)[C@@H](C[C@@]([C@@H]([C@H]([C@@H]([C@H](C(=O)O1)C)O[C@H]2C[C@@]([C@H]([C@@H](O2)C)O)(C)OC)C)O[C@H]3[C@@H]([C@H](C[C@H](O3)C)N(C)C)O)(C)O)C)C)O)(C)O
#INCHI_AUX N/A
#Library_Class 3
#SpectrumID CCMSLIB00000075305
#IonMode Positive
#UpdateWorkflowName UPDATE-SINGLE-ANNOTATED-BRONZE
#LibraryQualityString Bronze
#TaskID 216f7e25eb284d139eda10f0ea06e32c
##Scan# 80
#SpectrumFile Erythromycin_A_IT_734mz.mzXML
#LibraryName gnps_library.mgf
#MQScore -1
#Organism empty
#TIC_Query 0
#RT_Query -1
#MZErrorPPM -1
#SharedPeaks 0
#MassDiff 0
#LibMZ -1
#SpecMZ 734.5
#SpecCharge 0
#internalFilename spec-00000.mgf

>collision 0
233.0005 0.33
289.0336 0.33
307.0994 0.38
325.021 0.89
342.1251 1.65
347.0448 0.25
365.0902 1.31
383.0499 0.65
408.0183 1.81
464.0623 1.63
482.1344 0.7
500.1571 0.94
522.1559 32.4
540.1489 19.0
558.1634 29.4
575.3995 0.49
576.2298 100.0
590.1662 0.9
640.2167 0.48
734.4685 0.0
