>compound 2-[[(Guanidino) (imino)methyl]sulfanyl]ethanesulfonic Acid
>formula C4H10N4O3S2
>ionization [M+Na]+
>parentmass 249.0086528800905
#inchi InChI=1S/C4H10N4O3S2/c5-3(6)8-4(7)12-1-2-13(9,10)11/h1-2H2,(H,9,10,11)(H5,5,6,7,8)
#inchikey MFFQNMFIVBUMBX
#Ion_Source DI-ESI
#Instrument qTof
#Compound_Source Commercial
#PI Norberto Lopes
#Data_Collector Norberto Lopes
#Scan -1
#Precursor_MZ 249.001
#ExactMass 226.019
#Charge 1
#CAS_Number 1391053-66-9
#Pubmed_ID N/A
#Smiles NC(NC(SCCS(=O)(O)=O)=N)=N
#INCHI_AUX N/A
#Library_Class 3
#SpectrumID CCMSLIB00000081571
#IonMode Positive
#UpdateWorkflowName UPDATE-SINGLE-ANNOTATED-BRONZE
#LibraryQualityString Bronze
#TaskID 4a07f16a650f4095b43fe6b0b09ff8bb
##Scan# 1
#SpectrumFile gnps_2_Guanidino_imino_methyl_sulfanyl_ethanesulfonic_Acid_pos_MplusNa.mgf
#LibraryName gnps_library.mgf
#MQScore -1
#Organism batch_27_05
#TIC_Query 0
#RT_Query -1
#MZErrorPPM -1
#SharedPeaks 0
#MassDiff 0
#LibMZ -1
#SpecMZ 249.001
#SpecCharge 0
#internalFilename spec-00000.mgf

>collision 0
141.0142 8.12
164.9609 39.76
166.9568 5.06
185.001 19.88
190.9571 4.83
191.9527 8.32
207.9822 4.91
208.9755 4.07
249.0087 0.0
