>compound MLS000728636-01!
>formula C16H19NO3
>ionization [M+H]+
>parentmass 274.144
#inchi InChI=1S/C16H19NO3/c1-16-10-5-11(18)6-13(16)20-15-12(19)4-3-9(14(15)16)7-17(2)8-10/h3-5,11,13,18-19H,6-8H2,1-2H3/t11?,13?,16-/m1/s1
#inchikey KWMCQXUGMGAAIP
#Ion_Source LC-ESI
#Instrument qTof
#Compound_Source NIH Natural Product Library
#PI Dorrestein
#Data_Collector VVP/LMS
#Scan -1
#Precursor_MZ 274.144
#ExactMass 273.137
#Charge 1
#CAS_Number N/A
#Pubmed_ID N/A
#Smiles CN1CC2=CC(O)CC3Oc4c(c(C1)ccc4O)[C@@]32C
#INCHI_AUX N/A
#Library_Class 3
#SpectrumID CCMSLIB00000080534
#IonMode Positive
#UpdateWorkflowName UPDATE-SINGLE-ANNOTATED-BRONZE
#LibraryQualityString Bronze
#TaskID b1d8e8f6646f4e71acdff9ca3d919d08
##Scan# 178
#SpectrumFile p2-C10_GC10_01_18010.mzXML
#LibraryName NIH_Natural_Products_Library.mgf
#MQScore -1
#Organism NIH_Natural_Products_Library
#TIC_Query 0
#RT_Query -1
#MZErrorPPM -1
#SharedPeaks 0
#MassDiff 0
#LibMZ -1
#SpecMZ 274.144
#SpecCharge 0
#internalFilename spec-00000.mgf

>collision 0
128.0619 10.71
143.0862 6.72
147.0793 6.17
148.0529 4.54
152.0634 8.98
156.0577 5.17
165.0909 5.35
178.077 6.62
181.1015 5.9
182.0734 12.07
184.0529 78.95
185.0582 12.79
194.0735 7.08
197.0948 13.79
199.077 100.0
200.0816 17.42
209.0956 12.7
241.1212 4.72
274.144 0.0
