>compound MLS001066392-01!Anisomycin from Streptomyces griseolus
>formula C14H19NO4
>ionization [M+H]+
>parentmass 266.13868454009054
#inchi InChI=1S/C14H19NO4/c1-9(16)19-14-12(15-8-13(14)17)7-10-3-5-11(18-2)6-4-10/h3-6,12-15,17H,7-8H2,1-2H3/t12-,13+,14+/m1/s1
#inchikey YKJYKKNCCRKFSL
#Ion_Source LC-ESI
#Instrument qTof
#Compound_Source NIH Pharmacologically Active Library
#PI Dorrestein
#Data_Collector VP/LMS
#Scan -1
#Precursor_MZ 266.142
#ExactMass 265.131
#Charge 1
#CAS_Number N/A
#Pubmed_ID N/A
#Smiles COc1ccc(C[C@H]2NC[C@H](O)[C@H]2OC(=O)C)cc1
#INCHI_AUX N/A
#Library_Class 1
#SpectrumID CCMSLIB00000085827
#IonMode Positive
#UpdateWorkflowName UPDATE-SINGLE-ANNOTATED-GOLD
#LibraryQualityString Gold
#TaskID d252d724072548979f1f6f1ced849daf
##Scan# 1223
#SpectrumFile p4-F11_GF11_01_18395.mzXML
#LibraryName Pharm_Active_Library.mgf
#MQScore -1
#Organism Pharm_Active_Library
#TIC_Query 0
#RT_Query -1
#MZErrorPPM -1
#SharedPeaks 0
#MassDiff 0
#LibMZ -1
#SpecMZ 266.142
#SpecCharge 0
#internalFilename spec-00000.mgf

>collision 0
91.0543 3.92
102.0469 0.87
103.0542 0.89
105.0692 1.14
106.0409 1.44
107.0487 1.04
109.0646 0.57
115.0545 3.05
116.0614 1.85
118.0651 0.79
119.0497 0.59
121.0655 100.0
127.054 0.55
128.062 2.06
129.07 0.86
130.0648 2.25
131.0492 1.33
133.0641 0.85
135.0789 1.32
144.0564 7.64
148.0759 1.74
156.0584 0.55
159.0802 3.93
162.0924 1.86
171.0795 1.93
188.1062 2.22
206.1174 7.87
266.1377 0.71
