>compound MLS002637723-01!
>formula C20H14O4
>ionization [M+H]+
>parentmass 319.097
#inchi InChI=1S/C20H14O4/c21-19(23-15-9-3-1-4-10-15)17-13-7-8-14-18(17)20(22)24-16-11-5-2-6-12-16/h1-14H
#inchikey DWNAQMUDCDVSLT
#Ion_Source LC-ESI
#Instrument qTof
#Compound_Source NIH Natural Product Library
#PI Dorrestein
#Data_Collector VVP/LMS
#Scan -1
#Precursor_MZ 319.097
#ExactMass 318.089
#Charge 1
#CAS_Number N/A
#Pubmed_ID N/A
#Smiles O=C(Oc1ccccc1)c2ccccc2C(=O)Oc3ccccc3
#INCHI_AUX N/A
#Library_Class 1
#SpectrumID CCMSLIB00000080028
#IonMode Positive
#UpdateWorkflowName UPDATE-SINGLE-ANNOTATED-GOLD
#LibraryQualityString Gold
#TaskID b1d8e8f6646f4e71acdff9ca3d919d08
##Scan# 2624
#SpectrumFile p2-B03_GB3_01_17991.mzXML
#LibraryName NIH_Natural_Products_Library.mgf
#MQScore -1
#Organism NIH_Natural_Products_Library
#TIC_Query 0
#RT_Query -1
#MZErrorPPM -1
#SharedPeaks 0
#MassDiff 0
#LibMZ -1
#SpecMZ 319.097
#SpecCharge 0
#internalFilename spec-00000.mgf

>collision 0
115.056 1.8
141.0715 6.29
152.0625 8.8
153.07 14.36
169.0662 1.98
197.0597 10.13
225.0565 100.0
319.097 0.0
