>compound MLS001159033-01!2-[(4-ethyl-8,8-dimethyl-2-oxo-9,10-dihydropyrano[2,3-h]chromen-5-yl)oxy]-N-(2-morpholin-4-ylethyl)acetamide
>formula C24H32N2O6
>ionization [M+H]+
>parentmass 445.23331319609053
#inchi InChI=1S/C24H32N2O6/c1-4-16-13-21(28)31-23-17-5-6-24(2,3)32-18(17)14-19(22(16)23)30-15-20(27)25-7-8-26-9-11-29-12-10-26/h13-14H,4-12,15H2,1-3H3,(H,25,27)
#inchikey PYWOQXCBTDFULZ
#Ion_Source LC-ESI
#Instrument qTof
#Compound_Source NIH Natural Product Library
#PI Dorrestein
#Data_Collector VVP/LMS
#Scan -1
#Precursor_MZ 445.234
#ExactMass 444.226
#Charge 1
#CAS_Number N/A
#Pubmed_ID N/A
#Smiles CCc1cc(=O)oc2c3CCC(C)(C)Oc3cc(OCC(=O)NCCN4CCOCC4)c12
#INCHI_AUX N/A
#Library_Class 1
#SpectrumID CCMSLIB00000080497
#IonMode Positive
#UpdateWorkflowName UPDATE-SINGLE-ANNOTATED-GOLD
#LibraryQualityString Gold
#TaskID b1d8e8f6646f4e71acdff9ca3d919d08
##Scan# 1674
#SpectrumFile p2-G09_GG9_01_18057.mzXML
#LibraryName NIH_Natural_Products_Library.mgf
#MQScore -1
#Organism NIH_Natural_Products_Library
#TIC_Query 0
#RT_Query -1
#MZErrorPPM -1
#SharedPeaks 0
#MassDiff 0
#LibMZ -1
#SpecMZ 445.234
#SpecCharge 0
#internalFilename spec-00000.mgf

>collision 0
98.0599 1.03
100.0761 24.21
113.0835 3.09
114.0916 8.82
141.101 0.85
147.0793 1.22
161.0594 2.24
171.1127 20.63
175.0755 2.99
185.0582 0.93
189.0547 3.85
191.0693 2.76
202.0854 0.87
203.0703 18.48
204.0735 3.27
206.0799 2.04
213.0528 0.84
215.0703 0.82
217.0492 3.74
218.0554 1.09
219.0658 17.61
230.0808 2.75
231.066 48.17
232.0689 7.75
233.0771 1.27
245.1164 1.6
248.0911 1.67
256.0968 2.38
258.0758 5.11
259.0602 7.66
260.0902 5.97
273.1109 1.41
274.1138 7.43
284.0915 3.11
287.1281 15.18
290.1024 5.15
302.1031 100.0
315.122 3.5
358.1654 34.26
371.1597 0.87
389.1697 3.07
445.2331 26.79
