>compound Omeprazole (Prilosec)
>formula C17H19N3O3S
>ionization [M+Na]+
>parentmass 368.105377
#inchi InChI=1S/C17H19N3O3S/c1-10-8-18-15(11(2)16(10)23-4)9-24(21)17-19-13-6-5-12(22-3)7-14(13)20-17/h5-8H,9H2,1-4H3,(H,19,20)
#inchikey SUBDBMMJDZJVOS
#Ion_Source LC-ESI
#Instrument qTof
#Compound_Source Commercial
#PI Dorrestein
#Data_Collector Garg_Neha
#Scan -1
#Precursor_MZ 368.104
#ExactMass 345.115
#Charge 1
#CAS_Number 73590-58-6
#Pubmed_ID N/A
#Smiles C1=C(C=C2C(=C1)NC(=N2)S(=O)CC3=C(C(=C(C=N3)C)OC)C)OC
#INCHI_AUX N/A
#Library_Class 1
#SpectrumID CCMSLIB00000078132
#IonMode Positive
#UpdateWorkflowName UPDATE-SINGLE-ANNOTATED-GOLD
#LibraryQualityString Gold
#TaskID 77f51c88eb8b467eb4a01dd2d0cb90d2
##Scan# 1082
#SpectrumFile Plate2_41_60_GG7_01_16495.mzXML
#LibraryName FDALibrary_2_04302014.mgf
#MQScore -1
#Organism FDALibrary_2_04302014
#TIC_Query 0
#RT_Query -1
#MZErrorPPM -1
#SharedPeaks 0
#MassDiff 0
#LibMZ -1
#SpecMZ 368.104
#SpecCharge 0
#internalFilename spec-00000.mgf

>collision 0
188.0702 6.88
190.084 100.0
191.0903 12.2
201.0093 22.0
202.0164 8.97
207.1106 5.11
208.1057 6.05
218.0124 50.47
220.0393 33.79
282.1199 4.28
350.0926 19.6
351.103 7.72
352.0851 5.84
368.1054 167.88
