>compound MLS001160253-01!N-[(2,4-dimethoxyphenyl)methyl]-2-[(5-hydroxy-2,2-dimethyl-4-oxo-3H-chromen-7-yl)oxy]acetamide
>formula C22H25NO7
>ionization [M+H]+
>parentmass 416.171
#inchi InChI=1S/C22H25NO7/c1-22(2)10-17(25)21-16(24)7-15(9-19(21)30-22)29-12-20(26)23-11-13-5-6-14(27-3)8-18(13)28-4/h5-9,24H,10-12H2,1-4H3,(H,23,26)
#inchikey OZKNFEFLIVJPPF
#Ion_Source LC-ESI
#Instrument qTof
#Compound_Source NIH Natural Product Library
#PI Dorrestein
#Data_Collector VVP/LMS
#Scan -1
#Precursor_MZ 416.171
#ExactMass 415.163
#Charge 1
#CAS_Number N/A
#Pubmed_ID N/A
#Smiles COc1ccc(CNC(=O)COc2cc(O)c3C(=O)CC(C)(C)Oc3c2)c(OC)c1
#INCHI_AUX N/A
#Library_Class 1
#SpectrumID CCMSLIB00000079646
#IonMode Positive
#UpdateWorkflowName UPDATE-SINGLE-ANNOTATED-GOLD
#LibraryQualityString Gold
#TaskID b1d8e8f6646f4e71acdff9ca3d919d08
##Scan# 2336
#SpectrumFile p1-C09_GC9_01_17905.mzXML
#LibraryName NIH_Natural_Products_Library.mgf
#MQScore -1
#Organism NIH_Natural_Products_Library
#TIC_Query 0
#RT_Query -1
#MZErrorPPM -1
#SharedPeaks 0
#MassDiff 0
#LibMZ -1
#SpecMZ 416.171
#SpecCharge 0
#internalFilename spec-00000.mgf

>collision 0
103.0562 0.26
106.0429 0.82
107.0846 0.98
117.0697 0.4
119.0862 4.08
121.0658 40.61
136.0508 0.87
139.076 1.52
151.0766 100.0
209.0819 0.44
416.171 0.0
