>compound MLS001148180-01!ANTAZOLINE PHOSPHATE
>formula C17H19N3
>ionization [M+H]+
>parentmass 266.163574
#inchi InChI=1S/C17H19N3/c1-3-7-15(8-4-1)13-20(14-17-18-11-12-19-17)16-9-5-2-6-10-16/h1-10H,11-14H2,(H,18,19)
#inchikey REYFJDPCWQRWAA
#origInchi InChI=1S/C17H19N3.H3O4P/c1-3-7-15(8-4-1)13-20(14-17-18-11-12-19-17)16-9-5-2-6-10-16;1-5(2,3)4/h1-10H,11-14H2,(H,18,19);(H3,1,2,3,4)
#Ion_Source LC-ESI
#Instrument qTof
#Compound_Source NIH Pharmacologically Active Library
#PI Dorrestein
#Data_Collector VP/LMS
#Scan -1
#Precursor_MZ 266.167
#ExactMass 265.158
#Charge 1
#CAS_Number N/A
#Pubmed_ID N/A
#Smiles C(N(Cc1ccccc1)c2ccccc2)C3=NCCN3.OP(=O)(O)O
#INCHI_AUX N/A
#Library_Class 1
#SpectrumID CCMSLIB00000085118
#IonMode Positive
#UpdateWorkflowName UPDATE-SINGLE-ANNOTATED-GOLD
#LibraryQualityString Gold
#TaskID d252d724072548979f1f6f1ced849daf
##Scan# 1616
#SpectrumFile p3-F02_GF2_01_18283.mzXML
#LibraryName Pharm_Active_Library.mgf
#MQScore -1
#Organism Pharm_Active_Library
#TIC_Query 0
#RT_Query -1
#MZErrorPPM -1
#SharedPeaks 0
#MassDiff 0
#LibMZ -1
#SpecMZ 266.167
#SpecCharge 0
#internalFilename spec-00000.mgf

>collision 0
91.0537 100.0
118.0635 6.77
179.0858 1.68
180.0815 2.96
196.1106 86.66
266.1636 1.03
