>compound MLS001332578-01!Salmeterol xinafoate94749-08-3
>formula C25H37NO4
>ionization [M+H]+
>parentmass 416.278503
#inchi InChI=1S/C25H37NO4/c27-20-23-18-22(13-14-24(23)28)25(29)19-26-15-7-1-2-8-16-30-17-9-6-12-21-10-4-3-5-11-21/h3-5,10-11,13-14,18,25-29H,1-2,6-9,12,15-17,19-20H2
#inchikey GIIZNNXWQWCKIB
#origInchi InChI=1S/C25H37NO4.C11H8O3/c27-20-23-18-22(13-14-24(23)28)25(29)19-26-15-7-1-2-8-16-30-17-9-6-12-21-10-4-3-5-11-21;12-10-8-4-2-1-3-7(8)5-6-9(10)11(13)14/h3-5,10-11,13-14,18,25-29H,1-2,6-9,12,15-17,19-20H2;1-6,12H,(H,13,14)
#Ion_Source LC-ESI
#Instrument qTof
#Compound_Source NIH Pharmacologically Active Library
#PI Dorrestein
#Data_Collector VP/LMS
#Scan -1
#Precursor_MZ 416.284
#ExactMass 415.272
#Charge 1
#CAS_Number N/A
#Pubmed_ID N/A
#Smiles OCc1cc(ccc1O)C(O)CNCCCCCCOCCCCc2ccccc2.Oc1c(C(O)=O)ccc2ccccc12
#INCHI_AUX N/A
#Library_Class 1
#SpectrumID CCMSLIB00000085122
#IonMode Positive
#UpdateWorkflowName UPDATE-SINGLE-ANNOTATED-GOLD
#LibraryQualityString Gold
#TaskID d252d724072548979f1f6f1ced849daf
##Scan# 1858
#SpectrumFile p3-F02_GF2_01_18283.mzXML
#LibraryName Pharm_Active_Library.mgf
#MQScore -1
#Organism Pharm_Active_Library
#TIC_Query 0
#RT_Query -1
#MZErrorPPM -1
#SharedPeaks 0
#MassDiff 0
#LibMZ -1
#SpecMZ 416.284
#SpecCharge 0
#internalFilename spec-00000.mgf

>collision 0
91.0542 41.55
103.054 4.03
105.0697 21.67
107.0484 2.89
107.0845 3.69
115.0544 4.71
117.0691 5.69
118.0643 2.48
119.0492 2.94
120.0805 4.29
121.0649 20.38
129.0695 3.42
130.0645 5.14
131.0853 16.49
133.0642 64.45
135.0799 41.11
145.0639 4.78
145.1001 11.19
146.0602 6.55
147.0687 22.18
148.0752 51.5
159.0805 5.08
160.0757 17.08
162.091 17.45
171.0802 3.06
174.0912 2.77
185.0965 2.0
188.1062 3.28
202.1212 2.24
202.1595 2.17
230.1536 81.95
232.1695 100.0
248.164 39.09
380.2581 68.41
398.2687 12.69
416.2795 0.23
