>compound MLS001401456-01!IMATINIB MESYLATE
>formula C29H31N7O
>ionization [M+H]+
>parentmass 494.264343
#inchi InChI=1S/C29H31N7O/c1-21-5-10-25(18-27(21)34-29-31-13-11-26(33-29)24-4-3-12-30-19-24)32-28(37)23-8-6-22(7-9-23)20-36-16-14-35(2)15-17-36/h3-13,18-19H,14-17,20H2,1-2H3,(H,32,37)(H,31,33,34)
#inchikey KTUFNOKKBVMGRW
#origInchi InChI=1S/C29H31N7O.CH4O3S/c1-21-5-10-25(18-27(21)34-29-31-13-11-26(33-29)24-4-3-12-30-19-24)32-28(37)23-8-6-22(7-9-23)20-36-16-14-35(2)15-17-36;1-5(2,3)4/h3-13,18-19H,14-17,20H2,1-2H3,(H,32,37)(H,31,33,34);1H3,(H,2,3,4)
#Ion_Source LC-ESI
#Instrument qTof
#Compound_Source NIH Pharmacologically Active Library
#PI Dorrestein
#Data_Collector VP/LMS
#Scan -1
#Precursor_MZ 494.271
#ExactMass 493.259
#Charge 1
#CAS_Number N/A
#Pubmed_ID N/A
#Smiles CN1CCN(Cc2ccc(cc2)C(=O)Nc3ccc(C)c(Nc4nccc(n4)c5cccnc5)c3)CC1.CS(=O)(=O)O
#INCHI_AUX N/A
#Library_Class 1
#SpectrumID CCMSLIB00000085719
#IonMode Positive
#UpdateWorkflowName UPDATE-SINGLE-ANNOTATED-GOLD
#LibraryQualityString Gold
#TaskID d252d724072548979f1f6f1ced849daf
##Scan# 1399
#SpectrumFile p4-E07_GE7_01_18379.mzXML
#LibraryName Pharm_Active_Library.mgf
#MQScore -1
#Organism Pharm_Active_Library
#TIC_Query 0
#RT_Query -1
#MZErrorPPM -1
#SharedPeaks 0
#MassDiff 0
#LibMZ -1
#SpecMZ 494.271
#SpecCharge 0
#internalFilename spec-00000.mgf

>collision 0
98.0838 1.1
99.0916 2.24
111.09 1.08
118.0401 1.23
119.0464 3.39
131.0589 3.99
194.0982 3.28
210.0933 1.5
217.1334 12.95
221.1072 4.05
222.09 12.41
223.0963 8.4
237.1015 1.43
238.1087 3.54
247.0857 16.18
248.0906 2.62
260.0955 1.41
261.1115 1.05
263.1164 1.56
264.1112 9.37
266.1037 1.01
274.0994 3.1
275.1018 1.79
290.1276 5.68
350.1388 1.46
352.1522 0.99
362.1368 1.16
367.1662 1.14
376.1519 1.86
377.1371 3.42
378.136 13.17
379.14 13.99
381.1452 1.46
394.1654 100.0
396.1728 3.86
476.259 3.38
494.2647 15.89
