>compound MLS001146639-01!2,6-dimethoxy-N-(2-pyridin-3-ylpiperidine-1-carbothioyl)benzamide
>formula C20H23N3O3S
>ionization [M+H]+
>parentmass 386.154
#inchi InChI=1S/C20H23N3O3S/c1-25-16-9-5-10-17(26-2)18(16)19(24)22-20(27)23-12-4-3-8-15(23)14-7-6-11-21-13-14/h5-7,9-11,13,15H,3-4,8,12H2,1-2H3,(H,22,24,27)
#inchikey YUCKYAMVMGWKSX
#Ion_Source LC-ESI
#Instrument qTof
#Compound_Source NIH Natural Product Library
#PI Dorrestein
#Data_Collector VVP/LMS
#Scan -1
#Precursor_MZ 386.154
#ExactMass 385.146
#Charge 1
#CAS_Number N/A
#Pubmed_ID N/A
#Smiles COc1cccc(OC)c1C(=O)NC(=S)N2CCCCC2c3cccnc3
#INCHI_AUX N/A
#Library_Class 1
#SpectrumID CCMSLIB00000079374
#IonMode Positive
#UpdateWorkflowName UPDATE-SINGLE-ANNOTATED-GOLD
#LibraryQualityString Gold
#TaskID b1d8e8f6646f4e71acdff9ca3d919d08
##Scan# 1637
#SpectrumFile p1-C05_GC5_01_17901.mzXML
#LibraryName NIH_Natural_Products_Library.mgf
#MQScore -1
#Organism NIH_Natural_Products_Library
#TIC_Query 0
#RT_Query -1
#MZErrorPPM -1
#SharedPeaks 0
#MassDiff 0
#LibMZ -1
#SpecMZ 386.154
#SpecCharge 0
#internalFilename spec-00000.mgf

>collision 0
105.0335 0.28
107.0135 3.96
109.0648 0.76
117.0573 0.87
118.0652 2.02
120.0808 2.42
122.0368 5.53
129.0695 0.22
130.0651 1.33
131.0727 0.94
132.0805 0.64
135.044 1.63
137.0579 0.27
144.0812 0.8
146.096 6.46
147.0553 4.59
150.0319 23.59
161.1076 0.52
163.1233 3.44
165.0556 100.0
175.0502 1.16
246.1225 2.07
386.1526 0.0
