>compound NCGC00160314-01!1,2,3,4-Tetrahydro-6,7-dimethoxy-1-methylisoquinolinyl-8,12dihydro-5,6-epoxy-2-hydroxyalantolactone
>formula C27H37NO5
>ionization [M+H]+
>parentmass 456.274933
#inchi InChI=1S/C27H37NO5/c1-15-7-6-9-26(3)13-22-23(24-27(15,26)33-24)19(25(29)32-22)14-28-10-8-17-11-20(30-4)21(31-5)12-18(17)16(28)2/h11-12,15-16,19,22-24H,6-10,13-14H2,1-5H3/t15-,16-,19+,22+,23+,24-,26+,27-/m0/s1
#inchikey ZFZHYNHHVLSRHQ
#Ion_Source LC-ESI
#Instrument qTOF
#Compound_Source Prestwick Phytochem Lib
#PI Dorrestein
#Data_Collector VVP/LMS
#Scan -1
#Precursor_MZ 456.275
#ExactMass 455.267
#Charge 1
#CAS_Number N/A
#Pubmed_ID N/A
#Smiles COC1=C(OC)C=C2[C@H](C)N(C[C@@H]3[C@H]4[C@@H]5O[C@@]56[C@@H](C)CCC[C@]6(C)C[C@H]4OC3=O)CCC2=C1
#INCHI_AUX N/A
#Library_Class 1
#SpectrumID CCMSLIB00000078799
#IonMode Positive
#UpdateWorkflowName UPDATE-SINGLE-ANNOTATED-GOLD
#LibraryQualityString Gold
#TaskID 67c915c6594c435cadc1fe2b5358144d
##Scan# 1873
#SpectrumFile p1-C04_GC4_01_17900.mzXML
#LibraryName phytochem_lib.mgf
#MQScore -1
#Organism phytochem_lib
#TIC_Query 0
#RT_Query -1
#MZErrorPPM -1
#SharedPeaks 0
#MassDiff 0
#LibMZ -1
#SpecMZ 456.275
#SpecCharge 0
#internalFilename spec-00000.mgf

>collision 0
105.0702 4.82
109.1019 2.4
121.0661 4.59
131.0851 4.13
133.1008 2.15
143.0865 2.31
145.065 2.98
145.1012 3.58
147.0804 4.19
150.0665 2.46
157.1019 2.54
159.0807 3.8
159.1164 6.47
160.0887 22.67
161.0606 2.13
164.0827 4.67
165.0913 10.67
174.0899 2.8
176.0828 14.22
178.0981 11.99
179.1067 20.48
185.1332 6.29
188.107 7.36
189.1153 8.36
190.0866 8.63
191.1062 51.01
193.122 17.85
203.1431 11.77
205.1094 5.57
207.1252 5.33
208.1329 4.13
213.1284 3.11
217.1239 2.48
220.1337 100.0
231.1384 4.66
235.1337 3.27
249.1486 10.42
260.164 2.91
278.1748 59.39
438.2603 3.3
456.2744 120.57
