>compound ethyl 8-fluoro-5-methyl-6-oxo-4H-imidazo[1,5-a][1,4]benzodiazepine-3-carboxylate
>formula C15H14FN3O3
>ionization [M+H]+
>parentmass 304.10919598009053
#inchi InChI=1S/C15H14FN3O3/c1-3-22-15(21)13-12-7-18(2)14(20)10-6-9(16)4-5-11(10)19(12)8-17-13/h4-6,8H,3,7H2,1-2H3
#inchikey OFBIFZUFASYYRE
#Ion_Source LC-ESI
#Instrument qTof
#Compound_Source Commercial
#PI Dorrestein
#Data_Collector Garg_Neha
#Scan -1
#Precursor_MZ 304.109
#ExactMass 303.102
#Charge 1
#CAS_Number N/A
#Pubmed_ID N/A
#Smiles CCOC(=O)c1ncn-2c1CN(C)C(=O)c3cc(F)ccc32
#INCHI_AUX N/A
#Library_Class 1
#SpectrumID CCMSLIB00000078915
#IonMode Positive
#UpdateWorkflowName UPDATE-SINGLE-ANNOTATED-GOLD
#LibraryQualityString Gold
#TaskID 278b19f5865741e282cec7349aa7e7a1
##Scan# 1142
#SpectrumFile NCP003272_A2_B11_BB8_01_15713.mzXML
#LibraryName NIHcollectionI_05062014.mgf
#MQScore -1
#Organism NIHcollectionI_05062014
#TIC_Query 0
#RT_Query -1
#MZErrorPPM -1
#SharedPeaks 0
#MassDiff 0
#LibMZ -1
#SpecMZ 304.109
#SpecCharge 0
#internalFilename spec-00000.mgf

>collision 0
134.0403 0.58
148.0556 1.45
162.035 2.61
173.0505 2.38
175.0677 1.37
187.0304 0.33
189.0459 12.36
201.0457 5.13
202.0764 1.4
203.0614 6.75
215.0251 1.81
217.0413 51.98
229.0407 19.05
230.0725 6.29
231.0564 1.69
241.0404 2.03
258.0686 90.73
276.0791 100.0
304.1109 91.86
