>compound Budesonide
>formula C25H34O6 
>ionization [M+H]+
>parentmass 431.24281526009054
#inchi InChI=1S/C25H34O6/c1-4-5-21-30-20-11-17-16-7-6-14-10-15(27)8-9-23(14,2)22(16)18(28)12-24(17,3)25(20,31-21)19(29)13-26/h8-10,16-18,20-22,26,28H,4-7,11-13H2,1-3H3/t16-,17-,18-,20+,21?,22+,23-,24-,25+/m0/s1
#inchikey VOVIALXJUBGFJZ
#Ion_Source LC-ESI
#Instrument qTof
#Compound_Source Isolated
#PI Sirenas
#Data_Collector Ed Esquenazi 
#Scan -1
#Precursor_MZ 431.245
#ExactMass 0.0
#Charge 1
#CAS_Number N/A
#Pubmed_ID N/A
#Smiles N/A
#INCHI_AUX N/A
#Library_Class 3
#SpectrumID CCMSLIB00000004382
#IonMode Positive
#UpdateWorkflowName UPDATE-SINGLE-ANNOTATED-BRONZE
#LibraryQualityString Bronze
#TaskID d19310cd93df49b68e9fcbec27720eb5
##Scan# 3
#SpectrumFile Budesonide.mgf
#LibraryName fda_library.mgf
#MQScore -1
#Organism fda_library
#TIC_Query 0
#RT_Query -1
#MZErrorPPM -1
#SharedPeaks 0
#MassDiff 0
#LibMZ -1
#SpecMZ 431.245
#SpecCharge 0
#internalFilename spec-00000.mgf

>collision 0
105.0698 6.85
107.0857 8.73
109.0646 6.99
117.0704 4.66
119.0854 13.11
121.0649 46.41
123.0805 2.8
131.0852 4.92
133.0646 4.41
135.0803 19.24
143.0854 5.67
145.0644 9.27
145.1017 8.45
147.0806 100.0
155.0851 5.37
157.1018 2.91
158.0726 7.33
159.0804 15.68
161.0965 8.86
171.0804 39.44
173.0961 51.59
179.0849 2.9
185.0963 8.11
187.1119 3.8
192.093 4.52
193.1005 2.59
195.0798 7.26
197.0969 8.28
198.1026 8.27
207.1172 7.46
208.0876 2.74
209.0953 6.96
210.1049 7.12
211.112 16.92
213.1273 4.51
219.1174 3.16
221.0958 6.86
222.1026 5.83
223.1108 6.99
224.119 3.24
225.127 18.33
234.1047 3.73
235.1117 10.91
237.127 11.39
239.1437 4.72
247.1108 3.0
248.1191 7.33
249.127 6.93
251.1429 3.19
262.1357 4.43
263.1428 5.6
277.1589 4.47
431.2427 0.0
