>compound MitoxantroneHCl
>formula C22H28N4O6 
>ionization [M+H]+
>parentmass 445.210083
#inchi InChI=1S/C22H28N4O6/c27-11-9-23-5-7-25-13-1-2-14(26-8-6-24-10-12-28)18-17(13)21(31)19-15(29)3-4-16(30)20(19)22(18)32/h1-4,23-30H,5-12H2
#inchikey KKZJGLLVHKMTCM
#Ion_Source LC-ESI
#Instrument qTof
#Compound_Source Isolated
#PI Sirenas
#Data_Collector Ed Esquenazi 
#Scan -1
#Precursor_MZ 445.21
#ExactMass 0.0
#Charge 1
#CAS_Number N/A
#Pubmed_ID N/A
#Smiles N/A
#INCHI_AUX N/A
#Library_Class 3
#SpectrumID CCMSLIB00000005212
#IonMode Positive
#UpdateWorkflowName UPDATE-SINGLE-ANNOTATED-BRONZE
#LibraryQualityString Bronze
#TaskID d19310cd93df49b68e9fcbec27720eb5
##Scan# 2
#SpectrumFile MitoxantroneHCl.mgf
#LibraryName fda_library.mgf
#MQScore -1
#Organism fda_library
#TIC_Query 0
#RT_Query -1
#MZErrorPPM -1
#SharedPeaks 0
#MassDiff 0
#LibMZ -1
#SpecMZ 445.21
#SpecCharge 0
#internalFilename spec-00000.mgf

>collision 0
267.0773 0.53
271.073 1.27
283.0716 3.63
295.0726 3.65
297.0868 27.2
305.0912 1.34
311.1013 1.51
323.1024 12.54
338.1136 1.24
340.1261 0.77
356.1236 7.8
358.1399 100.0
366.1444 0.6
384.155 17.17
427.1987 1.76
445.2081 98.41
