>compound 50-22-6
>formula C21H30O4
>ionization [M+H]+
>parentmass 347.222137
#inchi InChI=1S/C21H30O4/c1-20-8-7-13(23)9-12(20)3-4-14-15-5-6-16(18(25)11-22)21(15,2)10-17(24)19(14)20/h9,14-17,19,22,24H,3-8,10-11H2,1-2H3/t14-,15-,16+,17-,19+,20-,21-/m0/s1
#inchikey OMFXVFTZEKFJBZ
#Ion_Source LC-ESI
#Instrument qTof
#Compound_Source Commercial
#PI Dorrestein
#Data_Collector Garg_Neha
#Scan -1
#Precursor_MZ 347.222
#ExactMass 346.214
#Charge 1
#CAS_Number N/A
#Pubmed_ID N/A
#Smiles C[C@@]12C[C@H](O)[C@H]3[C@@H](CCC4=CC(=O)CC[C@]34C)[C@@H]2CC[C@@H]1C(=O)CO
#INCHI_AUX N/A
#Library_Class 1
#SpectrumID CCMSLIB00000079072
#IonMode Positive
#UpdateWorkflowName UPDATE-SINGLE-ANNOTATED-GOLD
#LibraryQualityString Gold
#TaskID 278b19f5865741e282cec7349aa7e7a1
##Scan# 1236
#SpectrumFile NCP003432_C2_D11_BD1_01_15723.mzXML
#LibraryName NIHcollectionI_05062014.mgf
#MQScore -1
#Organism NIHcollectionI_05062014
#TIC_Query 0
#RT_Query -1
#MZErrorPPM -1
#SharedPeaks 0
#MassDiff 0
#LibMZ -1
#SpecMZ 347.222
#SpecCharge 0
#internalFilename spec-00000.mgf

>collision 0
107.087 13.67
109.0645 12.61
119.0845 9.22
121.0646 27.86
121.1014 13.03
123.08 13.35
128.0611 8.37
129.0704 13.45
135.0805 18.01
141.0686 9.0
143.0869 18.96
145.1013 25.42
147.0802 14.62
147.1153 24.15
157.1018 16.1
159.1186 10.81
165.0926 8.79
169.1016 11.76
171.1166 21.82
177.1271 12.08
183.1168 9.64
187.1127 9.11
195.1393 9.32
201.1271 8.69
227.144 11.23
241.1587 15.04
265.1949 10.06
267.1755 8.58
293.1882 19.81
294.198 10.38
311.1982 59.43
329.2085 100.0
347.2183 570.87
