>compound Mometasone furoate
>formula C27H30Cl2O6
>ionization [M+Na]+
>parentmass 543.129272
#inchi InChI=1S/C27H30Cl2O6/c1-15-11-19-18-7-6-16-12-17(30)8-9-24(16,2)26(18,29)21(31)13-25(19,3)27(15,22(32)14-28)35-23(33)20-5-4-10-34-20/h4-5,8-10,12,15,18-19,21,31H,6-7,11,13-14H2,1-3H3/t15-,18+,19+,21-,24+,25+,26-,27-/m1/s1
#inchikey WOFMFGQZHJDGCX
#Ion_Source LC-ESI
#Instrument qTof
#Compound_Source Commercial
#PI Dorrestein
#Data_Collector Garg_Neha
#Scan -1
#Precursor_MZ 543.131
#ExactMass 520.142
#Charge 1
#CAS_Number 83919-23-7
#Pubmed_ID N/A
#Smiles C1C(C=C2[C@](C=1)([C@]3([C@@](CC2)([C@]4([C@](C[C@H]3O)([C@@]([C@@H](C4)C)(C(CCl)=O)OC(=O)C5=CC=CO5)C)[H])[H])Cl)C)=O
#INCHI_AUX N/A
#Library_Class 1
#SpectrumID CCMSLIB00000078371
#IonMode Positive
#UpdateWorkflowName UPDATE-SINGLE-ANNOTATED-GOLD
#LibraryQualityString Gold
#TaskID 77f51c88eb8b467eb4a01dd2d0cb90d2
##Scan# 2328
#SpectrumFile Plate6_1_20_GD7_01_15774.mzXML
#LibraryName FDALibrary_2_04302014.mgf
#MQScore -1
#Organism FDALibrary_2_04302014
#TIC_Query 0
#RT_Query -1
#MZErrorPPM -1
#SharedPeaks 0
#MassDiff 0
#LibMZ -1
#SpecMZ 543.131
#SpecCharge 0
#internalFilename spec-00000.mgf

>collision 0
179.0817 4.07
180.0926 2.12
186.0656 2.23
223.0724 2.23
235.1094 2.17
245.0765 2.28
262.1395 3.26
290.1617 2.28
293.151 4.51
294.159 3.69
303.1341 5.38
313.1615 7.39
314.1644 2.39
319.1666 5.81
320.1726 2.06
322.1486 2.12
324.1487 2.93
332.172 2.39
349.1675 2.06
382.1066 2.12
395.1373 20.26
396.1333 2.34
397.1362 11.73
399.1547 2.28
413.1492 3.26
507.1539 100.0
543.1304 31.67
