>compound MLS001074064-01!Bentyl
>formula C19H35NO2
>ionization [M+H]+
>parentmass 310.273376
#inchi InChI=1S/C19H35NO2/c1-3-20(4-2)15-16-22-18(21)19(13-9-6-10-14-19)17-11-7-5-8-12-17/h17H,3-16H2,1-2H3
#inchikey CURUTKGFNZGFSE
#origInchi InChI=1S/C19H35NO2.ClH/c1-3-20(4-2)15-16-22-18(21)19(13-9-6-10-14-19)17-11-7-5-8-12-17;/h17H,3-16H2,1-2H3;1H
#Ion_Source LC-ESI
#Instrument qTof
#Compound_Source NIH Pharmacologically Active Library
#PI Dorrestein
#Data_Collector VP/LMS
#Scan -1
#Precursor_MZ 310.28
#ExactMass 309.267
#Charge 1
#CAS_Number N/A
#Pubmed_ID N/A
#Smiles CCN(CC)CCOC(=O)C1(CCCCC1)C2CCCCC2.Cl
#INCHI_AUX N/A
#Library_Class 1
#SpectrumID CCMSLIB00000085644
#IonMode Positive
#UpdateWorkflowName UPDATE-SINGLE-ANNOTATED-GOLD
#LibraryQualityString Gold
#TaskID d252d724072548979f1f6f1ced849daf
##Scan# 1949
#SpectrumFile p4-D09_GD9_01_18369.mzXML
#LibraryName Pharm_Active_Library.mgf
#MQScore -1
#Organism Pharm_Active_Library
#TIC_Query 0
#RT_Query -1
#MZErrorPPM -1
#SharedPeaks 0
#MassDiff 0
#LibMZ -1
#SpecMZ 310.28
#SpecCharge 0
#internalFilename spec-00000.mgf

>collision 0
47.0488 0.33
91.0541 1.16
93.0696 2.86
95.086 22.65
97.1007 4.19
99.0441 1.22
107.0859 1.06
109.102 73.04
111.0807 0.73
119.0855 0.4
123.1162 11.29
125.0607 1.33
133.1013 1.41
155.107 100.0
165.1638 43.02
175.148 5.72
193.1607 1.33
237.1848 58.07
310.2734 9.29
