>compound MLS000701322-01!2-phenyl-1H-indole
>formula C14H11N
>ionization [M+H]+
>parentmass 194.094803
#inchi InChI=1S/C14H11N/c1-2-6-11(7-3-1)14-10-12-8-4-5-9-13(12)15-14/h1-10,15H
#inchikey KLLLJCACIRKBDT
#Ion_Source LC-ESI
#Instrument qTof
#Compound_Source NIH Pharmacologically Active Library
#PI Dorrestein
#Data_Collector VP/LMS
#Scan -1
#Precursor_MZ 194.099
#ExactMass 193.089
#Charge 1
#CAS_Number N/A
#Pubmed_ID N/A
#Smiles c1c([nH]c2ccccc12)c3ccccc3
#INCHI_AUX N/A
#Library_Class 1
#SpectrumID CCMSLIB00000086015
#IonMode Positive
#UpdateWorkflowName UPDATE-SINGLE-ANNOTATED-GOLD
#LibraryQualityString Gold
#TaskID d252d724072548979f1f6f1ced849daf
##Scan# 2353
#SpectrumFile p5-B03_GB3_01_18442.mzXML
#LibraryName Pharm_Active_Library.mgf
#MQScore -1
#Organism Pharm_Active_Library
#TIC_Query 0
#RT_Query -1
#MZErrorPPM -1
#SharedPeaks 0
#MassDiff 0
#LibMZ -1
#SpecMZ 194.099
#SpecCharge 0
#internalFilename spec-00000.mgf

>collision 0
89.0387 3.21
90.0456 2.62
116.05 20.82
117.0586 25.08
128.0619 4.37
139.0527 2.65
141.0685 6.22
151.0526 5.13
152.0633 48.17
165.071 73.7
166.0762 17.01
167.0857 38.0
178.0759 6.74
194.0948 52.67
