>compound Riboflavin
>formula C17H20N4O6 
>ionization [M+H]+
>parentmass 377.1455608120905
#inchi InChI=1S/C17H20N4O6/c1-7-3-9-10(4-8(7)2)21(5-11(23)14(25)12(24)6-22)15-13(18-9)16(26)20-17(27)19-15/h3-4,11-12,14,22-25H,5-6H2,1-2H3,(H,20,26,27)/t11-,12+,14-/m0/s1
#inchikey AUNGANRZJHBGPY
#Ion_Source DI-ESI
#Instrument LTQ-FT-ICR
#Compound_Source Crude
#PI Dorrestein
#Data_Collector J Watrous
#Scan -1
#Precursor_MZ 377.319
#ExactMass 0.0
#Charge 1
#CAS_Number N/A
#Pubmed_ID N/A
#Smiles N/A
#INCHI_AUX N/A
#Library_Class 3
#SpectrumID CCMSLIB00000072245
#IonMode Positive
#UpdateWorkflowName UPDATE-SINGLE-ANNOTATED-BRONZE
#LibraryQualityString Bronze
#TaskID 3bbf0c46eeeb406782b2f3cd0ad9b2b3
##Scan# 1
#SpectrumFile Riboflavin_1H_LTQ_377_3188.mzXML
#LibraryName gnps_library.mgf
#MQScore -1
#Organism GNPS_JDW_Batch_Library_Centroid
#TIC_Query 0
#RT_Query -1
#MZErrorPPM -1
#SharedPeaks 0
#MassDiff 0
#LibMZ -1
#SpecMZ 377.319
#SpecCharge 0
#internalFilename spec-00000.mgf

>collision 0
215.0 4.56
230.0 5.35
244.0833 11.26
245.0833 5.95
248.0833 4.59
255.0833 2.96
257.0 4.41
262.0833 9.04
263.0 8.61
306.0833 5.86
313.0833 2.5
316.0833 2.91
318.0833 3.35
319.0833 2.56
321.0833 4.03
333.0 5.18
342.0833 5.9
377.1456 0.0
