>compound Docetaxel
>formula C43H53NO14 
>ionization [M+H]+
>parentmass 808.3538818280905
#inchi InChI=1S/C43H53NO14/c1-22-26(55-37(51)32(48)30(24-15-11-9-12-16-24)44-38(52)58-39(3,4)5)20-43(53)35(56-36(50)25-17-13-10-14-18-25)33-41(8,34(49)31(47)29(22)40(43,6)7)27(46)19-28-42(33,21-54-28)57-23(2)45/h9-18,26-28,30-33,35,46-48,53H,19-21H2,1-8H3,(H,44,52)/t26-,27-,28+,30-,31+,32+,33-,35-,41+,42-,43+/m0/s1
#inchikey ZDZOTLJHXYCWBA
#Ion_Source LC-ESI
#Instrument qTof
#Compound_Source Isolated
#PI Sirenas
#Data_Collector Ed Esquenazi 
#Scan -1
#Precursor_MZ 808.35
#ExactMass 0.0
#Charge 1
#CAS_Number N/A
#Pubmed_ID N/A
#Smiles N/A
#INCHI_AUX N/A
#Library_Class 3
#SpectrumID CCMSLIB00000005881
#IonMode Positive
#UpdateWorkflowName UPDATE-SINGLE-ANNOTATED-BRONZE
#LibraryQualityString Bronze
#TaskID d19310cd93df49b68e9fcbec27720eb5
##Scan# 2
#SpectrumFile Docetaxel.mgf
#LibraryName fda_library.mgf
#MQScore -1
#Organism fda_library
#TIC_Query 0
#RT_Query -1
#MZErrorPPM -1
#SharedPeaks 0
#MassDiff 0
#LibMZ -1
#SpecMZ 808.35
#SpecCharge 0
#internalFilename spec-00000.mgf

>collision 0
105.0322 36.13
136.0732 5.67
147.0789 2.62
149.0578 8.75
151.1113 3.34
165.0536 10.56
177.0542 4.99
179.107 3.52
180.0631 11.73
182.0787 91.77
208.0563 7.48
209.0902 2.64
226.0687 71.55
239.1011 2.95
251.0999 3.14
255.1362 3.69
269.1147 15.98
281.1495 16.15
286.1047 14.76
287.1253 6.88
299.1628 16.33
327.1556 100.0
330.0931 8.45
345.1652 49.33
347.1487 3.73
363.1778 6.49
369.1662 5.43
387.1762 35.1
405.187 34.7
431.181 19.06
449.1914 31.45
467.2017 18.67
491.1998 9.68
509.2113 34.18
527.2226 37.53
586.2571 4.11
690.2806 4.83
708.2913 7.14
716.2598 2.69
734.2751 3.84
752.2838 14.85
808.3472 90.39
