>compound Hoiamide B
>formula C45H73N5O10S3 
>ionization [M+H]+
>parentmass 940.4592329880904
#inchi InChI=1S/C45H73N5O10S3/c1-14-17-24(6)34(52)26(8)37-25(7)30(58-13)18-31-46-29(19-61-31)39-49-45(12,21-62-39)43-50-44(11,20-63-43)42(57)48-32(22(4)15-2)35(53)27(9)40(55)59-36(23(5)16-3)38(54)47-33(28(10)51)41(56)60-37/h19,22-28,30,32-37,51-53H,14-18,20-21H2,1-13H3,(H,47,54)(H,48,57)/t22-,23-,24+,25-,26-,27+,28+,30-,32-,33-,34-,35-,36-,37-,44+,45+/m0/s1
#inchikey KNGPFNUOXXLKCN
#Ion_Source LC-ESI
#Instrument qToF
#Compound_Source Isolated
#PI Dorrestein/Gerwick
#Data_Collector Luzzatto/Garg
#Scan -1
#Precursor_MZ 940.472
#ExactMass 939.452
#Charge 1
#CAS_Number N/A
#Pubmed_ID 20687534
#Smiles N/A
#INCHI_AUX N/A
#Library_Class 2
#SpectrumID CCMSLIB00000070258
#IonMode Positive
#UpdateWorkflowName UPDATE-SINGLE-ANNOTATED-SILVER
#LibraryQualityString Silver
#TaskID 6c7cf0ddbcd944488b3f58728dc48405
##Scan# 3607
#SpectrumFile 1B5_HoiamideB_MH_ 940.mzXML
#LibraryName gnps_library.mgf
#MQScore -1
#Organism Dorrestein_TLK_Lib
#TIC_Query 0
#RT_Query -1
#MZErrorPPM -1
#SharedPeaks 0
#MassDiff 0
#LibMZ -1
#SpecMZ 940.472
#SpecCharge 0
#internalFilename spec-00000.mgf

>collision 0
163.1483 9.4
281.1317 12.24
299.1411 14.01
359.1603 36.13
371.1432 10.2
377.1715 40.51
391.1873 10.77
409.197 46.21
503.1961 19.61
508.2126 14.25
521.2055 19.95
535.2216 11.17
553.2314 37.15
554.2342 9.56
575.2159 14.88
607.2447 12.54
613.3052 15.53
651.309 11.54
657.2971 29.33
658.2957 10.47
663.341 18.37
675.3058 15.06
689.3203 32.67
690.3221 9.51
707.3331 39.19
708.3344 18.86
725.3415 9.73
790.3397 9.66
808.3437 59.24
809.3466 23.34
840.3708 22.55
841.3748 9.31
844.4297 9.63
872.4073 12.44
876.4578 15.45
890.4216 74.7
891.4243 39.41
892.421 16.77
894.4698 37.74
904.434 15.06
908.4316 38.22
909.4297 21.38
910.4359 9.9
922.4479 100.0
923.4525 46.4
940.4612 1061.56
