>compound Flurbiprofen (Ansaid)
>formula C15H13FO2
>ionization [M+H]+
>parentmass 245.09723432809054
#inchi InChI=1S/C15H13FO2/c1-10(15(17)18)12-7-8-13(14(16)9-12)11-5-3-2-4-6-11/h2-10H,1H3,(H,17,18)/t10-/m1/s1
#inchikey SYTBZMRGLBWNTM
#Ion_Source LC-ESI
#Instrument qTof
#Compound_Source Commercial
#PI Dorrestein
#Data_Collector Garg_Neha
#Scan -1
#Precursor_MZ 245.097
#ExactMass 244.09
#Charge 1
#CAS_Number 5104-49-4
#Pubmed_ID N/A
#Smiles C1=C(C(=CC(=C1)[C@](C(O)=O)(C)[H])F)C2=CC=CC=C2
#INCHI_AUX N/A
#Library_Class 1
#SpectrumID CCMSLIB00000078237
#IonMode Positive
#UpdateWorkflowName UPDATE-SINGLE-ANNOTATED-GOLD
#LibraryQualityString Gold
#TaskID 77f51c88eb8b467eb4a01dd2d0cb90d2
##Scan# 1745
#SpectrumFile Plate4_1_20_GH2_01_16503.mzXML
#LibraryName FDALibrary_2_04302014.mgf
#MQScore -1
#Organism FDALibrary_2_04302014
#TIC_Query 0
#RT_Query -1
#MZErrorPPM -1
#SharedPeaks 0
#MassDiff 0
#LibMZ -1
#SpecMZ 245.097
#SpecCharge 0
#internalFilename spec-00000.mgf

>collision 0
109.0653 4.04
159.0585 5.41
171.0623 2.97
177.0721 3.05
178.076 57.16
179.0844 30.64
183.0606 16.01
188.0814 3.13
197.0778 10.37
199.091 100.0
245.0948 3.05
