>compound MLS001160037-01!
>formula C27H30N2O5
>ionization [M+H]+
>parentmass 463.22464
#inchi InChI=1S/C27H30N2O5/c1-3-4-6-19-12-26(32)34-27-17(2)23(10-9-21(19)27)33-16-25(31)28-13-18-11-20(15-28)22-7-5-8-24(30)29(22)14-18/h5,7-10,12,18,20H,3-4,6,11,13-16H2,1-2H3/t18-,20+/m1/s1
#inchikey VZXXKDXPNLDDQT
#Ion_Source LC-ESI
#Instrument qTof
#Compound_Source NIH Natural Product Library
#PI Dorrestein
#Data_Collector VVP/LMS
#Scan -1
#Precursor_MZ 463.223
#ExactMass 462.215
#Charge 1
#CAS_Number N/A
#Pubmed_ID N/A
#Smiles CCCCc1cc(=O)oc2c(C)c(OCC(=O)N3C[C@H]4C[C@@H](C3)c5cccc(=O)n5C4)ccc12
#INCHI_AUX N/A
#Library_Class 1
#SpectrumID CCMSLIB00000080360
#IonMode Positive
#UpdateWorkflowName UPDATE-SINGLE-ANNOTATED-GOLD
#LibraryQualityString Gold
#TaskID b1d8e8f6646f4e71acdff9ca3d919d08
##Scan# 1963
#SpectrumFile p2-G07_GG7_01_18055.mzXML
#LibraryName NIH_Natural_Products_Library.mgf
#MQScore -1
#Organism NIH_Natural_Products_Library
#TIC_Query 0
#RT_Query -1
#MZErrorPPM -1
#SharedPeaks 0
#MassDiff 0
#LibMZ -1
#SpecMZ 463.223
#SpecCharge 0
#internalFilename spec-00000.mgf

>collision 0
108.0444 0.63
109.0514 2.22
110.0559 0.56
115.0542 0.56
117.0572 0.64
118.0642 0.75
121.0384 0.63
122.0601 3.24
123.0651 1.35
129.0687 0.59
132.0421 1.86
132.0808 0.59
133.052 3.55
134.0594 8.2
135.0654 1.53
136.0734 0.49
144.0816 0.55
145.0875 0.59
146.0598 31.28
147.0662 19.36
148.0741 6.08
149.0717 1.73
158.0601 0.56
159.0678 2.73
159.1161 0.8
160.0758 13.36
162.0912 1.58
163.0993 0.63
172.0759 4.3
173.0835 21.52
174.0881 3.57
175.0486 0.72
187.1109 2.51
188.0725 2.6
189.1031 100.0
190.1062 17.86
191.116 6.64
203.0787 0.91
203.1174 2.34
217.1213 3.28
231.1127 3.77
233.1251 1.45
245.1171 10.28
298.1459 0.75
463.2259 50.85
