>compound MLS000697747-01!2-methoxy-4-[(2S,3S)-7-methoxy-3-methyl-5-[(E)-prop-1-enyl]-2,3-dihydro-1-benzofuran-2-yl]phenol
>formula C20H22O4
>ionization [M+H]+
>parentmass 327.16
#inchi InChI=1S/C20H22O4/c1-5-6-13-9-15-12(2)19(24-20(15)18(10-13)23-4)14-7-8-16(21)17(11-14)22-3/h5-12,19,21H,1-4H3/b6-5+/t12-,19-/m0/s1
#inchikey ITDOFWOJEDZPCF
#Ion_Source LC-ESI
#Instrument qTof
#Compound_Source NIH Natural Product Library
#PI Dorrestein
#Data_Collector VVP/LMS
#Scan -1
#Precursor_MZ 327.16
#ExactMass 326.152
#Charge 1
#CAS_Number N/A
#Pubmed_ID N/A
#Smiles COc1cc(/C=C/C)cc2[C@H](C)[C@H](Oc21)c3ccc(O)c(OC)c3
#INCHI_AUX N/A
#Library_Class 1
#SpectrumID CCMSLIB00000080055
#IonMode Positive
#UpdateWorkflowName UPDATE-SINGLE-ANNOTATED-GOLD
#LibraryQualityString Gold
#TaskID b1d8e8f6646f4e71acdff9ca3d919d08
##Scan# 2516
#SpectrumFile p2-E03_GE3_01_18027.mzXML
#LibraryName NIH_Natural_Products_Library.mgf
#MQScore -1
#Organism NIH_Natural_Products_Library
#TIC_Query 0
#RT_Query -1
#MZErrorPPM -1
#SharedPeaks 0
#MassDiff 0
#LibMZ -1
#SpecMZ 327.16
#SpecCharge 0
#internalFilename spec-00000.mgf

>collision 0
103.055 60.77
107.0511 13.13
109.0649 9.64
115.0549 23.5
117.0704 14.79
119.0486 12.11
122.0376 26.18
128.0622 74.76
131.0491 43.36
132.0554 8.92
133.0639 16.61
137.0607 100.0
141.07 12.98
143.0864 41.62
145.0665 35.46
146.0725 15.01
147.0439 9.79
147.0802 7.61
148.0503 19.07
149.0594 15.74
151.075 27.34
153.0709 12.33
159.0817 19.0
161.0605 23.42
161.0943 11.97
163.077 28.21
171.0807 50.25
173.0604 29.73
174.0669 10.15
175.0738 18.27
177.0909 19.72
187.0753 26.61
188.083 92.02
189.0904 9.72
191.0861 12.69
192.0926 12.18
203.1067 11.39
207.1165 10.08
220.0861 14.29
235.1114 26.61
237.091 11.24
265.0885 9.28
283.0949 18.56
298.1202 9.72
327.1595 0.0
