>compound Prednisolone
>formula C21H28O5 
>ionization [M+H]+
>parentmass 361.202
#inchi InChI=1S/C21H28O5/c1-19-7-5-13(23)9-12(19)3-4-14-15-6-8-21(26,17(25)11-22)20(15,2)10-16(24)18(14)19/h5,7,9,14-16,18,22,24,26H,3-4,6,8,10-11H2,1-2H3/t14-,15-,16-,18+,19-,20-,21-/m0/s1
#inchikey OIGNJSKKLXVSLS
#Ion_Source LC-ESI
#Instrument qTof
#Compound_Source Isolated
#PI Sirenas
#Data_Collector Ed Esquenazi 
#Scan -1
#Precursor_MZ 361.202
#ExactMass 0.0
#Charge 1
#CAS_Number N/A
#Pubmed_ID N/A
#Smiles N/A
#INCHI_AUX N/A
#Library_Class 3
#SpectrumID CCMSLIB00000004492
#IonMode Positive
#UpdateWorkflowName UPDATE-SINGLE-ANNOTATED-BRONZE
#LibraryQualityString Bronze
#TaskID d19310cd93df49b68e9fcbec27720eb5
##Scan# 3
#SpectrumFile Prednisolone.mgf
#LibraryName fda_library.mgf
#MQScore -1
#Organism fda_library
#TIC_Query 0
#RT_Query -1
#MZErrorPPM -1
#SharedPeaks 0
#MassDiff 0
#LibMZ -1
#SpecMZ 361.202
#SpecCharge 0
#internalFilename spec-00000.mgf

>collision 0
105.07 21.19
107.0856 15.27
109.0653 5.37
115.0542 3.66
117.0687 10.82
119.0852 25.6
121.0649 85.31
129.0705 5.21
131.084 9.36
132.0562 9.71
133.0647 4.58
133.1014 3.55
135.0805 17.57
142.0766 4.38
143.0852 6.39
145.0639 12.42
145.1011 6.65
147.0801 100.0
155.0847 9.85
158.0732 9.43
159.0797 10.02
161.0958 7.12
165.0699 3.28
169.1001 3.86
171.0804 47.97
173.096 40.79
178.0759 2.84
179.0847 4.08
182.0713 4.15
185.0963 6.43
190.0778 3.06
193.1011 4.2
195.1167 3.63
196.0873 4.98
197.096 6.23
205.1004 4.87
208.088 6.39
211.1114 6.56
223.1122 12.83
239.1422 3.34
361.2017 0.0
