>compound MLS002154193-01!Trimethobenzamide hydrochloride554-92-7
>formula C21H28N2O5
>ionization [M+H]+
>parentmass 389.2070984480905
#inchi InChI=1S/C21H28N2O5/c1-23(2)10-11-28-17-8-6-15(7-9-17)14-22-21(24)16-12-18(25-3)20(27-5)19(13-16)26-4/h6-9,12-13H,10-11,14H2,1-5H3,(H,22,24)
#inchikey FEZBIKUBAYAZIU
#origInchi InChI=1S/C21H28N2O5.ClH/c1-23(2)10-11-28-17-8-6-15(7-9-17)14-22-21(24)16-12-18(25-3)20(27-5)19(13-16)26-4;/h6-9,12-13H,10-11,14H2,1-5H3,(H,22,24);1H
#Ion_Source LC-ESI
#Instrument qTof
#Compound_Source NIH Pharmacologically Active Library
#PI Dorrestein
#Data_Collector VP/LMS
#Scan -1
#Precursor_MZ 389.211
#ExactMass 388.2
#Charge 1
#CAS_Number N/A
#Pubmed_ID N/A
#Smiles COc1cc(cc(OC)c1OC)C(=O)NCc2ccc(OCCN(C)C)cc2.Cl
#INCHI_AUX N/A
#Library_Class 1
#SpectrumID CCMSLIB00000086005
#IonMode Positive
#UpdateWorkflowName UPDATE-SINGLE-ANNOTATED-GOLD
#LibraryQualityString Gold
#TaskID d252d724072548979f1f6f1ced849daf
##Scan# 883
#SpectrumFile p5-A04_GA4_01_18427.mzXML
#LibraryName Pharm_Active_Library.mgf
#MQScore -1
#Organism Pharm_Active_Library
#TIC_Query 0
#RT_Query -1
#MZErrorPPM -1
#SharedPeaks 0
#MassDiff 0
#LibMZ -1
#SpecMZ 389.211
#SpecCharge 0
#internalFilename spec-00000.mgf

>collision 0
96.0555 1.07
105.0714 1.37
107.051 3.44
109.0638 2.26
111.0813 1.61
121.0286 1.33
121.0634 2.41
124.0528 4.69
128.0466 1.55
133.0652 12.84
137.0225 1.87
139.0759 7.61
141.0195 1.24
151.0379 1.49
152.0477 12.3
154.062 2.45
166.1216 17.72
167.0712 6.58
168.0823 0.77
169.0888 1.11
185.0835 1.18
194.0812 1.12
195.0657 100.0
212.115 0.97
389.2071 0.0
