>compound Methoxsalen (Oxsoralen)
>formula C12H8O4
>ionization [M+H]+
>parentmass 217.049789
#inchi InChI=1S/C12H8O4/c1-14-12-10-8(4-5-15-10)6-7-2-3-9(13)16-11(7)12/h2-6H,1H3
#inchikey QXKHYNVANLEOEG
#Ion_Source LC-ESI
#Instrument qTof
#Compound_Source Commercial
#PI Dorrestein
#Data_Collector Garg_Neha
#Scan -1
#Precursor_MZ 217.05
#ExactMass 216.042
#Charge 1
#CAS_Number 298-81-7, 12692-94-3
#Pubmed_ID N/A
#Smiles C1C(OC2=C(C=1)C=C3C(=C2OC)OC=C3)=O
#INCHI_AUX N/A
#Library_Class 1
#SpectrumID CCMSLIB00000078356
#IonMode Positive
#UpdateWorkflowName UPDATE-SINGLE-ANNOTATED-GOLD
#LibraryQualityString Gold
#TaskID 77f51c88eb8b467eb4a01dd2d0cb90d2
##Scan# 1276
#SpectrumFile Plate5_61_88_GH9_01_16511.mzXML
#LibraryName FDALibrary_2_04302014.mgf
#MQScore -1
#Organism FDALibrary_2_04302014
#TIC_Query 0
#RT_Query -1
#MZErrorPPM -1
#SharedPeaks 0
#MassDiff 0
#LibMZ -1
#SpecMZ 217.05
#SpecCharge 0
#internalFilename spec-00000.mgf

>collision 0
115.0538 2.78
118.04 7.55
145.0283 3.92
146.0355 22.73
161.0595 36.79
174.031 100.0
185.0238 7.22
189.0542 8.61
202.0255 92.61
217.0498 568.6
