>compound MLS001074094-01!11ALPHA-HYDROXYPROGESTERONE
>formula C21H30O3
>ionization [M+H]+
>parentmass 331.2267712720905
#inchi InChI=1S/C21H30O3/c1-12(22)16-6-7-17-15-5-4-13-10-14(23)8-9-20(13,2)19(15)18(24)11-21(16,17)3/h10,15-19,24H,4-9,11H2,1-3H3/t15-,16+,17-,18+,19+,20-,21+/m0/s1
#inchikey BFZHCUBIASXHPK
#Ion_Source LC-ESI
#Instrument qTof
#Compound_Source NIH Pharmacologically Active Library
#PI Dorrestein
#Data_Collector VP/LMS
#Scan -1
#Precursor_MZ 331.221
#ExactMass 330.219
#Charge 1
#CAS_Number N/A
#Pubmed_ID N/A
#Smiles CC(=O)[C@H]1CC[C@H]2[C@@H]3CCC4=CC(=O)CC[C@]4(C)[C@H]3[C@H](O)C[C@]12C
#INCHI_AUX N/A
#Library_Class 1
#SpectrumID CCMSLIB00000085319
#IonMode Positive
#UpdateWorkflowName UPDATE-SINGLE-ANNOTATED-GOLD
#LibraryQualityString Gold
#TaskID d252d724072548979f1f6f1ced849daf
##Scan# 1938
#SpectrumFile p3-H04_GH4_01_18309.mzXML
#LibraryName Pharm_Active_Library.mgf
#MQScore -1
#Organism Pharm_Active_Library
#TIC_Query 0
#RT_Query -1
#MZErrorPPM -1
#SharedPeaks 0
#MassDiff 0
#LibMZ -1
#SpecMZ 331.221
#SpecCharge 0
#internalFilename spec-00000.mgf

>collision 0
95.0856 19.43
97.0647 46.06
105.0696 45.18
107.0849 21.19
109.0655 44.44
115.0553 11.63
117.0704 26.49
119.0842 30.83
121.0652 67.03
121.1015 25.24
123.0803 100.0
128.0616 15.89
130.0764 22.74
131.0855 54.82
133.1016 53.13
135.0817 17.51
135.1167 27.67
142.0784 18.62
143.0859 46.36
144.0925 29.29
145.1015 71.3
147.0803 25.75
147.1169 40.32
148.0878 18.91
149.096 13.1
155.0844 21.71
156.0932 14.57
157.1009 32.74
159.1165 42.38
161.0964 22.22
163.11 42.24
169.101 34.73
171.1161 54.6
173.0962 16.85
175.1109 14.57
175.1479 13.25
185.134 31.79
187.1486 17.14
195.1173 12.21
197.1316 13.91
213.1637 17.59
229.1602 13.25
239.1451 11.48
253.1968 15.01
271.2056 26.2
295.2065 23.47
313.2187 14.79
331.2288 0.0
