>compound Anastrozole
>formula C17H19N5
>ionization [M+H]+
>parentmass 294.171173
#inchi InChI=1S/C17H19N5/c1-16(2,9-18)14-5-13(8-22-12-20-11-21-22)6-15(7-14)17(3,4)10-19/h5-7,11-12H,8H2,1-4H3
#inchikey YBBLVLTVTVSKRW
#Ion_Source LC-ESI
#Instrument qTof
#Compound_Source Commercial
#PI Dorrestein
#Data_Collector Garg_Neha
#Scan -1
#Precursor_MZ 294.171
#ExactMass 293.164
#Charge 1
#CAS_Number 120511-73-1
#Pubmed_ID N/A
#Smiles C1=C(C=C(C=C1CN2C=NC=N2)C(C)(C)C#N)C(C)(C)C#N
#INCHI_AUX N/A
#Library_Class 1
#SpectrumID CCMSLIB00000078034
#IonMode Positive
#UpdateWorkflowName UPDATE-SINGLE-ANNOTATED-GOLD
#LibraryQualityString Gold
#TaskID 77f51c88eb8b467eb4a01dd2d0cb90d2
##Scan# 1291
#SpectrumFile Plate1_21_40_GG2_01_16489.mzXML
#LibraryName FDALibrary_2_04302014.mgf
#MQScore -1
#Organism FDALibrary_2_04302014
#TIC_Query 0
#RT_Query -1
#MZErrorPPM -1
#SharedPeaks 0
#MassDiff 0
#LibMZ -1
#SpecMZ 294.171
#SpecCharge 0
#internalFilename spec-00000.mgf

>collision 0
157.0902 7.25
183.1031 3.71
210.1147 12.52
225.138 100.0
294.1712 116.31
