>compound Flurbiprofen
>formula C15H13FO2
>ionization [M+H]+
>parentmass 245.095596
#inchi InChI=1S/C15H13FO2/c1-10(15(17)18)12-7-8-13(14(16)9-12)11-5-3-2-4-6-11/h2-10H,1H3,(H,17,18)
#inchikey SYTBZMRGLBWNTM
#Ion_Source LC-ESI
#Instrument qTof
#Compound_Source Commercial
#PI Dorrestein
#Data_Collector Garg_Neha
#Scan -1
#Precursor_MZ 245.097
#ExactMass 244.09
#Charge 1
#CAS_Number N/A
#Pubmed_ID N/A
#Smiles CC(C(=O)O)c1ccc(c(F)c1)c2ccccc2
#INCHI_AUX N/A
#Library_Class 1
#SpectrumID CCMSLIB00000079200
#IonMode Positive
#UpdateWorkflowName UPDATE-SINGLE-ANNOTATED-GOLD
#LibraryQualityString Gold
#TaskID 278b19f5865741e282cec7349aa7e7a1
##Scan# 1763
#SpectrumFile NCP003592_G2_H11_BE3_01_15737.mzXML
#LibraryName NIHcollectionI_05062014.mgf
#MQScore -1
#Organism NIHcollectionI_05062014
#TIC_Query 0
#RT_Query -1
#MZErrorPPM -1
#SharedPeaks 0
#MassDiff 0
#LibMZ -1
#SpecMZ 245.097
#SpecCharge 0
#internalFilename spec-00000.mgf

>collision 0
64.0331 1.2
115.0532 1.04
121.0445 1.23
139.0556 1.18
150.0491 0.93
153.0695 2.06
159.0613 1.92
165.0715 0.86
171.06 1.97
177.0694 4.54
178.0773 27.26
179.0856 23.67
183.0606 7.92
184.0678 13.73
197.0764 8.43
199.0919 100.0
245.0956 0.81
