>compound MLS001201787-01!Giparmen
>formula C13H10O3
>ionization [M+H]+
>parentmass 215.0702706320905
#inchi InChI=1S/C13H10O3/c1-3-6-15-10-4-5-11-9(2)7-13(14)16-12(11)8-10/h1,4-5,7-8H,6H2,2H3
#inchikey NTNZDKLXIBVSQQ
#Ion_Source LC-ESI
#Instrument qTof
#Compound_Source NIH Pharmacologically Active Library
#PI Dorrestein
#Data_Collector VP/LMS
#Scan -1
#Precursor_MZ 215.075
#ExactMass 214.063
#Charge 1
#CAS_Number N/A
#Pubmed_ID N/A
#Smiles Cc1cc(=O)oc2cc(OCC#C)ccc12
#INCHI_AUX N/A
#Library_Class 1
#SpectrumID CCMSLIB00000085547
#IonMode Positive
#UpdateWorkflowName UPDATE-SINGLE-ANNOTATED-GOLD
#LibraryQualityString Gold
#TaskID d252d724072548979f1f6f1ced849daf
##Scan# 1934
#SpectrumFile p4-C06_GC6_01_18354.mzXML
#LibraryName Pharm_Active_Library.mgf
#MQScore -1
#Organism Pharm_Active_Library
#TIC_Query 0
#RT_Query -1
#MZErrorPPM -1
#SharedPeaks 0
#MassDiff 0
#LibMZ -1
#SpecMZ 215.075
#SpecCharge 0
#internalFilename spec-00000.mgf

>collision 0
91.0556 7.12
92.0611 1.85
102.0444 0.97
103.0542 3.63
105.0349 4.13
115.0542 9.95
116.0622 2.27
117.0683 1.41
119.0499 3.95
120.0574 8.8
127.0535 2.34
128.0633 4.35
129.0693 1.15
131.0473 3.1
141.0697 3.52
142.0767 1.7
144.0562 3.01
145.0647 1.74
146.0721 0.89
148.0519 100.0
152.0602 0.88
159.0445 0.59
159.0806 1.63
161.0598 2.81
170.0726 0.89
174.0674 1.33
185.0594 1.09
187.0748 2.3
215.0689 0.0
