>compound Milnacipran
>formula C15H22N2O
>ionization [M+H]+
>parentmass 247.181412
#inchi InChI=1S/C15H22N2O/c1-3-17(4-2)14(18)15(10-13(15)11-16)12-8-6-5-7-9-12/h5-9,13H,3-4,10-11,16H2,1-2H3/t13-,15+/m1/s1
#inchikey GJJFMKBJSRMPLA
#Ion_Source LC-ESI
#Instrument qTof
#Compound_Source Commercial
#PI Dorrestein
#Data_Collector Garg_Neha
#Scan -1
#Precursor_MZ 247.18
#ExactMass 246.173
#Charge 1
#CAS_Number N/A
#Pubmed_ID N/A
#Smiles CCN(CC)C(=O)[C@@]1(C[C@@H]1CN)c2ccccc2
#INCHI_AUX N/A
#Library_Class 1
#SpectrumID CCMSLIB00000079115
#IonMode Positive
#UpdateWorkflowName UPDATE-SINGLE-ANNOTATED-GOLD
#LibraryQualityString Gold
#TaskID 278b19f5865741e282cec7349aa7e7a1
##Scan# 1059
#SpectrumFile NCP003512_C2_D11_BD5_01_15729.mzXML
#LibraryName NIHcollectionI_05062014.mgf
#MQScore -1
#Organism NIHcollectionI_05062014
#TIC_Query 0
#RT_Query -1
#MZErrorPPM -1
#SharedPeaks 0
#MassDiff 0
#LibMZ -1
#SpecMZ 247.18
#SpecCharge 0
#internalFilename spec-00000.mgf

>collision 0
91.0551 0.46
100.0759 14.13
103.0541 1.36
115.0531 0.44
116.0638 0.5
117.0699 1.32
127.0532 1.4
128.0618 10.71
129.0699 27.68
131.0856 10.11
141.0685 0.4
142.0777 0.32
144.0801 0.62
145.0894 0.27
146.0957 0.95
152.1059 0.35
157.0646 3.08
158.0959 0.9
159.0795 0.97
167.0731 0.55
168.0794 0.36
171.1059 0.22
172.0765 0.42
173.1199 0.22
174.0912 2.66
182.0965 0.29
186.0918 0.75
186.1268 0.59
200.1065 3.15
201.114 1.6
202.1587 13.41
214.1218 0.23
230.1559 100.0
247.1802 12.9
