>compound MLS001148466-01!79794-75-5
>formula C22H23ClN2O2
>ionization [M+H]+
>parentmass 383.151672
#inchi InChI=1S/C22H23ClN2O2/c1-2-27-22(26)25-12-9-15(10-13-25)20-19-8-7-18(23)14-17(19)6-5-16-4-3-11-24-21(16)20/h3-4,7-8,11,14H,2,5-6,9-10,12-13H2,1H3
#inchikey JCCNYMKQOSZNPW
#Ion_Source LC-ESI
#Instrument qTof
#Compound_Source NIH Pharmacologically Active Library
#PI Dorrestein
#Data_Collector VP/LMS
#Scan -1
#Precursor_MZ 383.154
#ExactMass 382.145
#Charge 1
#CAS_Number N/A
#Pubmed_ID N/A
#Smiles CCOC(=O)N1CCC(=C2c3ccc(Cl)cc3CCc4cccnc24)CC1
#INCHI_AUX N/A
#Library_Class 1
#SpectrumID CCMSLIB00000084980
#IonMode Positive
#UpdateWorkflowName UPDATE-SINGLE-ANNOTATED-GOLD
#LibraryQualityString Gold
#TaskID d252d724072548979f1f6f1ced849daf
##Scan# 1905
#SpectrumFile p3-D05_GD5_01_18262.mzXML
#LibraryName Pharm_Active_Library.mgf
#MQScore -1
#Organism Pharm_Active_Library
#TIC_Query 0
#RT_Query -1
#MZErrorPPM -1
#SharedPeaks 0
#MassDiff 0
#LibMZ -1
#SpecMZ 383.154
#SpecCharge 0
#internalFilename spec-00000.mgf

>collision 0
193.0888 3.16
214.042 7.38
217.0885 1.28
218.0952 1.84
228.057 7.87
229.0652 9.17
231.1046 11.53
232.1106 6.67
243.1047 8.05
244.1117 9.87
245.1181 8.3
246.1269 10.49
252.0572 10.64
253.0637 12.18
256.1102 2.26
257.1184 4.0
258.1276 41.41
259.1354 73.16
266.0733 42.21
267.0811 100.0
278.0731 6.55
279.0811 28.5
280.0883 42.8
281.0951 36.85
292.0885 10.93
294.1044 38.7
302.1411 4.89
322.0863 4.98
337.1108 99.26
340.1099 4.69
355.1229 2.42
383.1522 23.06
