>compound Glycine, N-[2-[(acetylthio)methyl]-1-oxo-3-phenylpropyl]-,phenylmethyl ester [CAS]
>formula C21H23NO4S
>ionization [M+H]+
>parentmass 386.141052
#inchi InChI=1S/C21H23NO4S/c1-16(23)27-15-19(12-17-8-4-2-5-9-17)21(25)22-13-20(24)26-14-18-10-6-3-7-11-18/h2-11,19H,12-15H2,1H3,(H,22,25)
#inchikey ODUOJXZPIYUATO
#Ion_Source LC-ESI
#Instrument qTof
#Compound_Source Commercial
#PI Dorrestein
#Data_Collector Garg_Neha
#Scan -1
#Precursor_MZ 386.142
#ExactMass 385.135
#Charge 1
#CAS_Number N/A
#Pubmed_ID N/A
#Smiles CC(=O)SCC(Cc1ccccc1)C(=O)NCC(=O)OCc2ccccc2
#INCHI_AUX N/A
#Library_Class 1
#SpectrumID CCMSLIB00000079175
#IonMode Positive
#UpdateWorkflowName UPDATE-SINGLE-ANNOTATED-GOLD
#LibraryQualityString Gold
#TaskID 278b19f5865741e282cec7349aa7e7a1
##Scan# 1971
#SpectrumFile NCP003592_C2_D11_BE1_01_15735.mzXML
#LibraryName NIHcollectionI_05062014.mgf
#MQScore -1
#Organism NIHcollectionI_05062014
#TIC_Query 0
#RT_Query -1
#MZErrorPPM -1
#SharedPeaks 0
#MassDiff 0
#LibMZ -1
#SpecMZ 386.142
#SpecCharge 0
#internalFilename spec-00000.mgf

>collision 0
91.0545 13.08
115.0551 0.71
117.0694 3.14
129.0707 0.84
137.0418 2.53
145.0642 15.22
157.0651 5.69
179.0524 3.29
179.0854 0.7
181.101 0.81
191.053 2.68
191.0863 1.55
207.1153 5.33
217.101 0.97
220.0872 0.72
221.0631 0.57
235.1116 19.37
269.1008 100.0
278.0826 1.48
298.1262 11.18
326.1212 13.13
344.1323 72.05
386.1415 2.83
