>compound GR 89696
>formula C19H25Cl2N3O3
>ionization [M+H]+
>parentmass 414.1345734720905
#inchi InChI=1S/C19H25Cl2N3O3/c1-27-19(26)23-8-9-24(15(13-23)12-22-6-2-3-7-22)18(25)11-14-4-5-16(20)17(21)10-14/h4-5,10,15H,2-3,6-9,11-13H2,1H3
#inchikey HJUAKZYKCANOOZ
#Ion_Source LC-ESI
#Instrument qTof
#Compound_Source Commercial
#PI Dorrestein
#Data_Collector Garg_Neha
#Scan -1
#Precursor_MZ 414.135
#ExactMass 413.127
#Charge 1
#CAS_Number N/A
#Pubmed_ID N/A
#Smiles COC(=O)N1CCN(C(CN2CCCC2)C1)C(=O)Cc3ccc(Cl)c(Cl)c3
#INCHI_AUX N/A
#Library_Class 1
#SpectrumID CCMSLIB00000079125
#IonMode Positive
#UpdateWorkflowName UPDATE-SINGLE-ANNOTATED-GOLD
#LibraryQualityString Gold
#TaskID 278b19f5865741e282cec7349aa7e7a1
##Scan# 1132
#SpectrumFile NCP003512_E2_F11_BD6_01_15730.mzXML
#LibraryName NIHcollectionI_05062014.mgf
#MQScore -1
#Organism NIHcollectionI_05062014
#TIC_Query 0
#RT_Query -1
#MZErrorPPM -1
#SharedPeaks 0
#MassDiff 0
#LibMZ -1
#SpecMZ 414.135
#SpecCharge 0
#internalFilename spec-00000.mgf

>collision 0
97.076 0.73
102.0554 6.34
125.0705 1.65
128.0716 0.54
140.0715 0.57
157.0976 17.05
158.9762 9.95
206.0367 0.35
256.0286 2.53
288.0188 0.31
311.0352 0.33
343.0625 100.0
414.1367 74.39
