>compound Nifekalant hydrochloride
>formula C19H27N5O5
>ionization [M+H]+
>parentmass 406.2084954160905
#inchi InChI=1S/C19H27N5O5/c1-21-17(14-18(26)22(2)19(21)27)20-9-11-23(12-13-25)10-3-4-15-5-7-16(8-6-15)24(28)29/h5-8,14,20,25H,3-4,9-13H2,1-2H3
#inchikey OEBPANQZQGQPHF
#Ion_Source LC-ESI
#Instrument qTof
#Compound_Source Commercial
#PI Dorrestein
#Data_Collector Garg_Neha
#Scan -1
#Precursor_MZ 406.208
#ExactMass 405.201
#Charge 1
#CAS_Number N/A
#Pubmed_ID N/A
#Smiles Cn1c(NCCN(CCO)CCCc2ccc(cc2)[N+](=O)[O-])cc(=O)n(C)c1=O
#INCHI_AUX N/A
#Library_Class 1
#SpectrumID CCMSLIB00000078992
#IonMode Positive
#UpdateWorkflowName UPDATE-SINGLE-ANNOTATED-GOLD
#LibraryQualityString Gold
#TaskID 278b19f5865741e282cec7349aa7e7a1
##Scan# 1035
#SpectrumFile NCP003352_C2_D11_BC5_01_15719.mzXML
#LibraryName NIHcollectionI_05062014.mgf
#MQScore -1
#Organism NIHcollectionI_05062014
#TIC_Query 0
#RT_Query -1
#MZErrorPPM -1
#SharedPeaks 0
#MassDiff 0
#LibMZ -1
#SpecMZ 406.208
#SpecCharge 0
#internalFilename spec-00000.mgf

>collision 0
100.0739 0.22
102.0915 5.01
106.0411 0.93
117.0698 0.27
118.0777 0.71
136.0395 7.48
147.0679 0.75
164.0689 1.83
182.092 4.7
205.1442 1.92
207.1128 2.96
233.1261 0.42
235.1075 0.31
237.1357 3.0
250.1545 4.76
251.1395 100.0
266.1499 0.37
388.2017 0.28
406.21 102.08
