>compound Indatraline
>formula C16H15Cl2N
>ionization [M+H]+
>parentmass 292.066681
#inchi InChI=1S/C16H15Cl2N/c1-19-16-9-13(11-4-2-3-5-12(11)16)10-6-7-14(17)15(18)8-10/h2-8,13,16,19H,9H2,1H3/t13-,16+/m0/s1
#inchikey SVFXPTLYMIXFRX
#Ion_Source LC-ESI
#Instrument qTof
#Compound_Source Commercial
#PI Dorrestein
#Data_Collector Garg_Neha
#Scan -1
#Precursor_MZ 292.065
#ExactMass 291.058
#Charge 1
#CAS_Number N/A
#Pubmed_ID N/A
#Smiles CN[C@@H]1C[C@H](c2ccccc12)c3ccc(Cl)c(Cl)c3
#INCHI_AUX N/A
#Library_Class 1
#SpectrumID CCMSLIB00000079171
#IonMode Positive
#UpdateWorkflowName UPDATE-SINGLE-ANNOTATED-GOLD
#LibraryQualityString Gold
#TaskID 278b19f5865741e282cec7349aa7e7a1
##Scan# 1213
#SpectrumFile NCP003592_C2_D11_BE1_01_15735.mzXML
#LibraryName NIHcollectionI_05062014.mgf
#MQScore -1
#Organism NIHcollectionI_05062014
#TIC_Query 0
#RT_Query -1
#MZErrorPPM -1
#SharedPeaks 0
#MassDiff 0
#LibMZ -1
#SpecMZ 292.065
#SpecCharge 0
#internalFilename spec-00000.mgf

>collision 0
165.0699 0.49
182.9767 10.32
189.0696 1.24
190.0773 1.7
191.0863 54.97
199.0315 0.2
225.0465 7.37
226.0556 82.5
245.9999 2.0
261.0255 100.0
292.0667 0.57
