>compound MLS001065600-01!
>formula C11H14O2
>ionization [M+H]+
>parentmass 179.107
#inchi InChI=1S/C11H14O2/c1-4-5-9-6-7-10(12-2)11(8-9)13-3/h4,6-8H,1,5H2,2-3H3
#inchikey ZYEMGPIYFIJGTP
#Ion_Source LC-ESI
#Instrument qTof
#Compound_Source NIH Natural Product Library
#PI Dorrestein
#Data_Collector VVP/LMS
#Scan -1
#Precursor_MZ 179.107
#ExactMass 178.099
#Charge 1
#CAS_Number N/A
#Pubmed_ID N/A
#Smiles COc1ccc(CC=C)cc1OC
#INCHI_AUX N/A
#Library_Class 3
#SpectrumID CCMSLIB00000079442
#IonMode Positive
#UpdateWorkflowName UPDATE-SINGLE-ANNOTATED-BRONZE
#LibraryQualityString Bronze
#TaskID b1d8e8f6646f4e71acdff9ca3d919d08
##Scan# 2231
#SpectrumFile p1-D06_GD6_01_17914.mzXML
#LibraryName NIH_Natural_Products_Library.mgf
#MQScore -1
#Organism NIH_Natural_Products_Library
#TIC_Query 0
#RT_Query -1
#MZErrorPPM -1
#SharedPeaks 0
#MassDiff 0
#LibMZ -1
#SpecMZ 179.107
#SpecCharge 0
#internalFilename spec-00000.mgf

>collision 0
95.0482 19.57
105.071 21.74
119.0495 29.35
123.0456 80.98
138.0687 26.09
149.0604 100.0
179.107 0.0
