>compound MLS002207268-01!BENZANTHRONE82-05-3
>formula C17H10O
>ionization [M+H]+
>parentmass 231.081177
#inchi InChI=1S/C17H10O/c18-17-14-8-2-1-7-12(14)13-9-3-5-11-6-4-10-15(17)16(11)13/h1-10H
#inchikey HUKPVYBUJRAUAG
#Ion_Source LC-ESI
#Instrument qTof
#Compound_Source NIH Pharmacologically Active Library
#PI Dorrestein
#Data_Collector VP/LMS
#Scan -1
#Precursor_MZ 231.082
#ExactMass 230.073
#Charge 1
#CAS_Number N/A
#Pubmed_ID N/A
#Smiles O=C1c2ccccc2-c3cccc4cccc1c34
#INCHI_AUX N/A
#Library_Class 1
#SpectrumID CCMSLIB00000085989
#IonMode Positive
#UpdateWorkflowName UPDATE-SINGLE-ANNOTATED-GOLD
#LibraryQualityString Gold
#TaskID d252d724072548979f1f6f1ced849daf
##Scan# 2418
#SpectrumFile p5-A02_GA2_01_18431.mzXML
#LibraryName Pharm_Active_Library.mgf
#MQScore -1
#Organism Pharm_Active_Library
#TIC_Query 0
#RT_Query -1
#MZErrorPPM -1
#SharedPeaks 0
#MassDiff 0
#LibMZ -1
#SpecMZ 231.082
#SpecCharge 0
#internalFilename spec-00000.mgf

>collision 0
151.0539 0.48
152.0622 0.48
200.0614 2.95
201.071 3.94
202.079 100.0
203.0846 36.32
231.0812 48.69
