>compound Prazosin HCl
>formula C19H21N5O4
>ionization [M+H]+
>parentmass 384.1666306040905
#inchi InChI=1S/C19H21N5O4/c1-26-15-10-12-13(11-16(15)27-2)21-19(22-17(12)20)24-7-5-23(6-8-24)18(25)14-4-3-9-28-14/h3-4,9-11H,5-8H2,1-2H3,(H2,20,21,22)
#inchikey IENZQIKPVFGBNW
#origInchi InChI=1S/C19H21N5O4.ClH/c1-26-15-10-12-13(11-16(15)27-2)21-19(22-17(12)20)24-7-5-23(6-8-24)18(25)14-4-3-9-28-14;/h3-4,9-11H,5-8H2,1-2H3,(H2,20,21,22);1H
#Ion_Source LC-ESI
#Instrument qTof
#Compound_Source Commercial
#PI Dorrestein
#Data_Collector Garg_Neha
#Scan -1
#Precursor_MZ 384.167
#ExactMass 383.159
#Charge 1
#CAS_Number 19237-84-4, 19216-56-9 (free base)
#Pubmed_ID N/A
#Smiles C1(=C(C(=CC2=C1C(=NC(=N2)N3CCN(CC3)C(C4=CC=CO4)=O)N)OC)OC).Cl
#INCHI_AUX N/A
#Library_Class 1
#SpectrumID CCMSLIB00000078140
#IonMode Positive
#UpdateWorkflowName UPDATE-SINGLE-ANNOTATED-GOLD
#LibraryQualityString Gold
#TaskID 77f51c88eb8b467eb4a01dd2d0cb90d2
##Scan# 1071
#SpectrumFile Plate2_61_88_GG8_01_16496.mzXML
#LibraryName FDALibrary_2_04302014.mgf
#MQScore -1
#Organism FDALibrary_2_04302014
#TIC_Query 0
#RT_Query -1
#MZErrorPPM -1
#SharedPeaks 0
#MassDiff 0
#LibMZ -1
#SpecMZ 384.167
#SpecCharge 0
#internalFilename spec-00000.mgf

>collision 0
95.013 10.13
120.0456 1.36
138.0551 21.67
164.0705 13.66
204.0766 2.55
205.0726 1.52
217.0731 1.83
219.0867 0.73
221.1034 5.39
231.0877 15.73
232.0958 11.87
233.1026 8.03
245.1027 2.88
247.1195 100.0
257.1032 2.32
259.1189 1.05
271.1195 0.66
272.1132 1.1
273.1339 3.09
288.1461 6.54
300.1109 0.85
315.1084 2.39
316.1402 3.41
322.1321 1.04
326.0998 0.78
338.161 0.67
340.1395 3.54
341.1244 7.39
350.1252 5.7
351.1296 2.41
354.1197 0.6
366.1563 14.12
368.1353 17.27
369.1413 6.83
384.1693 263.77
