>compound Reichsteins substance S
>formula C21H30O4
>ionization [M+H]+
>parentmass 347.222778
#inchi InChI=1S/C21H30O4/c1-19-8-5-14(23)11-13(19)3-4-15-16(19)6-9-20(2)17(15)7-10-21(20,25)18(24)12-22/h11,15-17,22,25H,3-10,12H2,1-2H3
#inchikey WHBHBVVOGNECLV
#Ion_Source LC-ESI
#Instrument qTof
#Compound_Source Commercial
#PI Dorrestein
#Data_Collector Garg_Neha
#Scan -1
#Precursor_MZ 347.222
#ExactMass 346.214
#Charge 1
#CAS_Number N/A
#Pubmed_ID N/A
#Smiles CC12CCC3C(CCC4=CC(=O)CCC34C)C2CCC1(O)C(=O)CO
#INCHI_AUX N/A
#Library_Class 1
#SpectrumID CCMSLIB00000079060
#IonMode Positive
#UpdateWorkflowName UPDATE-SINGLE-ANNOTATED-GOLD
#LibraryQualityString Gold
#TaskID 278b19f5865741e282cec7349aa7e7a1
##Scan# 1225
#SpectrumFile NCP003432_C2_D11_BD1_01_15723.mzXML
#LibraryName NIHcollectionI_05062014.mgf
#MQScore -1
#Organism NIHcollectionI_05062014
#TIC_Query 0
#RT_Query -1
#MZErrorPPM -1
#SharedPeaks 0
#MassDiff 0
#LibMZ -1
#SpecMZ 347.222
#SpecCharge 0
#internalFilename spec-00000.mgf

>collision 0
105.0696 15.38
110.0719 7.83
119.0859 13.35
121.0654 16.34
123.0796 11.8
131.0866 8.61
133.1015 14.41
135.0804 9.86
145.101 26.6
147.0805 10.64
147.1172 19.92
149.097 11.22
155.0849 7.64
157.0999 27.08
161.0966 16.34
161.1331 7.83
163.1115 17.12
169.0997 16.73
171.1182 21.47
173.0949 9.09
175.1137 12.67
185.1312 9.96
187.1121 11.22
189.1255 10.64
197.1328 7.93
201.1255 14.7
209.1342 7.35
211.1474 15.47
215.1442 11.61
225.1264 7.35
225.1652 10.35
227.1432 12.09
237.1288 11.51
241.1609 18.86
245.1534 11.22
253.1572 20.5
271.1691 12.09
293.1928 30.56
311.1984 32.69
329.2118 100.0
347.2228 598.65
