>compound MLS000756410-01!
>formula C35H34N2O5
>ionization [M+H]+
>parentmass 563.252869
#inchi InChI=1S/C35H34N2O5/c1-37-13-11-23-18-32(39-3)34-35-33(23)27(37)15-20-4-7-24(8-5-20)40-29-16-21(6-9-28(29)38-2)14-26-25-19-31(42-35)30(41-34)17-22(25)10-12-36-26/h4-9,16-19,26-27,36H,10-15H2,1-3H3
#inchikey DJAWTLHBPPQMPV
#Ion_Source LC-ESI
#Instrument qTof
#Compound_Source NIH Natural Product Library
#PI Dorrestein
#Data_Collector VVP/LMS
#Scan -1
#Precursor_MZ 563.255
#ExactMass 562.247
#Charge 1
#CAS_Number N/A
#Pubmed_ID N/A
#Smiles COc1cc2CCN(C)C3Cc4ccc(Oc5cc(CC6NCCc7cc8Oc1c(Oc8cc67)c32)ccc5OC)cc4
#INCHI_AUX N/A
#Library_Class 1
#SpectrumID CCMSLIB00000079796
#IonMode Positive
#UpdateWorkflowName UPDATE-SINGLE-ANNOTATED-GOLD
#LibraryQualityString Gold
#TaskID b1d8e8f6646f4e71acdff9ca3d919d08
##Scan# 1524
#SpectrumFile p1-B11_GB11_01_17895.mzXML
#LibraryName NIH_Natural_Products_Library.mgf
#MQScore -1
#Organism NIH_Natural_Products_Library
#TIC_Query 0
#RT_Query -1
#MZErrorPPM -1
#SharedPeaks 0
#MassDiff 0
#LibMZ -1
#SpecMZ 563.255
#SpecCharge 0
#internalFilename spec-00000.mgf

>collision 0
213.091 7.21
214.0867 5.49
263.1287 6.93
266.1193 4.25
280.0982 4.37
280.1334 6.53
281.139 4.41
294.1123 24.52
307.1203 4.81
308.1253 8.89
309.1357 20.39
319.1197 25.84
320.1288 17.51
321.1276 9.25
332.1281 9.13
334.1378 7.41
335.1388 67.99
336.144 15.63
349.1561 10.78
350.1617 14.94
371.1523 5.17
400.1559 4.97
426.174 5.37
489.1708 14.42
490.175 6.73
501.1905 4.21
504.1803 7.57
506.1975 7.33
516.1797 12.9
517.1866 8.49
518.1927 18.59
520.2131 80.13
521.2115 25.84
531.2176 8.01
532.2117 100.0
534.2244 31.89
546.2267 7.45
563.2551 215.34
