>compound Ticlopidine Hydrochloride
>formula C14H14ClNS
>ionization [M+H]+
>parentmass 264.0608245800905
#inchi InChI=1S/C14H14ClNS/c15-13-4-2-1-3-11(13)9-16-7-5-14-12(10-16)6-8-17-14/h1-4,6,8H,5,7,9-10H2
#inchikey PHWBOXQYWZNQIN
#Ion_Source LC-ESI
#Instrument qTof
#Compound_Source Commercial
#PI Dorrestein
#Data_Collector Garg_Neha
#Scan -1
#Precursor_MZ 264.061
#ExactMass 263.054
#Charge 1
#CAS_Number N/A
#Pubmed_ID N/A
#Smiles Clc1ccccc1CN2CCc3sccc3C2
#INCHI_AUX N/A
#Library_Class 1
#SpectrumID CCMSLIB00000079262
#IonMode Positive
#UpdateWorkflowName UPDATE-SINGLE-ANNOTATED-GOLD
#LibraryQualityString Gold
#TaskID 278b19f5865741e282cec7349aa7e7a1
##Scan# 1089
#SpectrumFile NCP003512_A2_B11_BD4_01_15728.mzXML
#LibraryName NIHcollectionI_05062014.mgf
#MQScore -1
#Organism NIHcollectionI_05062014
#TIC_Query 0
#RT_Query -1
#MZErrorPPM -1
#SharedPeaks 0
#MassDiff 0
#LibMZ -1
#SpecMZ 264.061
#SpecCharge 0
#internalFilename spec-00000.mgf

>collision 0
111.0262 0.5
125.0165 72.27
138.0365 0.61
154.043 100.0
264.0631 120.51
