>compound N-Methyltetrahydropalmatine
>formula C22H28NO4+
>ionization [M+H]+
>parentmass 371.20910982809056
#inchi InChI=1S/C22H28NO4/c1-23-9-8-15-11-20(25-3)21(26-4)12-16(15)18(23)10-14-6-7-19(24-2)22(27-5)17(14)13-23/h6-7,11-12,18H,8-10,13H2,1-5H3/q+1
#inchikey BMQBFTBKHPYZFM
#Ion_Source DI-ESI
#Instrument qTof
#Compound_Source Isolated
#PI Norberto Lopes
#Data_Collector Denise Silva
#Scan -1
#Precursor_MZ 370.17
#ExactMass 370.202
#Charge 1
#CAS_Number 47528-98-3
#Pubmed_ID N/A
#Smiles COC1=C(C[N+](CCC2=C3C=C(OC)C(OC)=C2)(C)C3C4)C4=CC=C1OC
#INCHI_AUX N/A
#Library_Class 3
#SpectrumID CCMSLIB00000081696
#IonMode Positive
#UpdateWorkflowName UPDATE-SINGLE-ANNOTATED-BRONZE
#LibraryQualityString Bronze
#TaskID 52bd5f0db6314c93924d5ce5c86348eb
##Scan# 1
#SpectrumFile gnps_N_Methyltetrahydropalmatine_pos_MplusH.mgf
#LibraryName gnps_library.mgf
#MQScore -1
#Organism batch_27_05_V02
#TIC_Query 0
#RT_Query -1
#MZErrorPPM -1
#SharedPeaks 0
#MassDiff 0
#LibMZ -1
#SpecMZ 370.17
#SpecCharge 0
#internalFilename spec-00000.mgf

>collision 0
132.0671 1.04
145.075 10.17
160.0597 1.07
161.0673 3.88
162.0761 19.72
173.0684 6.03
174.0748 3.12
190.0664 62.48
191.0747 60.77
192.0788 4.5
207.1019 41.76
236.0599 1.77
295.0732 12.46
371.2091 0.0
