>compound Nilvadipine (ARC029)
>formula C19H19N3O6
>ionization [M+H]+
>parentmass 386.133209
#inchi InChI=1S/C19H19N3O6/c1-10(2)28-19(24)15-11(3)21-14(9-20)17(18(23)27-4)16(15)12-6-5-7-13(8-12)22(25)26/h5-8,10,16,21H,1-4H3
#inchikey FAIIFDPAEUKBEP
#Ion_Source LC-ESI
#Instrument qTof
#Compound_Source Commercial
#PI Dorrestein
#Data_Collector Garg_Neha
#Scan -1
#Precursor_MZ 386.135
#ExactMass 385.127
#Charge 1
#CAS_Number 75530-68-6, 299411-82-8 (H2O)
#Pubmed_ID N/A
#Smiles C1(NC(=C(C(C=1C(=O)OC(C)C)C2=CC=CC(=C2)[N+](=O)[O-])C(OC)=O)C#N)C
#INCHI_AUX N/A
#Library_Class 1
#SpectrumID CCMSLIB00000078533
#IonMode Positive
#UpdateWorkflowName UPDATE-SINGLE-ANNOTATED-GOLD
#LibraryQualityString Gold
#TaskID 77f51c88eb8b467eb4a01dd2d0cb90d2
##Scan# 2134
#SpectrumFile Plate9_81_88_Plate8_81_88_GC8_01_15759.mzXML
#LibraryName FDALibrary_2_04302014.mgf
#MQScore -1
#Organism FDALibrary_2_04302014
#TIC_Query 0
#RT_Query -1
#MZErrorPPM -1
#SharedPeaks 0
#MassDiff 0
#LibMZ -1
#SpecMZ 386.135
#SpecCharge 0
#internalFilename spec-00000.mgf

>collision 0
195.0679 1.12
220.0628 2.61
221.0568 10.89
222.0758 1.59
223.0464 1.25
225.0654 1.64
236.0557 1.58
237.0658 8.11
238.0593 1.61
240.0495 1.96
243.0776 1.25
248.0568 1.18
249.0632 1.85
252.053 3.61
253.0621 1.7
264.053 3.34
265.0627 5.57
266.0641 12.38
270.0627 1.88
278.0689 2.92
279.0759 4.28
280.0836 10.28
281.0899 4.13
282.0635 1.59
284.0691 1.5
294.0506 12.79
295.0585 10.42
297.0505 1.09
298.0589 3.4
299.0638 1.46
309.0754 6.74
310.058 3.58
312.0657 35.93
313.0704 7.26
317.0984 1.32
326.0797 100.0
327.0823 18.74
344.091 12.27
345.0955 2.96
358.1405 2.13
368.1225 1.21
386.1371 17.25
