>compound MLS001148627-01!
>formula C29H33ClN2O2
>ionization [M+H]+
>parentmass 477.228333
#inchi InChI=1S/C29H33ClN2O2/c1-31(2)27(33)29(24-9-5-3-6-10-24,25-11-7-4-8-12-25)19-22-32-20-17-28(34,18-21-32)23-13-15-26(30)16-14-23/h3-16,34H,17-22H2,1-2H3
#inchikey RDOIQAHITMMDAJ
#origInchi InChI=1S/C29H33ClN2O2.ClH/c1-31(2)27(33)29(24-9-5-3-6-10-24,25-11-7-4-8-12-25)19-22-32-20-17-28(34,18-21-32)23-13-15-26(30)16-14-23;/h3-16,34H,17-22H2,1-2H3;1H
#Ion_Source LC-ESI
#Instrument qTof
#Compound_Source NIH Pharmacologically Active Library
#PI Dorrestein
#Data_Collector VP/LMS
#Scan -1
#Precursor_MZ 477.231
#ExactMass 476.223
#Charge 1
#CAS_Number N/A
#Pubmed_ID N/A
#Smiles CN(C)C(=O)C(CCN1CCC(O)(CC1)c2ccc(Cl)cc2)(c3ccccc3)c4ccccc4.Cl
#INCHI_AUX N/A
#Library_Class 1
#SpectrumID CCMSLIB00000085073
#IonMode Positive
#UpdateWorkflowName UPDATE-SINGLE-ANNOTATED-GOLD
#LibraryQualityString Gold
#TaskID d252d724072548979f1f6f1ced849daf
##Scan# 1970
#SpectrumFile p3-E06_GE6_01_18275.mzXML
#LibraryName Pharm_Active_Library.mgf
#MQScore -1
#Organism Pharm_Active_Library
#TIC_Query 0
#RT_Query -1
#MZErrorPPM -1
#SharedPeaks 0
#MassDiff 0
#LibMZ -1
#SpecMZ 477.231
#SpecCharge 0
#internalFilename spec-00000.mgf

>collision 0
115.0542 1.77
152.0626 0.29
167.0854 1.75
178.0776 0.9
193.1012 2.34
210.1291 55.48
223.0999 0.93
238.1229 11.56
266.156 100.0
477.2301 0.38
