>compound MLS001401455-01!
>formula C15H13NO3
>ionization [M+H]+
>parentmass 256.0968197280905
#inchi InChI=1S/C15H13NO3/c17-14(10-4-2-1-3-5-10)13-7-6-12-11(15(18)19)8-9-16(12)13/h1-7,11H,8-9H2,(H,18,19)
#inchikey OZWKMVRBQXNZKK
#origInchi InChI=1S/C15H13NO3.C4H11NO3/c17-14(10-4-2-1-3-5-10)13-7-6-12-11(15(18)19)8-9-16(12)13;5-4(1-6,2-7)3-8/h1-7,11H,8-9H2,(H,18,19);6-8H,1-3,5H2
#Ion_Source LC-ESI
#Instrument qTof
#Compound_Source NIH Pharmacologically Active Library
#PI Dorrestein
#Data_Collector VP/LMS
#Scan -1
#Precursor_MZ 256.099
#ExactMass 255.09
#Charge 1
#CAS_Number N/A
#Pubmed_ID N/A
#Smiles OC(=O)C1CCn2c(ccc12)C(=O)c3ccccc3.NC(CO)(CO)CO
#INCHI_AUX N/A
#Library_Class 1
#SpectrumID CCMSLIB00000084827
#IonMode Positive
#UpdateWorkflowName UPDATE-SINGLE-ANNOTATED-GOLD
#LibraryQualityString Gold
#TaskID d252d724072548979f1f6f1ced849daf
##Scan# 1859
#SpectrumFile p3-B03_GB3_01_18236.mzXML
#LibraryName Pharm_Active_Library.mgf
#MQScore -1
#Organism Pharm_Active_Library
#TIC_Query 0
#RT_Query -1
#MZErrorPPM -1
#SharedPeaks 0
#MassDiff 0
#LibMZ -1
#SpecMZ 256.099
#SpecCharge 0
#internalFilename spec-00000.mgf

>collision 0
105.0337 100.0
106.0634 2.32
108.0462 2.76
132.0444 6.46
133.0517 2.32
134.0235 2.45
134.0591 7.21
178.0502 25.97
179.0573 4.08
210.0925 10.23
256.0968 0.0
