>compound MLS002153445-01!
>formula C22H22FN3O2
>ionization [M+H]+
>parentmass 380.17688161609055
#inchi InChI=1S/C22H22FN3O2/c23-17-9-7-16(8-10-17)21(27)6-3-13-25-14-11-18(12-15-25)26-20-5-2-1-4-19(20)24-22(26)28/h1-2,4-5,7-11H,3,6,12-15H2,(H,24,28)
#inchikey RMEDXOLNCUSCGS
#Ion_Source LC-ESI
#Instrument qTof
#Compound_Source NIH Pharmacologically Active Library
#PI Dorrestein
#Data_Collector VP/LMS
#Scan -1
#Precursor_MZ 380.17
#ExactMass 379.17
#Charge 1
#CAS_Number N/A
#Pubmed_ID N/A
#Smiles Oc1nc2ccccc2n1C3=CCN(CCCC(=O)c4ccc(F)cc4)CC3
#INCHI_AUX N/A
#Library_Class 1
#SpectrumID CCMSLIB00000085364
#IonMode Positive
#UpdateWorkflowName UPDATE-SINGLE-ANNOTATED-GOLD
#LibraryQualityString Gold
#TaskID d252d724072548979f1f6f1ced849daf
##Scan# 1574
#SpectrumFile p3-H09_GH9_01_18314.mzXML
#LibraryName Pharm_Active_Library.mgf
#MQScore -1
#Organism Pharm_Active_Library
#TIC_Query 0
#RT_Query -1
#MZErrorPPM -1
#SharedPeaks 0
#MassDiff 0
#LibMZ -1
#SpecMZ 380.17
#SpecCharge 0
#internalFilename spec-00000.mgf

>collision 0
95.0292 1.11
113.039 0.27
123.0253 51.86
147.06 0.35
165.0722 100.0
194.098 11.5
380.1806 0.06
