>compound MLS000777209-01!phenazine-1-carboxylic acid
>formula C13H8N2O2
>ionization [M+H]+
>parentmass 225.064545
#inchi InChI=1S/C13H8N2O2/c16-13(17)8-4-3-7-11-12(8)15-10-6-2-1-5-9(10)14-11/h1-7H,(H,16,17)
#inchikey JGCSKOVQDXEQHI
#Ion_Source LC-ESI
#Instrument qTof
#Compound_Source NIH Natural Product Library
#PI Dorrestein
#Data_Collector VVP/LMS
#Scan -1
#Precursor_MZ 225.066
#ExactMass 224.059
#Charge 1
#CAS_Number N/A
#Pubmed_ID N/A
#Smiles OC(=O)c1cccc2nc3ccccc3nc12
#INCHI_AUX N/A
#Library_Class 1
#SpectrumID CCMSLIB00000079908
#IonMode Positive
#UpdateWorkflowName UPDATE-SINGLE-ANNOTATED-GOLD
#LibraryQualityString Gold
#TaskID b1d8e8f6646f4e71acdff9ca3d919d08
##Scan# 1902
#SpectrumFile p1-F12_GF12_01_17944.mzXML
#LibraryName NIH_Natural_Products_Library.mgf
#MQScore -1
#Organism NIH_Natural_Products_Library
#TIC_Query 0
#RT_Query -1
#MZErrorPPM -1
#SharedPeaks 0
#MassDiff 0
#LibMZ -1
#SpecMZ 225.066
#SpecCharge 0
#internalFilename spec-00000.mgf

>collision 0
102.0337 2.32
120.0446 0.44
128.0487 2.88
146.0596 0.57
152.0489 18.59
153.0452 8.6
170.0584 4.04
171.0559 4.8
179.0602 100.0
197.0718 1.93
207.055 13.75
225.0645 1.02
