>compound MLS001141387-01!(2S)-1-[6-[(10aS)-1,3-dioxo-10,10a-dihydro-5H-imidazo[1,5-b]isoquinolin-2-yl]hexanoyl]pyrrolidine-2-carboxylic acid
>formula C22H27N3O5
>ionization [M+H]+
>parentmass 414.203
#inchi InChI=1S/C22H27N3O5/c26-19(23-12-6-9-17(23)21(28)29)10-2-1-5-11-24-20(27)18-13-15-7-3-4-8-16(15)14-25(18)22(24)30/h3-4,7-8,17-18H,1-2,5-6,9-14H2,(H,28,29)/t17-,18-/m0/s1
#inchikey PNARHJLMOIEDMU
#Ion_Source LC-ESI
#Instrument qTof
#Compound_Source NIH Natural Product Library
#PI Dorrestein
#Data_Collector VVP/LMS
#Scan -1
#Precursor_MZ 414.203
#ExactMass 413.195
#Charge 1
#CAS_Number N/A
#Pubmed_ID N/A
#Smiles OC(=O)[C@@H]1CCCN1C(=O)CCCCCN2C(=O)[C@@H]3Cc4ccccc4CN3C2=O
#INCHI_AUX N/A
#Library_Class 1
#SpectrumID CCMSLIB00000080048
#IonMode Positive
#UpdateWorkflowName UPDATE-SINGLE-ANNOTATED-GOLD
#LibraryQualityString Gold
#TaskID b1d8e8f6646f4e71acdff9ca3d919d08
##Scan# 1855
#SpectrumFile p2-D03_GD3_01_18015.mzXML
#LibraryName NIH_Natural_Products_Library.mgf
#MQScore -1
#Organism NIH_Natural_Products_Library
#TIC_Query 0
#RT_Query -1
#MZErrorPPM -1
#SharedPeaks 0
#MassDiff 0
#LibMZ -1
#SpecMZ 414.203
#SpecCharge 0
#internalFilename spec-00000.mgf

>collision 0
103.0551 9.97
108.9931 5.39
116.0708 33.67
117.0715 9.87
130.0647 94.51
131.069 15.36
132.0807 43.85
133.0862 8.85
146.0574 8.65
158.0599 7.12
159.0652 10.89
160.0757 5.6
161.0838 5.49
175.0847 12.11
185.0688 10.27
187.0875 80.37
188.0908 12.11
196.0755 11.29
201.0645 12.72
202.07 6.1
203.082 100.0
204.0864 7.83
212.1319 13.94
213.0683 8.65
215.0838 18.21
221.112 5.09
238.1207 7.53
245.1069 4.98
271.1451 11.29
297.1257 10.78
299.1419 18.01
315.1387 12.11
413.194 5.8
414.2022 0.0
