>compound Clemastine Fumarate
>formula C21H26ClNO
>ionization [M+H]+
>parentmass 344.177399
#inchi InChI=1S/C21H26ClNO/c1-21(17-7-4-3-5-8-17,18-10-12-19(22)13-11-18)24-16-14-20-9-6-15-23(20)2/h3-5,7-8,10-13,20H,6,9,14-16H2,1-2H3/t20-,21-/m1/s1
#inchikey YNNUSGIPVFPVBX
#origInchi InChI=1S/C21H26ClNO.C4H4O4/c1-21(17-7-4-3-5-8-17,18-10-12-19(22)13-11-18)24-16-14-20-9-6-15-23(20)2;5-3(6)1-2-4(7)8/h3-5,7-8,10-13,20H,6,9,14-16H2,1-2H3;1-2H,(H,5,6)(H,7,8)/b;2-1+/t20-,21-;/m1./s1
#Ion_Source LC-ESI
#Instrument qTof
#Compound_Source Commercial
#PI Dorrestein
#Data_Collector Garg_Neha
#Scan -1
#Precursor_MZ 344.178
#ExactMass 343.17
#Charge 1
#CAS_Number 14976-57-9, 15686-51-8 (free base)
#Pubmed_ID N/A
#Smiles C1(=C(C=CC(=C1)Cl)[C@](OCC[C@@H]2N(CCC2)C)(C3=CC=CC=C3)C).OC(/C=C/C(O)=O)=O
#INCHI_AUX N/A
#Library_Class 1
#SpectrumID CCMSLIB00000078312
#IonMode Positive
#UpdateWorkflowName UPDATE-SINGLE-ANNOTATED-GOLD
#LibraryQualityString Gold
#TaskID 77f51c88eb8b467eb4a01dd2d0cb90d2
##Scan# 1319
#SpectrumFile Plate5_21_40_GH7_01_16509.mzXML
#LibraryName FDALibrary_2_04302014.mgf
#MQScore -1
#Organism FDALibrary_2_04302014
#TIC_Query 0
#RT_Query -1
#MZErrorPPM -1
#SharedPeaks 0
#MassDiff 0
#LibMZ -1
#SpecMZ 344.178
#SpecCharge 0
#internalFilename spec-00000.mgf

>collision 0
102.0457 0.56
103.0541 4.74
112.1103 0.27
130.123 37.34
137.0151 14.87
165.0692 11.08
179.0857 29.07
180.0933 37.43
199.0304 0.23
200.0373 0.91
215.0637 100.0
344.1774 6.35
