>compound MLS001048861-01!3-amino-1H-quinazoline-2,4-dione
>formula C8H7N3O2
>ionization [M+H]+
>parentmass 178.062
#inchi InChI=1S/C8H7N3O2/c9-11-7(12)5-3-1-2-4-6(5)10-8(11)13/h1-4H,9H2,(H,10,13)
#inchikey NMGODFWGUBLTTA
#Ion_Source LC-ESI
#Instrument qTof
#Compound_Source NIH Natural Product Library
#PI Dorrestein
#Data_Collector VVP/LMS
#Scan -1
#Precursor_MZ 178.062
#ExactMass 177.054
#Charge 1
#CAS_Number N/A
#Pubmed_ID N/A
#Smiles Nn1c(=O)[nH]c2ccccc2c1=O
#INCHI_AUX N/A
#Library_Class 3
#SpectrumID CCMSLIB00000079673
#IonMode Positive
#UpdateWorkflowName UPDATE-SINGLE-ANNOTATED-BRONZE
#LibraryQualityString Bronze
#TaskID b1d8e8f6646f4e71acdff9ca3d919d08
##Scan# 1133
#SpectrumFile p1-F09_GF9_01_17941.mzXML
#LibraryName NIH_Natural_Products_Library.mgf
#MQScore -1
#Organism NIH_Natural_Products_Library
#TIC_Query 0
#RT_Query -1
#MZErrorPPM -1
#SharedPeaks 0
#MassDiff 0
#LibMZ -1
#SpecMZ 178.062
#SpecCharge 0
#internalFilename spec-00000.mgf

>collision 0
104.0272 18.68
118.0272 15.02
119.0378 19.41
132.0546 34.8
146.0232 100.0
148.062 4.76
162.041 10.62
178.062 0.0
