>compound MLS001141218-01!N-[(2-methoxyphenyl)methyl]-2-[(4,8,8-trimethyl-2-oxo-9,10-dihydropyrano[2,3-h]chromen-5-yl)oxy]acetamide
>formula C25H27NO6
>ionization [M+H]+
>parentmass 438.19111403609054
#inchi InChI=1S/C25H27NO6/c1-15-11-22(28)31-24-17-9-10-25(2,3)32-19(17)12-20(23(15)24)30-14-21(27)26-13-16-7-5-6-8-18(16)29-4/h5-8,11-12H,9-10,13-14H2,1-4H3,(H,26,27)
#inchikey JXQFCHPUNIOTFX
#Ion_Source LC-ESI
#Instrument qTof
#Compound_Source NIH Natural Product Library
#PI Dorrestein
#Data_Collector VVP/LMS
#Scan -1
#Precursor_MZ 438.192
#ExactMass 437.184
#Charge 1
#CAS_Number N/A
#Pubmed_ID N/A
#Smiles COc1ccccc1CNC(=O)COc2cc3OC(C)(C)CCc3c4oc(=O)cc(C)c24
#INCHI_AUX N/A
#Library_Class 1
#SpectrumID CCMSLIB00000079792
#IonMode Positive
#UpdateWorkflowName UPDATE-SINGLE-ANNOTATED-GOLD
#LibraryQualityString Gold
#TaskID b1d8e8f6646f4e71acdff9ca3d919d08
##Scan# 2414
#SpectrumFile p1-B11_GB11_01_17895.mzXML
#LibraryName NIH_Natural_Products_Library.mgf
#MQScore -1
#Organism NIH_Natural_Products_Library
#TIC_Query 0
#RT_Query -1
#MZErrorPPM -1
#SharedPeaks 0
#MassDiff 0
#LibMZ -1
#SpecMZ 438.192
#SpecCharge 0
#internalFilename spec-00000.mgf

>collision 0
106.0413 0.24
107.0497 0.56
109.0648 8.13
121.0655 100.0
134.0359 0.29
135.0435 0.3
137.0599 22.63
148.0759 0.95
149.0596 1.69
150.0922 1.39
160.0753 0.31
161.058 0.41
178.0858 23.46
187.039 0.3
189.0557 1.04
205.0493 13.5
217.0496 2.97
245.043 3.15
276.0857 0.41
330.1338 0.88
438.1893 8.98
