>compound Paclitaxel
>formula C47H51NO14 
>ionization [M+H]+
>parentmass 854.339355
#inchi InChI=1S/C47H51NO14/c1-25-31(60-43(56)36(52)35(28-16-10-7-11-17-28)48-41(54)29-18-12-8-13-19-29)23-47(57)40(61-42(55)30-20-14-9-15-21-30)38-45(6,32(51)22-33-46(38,24-58-33)62-27(3)50)39(53)37(59-26(2)49)34(25)44(47,4)5/h7-21,31-33,35-38,40,51-52,57H,22-24H2,1-6H3,(H,48,54)
#inchikey RCINICONZNJXQF
#Ion_Source LC-ESI
#Instrument qTof
#Compound_Source Isolated
#PI Sirenas
#Data_Collector Ed Esquenazi 
#Scan -1
#Precursor_MZ 854.341
#ExactMass 0.0
#Charge 1
#CAS_Number N/A
#Pubmed_ID N/A
#Smiles N/A
#INCHI_AUX N/A
#Library_Class 3
#SpectrumID CCMSLIB00000005450
#IonMode Positive
#UpdateWorkflowName UPDATE-SINGLE-ANNOTATED-BRONZE
#LibraryQualityString Bronze
#TaskID d19310cd93df49b68e9fcbec27720eb5
##Scan# 2
#SpectrumFile Paclitaxel.mgf
#LibraryName fda_library.mgf
#MQScore -1
#Organism fda_library
#TIC_Query 0
#RT_Query -1
#MZErrorPPM -1
#SharedPeaks 0
#MassDiff 0
#LibMZ -1
#SpecMZ 854.341
#SpecCharge 0
#internalFilename spec-00000.mgf

>collision 0
105.0335 15.45
118.0642 0.88
121.0635 0.77
121.0995 0.79
133.0649 2.08
133.1018 4.09
149.0596 2.06
149.0952 1.52
151.0765 0.9
159.0788 0.8
161.0955 0.93
177.054 2.5
177.0899 1.09
189.0896 0.9
211.1131 0.94
221.1318 0.95
223.111 0.98
237.1258 2.08
239.1417 2.34
240.1015 11.01
253.157 0.79
263.1436 2.69
265.1207 0.95
267.1376 2.56
268.0973 13.82
269.0817 1.17
269.1163 0.75
281.1543 4.52
285.1496 1.08
286.1081 100.0
291.1389 4.88
299.1635 2.55
309.1492 11.42
327.1594 19.44
329.1385 1.18
341.1756 2.45
345.1688 3.53
369.1696 4.22
372.1251 0.99
387.181 11.32
390.1346 3.58
405.1893 5.64
431.1837 2.72
449.197 10.19
491.2074 3.33
509.2182 30.94
551.2265 2.33
569.2408 4.25
776.3073 1.75
854.3394 18.24
