>compound MLS000860017-01!5-(N-Ethyl-N-isopropyl)amiloride
>formula C11H18ClN7O
>ionization [M+H]+
>parentmass 300.1334123280905
#inchi InChI=1S/C11H18ClN7O/c1-4-19(5(2)3)9-7(12)16-6(8(13)17-9)10(20)18-11(14)15/h5H,4H2,1-3H3,(H2,13,17)(H4,14,15,18,20)
#inchikey QDERNBXNXJCIQK
#Ion_Source LC-ESI
#Instrument qTof
#Compound_Source NIH Pharmacologically Active Library
#PI Dorrestein
#Data_Collector VP/LMS
#Scan -1
#Precursor_MZ 300.14
#ExactMass 299.126
#Charge 1
#CAS_Number N/A
#Pubmed_ID N/A
#Smiles CCN(C(C)C)c1nc(N)c(nc1Cl)C(=O)N=C(N)N
#INCHI_AUX N/A
#Library_Class 1
#SpectrumID CCMSLIB00000085540
#IonMode Positive
#UpdateWorkflowName UPDATE-SINGLE-ANNOTATED-GOLD
#LibraryQualityString Gold
#TaskID d252d724072548979f1f6f1ced849daf
##Scan# 1682
#SpectrumFile p4-C05_GC5_01_18353.mzXML
#LibraryName Pharm_Active_Library.mgf
#MQScore -1
#Organism Pharm_Active_Library
#TIC_Query 0
#RT_Query -1
#MZErrorPPM -1
#SharedPeaks 0
#MassDiff 0
#LibMZ -1
#SpecMZ 300.14
#SpecCharge 0
#internalFilename spec-00000.mgf

>collision 0
93.0458 0.48
100.9904 35.62
102.0104 3.51
108.0558 1.97
116.0009 6.91
118.0391 0.72
121.0503 3.12
128.0013 1.11
129.022 100.0
135.066 7.61
136.0744 8.46
143.0109 4.55
144.0314 5.08
154.0155 0.63
163.0612 0.72
171.0431 16.58
199.0379 54.74
241.0857 74.52
259.0945 12.43
300.1306 0.57
