>compound MLS000069541-01!NABUMETONE
>formula C15H16O2
>ionization [M+H]+
>parentmass 229.12230620409053
#inchi InChI=1S/C15H16O2/c1-11(16)3-4-12-5-6-14-10-15(17-2)8-7-13(14)9-12/h5-10H,3-4H2,1-2H3
#inchikey BLXXJMDCKKHMKV
#Ion_Source LC-ESI
#Instrument qTof
#Compound_Source NIH Pharmacologically Active Library
#PI Dorrestein
#Data_Collector VP/LMS
#Scan -1
#Precursor_MZ 229.126
#ExactMass 228.115
#Charge 1
#CAS_Number N/A
#Pubmed_ID N/A
#Smiles COc1ccc2cc(CCC(=O)C)ccc2c1
#INCHI_AUX N/A
#Library_Class 1
#SpectrumID CCMSLIB00000086097
#IonMode Positive
#UpdateWorkflowName UPDATE-SINGLE-ANNOTATED-GOLD
#LibraryQualityString Gold
#TaskID d252d724072548979f1f6f1ced849daf
##Scan# 2191
#SpectrumFile p5-E03_GE3_01_18460.mzXML
#LibraryName Pharm_Active_Library.mgf
#MQScore -1
#Organism Pharm_Active_Library
#TIC_Query 0
#RT_Query -1
#MZErrorPPM -1
#SharedPeaks 0
#MassDiff 0
#LibMZ -1
#SpecMZ 229.126
#SpecCharge 0
#internalFilename spec-00000.mgf

>collision 0
102.0458 3.76
115.0546 4.47
117.0708 2.12
127.0543 3.39
128.0619 51.03
141.069 2.16
156.057 10.3
171.08 100.0
229.1223 0.0
