>compound Orlistat (Alli, Xenical)
>formula C29H53NO5
>ionization [M+H]+
>parentmass 496.39965024809055
#inchi InChI=1S/C29H53NO5/c1-5-7-9-11-12-13-14-15-16-18-24(34-29(33)26(30-22-31)20-23(3)4)21-27-25(28(32)35-27)19-17-10-8-6-2/h22-27H,5-21H2,1-4H3,(H,30,31)/t24-,25-,26-,27-/m0/s1
#inchikey AHLBNYSZXLDEJQ
#Ion_Source LC-ESI
#Instrument qTof
#Compound_Source Commercial
#PI Dorrestein
#Data_Collector Garg_Neha
#Scan -1
#Precursor_MZ 496.4
#ExactMass 495.392
#Charge 1
#CAS_Number 96829-58-2
#Pubmed_ID N/A
#Smiles C1([C@H]([C@@H](O1)C[C@H](CCCCCCCCCCC)OC(=O)[C@H](CC(C)C)NC(=O)[H])CCCCCC)=O
#INCHI_AUX N/A
#Library_Class 1
#SpectrumID CCMSLIB00000078213
#IonMode Positive
#UpdateWorkflowName UPDATE-SINGLE-ANNOTATED-GOLD
#LibraryQualityString Gold
#TaskID 77f51c88eb8b467eb4a01dd2d0cb90d2
##Scan# 4436
#SpectrumFile Plate3_61_88_GH1_01_16501.mzXML
#LibraryName FDALibrary_2_04302014.mgf
#MQScore -1
#Organism FDALibrary_2_04302014
#TIC_Query 0
#RT_Query -1
#MZErrorPPM -1
#SharedPeaks 0
#MassDiff 0
#LibMZ -1
#SpecMZ 496.4
#SpecCharge 0
#internalFilename spec-00000.mgf

>collision 0
95.0866 8.07
97.1026 1.72
109.0639 2.68
109.1021 6.43
111.1175 2.74
114.0918 19.52
121.1021 3.25
123.08 1.77
123.1187 3.96
132.1019 6.17
133.1005 1.64
137.1325 4.1
138.1384 2.25
142.0863 16.05
153.1638 1.81
160.0965 40.13
163.1479 2.25
165.1638 2.8
167.1433 3.14
193.1941 21.79
211.2047 5.4
291.304 11.79
301.2892 16.66
309.3172 2.23
319.2991 100.0
337.3101 29.26
370.2961 4.24
496.4038 2.94
