>compound CandesartanCilextil
>formula C33H34N6O6 
>ionization [M+H]+
>parentmass 611.260254
#inchi InChI=1S/C33H34N6O6/c1-3-42-32-34-28-15-9-14-27(31(40)43-21(2)44-33(41)45-24-10-5-4-6-11-24)29(28)39(32)20-22-16-18-23(19-17-22)25-12-7-8-13-26(25)30-35-37-38-36-30/h7-9,12-19,21,24H,3-6,10-11,20H2,1-2H3,(H,35,36,37,38)
#inchikey GHOSNRCGJFBJIB
#Ion_Source LC-ESI
#Instrument qTof
#Compound_Source Isolated
#PI Sirenas
#Data_Collector Ed Esquenazi 
#Scan -1
#Precursor_MZ 611.261
#ExactMass 0.0
#Charge 1
#CAS_Number N/A
#Pubmed_ID N/A
#Smiles N/A
#INCHI_AUX N/A
#Library_Class 3
#SpectrumID CCMSLIB00000006590
#IonMode Positive
#UpdateWorkflowName UPDATE-SINGLE-ANNOTATED-BRONZE
#LibraryQualityString Bronze
#TaskID d19310cd93df49b68e9fcbec27720eb5
##Scan# 2
#SpectrumFile CandesartanCilextil.mgf
#LibraryName fda_library.mgf
#MQScore -1
#Organism fda_library
#TIC_Query 0
#RT_Query -1
#MZErrorPPM -1
#SharedPeaks 0
#MassDiff 0
#LibMZ -1
#SpecMZ 611.261
#SpecCharge 0
#internalFilename spec-00000.mgf

>collision 0
147.0561 1.75
161.0335 0.27
175.0875 3.38
187.0508 0.27
192.0808 1.83
207.0916 2.85
233.0709 1.77
233.1063 1.53
235.123 2.38
263.1297 5.97
338.105 8.84
349.1085 4.97
350.0928 1.7
352.108 1.42
367.1204 5.08
377.1398 0.96
380.139 1.28
395.1502 12.75
422.161 100.0
424.1597 4.81
441.1642 0.73
611.2594 0.1
