>compound NCGC00160240-01!PERFAMINE
>formula C18H19NO4
>ionization [M+H]+
>parentmass 314.13916
#inchi InChI=1S/C18H19NO4/c1-11(2)7-9-18(22-4)14(20)6-5-12-15(21-3)13-8-10-23-17(13)19-16(12)18/h5-8,10H,9H2,1-4H3
#inchikey AOCCRKXUBBAOQI
#Ion_Source LC-ESI
#Instrument qTOF
#Compound_Source Prestwick Phytochem Lib
#PI Dorrestein
#Data_Collector VVP/LMS
#Scan -1
#Precursor_MZ 314.139
#ExactMass 314.139
#Charge 1
#CAS_Number N/A
#Pubmed_ID N/A
#Smiles COC1=C2C=COC2=NC3=C1C=CC(=O)C3(C\C=C(\C)C)OC
#INCHI_AUX N/A
#Library_Class 3
#SpectrumID CCMSLIB00000078747
#IonMode Positive
#UpdateWorkflowName UPDATE-SINGLE-ANNOTATED-BRONZE
#LibraryQualityString Bronze
#TaskID 67c915c6594c435cadc1fe2b5358144d
##Scan# 2032
#SpectrumFile p1-B03_GB3_01_17887.mzXML
#LibraryName phytochem_lib.mgf
#MQScore -1
#Organism phytochem_lib
#TIC_Query 0
#RT_Query -1
#MZErrorPPM -1
#SharedPeaks 0
#MassDiff 0
#LibMZ -1
#SpecMZ 314.139
#SpecCharge 0
#internalFilename spec-00000.mgf

>collision 0
130.066 7.29
140.0494 6.12
142.0635 11.18
143.0373 6.71
168.0439 12.71
170.0603 14.47
171.0442 6.82
171.104 6.24
185.0452 31.76
188.0327 29.88
198.053 14.35
200.0704 70.0
211.0251 77.41
213.0798 42.12
216.0302 28.12
216.0641 30.12
217.029 16.59
227.0555 15.06
228.1019 40.0
231.0508 99.88
245.0658 6.35
247.0755 14.82
264.1044 8.94
272.1277 9.41
296.1281 7.06
314.1387 18.24
