>compound MLS001174930-01!2-(4-Hydroxyphenylazo)benzoic acid
>formula C13H10N2O3
>ionization [M+H]+
>parentmass 243.0764186320905
#inchi InChI=1S/C13H10N2O3/c16-10-7-5-9(6-8-10)14-15-12-4-2-1-3-11(12)13(17)18/h1-8,16H,(H,17,18)
#inchikey DWQOTEPNRWVUDA
#Ion_Source LC-ESI
#Instrument qTof
#Compound_Source NIH Pharmacologically Active Library
#PI Dorrestein
#Data_Collector VP/LMS
#Scan -1
#Precursor_MZ 243.08
#ExactMass 242.069
#Charge 1
#CAS_Number N/A
#Pubmed_ID N/A
#Smiles OC(=O)c1ccccc1N=Nc2ccc(O)cc2
#INCHI_AUX N/A
#Library_Class 1
#SpectrumID CCMSLIB00000086160
#IonMode Positive
#UpdateWorkflowName UPDATE-SINGLE-ANNOTATED-GOLD
#LibraryQualityString Gold
#TaskID d252d724072548979f1f6f1ced849daf
##Scan# 1870
#SpectrumFile p5-G04_GG4_01_18473.mzXML
#LibraryName Pharm_Active_Library.mgf
#MQScore -1
#Organism Pharm_Active_Library
#TIC_Query 0
#RT_Query -1
#MZErrorPPM -1
#SharedPeaks 0
#MassDiff 0
#LibMZ -1
#SpecMZ 243.08
#SpecCharge 0
#internalFilename spec-00000.mgf

>collision 0
93.0322 3.02
115.0551 100.0
121.0283 31.72
126.0451 1.12
140.0618 6.17
141.0699 72.87
150.0483 1.44
151.0534 7.93
168.0568 24.18
169.063 9.36
179.0573 2.3
243.0764 0.0
