>compound Halovir C
>formula C45H83N7O8 
>ionization [M+H]+
>parentmass 850.6375890680906
#inchi InChI=1S/C45H83N7O8/c1-10-11-12-13-14-15-16-17-18-19-20-23-38(55)51-45(8,9)44(60)52-26-21-22-36(52)42(58)49-35(28-31(4)5)41(57)50-39(32(6)7)43(59)48-34(24-25-37(46)54)40(56)47-33(29-53)27-30(2)3/h30-36,39,53H,10-29H2,1-9H3,(H2,46,54)(H,47,56)(H,48,59)(H,49,58)(H,50,57)(H,51,55)/t33-,34-,35-,36?,39-/m0/s1
#inchikey VCAGNEUDNVLWPT
#Ion_Source LC-ESI
#Instrument qTof
#Compound_Source Isolated
#PI Fenical-Jensen-Moore
#Data_Collector Max
#Scan -1
#Precursor_MZ 850.636
#ExactMass 849.628
#Charge 1
#CAS_Number N/A
#Pubmed_ID N/A
#Smiles N/A
#INCHI_AUX N/A
#Library_Class 1
#SpectrumID CCMSLIB00000001598
#IonMode Positive
#UpdateWorkflowName UPDATE-SINGLE-ANNOTATED-GOLD
#LibraryQualityString Gold
#TaskID d14a5843653040ba9fa2c4376f2be358
##Scan# 1
#SpectrumFile B9.mgf
#LibraryName gnps_library.mgf
#MQScore -1
#Organism gnps_library
#TIC_Query 0
#RT_Query -1
#MZErrorPPM -1
#SharedPeaks 0
#MassDiff 0
#LibMZ -1
#SpecMZ 850.636
#SpecCharge 0
#internalFilename spec-00000.mgf

>collision 0
183.1478 2.19
211.1425 4.99
228.1676 1.45
229.1537 1.32
246.1798 1.73
282.2166 0.28
296.2565 0.39
310.2112 12.97
312.2151 0.3
327.2365 1.45
345.2474 1.53
393.3092 5.25
410.2754 0.39
438.2692 14.08
439.2718 3.75
440.2737 0.55
478.3949 0.28
506.3931 14.53
507.3958 4.95
508.3974 0.9
537.3731 2.28
538.3623 2.14
539.3633 0.62
555.3841 100.0
556.3872 34.79
605.4611 36.68
606.4642 16.09
607.4671 3.36
735.5301 0.3
832.6228 10.49
834.6204 3.03
835.6206 0.66
850.6338 24.67
