>compound MLS001158176-01!
>formula C24H24N2O5
>ionization [M+H]+
>parentmass 421.175018
#inchi InChI=1S/C24H24N2O5/c1-13-17-6-7-20(27)14(2)23(17)31-24(30)18(13)9-22(29)25-10-15-8-16(12-25)19-4-3-5-21(28)26(19)11-15/h3-7,15-16,27H,8-12H2,1-2H3/t15-,16+/m1/s1
#inchikey JSDINJGUOLGFLA
#Ion_Source LC-ESI
#Instrument qTof
#Compound_Source NIH Natural Product Library
#PI Dorrestein
#Data_Collector VVP/LMS
#Scan -1
#Precursor_MZ 421.176
#ExactMass 420.169
#Charge 1
#CAS_Number N/A
#Pubmed_ID N/A
#Smiles Cc1c(O)ccc2c(C)c(CC(=O)N3C[C@H]4C[C@@H](C3)c5cccc(=O)n5C4)c(=O)oc12
#INCHI_AUX N/A
#Library_Class 1
#SpectrumID CCMSLIB00000080409
#IonMode Positive
#UpdateWorkflowName UPDATE-SINGLE-ANNOTATED-GOLD
#LibraryQualityString Gold
#TaskID b1d8e8f6646f4e71acdff9ca3d919d08
##Scan# 1580
#SpectrumFile p2-E08_GE8_01_18032.mzXML
#LibraryName NIH_Natural_Products_Library.mgf
#MQScore -1
#Organism NIH_Natural_Products_Library
#TIC_Query 0
#RT_Query -1
#MZErrorPPM -1
#SharedPeaks 0
#MassDiff 0
#LibMZ -1
#SpecMZ 421.176
#SpecCharge 0
#internalFilename spec-00000.mgf

>collision 0
115.0537 0.57
116.0621 0.22
119.0837 0.35
129.0683 0.21
131.0833 0.26
141.0691 0.22
142.0738 0.33
144.0579 1.28
147.0809 1.04
160.0516 0.65
173.0613 0.23
175.0763 5.33
176.0781 1.1
203.0712 100.0
204.0734 18.33
231.065 5.87
421.175 1.35
