>compound 2-Methoxyestradiol
>formula C19H26O3
>ionization [M+H]+
>parentmass 303.194733
#inchi InChI=1S/C19H26O3/c1-19-8-7-12-13(15(19)5-6-18(19)21)4-3-11-9-16(20)17(22-2)10-14(11)12/h9-10,12-13,15,18,20-21H,3-8H2,1-2H3/t12-,13-,15+,18-,19+/m1/s1
#inchikey CQOQDQWUFQDJMK
#Ion_Source LC-ESI
#Instrument qTof
#Compound_Source Commercial
#PI Dorrestein
#Data_Collector Garg_Neha
#Scan -1
#Precursor_MZ 303.195
#ExactMass 302.188
#Charge 1
#CAS_Number 362-07-2,39-20-7 (H2SO4)
#Pubmed_ID N/A
#Smiles C1(=C(C=C2C(=C1)[C@]3([C@@](CC2)([C@]4([C@](CC3)([C@@H](CC4)O)C)[H])[H])[H])O)OC
#INCHI_AUX N/A
#Library_Class 1
#SpectrumID CCMSLIB00000078060
#IonMode Positive
#UpdateWorkflowName UPDATE-SINGLE-ANNOTATED-GOLD
#LibraryQualityString Gold
#TaskID 77f51c88eb8b467eb4a01dd2d0cb90d2
##Scan# 1450
#SpectrumFile Plate1_61_88_GG4_01_16491.mzXML
#LibraryName FDALibrary_2_04302014.mgf
#MQScore -1
#Organism FDALibrary_2_04302014
#TIC_Query 0
#RT_Query -1
#MZErrorPPM -1
#SharedPeaks 0
#MassDiff 0
#LibMZ -1
#SpecMZ 303.195
#SpecCharge 0
#internalFilename spec-00000.mgf

>collision 0
106.0797 5.28
107.0509 4.53
121.1009 8.51
122.0731 4.31
123.0432 6.14
130.0773 4.09
135.1163 26.29
136.1243 10.24
137.0597 100.0
147.118 4.96
176.0825 4.09
202.0994 9.16
203.1074 4.63
285.1821 26.08
303.1947 45.69
