>compound 10H-Phenothiazine, 2-chloro-10-[3-(4-methyl-1-piperazinyl)propyl- [CAS]
>formula C20H24ClN3S
>ionization [M+H]+
>parentmass 374.1452229000906
#inchi InChI=1S/C20H24ClN3S/c1-22-11-13-23(14-12-22)9-4-10-24-17-5-2-3-6-19(17)25-20-8-7-16(21)15-18(20)24/h2-3,5-8,15H,4,9-14H2,1H3
#inchikey WIKYUJGCLQQFNW
#Ion_Source LC-ESI
#Instrument qTof
#Compound_Source Commercial
#PI Dorrestein
#Data_Collector Garg_Neha
#Scan -1
#Precursor_MZ 374.145
#ExactMass 373.138
#Charge 1
#CAS_Number N/A
#Pubmed_ID N/A
#Smiles CN1CCN(CCCN2c3ccccc3Sc4ccc(Cl)cc24)CC1
#INCHI_AUX N/A
#Library_Class 1
#SpectrumID CCMSLIB00000079203
#IonMode Positive
#UpdateWorkflowName UPDATE-SINGLE-ANNOTATED-GOLD
#LibraryQualityString Gold
#TaskID 278b19f5865741e282cec7349aa7e7a1
##Scan# 1211
#SpectrumFile NCP003592_G2_H11_BE3_01_15737.mzXML
#LibraryName NIHcollectionI_05062014.mgf
#MQScore -1
#Organism NIHcollectionI_05062014
#TIC_Query 0
#RT_Query -1
#MZErrorPPM -1
#SharedPeaks 0
#MassDiff 0
#LibMZ -1
#SpecMZ 374.145
#SpecCharge 0
#internalFilename spec-00000.mgf

>collision 0
98.0852 4.79
113.1074 58.34
141.1388 100.0
211.0443 4.82
233.0066 5.18
238.069 1.54
239.0763 17.64
246.014 40.44
274.0444 5.03
296.1464 5.41
374.1474 415.04
