>compound Demeclocycline
>formula C21H21ClN2O8 
>ionization [M+H]+
>parentmass 465.106689
#inchi InChI=1S/C21H21ClN2O8/c1-24(2)14-7-5-6-10(16(27)12-9(25)4-3-8(22)11(12)15(6)26)18(29)21(7,32)19(30)13(17(14)28)20(23)31/h3-4,6-7,14-15,25-27,30,32H,5H2,1-2H3,(H2,23,31)
#inchikey GUXHBMASAHGULD
#Ion_Source LC-ESI
#Instrument qTof
#Compound_Source Commercial
#PI Dorrestein
#Data_Collector Garg_Neha
#Scan -1
#Precursor_MZ 465.109
#ExactMass 464.099
#Charge 1
#CAS_Number N/A
#Pubmed_ID N/A
#Smiles N/A
#INCHI_AUX N/A
#Library_Class 1
#SpectrumID CCMSLIB00000077057
#IonMode Positive
#UpdateWorkflowName UPDATE-SINGLE-ANNOTATED-GOLD
#LibraryQualityString Gold
#TaskID 48f7f52fc6d249b5abbcc6e7b3df5969
##Scan# 1053
#SpectrumFile NCP003017_E2_F11_BA8_01_15703.mzXML
#LibraryName NIH_Clinical_Collection_2.mgf
#MQScore -1
#Organism NIHcollection2_04212014_2_mgf
#TIC_Query 0
#RT_Query -1
#MZErrorPPM -1
#SharedPeaks 0
#MassDiff 0
#LibMZ -1
#SpecMZ 465.109
#SpecCharge 0
#internalFilename spec-00000.mgf

>collision 0
98.06 1.15
126.0561 1.49
154.0499 3.1
233.0006 0.81
259.016 3.48
261.0298 4.32
262.033 0.97
273.0309 1.29
287.0101 4.12
289.0261 6.81
290.0301 1.0
299.0112 1.29
301.0252 1.79
311.01 1.36
313.0262 3.22
317.0223 3.34
329.0219 2.07
334.047 0.59
339.0063 2.97
341.0208 4.31
342.0248 1.09
357.0176 2.24
366.9991 3.29
369.0146 2.14
384.064 1.28
385.0093 1.75
412.0554 1.32
430.0688 17.65
431.0741 4.03
447.0948 0.88
448.0811 100.0
449.0834 23.57
450.079 31.33
465.1076 63.25
