>compound MLS001049140-01!7-hydroxy-3-phenylchromen-4-one
>formula C15H10O3
>ionization [M+H]+
>parentmass 239.068619
#inchi InChI=1S/C15H10O3/c16-11-6-7-12-14(8-11)18-9-13(15(12)17)10-4-2-1-3-5-10/h1-9,16H
#inchikey WMKOZARWBMFKAS
#Ion_Source LC-ESI
#Instrument qTof
#Compound_Source NIH Natural Product Library
#PI Dorrestein
#Data_Collector VVP/LMS
#Scan -1
#Precursor_MZ 239.071
#ExactMass 238.063
#Charge 1
#CAS_Number N/A
#Pubmed_ID N/A
#Smiles Oc1ccc2c(=O)c(coc2c1)c3ccccc3
#INCHI_AUX N/A
#Library_Class 1
#SpectrumID CCMSLIB00000079456
#IonMode Positive
#UpdateWorkflowName UPDATE-SINGLE-ANNOTATED-GOLD
#LibraryQualityString Gold
#TaskID b1d8e8f6646f4e71acdff9ca3d919d08
##Scan# 2004
#SpectrumFile p1-F06_GF6_01_17938.mzXML
#LibraryName NIH_Natural_Products_Library.mgf
#MQScore -1
#Organism NIH_Natural_Products_Library
#TIC_Query 0
#RT_Query -1
#MZErrorPPM -1
#SharedPeaks 0
#MassDiff 0
#LibMZ -1
#SpecMZ 239.071
#SpecCharge 0
#internalFilename spec-00000.mgf

>collision 0
102.0461 3.64
103.0543 12.11
105.0321 1.68
115.0543 8.89
127.0537 2.41
128.0625 4.83
129.0683 6.62
133.028 1.87
134.0365 1.42
139.0539 3.81
140.0612 1.52
141.0688 15.06
152.0623 9.74
153.0698 26.49
154.0764 7.86
155.0844 17.65
164.0615 2.58
165.0699 100.0
168.0569 8.26
181.0659 16.42
182.0714 8.63
183.0803 37.43
197.0595 1.39
211.0758 3.97
221.059 2.64
239.0699 104.29
