>compound MLS000701317-01!3-allyl-5-{[5-(4-fluorophenyl)-2-furyl]methylene}-2-thioxo-1,3-thiazolidin-4-one
>formula C17H12FNO2S2
>ionization [M+H]+
>parentmass 346.0366252960905
#inchi InChI=1S/C17H12FNO2S2/c1-2-9-19-16(20)15(23-17(19)22)10-13-7-8-14(21-13)11-3-5-12(18)6-4-11/h2-8,10H,1,9H2/b15-10-
#inchikey NRYDVPWWLSZUMD
#Ion_Source LC-ESI
#Instrument qTof
#Compound_Source NIH Pharmacologically Active Library
#PI Dorrestein
#Data_Collector VP/LMS
#Scan -1
#Precursor_MZ 346.038
#ExactMass 345.029
#Charge 1
#CAS_Number N/A
#Pubmed_ID N/A
#Smiles Fc1ccc(cc1)c2ccc(/C=C/3\SC(=S)N(CC=C)C3=O)o2
#INCHI_AUX N/A
#Library_Class 3
#SpectrumID CCMSLIB00000085783
#IonMode Positive
#UpdateWorkflowName UPDATE-SINGLE-ANNOTATED-BRONZE
#LibraryQualityString Bronze
#TaskID d252d724072548979f1f6f1ced849daf
##Scan# 2902
#SpectrumFile p4-F05_GF5_01_18389.mzXML
#LibraryName Pharm_Active_Library.mgf
#MQScore -1
#Organism Pharm_Active_Library
#TIC_Query 0
#RT_Query -1
#MZErrorPPM -1
#SharedPeaks 0
#MassDiff 0
#LibMZ -1
#SpecMZ 346.038
#SpecCharge 0
#internalFilename spec-00000.mgf

>collision 0
55.0539 2.99
95.0317 4.4
99.0235 4.63
103.0541 2.99
122.9918 8.68
123.0242 24.27
133.0435 9.61
146.0519 17.29
147.0605 11.78
157.0478 3.99
163.0535 2.93
171.027 5.92
175.0579 7.03
186.0491 4.69
189.0168 25.79
190.0244 18.05
191.0329 19.7
200.0529 4.28
201.0183 4.45
202.0251 3.4
218.0195 100.0
219.026 26.85
223.0063 28.96
224.0097 5.04
231.0717 5.04
247.0213 7.56
250.9996 4.4
346.0434 1.82
