>compound Rifabutin (Mycobutin)
>formula C46H62N4O11
>ionization [M+Na]+
>parentmass 869.430054
#inchi InChI=1S/C46H62N4O11/c1-22(2)21-50-18-16-46(17-19-50)48-34-31-32-39(54)28(8)42-33(31)43(56)45(10,61-42)59-20-15-30(58-11)25(5)41(60-29(9)51)27(7)38(53)26(6)37(52)23(3)13-12-14-24(4)44(57)47-36(40(32)55)35(34)49-46/h12-15,20,22-23,25-27,30,37-38,41,49,52-54H,16-19,21H2,1-11H3,(H,47,57)/b13-12+,20-15+,24-14-/t23-,25-,26+,27-,30+,37+,38-,41-,45-/m1/s1
#inchikey ATEBXHFBFRCZMA
#Ion_Source LC-ESI
#Instrument qTof
#Compound_Source Commercial
#PI Dorrestein
#Data_Collector Garg_Neha
#Scan -1
#Precursor_MZ 869.431
#ExactMass 846.442
#Charge 1
#CAS_Number 72559-06-9
#Pubmed_ID N/A
#Smiles [C@@H]1([C@H]([C@@H]([C@@H]([C@H](/C=C/O[C@@]2(OC3C(=C(C4C(C(NC(/C(=C\C=C\[C@H]([C@@H]([C@@H]1C)O)C)C)=O)=C5C(C=4C=3C2=O)=NC6(N5)CCN(CC6)CC(C)C)=O)O)C)C)OC)C)OC(=O)C)C)O
#INCHI_AUX N/A
#Library_Class 1
#SpectrumID CCMSLIB00000078270
#IonMode Positive
#UpdateWorkflowName UPDATE-SINGLE-ANNOTATED-GOLD
#LibraryQualityString Gold
#TaskID 77f51c88eb8b467eb4a01dd2d0cb90d2
##Scan# 1333
#SpectrumFile Plate4_41_60_GH4_01_16505.mzXML
#LibraryName FDALibrary_2_04302014.mgf
#MQScore -1
#Organism FDALibrary_2_04302014
#TIC_Query 0
#RT_Query -1
#MZErrorPPM -1
#SharedPeaks 0
#MassDiff 0
#LibMZ -1
#SpecMZ 869.431
#SpecCharge 0
#internalFilename spec-00000.mgf

>collision 0
387.0977 8.15
467.1454 8.25
496.1694 6.11
530.1898 7.4
538.1478 6.11
554.178 7.93
567.2606 10.61
596.2564 7.29
597.2706 11.68
622.2488 18.44
623.264 7.29
639.2791 9.54
654.3066 9.32
664.2899 7.93
666.2923 8.15
674.2909 9.43
677.2651 6.86
678.274 10.08
682.2699 6.86
692.2894 13.18
696.3086 7.61
697.3209 17.04
705.3634 6.97
706.3139 7.18
708.2933 21.54
709.2986 19.51
710.3019 10.4
723.3713 20.9
724.3177 7.82
724.3732 21.54
725.3203 9.86
725.3665 17.68
738.2834 7.29
756.3015 10.18
777.3828 16.18
779.4172 11.79
781.4247 9.32
783.3954 17.04
784.4082 21.01
791.3794 9.75
792.4106 13.72
809.4076 100.0
810.4151 39.34
811.4088 16.83
838.4159 10.61
839.3969 14.79
869.4301 354.88
