>compound Busulfan (Myleran, Busulfex)
>formula C6H14O6S2
>ionization [M+Na]+
>parentmass 269.01178
#inchi InChI=1S/C6H14O6S2/c1-13(7,8)11-5-3-4-6-12-14(2,9)10/h3-6H2,1-2H3
#inchikey COVZYZSDYWQREU
#Ion_Source LC-ESI
#Instrument qTof
#Compound_Source Commercial
#PI Dorrestein
#Data_Collector Garg_Neha
#Scan -1
#Precursor_MZ 269.012
#ExactMass 246.023
#Charge 1
#CAS_Number 55-98-1
#Pubmed_ID N/A
#Smiles CS(OCCCCOS(C)(=O)=O)(=O)=O
#INCHI_AUX N/A
#Library_Class 1
#SpectrumID CCMSLIB00000078240
#IonMode Positive
#UpdateWorkflowName UPDATE-SINGLE-ANNOTATED-GOLD
#LibraryQualityString Gold
#TaskID 77f51c88eb8b467eb4a01dd2d0cb90d2
##Scan# 1115
#SpectrumFile Plate4_1_20_GH2_01_16503.mzXML
#LibraryName FDALibrary_2_04302014.mgf
#MQScore -1
#Organism FDALibrary_2_04302014
#TIC_Query 0
#RT_Query -1
#MZErrorPPM -1
#SharedPeaks 0
#MassDiff 0
#LibMZ -1
#SpecMZ 269.012
#SpecCharge 0
#internalFilename spec-00000.mgf

>collision 0
109.0986 4.61
118.9769 30.36
153.035 9.72
173.0232 100.0
196.9523 25.15
269.0118 704.01
