>compound Orlistat (Alli, Xenical)
>formula C29H53NO5
>ionization [M+Na]+
>parentmass 518.3815944960905
#inchi InChI=1S/C29H53NO5/c1-5-7-9-11-12-13-14-15-16-18-24(34-29(33)26(30-22-31)20-23(3)4)21-27-25(28(32)35-27)19-17-10-8-6-2/h22-27H,5-21H2,1-4H3,(H,30,31)/t24-,25-,26-,27-/m0/s1
#inchikey AHLBNYSZXLDEJQ
#Ion_Source LC-ESI
#Instrument qTof
#Compound_Source Commercial
#PI Dorrestein
#Data_Collector Garg_Neha
#Scan -1
#Precursor_MZ 518.382
#ExactMass 495.392
#Charge 1
#CAS_Number 96829-58-2
#Pubmed_ID N/A
#Smiles C1([C@H]([C@@H](O1)C[C@H](CCCCCCCCCCC)OC(=O)[C@H](CC(C)C)NC(=O)[H])CCCCCC)=O
#INCHI_AUX N/A
#Library_Class 1
#SpectrumID CCMSLIB00000078214
#IonMode Positive
#UpdateWorkflowName UPDATE-SINGLE-ANNOTATED-GOLD
#LibraryQualityString Gold
#TaskID 77f51c88eb8b467eb4a01dd2d0cb90d2
##Scan# 4445
#SpectrumFile Plate3_61_88_GH1_01_16501.mzXML
#LibraryName FDALibrary_2_04302014.mgf
#MQScore -1
#Organism FDALibrary_2_04302014
#TIC_Query 0
#RT_Query -1
#MZErrorPPM -1
#SharedPeaks 0
#MassDiff 0
#LibMZ -1
#SpecMZ 518.382
#SpecCharge 0
#internalFilename spec-00000.mgf

>collision 0
154.0834 0.45
182.08 31.62
392.2782 0.34
474.3943 100.0
518.384 87.92
