>compound MLS001076853-01!
>formula C21H23N3O4S
>ionization [M+H]+
>parentmass 414.149
#inchi InChI=1S/C21H23N3O4S/c1-27-17-7-6-14(9-18(17)28-2)20(26)22-21(29)23-10-13-8-15(12-23)16-4-3-5-19(25)24(16)11-13/h3-7,9,13,15H,8,10-12H2,1-2H3,(H,22,26,29)/t13-,15-/m1/s1
#inchikey DSNBJZDRWMZWQT
#Ion_Source LC-ESI
#Instrument qTof
#Compound_Source NIH Natural Product Library
#PI Dorrestein
#Data_Collector VVP/LMS
#Scan -1
#Precursor_MZ 414.149
#ExactMass 413.141
#Charge 1
#CAS_Number N/A
#Pubmed_ID N/A
#Smiles COc1ccc(cc1OC)C(=O)NC(=S)N2C[C@H]3C[C@H](C2)c4cccc(=O)n4C3
#INCHI_AUX N/A
#Library_Class 1
#SpectrumID CCMSLIB00000080515
#IonMode Positive
#UpdateWorkflowName UPDATE-SINGLE-ANNOTATED-GOLD
#LibraryQualityString Gold
#TaskID b1d8e8f6646f4e71acdff9ca3d919d08
##Scan# 1676
#SpectrumFile p2-A10_GA10_01_17986.mzXML
#LibraryName NIH_Natural_Products_Library.mgf
#MQScore -1
#Organism NIH_Natural_Products_Library
#TIC_Query 0
#RT_Query -1
#MZErrorPPM -1
#SharedPeaks 0
#MassDiff 0
#LibMZ -1
#SpecMZ 414.149
#SpecCharge 0
#internalFilename spec-00000.mgf

>collision 0
98.0354 0.5
105.0349 0.75
107.0128 0.41
107.0502 0.52
109.028 0.55
109.0641 2.38
111.0064 0.54
121.0287 1.07
122.0362 5.53
126.032 1.22
130.0634 0.24
133.0503 0.52
134.0605 0.27
135.044 0.35
137.0595 6.63
139.0033 0.22
141.0556 0.38
146.06 0.56
148.0759 9.65
154.0254 0.57
158.0601 0.28
159.066 0.38
160.0753 3.7
162.0912 0.52
165.0553 100.0
172.0755 0.87
174.0909 2.51
191.1183 26.36
234.0766 1.07
414.1483 0.0
