>compound MLS000037737-01!Sulfisoxazole127-69-5
>formula C11H13N3O3S
>ionization [M+H]+
>parentmass 268.076263
#inchi InChI=1S/C11H13N3O3S/c1-7-8(2)13-17-11(7)14-18(15,16)10-5-3-9(12)4-6-10/h3-6,14H,12H2,1-2H3
#inchikey NHUHCSRWZMLRLA
#Ion_Source LC-ESI
#Instrument qTof
#Compound_Source NIH Pharmacologically Active Library
#PI Dorrestein
#Data_Collector VP/LMS
#Scan -1
#Precursor_MZ 268.078
#ExactMass 267.068
#Charge 1
#CAS_Number N/A
#Pubmed_ID N/A
#Smiles Cc1noc(NS(=O)(=O)c2ccc(N)cc2)c1C
#INCHI_AUX N/A
#Library_Class 1
#SpectrumID CCMSLIB00000085731
#IonMode Positive
#UpdateWorkflowName UPDATE-SINGLE-ANNOTATED-GOLD
#LibraryQualityString Gold
#TaskID d252d724072548979f1f6f1ced849daf
##Scan# 1529
#SpectrumFile p4-E09_GE9_01_18381.mzXML
#LibraryName Pharm_Active_Library.mgf
#MQScore -1
#Organism Pharm_Active_Library
#TIC_Query 0
#RT_Query -1
#MZErrorPPM -1
#SharedPeaks 0
#MassDiff 0
#LibMZ -1
#SpecMZ 268.078
#SpecCharge 0
#internalFilename spec-00000.mgf

>collision 0
61.9924 1.08
92.0492 14.16
95.0593 1.83
96.0432 2.31
108.0441 100.0
113.0702 29.8
140.0147 3.21
156.0108 18.92
268.0763 0.87
