>compound Terbinafine (Lamisil, Terbinex)
>formula C21H25N
>ionization [M+H]+
>parentmass 292.20755
#inchi InChI=1S/C21H25N/c1-21(2,3)15-8-5-9-16-22(4)17-19-13-10-12-18-11-6-7-14-20(18)19/h5-7,9-14H,16-17H2,1-4H3/b9-5+
#inchikey DOMXUEMWDBAQBQ
#Ion_Source LC-ESI
#Instrument qTof
#Compound_Source Commercial
#PI Dorrestein
#Data_Collector Garg_Neha
#Scan -1
#Precursor_MZ 292.206
#ExactMass 291.199
#Charge 1
#CAS_Number 91161-71-6
#Pubmed_ID N/A
#Smiles C1=CC=C2C(=C1)C(=CC=C2)CN(C)C/C=C/C#CC(C)(C)C
#INCHI_AUX N/A
#Library_Class 1
#SpectrumID CCMSLIB00000078259
#IonMode Positive
#UpdateWorkflowName UPDATE-SINGLE-ANNOTATED-GOLD
#LibraryQualityString Gold
#TaskID 77f51c88eb8b467eb4a01dd2d0cb90d2
##Scan# 1319
#SpectrumFile Plate4_21_40_GH3_01_16504.mzXML
#LibraryName FDALibrary_2_04302014.mgf
#MQScore -1
#Organism FDALibrary_2_04302014
#TIC_Query 0
#RT_Query -1
#MZErrorPPM -1
#SharedPeaks 0
#MassDiff 0
#LibMZ -1
#SpecMZ 292.206
#SpecCharge 0
#internalFilename spec-00000.mgf

>collision 0
91.054 1.18
93.0699 2.02
103.0546 0.32
105.0698 1.42
115.0542 5.16
119.085 0.55
121.1015 2.88
139.0542 0.77
150.1275 3.67
165.0701 0.65
167.0867 0.25
170.0964 5.75
179.0849 0.98
190.079 0.4
191.0852 0.94
193.1013 0.9
203.0842 0.53
205.1008 3.37
207.1159 0.6
219.116 0.7
233.1324 0.2
235.1469 0.57
236.1435 1.3
249.1641 0.81
261.1645 2.05
292.2086 52.99
