>compound RAMIPRIL
>formula C23H32N2O5
>ionization [M+H]+
>parentmass 417.240173
#inchi InChI=1S/C23H32N2O5/c1-3-30-23(29)18(13-12-16-8-5-4-6-9-16)24-15(2)21(26)25-19-11-7-10-17(19)14-20(25)22(27)28/h4-6,8-9,15,17-20,24H,3,7,10-14H2,1-2H3,(H,27,28)/t15-,17-,18-,19-,20-/m0/s1
#inchikey HDACQVRGBOVJII
#Ion_Source LC-ESI
#Instrument qTof
#Compound_Source Commercial
#PI Dorrestein
#Data_Collector Garg_Neha
#Scan -1
#Precursor_MZ 417.238
#ExactMass 416.231
#Charge 1
#CAS_Number N/A
#Pubmed_ID N/A
#Smiles CCOC(=O)[C@H](CCc1ccccc1)N[C@@H](C)C(=O)N2[C@@H](C[C@@H]3CCC[C@@H]32)C(=O)O
#INCHI_AUX N/A
#Library_Class 1
#SpectrumID CCMSLIB00000078986
#IonMode Positive
#UpdateWorkflowName UPDATE-SINGLE-ANNOTATED-GOLD
#LibraryQualityString Gold
#TaskID 278b19f5865741e282cec7349aa7e7a1
##Scan# 1134
#SpectrumFile NCP003352_C2_D11_BC5_01_15719.mzXML
#LibraryName NIHcollectionI_05062014.mgf
#MQScore -1
#Organism NIHcollectionI_05062014
#TIC_Query 0
#RT_Query -1
#MZErrorPPM -1
#SharedPeaks 0
#MassDiff 0
#LibMZ -1
#SpecMZ 417.238
#SpecCharge 0
#internalFilename spec-00000.mgf

>collision 0
91.0529 0.47
102.0547 1.28
110.0963 1.19
117.0704 9.58
130.0868 9.47
134.097 5.45
156.1026 6.04
160.1127 20.68
206.1161 1.65
234.1497 100.0
343.2005 9.92
417.2402 203.98
