>compound MLS000563224-01!
>formula C30H46O5
>ionization [M+Na]+
>parentmass 509.322479
#inchi InChI=1S/C30H46O5/c1-25(2)19-9-12-28(5)20(27(19,4)11-10-21(25)32)8-7-17-18-13-26(3,16-31)22(33)14-30(18)15-23(29(17,28)6)35-24(30)34/h7,18-23,31-33H,8-16H2,1-6H3/t18-,19?,20?,21-,22-,23+,26-,27-,28+,29-,30-/m0/s1
#inchikey MINFCKXAWKNBAP
#Ion_Source LC-ESI
#Instrument qTof
#Compound_Source NIH Natural Product Library
#PI Dorrestein
#Data_Collector VVP/LMS
#Scan -1
#Precursor_MZ 509.324
#ExactMass 486.335
#Charge 1
#CAS_Number N/A
#Pubmed_ID N/A
#Smiles CC1(C)[C@@H](O)CC[C@@]2(C)C1CC[C@]3(C)C2CC=C4[C@@H]5C[C@@](C)(CO)[C@@H](O)C[C@@]65C[C@@H](OC6=O)[C@]43C
#INCHI_AUX N/A
#Library_Class 3
#SpectrumID CCMSLIB00000079740
#IonMode Positive
#UpdateWorkflowName UPDATE-SINGLE-ANNOTATED-BRONZE
#LibraryQualityString Bronze
#TaskID b1d8e8f6646f4e71acdff9ca3d919d08
##Scan# 2139
#SpectrumFile p1-D10_GD10_01_17918.mzXML
#LibraryName NIH_Natural_Products_Library.mgf
#MQScore -1
#Organism NIH_Natural_Products_Library
#TIC_Query 0
#RT_Query -1
#MZErrorPPM -1
#SharedPeaks 0
#MassDiff 0
#LibMZ -1
#SpecMZ 509.324
#SpecCharge 0
#internalFilename spec-00000.mgf

>collision 0
184.0288 13.91
275.067 12.41
362.1861 15.04
363.0042 15.41
387.0087 15.79
447.3253 33.46
465.3299 100.0
466.1767 18.8
491.3175 15.41
509.3225 905.26
