>compound MLS001157807-01!4-[[2-(6-oxobenzo[c]chromen-3-yl)oxypropanoylamino]methyl]cyclohexane-1-carboxylic acid
>formula C24H25NO6
>ionization [M+H]+
>parentmass 424.176
#inchi InChI=1S/C24H25NO6/c1-14(22(26)25-13-15-6-8-16(9-7-15)23(27)28)30-17-10-11-19-18-4-2-3-5-20(18)24(29)31-21(19)12-17/h2-5,10-12,14-16H,6-9,13H2,1H3,(H,25,26)(H,27,28)/t14?,15-,16-
#inchikey DBFROQUVDRUPBV
#Ion_Source LC-ESI
#Instrument qTof
#Compound_Source NIH Natural Product Library
#PI Dorrestein
#Data_Collector VVP/LMS
#Scan -1
#Precursor_MZ 424.176
#ExactMass 423.168
#Charge 1
#CAS_Number N/A
#Pubmed_ID N/A
#Smiles CC(Oc1ccc2c(c1)oc(=O)c3ccccc32)C(=O)NC[C@H]4CC[C@@H](CC4)C(=O)O
#INCHI_AUX N/A
#Library_Class 1
#SpectrumID CCMSLIB00000080552
#IonMode Positive
#UpdateWorkflowName UPDATE-SINGLE-ANNOTATED-GOLD
#LibraryQualityString Gold
#TaskID b1d8e8f6646f4e71acdff9ca3d919d08
##Scan# 1991
#SpectrumFile p2-E10_GE10_01_18034.mzXML
#LibraryName NIH_Natural_Products_Library.mgf
#MQScore -1
#Organism NIH_Natural_Products_Library
#TIC_Query 0
#RT_Query -1
#MZErrorPPM -1
#SharedPeaks 0
#MassDiff 0
#LibMZ -1
#SpecMZ 424.176
#SpecCharge 0
#internalFilename spec-00000.mgf

>collision 0
95.0853 14.46
105.0694 1.54
112.1118 3.24
122.0971 4.64
138.0912 5.99
138.127 9.77
139.053 3.73
140.1073 48.26
141.0692 4.18
152.0615 7.7
152.1071 1.91
155.0846 3.59
165.0709 4.36
166.122 3.78
167.0496 13.54
167.0843 7.37
167.1291 13.2
169.0639 4.89
177.0712 5.11
183.0797 10.58
184.1335 5.97
193.064 2.56
195.045 4.55
195.0804 3.17
211.0746 15.6
213.0545 28.05
221.0599 5.8
239.0703 100.0
267.0641 5.53
284.0924 14.59
378.1707 6.51
424.176 0.0
