>compound MLS001195647-01!TBA-2010_Sertraline_1
>formula C17H17Cl2N
>ionization [M+H]+
>parentmass 306.0810813560905
#inchi InChI=1S/C17H17Cl2N/c1-20-17-9-7-12(13-4-2-3-5-14(13)17)11-6-8-15(18)16(19)10-11/h2-6,8,10,12,17,20H,7,9H2,1H3/t12-,17-/m0/s1
#inchikey VGKDLMBJGBXTGI
#Ion_Source LC-ESI
#Instrument qTof
#Compound_Source NIH Pharmacologically Active Library
#PI Dorrestein
#Data_Collector VP/LMS
#Scan -1
#Precursor_MZ 306.084
#ExactMass 305.074
#Charge 1
#CAS_Number N/A
#Pubmed_ID N/A
#Smiles CN[C@H]1CC[C@@H](c2ccc(Cl)c(Cl)c2)c3ccccc13
#INCHI_AUX N/A
#Library_Class 1
#SpectrumID CCMSLIB00000084936
#IonMode Positive
#UpdateWorkflowName UPDATE-SINGLE-ANNOTATED-GOLD
#LibraryQualityString Gold
#TaskID d252d724072548979f1f6f1ced849daf
##Scan# 1872
#SpectrumFile p3-C09_GC9_01_18254.mzXML
#LibraryName Pharm_Active_Library.mgf
#MQScore -1
#Organism Pharm_Active_Library
#TIC_Query 0
#RT_Query -1
#MZErrorPPM -1
#SharedPeaks 0
#MassDiff 0
#LibMZ -1
#SpecMZ 306.084
#SpecCharge 0
#internalFilename spec-00000.mgf

>collision 0
102.0479 0.28
103.0536 0.69
122.9995 5.96
127.0546 0.9
128.0621 7.47
129.0699 22.94
132.9608 0.86
158.9769 100.0
162.0225 1.76
196.9912 1.24
204.0943 0.59
205.101 3.13
240.0685 1.54
275.0388 1.36
306.0811 0.0
