>compound MLS001049024-01!
>formula C11H16N4O2
>ionization [M+H]+
>parentmass 237.136108
#inchi InChI=1S/C11H16N4O2/c1-7(2)5-15-6-12-9-8(15)10(16)14(4)11(17)13(9)3/h6-7H,5H2,1-4H3
#inchikey WHUWQSQEVISUMC
#Ion_Source LC-ESI
#Instrument qTof
#Compound_Source NIH Pharmacologically Active Library
#PI Dorrestein
#Data_Collector VP/LMS
#Scan -1
#Precursor_MZ 237.132
#ExactMass 236.127
#Charge 1
#CAS_Number N/A
#Pubmed_ID N/A
#Smiles CC(C)Cn1cnc2n(C)c(=O)n(C)c(=O)c12
#INCHI_AUX N/A
#Library_Class 1
#SpectrumID CCMSLIB00000085275
#IonMode Positive
#UpdateWorkflowName UPDATE-SINGLE-ANNOTATED-GOLD
#LibraryQualityString Gold
#TaskID d252d724072548979f1f6f1ced849daf
##Scan# 1608
#SpectrumFile p3-G09_GG9_01_18302.mzXML
#LibraryName Pharm_Active_Library.mgf
#MQScore -1
#Organism Pharm_Active_Library
#TIC_Query 0
#RT_Query -1
#MZErrorPPM -1
#SharedPeaks 0
#MassDiff 0
#LibMZ -1
#SpecMZ 237.132
#SpecCharge 0
#internalFilename spec-00000.mgf

>collision 0
96.0555 5.08
109.0266 2.01
124.0502 100.0
181.0717 86.28
237.1361 0.53
