>compound azelastine hydrochloride
>formula C22H24ClN3O
>ionization [M+H]+
>parentmass 382.1680665200905
#inchi InChI=1S/C22H24ClN3O/c1-25-13-4-5-18(12-14-25)26-22(27)20-7-3-2-6-19(20)21(24-26)15-16-8-10-17(23)11-9-16/h2-3,6-11,18H,4-5,12-15H2,1H3
#inchikey MBUVEWMHONZEQD
#Ion_Source LC-ESI
#Instrument qTof
#Compound_Source Commercial
#PI Dorrestein
#Data_Collector Garg_Neha
#Scan -1
#Precursor_MZ 382.168
#ExactMass 381.161
#Charge 1
#CAS_Number N/A
#Pubmed_ID N/A
#Smiles CN1CCCC(CC1)n2nc(Cc3ccc(Cl)cc3)c4ccccc4c2=O
#INCHI_AUX N/A
#Library_Class 1
#SpectrumID CCMSLIB00000078987
#IonMode Positive
#UpdateWorkflowName UPDATE-SINGLE-ANNOTATED-GOLD
#LibraryQualityString Gold
#TaskID 278b19f5865741e282cec7349aa7e7a1
##Scan# 1167
#SpectrumFile NCP003352_C2_D11_BC5_01_15719.mzXML
#LibraryName NIHcollectionI_05062014.mgf
#MQScore -1
#Organism NIHcollectionI_05062014
#TIC_Query 0
#RT_Query -1
#MZErrorPPM -1
#SharedPeaks 0
#MassDiff 0
#LibMZ -1
#SpecMZ 382.168
#SpecCharge 0
#internalFilename spec-00000.mgf

>collision 0
110.0964 1.15
112.1122 100.0
131.0495 0.45
159.055 5.03
219.0683 0.34
224.1197 0.26
254.0364 0.58
256.0519 0.34
271.0634 20.21
283.0633 10.71
297.0781 0.76
309.079 1.86
323.0943 0.3
339.1243 1.15
351.1268 3.7
382.1711 237.94
