>compound DOFETILIDE
>formula C19H27N3O5S2
>ionization [M+H]+
>parentmass 442.1464894160905
#inchi InChI=1S/C19H27N3O5S2/c1-22(13-12-16-4-6-17(7-5-16)20-28(2,23)24)14-15-27-19-10-8-18(9-11-19)21-29(3,25)26/h4-11,20-21H,12-15H2,1-3H3
#inchikey IXTMWRCNAAVVAI
#Ion_Source LC-ESI
#Instrument qTof
#Compound_Source Commercial
#PI Dorrestein
#Data_Collector Garg_Neha
#Scan -1
#Precursor_MZ 442.146
#ExactMass 441.139
#Charge 1
#CAS_Number N/A
#Pubmed_ID N/A
#Smiles CN(CCOc1ccc(NS(=O)(=O)C)cc1)CCc2ccc(NS(=O)(=O)C)cc2
#INCHI_AUX N/A
#Library_Class 1
#SpectrumID CCMSLIB00000079139
#IonMode Positive
#UpdateWorkflowName UPDATE-SINGLE-ANNOTATED-GOLD
#LibraryQualityString Gold
#TaskID 278b19f5865741e282cec7349aa7e7a1
##Scan# 1024
#SpectrumFile NCP003512_G2_H11_BD7_01_15731.mzXML
#LibraryName NIHcollectionI_05062014.mgf
#MQScore -1
#Organism NIHcollectionI_05062014
#TIC_Query 0
#RT_Query -1
#MZErrorPPM -1
#SharedPeaks 0
#MassDiff 0
#LibMZ -1
#SpecMZ 442.146
#SpecCharge 0
#internalFilename spec-00000.mgf

>collision 0
91.0565 1.36
107.0739 1.89
118.0657 4.59
119.0732 11.29
120.0811 8.29
134.0581 0.72
134.098 1.37
174.1397 0.47
176.1323 1.65
179.1175 4.2
185.0507 0.88
198.0592 100.0
199.0615 12.13
200.0537 3.84
214.052 0.66
241.1 0.61
245.0932 2.39
255.1161 8.17
256.1144 1.7
257.0973 2.35
258.0943 0.61
348.1346 0.8
442.1493 342.2
