>compound MLS001074205-01!17321-77-6
>formula C19H23ClN2
>ionization [M+H]+
>parentmass 315.162506
#inchi InChI=1S/C19H23ClN2/c1-21(2)12-5-13-22-18-7-4-3-6-15(18)8-9-16-10-11-17(20)14-19(16)22/h3-4,6-7,10-11,14H,5,8-9,12-13H2,1-2H3
#inchikey GDLIGKIOYRNHDA
#origInchi InChI=1S/C19H23ClN2.ClH/c1-21(2)12-5-13-22-18-7-4-3-6-15(18)8-9-16-10-11-17(20)14-19(16)22;/h3-4,6-7,10-11,14H,5,8-9,12-13H2,1-2H3;1H
#Ion_Source LC-ESI
#Instrument qTof
#Compound_Source NIH Pharmacologically Active Library
#PI Dorrestein
#Data_Collector VP/LMS
#Scan -1
#Precursor_MZ 315.166
#ExactMass 314.155
#Charge 1
#CAS_Number N/A
#Pubmed_ID N/A
#Smiles CN(C)CCCN1c2ccccc2CCc3ccc(Cl)cc13.Cl
#INCHI_AUX N/A
#Library_Class 1
#SpectrumID CCMSLIB00000085403
#IonMode Positive
#UpdateWorkflowName UPDATE-SINGLE-ANNOTATED-GOLD
#LibraryQualityString Gold
#TaskID d252d724072548979f1f6f1ced849daf
##Scan# 1872
#SpectrumFile p4-A06_GA6_01_18331.mzXML
#LibraryName Pharm_Active_Library.mgf
#MQScore -1
#Organism Pharm_Active_Library
#TIC_Query 0
#RT_Query -1
#MZErrorPPM -1
#SharedPeaks 0
#MassDiff 0
#LibMZ -1
#SpecMZ 315.166
#SpecCharge 0
#internalFilename spec-00000.mgf

>collision 0
130.0651 0.82
165.0706 1.99
181.0876 0.62
191.0721 1.48
192.0807 10.18
204.0809 0.98
206.0963 9.65
207.1041 19.54
214.0406 1.48
220.1122 24.07
227.0499 100.0
234.1266 9.87
235.1338 12.58
240.0579 1.3
242.0731 89.39
270.1039 8.23
315.1616 1.0
