>compound MLS000860018-01!(+/-)-6-Chloro-PB hydrobromide
>formula C16H16ClNO2
>ionization [M+H]+
>parentmass 290.0942328840905
#inchi InChI=1S/C16H16ClNO2/c17-15-11-6-7-18-9-13(10-4-2-1-3-5-10)12(11)8-14(19)16(15)20/h1-5,8,13,18-20H,6-7,9H2
#inchikey GHWJEDJMOVUXEC
#origInchi InChI=1S/C16H16ClNO2.BrH/c17-15-11-6-7-18-9-13(10-4-2-1-3-5-10)12(11)8-14(19)16(15)20;/h1-5,8,13,18-20H,6-7,9H2;1H
#Ion_Source LC-ESI
#Instrument qTof
#Compound_Source NIH Pharmacologically Active Library
#PI Dorrestein
#Data_Collector VP/LMS
#Scan -1
#Precursor_MZ 290.096
#ExactMass 289.087
#Charge 1
#CAS_Number N/A
#Pubmed_ID N/A
#Smiles Oc1cc2C(CNCCc2c(Cl)c1O)c3ccccc3.Br
#INCHI_AUX N/A
#Library_Class 1
#SpectrumID CCMSLIB00000085112
#IonMode Positive
#UpdateWorkflowName UPDATE-SINGLE-ANNOTATED-GOLD
#LibraryQualityString Gold
#TaskID d252d724072548979f1f6f1ced849daf
##Scan# 1341
#SpectrumFile p3-F02_GF2_01_18283.mzXML
#LibraryName Pharm_Active_Library.mgf
#MQScore -1
#Organism Pharm_Active_Library
#TIC_Query 0
#RT_Query -1
#MZErrorPPM -1
#SharedPeaks 0
#MassDiff 0
#LibMZ -1
#SpecMZ 290.096
#SpecCharge 0
#internalFilename spec-00000.mgf

>collision 0
91.0543 17.93
103.0533 14.73
107.0485 9.14
117.0699 4.27
118.0396 6.26
125.0149 86.27
128.0627 10.23
129.0701 9.73
131.0491 13.07
136.0518 24.37
149.0151 19.63
153.0099 24.39
157.0049 9.8
160.0509 21.33
165.0695 16.13
166.0763 7.4
171.0207 100.0
177.0085 11.39
178.0767 5.79
179.0856 10.87
190.0768 4.61
191.0848 31.81
192.0931 25.3
195.0188 12.57
198.0308 16.13
219.081 8.24
220.0885 15.48
223.0744 25.48
237.0895 14.05
238.0983 26.21
290.0957 0.0
