>compound Terazosin
>formula C19H25N5O4
>ionization [M+H]+
>parentmass 388.199646
#inchi InChI=1S/C19H25N5O4/c1-26-15-10-12-13(11-16(15)27-2)21-19(22-17(12)20)24-7-5-23(6-8-24)18(25)14-4-3-9-28-14/h10-11,14H,3-9H2,1-2H3,(H2,20,21,22)
#inchikey VCKUSRYTPJJLNI
#Ion_Source LC-ESI
#Instrument qTof
#Compound_Source Commercial
#PI Dorrestein
#Data_Collector Garg_Neha
#Scan -1
#Precursor_MZ 388.198
#ExactMass 387.191
#Charge 1
#CAS_Number N/A
#Pubmed_ID N/A
#Smiles COc1cc2nc(nc(N)c2cc1OC)N3CCN(CC3)C(=O)C4CCCO4
#INCHI_AUX N/A
#Library_Class 1
#SpectrumID CCMSLIB00000079158
#IonMode Positive
#UpdateWorkflowName UPDATE-SINGLE-ANNOTATED-GOLD
#LibraryQualityString Gold
#TaskID 278b19f5865741e282cec7349aa7e7a1
##Scan# 1027
#SpectrumFile NCP003592_A2_B11_BD8_01_15734.mzXML
#LibraryName NIHcollectionI_05062014.mgf
#MQScore -1
#Organism NIHcollectionI_05062014
#TIC_Query 0
#RT_Query -1
#MZErrorPPM -1
#SharedPeaks 0
#MassDiff 0
#LibMZ -1
#SpecMZ 388.198
#SpecCharge 0
#internalFilename spec-00000.mgf

>collision 0
203.0932 2.25
206.0807 1.85
221.1032 19.38
231.0872 7.56
232.096 7.62
245.1032 2.07
247.1195 79.47
257.1024 1.27
271.1202 0.44
273.1355 7.32
275.1378 2.72
288.1447 6.46
290.1622 100.0
316.1403 1.52
342.1573 1.05
372.1676 3.04
373.1737 2.56
388.1996 377.78
