>compound GLIMEPIRIDE
>formula C24H34N4O5S
>ionization [M+Na]+
>parentmass 513.2142118880905
#inchi InChI=1S/C24H34N4O5S/c1-4-21-17(3)15-28(22(21)29)24(31)25-14-13-18-7-11-20(12-8-18)34(32,33)27-23(30)26-19-9-5-16(2)6-10-19/h7-8,11-12,16,19H,4-6,9-10,13-15H2,1-3H3,(H,25,31)(H2,26,27,30)/t16-,19-
#inchikey WIGIZIANZCJQQY
#Ion_Source LC-ESI
#Instrument qTof
#Compound_Source Commercial
#PI Dorrestein
#Data_Collector Garg_Neha
#Scan -1
#Precursor_MZ 513.214
#ExactMass 490.225
#Charge 1
#CAS_Number N/A
#Pubmed_ID N/A
#Smiles CCC1=C(C)CN(C(=O)NCCc2ccc(cc2)S(=O)(=O)NC(=O)N[C@H]3CC[C@H](C)CC3)C1=O
#INCHI_AUX N/A
#Library_Class 1
#SpectrumID CCMSLIB00000079242
#IonMode Positive
#UpdateWorkflowName UPDATE-SINGLE-ANNOTATED-GOLD
#LibraryQualityString Gold
#TaskID 278b19f5865741e282cec7349aa7e7a1
##Scan# 2085
#SpectrumFile NCP003672_E27F27G26H26_BE5_01_15741.mzXML
#LibraryName NIHcollectionI_05062014.mgf
#MQScore -1
#Organism NIHcollectionI_05062014
#TIC_Query 0
#RT_Query -1
#MZErrorPPM -1
#SharedPeaks 0
#MassDiff 0
#LibMZ -1
#SpecMZ 513.214
#SpecCharge 0
#internalFilename spec-00000.mgf

>collision 0
148.0732 4.3
164.0431 1.3
236.1372 1.0
249.0292 9.42
250.0298 3.71
256.0977 1.02
266.0017 1.17
374.1132 100.0
375.1161 12.54
376.1158 8.53
377.1161 1.58
378.1011 1.26
379.1083 1.02
384.0935 4.19
388.1286 5.34
389.1349 3.04
397.0742 1.15
398.0928 1.89
400.0932 47.72
401.0957 11.98
402.0969 1.3
404.1089 1.22
408.0892 3.23
437.204 1.11
447.1352 0.98
454.1467 2.34
513.2139 461.87
