>compound Tioconazole
>formula C16H13Cl3N2OS
>ionization [M+H]+
>parentmass 386.98869352809055
#inchi InChI=1S/C16H13Cl3N2OS/c17-12-1-2-13(14(18)7-12)15(8-21-5-4-20-10-21)22-9-11-3-6-23-16(11)19/h1-7,10,15H,8-9H2
#inchikey QXHHHPZILQDDPS
#Ion_Source LC-ESI
#Instrument qTof
#Compound_Source Commercial
#PI Dorrestein
#Data_Collector Garg_Neha
#Scan -1
#Precursor_MZ 386.989
#ExactMass 385.981
#Charge 1
#CAS_Number 65899-73-2
#Pubmed_ID N/A
#Smiles C1=C(C(=CC=C1Cl)C(OCC2C=CSC=2Cl)CN3C=CN=C3)Cl
#INCHI_AUX N/A
#Library_Class 1
#SpectrumID CCMSLIB00000078341
#IonMode Positive
#UpdateWorkflowName UPDATE-SINGLE-ANNOTATED-GOLD
#LibraryQualityString Gold
#TaskID 77f51c88eb8b467eb4a01dd2d0cb90d2
##Scan# 1331
#SpectrumFile Plate5_61_88_GH9_01_16511.mzXML
#LibraryName FDALibrary_2_04302014.mgf
#MQScore -1
#Organism FDALibrary_2_04302014
#TIC_Query 0
#RT_Query -1
#MZErrorPPM -1
#SharedPeaks 0
#MassDiff 0
#LibMZ -1
#SpecMZ 386.989
#SpecCharge 0
#internalFilename spec-00000.mgf

>collision 0
94.9941 0.38
96.0029 0.35
130.9723 100.0
217.9948 0.97
219.0021 0.62
253.9719 0.96
331.9847 0.21
386.9911 91.09
