>compound MLS000876950-01!5,7-dihydroxy-6-methyl-2-phenyl-2,3-dihydrochromen-4-one
>formula C16H14O4
>ionization [M+H]+
>parentmass 271.098358
#inchi InChI=1S/C16H14O4/c1-9-11(17)7-14-15(16(9)19)12(18)8-13(20-14)10-5-3-2-4-6-10/h2-7,13,17,19H,8H2,1H3
#inchikey INBPQAJYHSJVRY
#Ion_Source LC-ESI
#Instrument qTof
#Compound_Source NIH Natural Product Library
#PI Dorrestein
#Data_Collector VVP/LMS
#Scan -1
#Precursor_MZ 271.097
#ExactMass 270.089
#Charge 1
#CAS_Number N/A
#Pubmed_ID N/A
#Smiles Cc1c(O)cc2OC(CC(=O)c2c1O)c3ccccc3
#INCHI_AUX N/A
#Library_Class 1
#SpectrumID CCMSLIB00000080466
#IonMode Positive
#UpdateWorkflowName UPDATE-SINGLE-ANNOTATED-GOLD
#LibraryQualityString Gold
#TaskID b1d8e8f6646f4e71acdff9ca3d919d08
##Scan# 2282
#SpectrumFile p2-D09_GD9_01_18021.mzXML
#LibraryName NIH_Natural_Products_Library.mgf
#MQScore -1
#Organism NIH_Natural_Products_Library
#TIC_Query 0
#RT_Query -1
#MZErrorPPM -1
#SharedPeaks 0
#MassDiff 0
#LibMZ -1
#SpecMZ 271.097
#SpecCharge 0
#internalFilename spec-00000.mgf

>collision 0
103.0546 36.1
111.0429 0.87
131.0499 15.07
137.0585 2.16
165.0178 3.88
167.0351 100.0
193.0506 1.38
253.0852 1.55
271.0984 6.44
