>compound MLS001332643-01!Benoxinate hydrochloride5987-82-6
>formula C17H28N2O3
>ionization [M+H]+
>parentmass 309.216
#inchi InChI=1S/C17H28N2O3/c1-4-7-11-21-16-13-14(8-9-15(16)18)17(20)22-12-10-19(5-2)6-3/h8-9,13H,4-7,10-12,18H2,1-3H3
#inchikey CMHHMUWAYWTMGS
#Ion_Source LC-ESI
#Instrument qTof
#Compound_Source NIH Pharmacologically Active Library
#PI Dorrestein
#Data_Collector VP/LMS
#Scan -1
#Precursor_MZ 309.216
#ExactMass 308.21
#Charge 1
#CAS_Number N/A
#Pubmed_ID N/A
#Smiles CCCCOc1cc(ccc1N)C(=O)OCCN(CC)CC
#INCHI_AUX N/A
#Library_Class 1
#SpectrumID CCMSLIB00000085270
#IonMode Positive
#UpdateWorkflowName UPDATE-SINGLE-ANNOTATED-GOLD
#LibraryQualityString Gold
#TaskID d252d724072548979f1f6f1ced849daf
##Scan# 1641
#SpectrumFile p3-G08_GG8_01_18301.mzXML
#LibraryName Pharm_Active_Library.mgf
#MQScore -1
#Organism Pharm_Active_Library
#TIC_Query 0
#RT_Query -1
#MZErrorPPM -1
#SharedPeaks 0
#MassDiff 0
#LibMZ -1
#SpecMZ 309.216
#SpecCharge 0
#internalFilename spec-00000.mgf

>collision 0
91.0543 0.24
94.0663 0.39
106.0282 0.26
106.0647 0.71
108.044 11.07
119.0482 0.37
122.0592 0.22
124.0381 0.55
136.0394 100.0
152.0694 0.44
180.0643 9.35
192.1018 80.72
236.1274 18.73
309.216 0.0
