>compound Everolimus (RAD001)
>formula C53H83NO14
>ionization [M+Na]+
>parentmass 980.568665
#inchi InChI=1S/C53H83NO14/c1-32-16-12-11-13-17-33(2)44(63-8)30-40-21-19-38(7)53(62,68-40)50(59)51(60)54-23-15-14-18-41(54)52(61)67-45(35(4)28-39-20-22-43(66-25-24-55)46(29-39)64-9)31-42(56)34(3)27-37(6)48(58)49(65-10)47(57)36(5)26-32/h11-13,16-17,27,32,34-36,38-41,43-46,48-49,55,58,62H,14-15,18-26,28-31H2,1-10H3/b13-11+,16-12+,33-17+,37-27+/t32-,34-,35+,36-,38-,39+,40+,41+,43-,44+,45+,46-,48+,49+,53-/m1/s1
#inchikey HKVAMNSJSFKALM
#Ion_Source LC-ESI
#Instrument qTof
#Compound_Source Commercial
#PI Dorrestein
#Data_Collector Garg_Neha
#Scan -1
#Precursor_MZ 980.571
#ExactMass 957.581
#Charge 1
#CAS_Number 159351-69-6, 1245613-55-1
#Pubmed_ID N/A
#Smiles C(O)CO[C@H]1[C@@H](C[C@@H](CC1)C[C@@H]([C@H]2OC(=O)[C@@H]3CCCCN3C(=O)C([C@]4([C@@H](CC[C@H](O4)C[C@@H](/C(=C/C=C/C=C/[C@H](C[C@H](C([C@@H]([C@@H](O)/C(=C/[C@H](C(C2)=O)C)C)OC)=O)C)C)C)OC)C)O)=O)C)OC
#INCHI_AUX N/A
#Library_Class 1
#SpectrumID CCMSLIB00000078018
#IonMode Positive
#UpdateWorkflowName UPDATE-SINGLE-ANNOTATED-GOLD
#LibraryQualityString Gold
#TaskID 77f51c88eb8b467eb4a01dd2d0cb90d2
##Scan# 3035
#SpectrumFile Plate1_1_20_GG1_01_16488.mzXML
#LibraryName FDALibrary_2_04302014.mgf
#MQScore -1
#Organism FDALibrary_2_04302014
#TIC_Query 0
#RT_Query -1
#MZErrorPPM -1
#SharedPeaks 0
#MassDiff 0
#LibMZ -1
#SpecMZ 980.571
#SpecCharge 0
#internalFilename spec-00000.mgf

>collision 0
119.0844 30.16
135.1145 29.84
145.1006 23.81
157.0983 26.98
175.1113 43.81
197.13 25.4
218.1277 22.54
323.2058 29.84
377.2068 28.25
389.2298 100.0
395.2176 29.21
409.2404 57.78
422.2576 29.21
435.2699 25.4
441.2648 26.35
442.2688 25.4
453.2248 55.87
496.2865 33.33
524.2971 24.13
542.3111 31.75
543.3166 28.25
568.3326 27.3
569.3454 23.17
582.3054 66.03
583.3109 28.57
614.3257 91.43
651.4345 65.08
652.4236 24.44
747.4883 33.02
808.5186 29.52
814.4981 27.62
819.4485 56.83
838.4821 32.06
930.5342 49.52
931.5264 42.22
936.5619 27.62
948.546 100.0
949.5459 51.11
963.5719 86.67
980.5709 1861.9
