>compound Glyburide
>formula C23H28ClN3O5S 
>ionization [M+H]+
>parentmass 494.1510961280905
#inchi InChI=1S/C23H28ClN3O5S/c1-32-21-12-9-17(24)15-20(21)22(28)25-14-13-16-7-10-19(11-8-16)33(30,31)27-23(29)26-18-5-3-2-4-6-18/h7-12,15,18H,2-6,13-14H2,1H3,(H,25,28)(H2,26,27,29)
#inchikey ZNNLBTZKUZBEKO
#Ion_Source LC-ESI
#Instrument qTof
#Compound_Source Commercial
#PI Dorrestein
#Data_Collector Garg_Neha
#Scan -1
#Precursor_MZ 494.154
#ExactMass 493.144
#Charge 1
#CAS_Number N/A
#Pubmed_ID N/A
#Smiles N/A
#INCHI_AUX N/A
#Library_Class 1
#SpectrumID CCMSLIB00000077074
#IonMode Positive
#UpdateWorkflowName UPDATE-SINGLE-ANNOTATED-GOLD
#LibraryQualityString Gold
#TaskID 48f7f52fc6d249b5abbcc6e7b3df5969
##Scan# 2024
#SpectrumFile NCP003017_G2_H11_2_BB1_01_15712.mzXML
#LibraryName NIH_Clinical_Collection_2.mgf
#MQScore -1
#Organism NIHcollection2_04212014_2_mgf
#TIC_Query 0
#RT_Query -1
#MZErrorPPM -1
#SharedPeaks 0
#MassDiff 0
#LibMZ -1
#SpecMZ 494.154
#SpecCharge 0
#internalFilename spec-00000.mgf

>collision 0
101.026 0.77
119.0494 0.68
139.0075 0.77
162.0504 0.68
166.0299 1.1
167.0166 1.09
169.0048 37.56
170.0085 3.27
171.0018 17.9
172.0061 2.19
184.0397 0.77
198.0302 2.35
208.0916 1.16
210.024 0.69
210.1038 1.24
228.0322 0.71
245.0381 1.15
247.9956 0.93
259.05 5.24
260.0572 2.09
261.0465 1.57
262.0624 2.19
288.0749 2.9
290.0795 0.76
292.0315 0.8
303.0636 1.15
304.073 4.03
305.0784 1.01
306.0714 1.9
352.0379 2.09
354.0269 0.91
368.0833 0.71
369.0667 100.0
371.0643 29.12
372.0667 5.97
395.0464 8.5
494.1443 1.5
