>compound 1-methyl-7-nitro-5-phenyl-3H-1,4-benzodiazepin-2-one
>formula C16H13N3O3
>ionization [M+H]+
>parentmass 296.1029677280905
#inchi InChI=1S/C16H13N3O3/c1-18-14-8-7-12(19(21)22)9-13(14)16(17-10-15(18)20)11-5-3-2-4-6-11/h2-9H,10H2,1H3
#inchikey GWUSZQUVEVMBPI
#Ion_Source LC-ESI
#Instrument qTof
#Compound_Source Commercial
#PI Dorrestein
#Data_Collector Garg_Neha
#Scan -1
#Precursor_MZ 296.103
#ExactMass 295.096
#Charge 1
#CAS_Number N/A
#Pubmed_ID N/A
#Smiles CN1C(=O)CN=C(c2ccccc2)c3cc(ccc13)[N+](=O)[O-]
#INCHI_AUX N/A
#Library_Class 1
#SpectrumID CCMSLIB00000079134
#IonMode Positive
#UpdateWorkflowName UPDATE-SINGLE-ANNOTATED-GOLD
#LibraryQualityString Gold
#TaskID 278b19f5865741e282cec7349aa7e7a1
##Scan# 1341
#SpectrumFile NCP003512_E2_F11_BD6_01_15730.mzXML
#LibraryName NIHcollectionI_05062014.mgf
#MQScore -1
#Organism NIHcollectionI_05062014
#TIC_Query 0
#RT_Query -1
#MZErrorPPM -1
#SharedPeaks 0
#MassDiff 0
#LibMZ -1
#SpecMZ 296.103
#SpecCharge 0
#internalFilename spec-00000.mgf

>collision 0
105.0343 0.65
119.0726 0.92
143.0602 1.35
144.0677 1.14
147.0677 1.16
151.0628 0.9
152.062 1.3
165.0674 4.85
166.0745 0.99
172.0622 1.01
179.0721 5.9
180.08 2.9
181.0874 1.59
182.0686 0.65
190.0635 2.62
191.0719 1.03
192.0796 4.8
193.0879 9.59
194.0956 6.76
196.0752 1.74
201.054 0.85
204.0816 2.69
207.0923 5.97
209.0848 1.13
209.1067 2.59
210.0914 2.53
211.0939 0.82
220.0993 0.86
221.108 36.92
222.1144 15.29
223.0862 0.98
225.0785 2.72
225.1022 2.83
226.0875 0.71
237.1023 0.95
238.1091 1.02
239.0815 2.93
249.1021 6.0
250.1101 44.9
252.079 1.98
253.0956 2.53
254.1049 9.63
265.098 1.37
266.1024 1.55
268.1081 7.45
282.1003 100.0
296.1055 208.34
