>compound Ifenprodil
>formula C21H27NO2
>ionization [M+H]+
>parentmass 326.2114555560906
#inchi InChI=1S/C21H27NO2/c1-16(21(24)19-7-9-20(23)10-8-19)22-13-11-18(12-14-22)15-17-5-3-2-4-6-17/h2-10,16,18,21,23-24H,11-15H2,1H3
#inchikey UYNVMODNBIQBMV
#Ion_Source LC-ESI
#Instrument qTof
#Compound_Source Commercial
#PI Dorrestein
#Data_Collector Garg_Neha
#Scan -1
#Precursor_MZ 326.211
#ExactMass 325.204
#Charge 1
#CAS_Number N/A
#Pubmed_ID N/A
#Smiles CC(C(O)c1ccc(O)cc1)N2CCC(Cc3ccccc3)CC2
#INCHI_AUX N/A
#Library_Class 1
#SpectrumID CCMSLIB00000079147
#IonMode Positive
#UpdateWorkflowName UPDATE-SINGLE-ANNOTATED-GOLD
#LibraryQualityString Gold
#TaskID 278b19f5865741e282cec7349aa7e7a1
##Scan# 1124
#SpectrumFile NCP003512_G2_H11_BD7_01_15731.mzXML
#LibraryName NIHcollectionI_05062014.mgf
#MQScore -1
#Organism NIHcollectionI_05062014
#TIC_Query 0
#RT_Query -1
#MZErrorPPM -1
#SharedPeaks 0
#MassDiff 0
#LibMZ -1
#SpecMZ 326.211
#SpecCharge 0
#internalFilename spec-00000.mgf

>collision 0
91.0553 0.53
103.0538 0.73
105.0709 5.04
107.0501 3.73
109.0649 1.91
115.0549 0.7
117.0702 2.69
120.0562 1.48
131.0488 0.44
131.0855 2.23
133.0651 9.63
135.0808 3.69
150.0918 1.22
159.0796 0.3
162.0914 1.09
174.1279 7.63
176.1444 48.57
202.1208 0.95
202.1582 0.45
232.1699 0.65
278.1542 0.36
293.178 13.39
308.2015 100.0
326.2138 171.82
