>compound MLS002153316-01!Metolazone17560-51-9
>formula C16H16ClN3O3S
>ionization [M+H]+
>parentmass 366.068451
#inchi InChI=1S/C16H16ClN3O3S/c1-9-5-3-4-6-14(9)20-10(2)19-13-8-12(17)15(24(18,22)23)7-11(13)16(20)21/h3-8,10,19H,1-2H3,(H2,18,22,23)
#inchikey AQCHWTWZEMGIFD
#Ion_Source LC-ESI
#Instrument qTof
#Compound_Source NIH Pharmacologically Active Library
#PI Dorrestein
#Data_Collector VP/LMS
#Scan -1
#Precursor_MZ 366.071
#ExactMass 365.06
#Charge 1
#CAS_Number N/A
#Pubmed_ID N/A
#Smiles CC1Nc2cc(Cl)c(cc2C(=O)N1c3ccccc3C)S(=O)(=O)N
#INCHI_AUX N/A
#Library_Class 1
#SpectrumID CCMSLIB00000085830
#IonMode Positive
#UpdateWorkflowName UPDATE-SINGLE-ANNOTATED-GOLD
#LibraryQualityString Gold
#TaskID d252d724072548979f1f6f1ced849daf
##Scan# 1729
#SpectrumFile p4-F11_GF11_01_18395.mzXML
#LibraryName Pharm_Active_Library.mgf
#MQScore -1
#Organism Pharm_Active_Library
#TIC_Query 0
#RT_Query -1
#MZErrorPPM -1
#SharedPeaks 0
#MassDiff 0
#LibMZ -1
#SpecMZ 366.071
#SpecCharge 0
#internalFilename spec-00000.mgf

>collision 0
104.0488 2.23
105.0539 1.04
116.05 1.82
117.0569 1.89
120.0431 0.95
123.0004 1.8
123.0307 1.68
126.0105 1.0
132.0453 1.72
132.0688 1.28
133.0522 4.61
137.9852 0.75
140.0243 0.89
142.0052 0.9
144.0449 8.98
145.0492 2.07
148.0394 3.09
150.0091 6.18
151.0181 29.0
153.0146 6.68
154.0046 2.54
160.0617 6.65
167.0146 1.54
169.0096 0.99
178.0053 23.3
179.0122 33.35
180.0177 10.39
181.0098 9.22
182.0166 4.47
183.004 0.85
194.0009 3.13
195.0259 1.2
196.0144 5.58
197.0041 1.18
197.0229 1.33
198.0135 1.77
211.003 37.8
212.999 9.26
223.0172 2.0
232.9805 1.21
258.9941 100.0
348.0565 0.91
366.0699 0.19
