>compound Amiloride hydrochloride (Midamor)
>formula C6H8ClN7O
>ionization [M+H]+
>parentmass 230.055374
#inchi InChI=1S/C6H8ClN7O/c7-2-4(9)13-3(8)1(12-2)5(15)14-6(10)11/h(H4,8,9,13)(H4,10,11,14,15)
#inchikey XSDQTOBWRPYKKA
#origInchi InChI=1S/C6H8ClN7O.ClH/c7-2-4(9)13-3(8)1(12-2)5(15)14-6(10)11;/h(H4,8,9,13)(H4,10,11,14,15);1H
#Ion_Source LC-ESI
#Instrument qTof
#Compound_Source Commercial
#PI Dorrestein
#Data_Collector Garg_Neha
#Scan -1
#Precursor_MZ 230.055
#ExactMass 229.048
#Charge 1
#CAS_Number 2016-88-8, 2609-46-3(free base)
#Pubmed_ID N/A
#Smiles C1(=C(N=C(C(=N1)C(NC(N)=N)=O)N)N)Cl.Cl
#INCHI_AUX N/A
#Library_Class 1
#SpectrumID CCMSLIB00000078300
#IonMode Positive
#UpdateWorkflowName UPDATE-SINGLE-ANNOTATED-GOLD
#LibraryQualityString Gold
#TaskID 77f51c88eb8b467eb4a01dd2d0cb90d2
##Scan# 989
#SpectrumFile Plate5_1_20_GH6_01_16508.mzXML
#LibraryName FDALibrary_2_04302014.mgf
#MQScore -1
#Organism FDALibrary_2_04302014
#TIC_Query 0
#RT_Query -1
#MZErrorPPM -1
#SharedPeaks 0
#MassDiff 0
#LibMZ -1
#SpecMZ 230.055
#SpecCharge 0
#internalFilename spec-00000.mgf

>collision 0
107.0332 0.76
108.0421 2.26
116.0001 24.33
143.0108 17.2
161.0223 17.26
171.0062 100.0
189.0165 27.29
213.028 4.27
230.0554 233.61
