>compound Toltrazuril
>formula C18H14F3N3O4S
>ionization [M+H]+
>parentmass 426.072937
#inchi InChI=1S/C18H14F3N3O4S/c1-10-9-11(24-16(26)22-15(25)23(2)17(24)27)3-8-14(10)28-12-4-6-13(7-5-12)29-18(19,20)21/h3-9H,1-2H3,(H,22,25,26)
#inchikey OCINXEZVIIVXFU
#Ion_Source LC-ESI
#Instrument qTof
#Compound_Source Commercial
#PI Dorrestein
#Data_Collector Garg_Neha
#Scan -1
#Precursor_MZ 426.073
#ExactMass 425.066
#Charge 1
#CAS_Number 69004-03-1
#Pubmed_ID N/A
#Smiles C1=C(C=CC(=C1)SC(F)(F)F)OC2=C(C)C=C(C=C2)N3C(N(C(NC3=O)=O)C)=O
#INCHI_AUX N/A
#Library_Class 1
#SpectrumID CCMSLIB00000078637
#IonMode Positive
#UpdateWorkflowName UPDATE-SINGLE-ANNOTATED-GOLD
#LibraryQualityString Gold
#TaskID 77f51c88eb8b467eb4a01dd2d0cb90d2
##Scan# 2317
#SpectrumFile Plate10_21_40_GC2_01_15744.mzXML
#LibraryName FDALibrary_2_04302014.mgf
#MQScore -1
#Organism FDALibrary_2_04302014
#TIC_Query 0
#RT_Query -1
#MZErrorPPM -1
#SharedPeaks 0
#MassDiff 0
#LibMZ -1
#SpecMZ 426.073
#SpecCharge 0
#internalFilename spec-00000.mgf

>collision 0
115.0017 8.56
123.9954 2.56
133.051 11.97
144.9915 3.14
148.0388 12.86
149.0413 1.98
164.9974 25.46
181.0655 7.75
182.042 2.6
182.0723 11.74
192.9932 100.0
193.9957 13.95
194.9913 7.75
214.0429 2.13
225.0802 11.0
229.0487 3.72
247.0549 2.52
248.0662 5.81
254.0573 7.21
256.0461 5.04
257.0449 2.48
283.0385 7.67
284.0469 3.37
285.0344 3.41
286.0296 2.17
298.0474 4.73
299.0513 3.18
306.0418 10.0
308.1026 3.25
325.1068 11.27
326.046 4.3
327.0476 2.6
354.0904 2.52
356.0695 3.14
359.0745 2.83
386.0572 3.49
406.0656 17.67
425.0628 6.01
426.0729 347.35
