>compound 1-[4-[4-[[(2R,4S)-2-(2,4-dichlorophenyl)-2-(imidazol-1-ylmethyl)-1,3-dioxolan-4-yl]methoxy]phenyl]piperazin-1-yl]ethanone
>formula C26H28Cl2N4O4
>ionization [M+H]+
>parentmass 531.157471
#inchi InChI=1S/C26H28Cl2N4O4/c1-19(33)31-10-12-32(13-11-31)21-3-5-22(6-4-21)34-15-23-16-35-26(36-23,17-30-9-8-29-18-30)24-7-2-20(27)14-25(24)28/h2-9,14,18,23H,10-13,15-17H2,1H3/t23-,26-/m0/s1
#inchikey XMAYWYJOQHXEEK
#Ion_Source LC-ESI
#Instrument qTof
#Compound_Source Commercial
#PI Dorrestein
#Data_Collector Garg_Neha
#Scan -1
#Precursor_MZ 531.156
#ExactMass 530.149
#Charge 1
#CAS_Number N/A
#Pubmed_ID N/A
#Smiles CC(=O)N1CCN(CC1)c2ccc(OC[C@H]3CO[C@@](Cn4ccnc4)(O3)c5ccc(Cl)cc5Cl)cc2
#INCHI_AUX N/A
#Library_Class 1
#SpectrumID CCMSLIB00000079205
#IonMode Positive
#UpdateWorkflowName UPDATE-SINGLE-ANNOTATED-GOLD
#LibraryQualityString Gold
#TaskID 278b19f5865741e282cec7349aa7e7a1
##Scan# 1179
#SpectrumFile NCP003592_G2_H11_BE3_01_15737.mzXML
#LibraryName NIHcollectionI_05062014.mgf
#MQScore -1
#Organism NIHcollectionI_05062014
#TIC_Query 0
#RT_Query -1
#MZErrorPPM -1
#SharedPeaks 0
#MassDiff 0
#LibMZ -1
#SpecMZ 531.156
#SpecCharge 0
#internalFilename spec-00000.mgf

>collision 0
112.0754 24.43
113.0722 6.22
132.0789 5.87
135.0672 23.74
136.074 8.39
144.08 6.87
146.0973 13.09
148.0751 32.65
158.0949 6.09
158.9769 7.52
160.0759 6.91
163.1231 8.17
167.0817 21.09
172.9558 10.65
174.0912 47.57
177.102 68.35
184.9926 10.57
185.9647 20.17
188.1072 6.65
189.1384 6.3
203.0336 9.57
205.1315 6.13
209.0354 11.87
216.1027 17.17
217.1329 57.7
219.1128 100.0
220.1202 55.22
234.1131 10.17
235.1429 26.26
238.0045 21.26
244.0054 49.13
245.0109 7.96
246.0009 31.61
255.0084 47.87
259.1437 13.83
267.008 19.17
281.0235 7.3
282.0276 13.52
311.0383 5.74
378.0649 5.91
380.0627 5.74
421.1064 14.52
423.1041 10.7
446.1 7.7
489.1449 78.78
490.1468 22.39
492.1465 13.57
531.1575 1310.61
