>compound Sorafenib (Nexavar)
>formula C21H16ClF3N4O3
>ionization [M+H]+
>parentmass 465.094513
#inchi InChI=1S/C21H16ClF3N4O3/c1-26-19(30)18-11-15(8-9-27-18)32-14-5-2-12(3-6-14)28-20(31)29-13-4-7-17(22)16(10-13)21(23,24)25/h2-11H,1H3,(H,26,30)(H2,28,29,31)
#inchikey MLDQJTXFUGDVEO
#origInchi InChI=1S/C21H16ClF3N4O3.C7H8O3S/c1-26-19(30)18-11-15(8-9-27-18)32-14-5-2-12(3-6-14)28-20(31)29-13-4-7-17(22)16(10-13)21(23,24)25;1-6-2-4-7(5-3-6)11(8,9)10/h2-11H,1H3,(H,26,30)(H2,28,29,31);2-5H,1H3,(H,8,9,10)
#Ion_Source LC-ESI
#Instrument qTof
#Compound_Source Commercial
#PI Dorrestein
#Data_Collector Garg_Neha
#Scan -1
#Precursor_MZ 465.094
#ExactMass 464.086
#Charge 1
#CAS_Number 475207-59-1, 284461-73-0 (free base)
#Pubmed_ID N/A
#Smiles C1(=CC=C(C=C1C(F)(F)F)NC(NC2=CC=C(C=C2)OC3=CC=NC(=C3)C(NC)=O)=O)Cl.C4=CC(=CC=C4S(O)(=O)=O)C
#INCHI_AUX N/A
#Library_Class 1
#SpectrumID CCMSLIB00000078009
#IonMode Positive
#UpdateWorkflowName UPDATE-SINGLE-ANNOTATED-GOLD
#LibraryQualityString Gold
#TaskID 77f51c88eb8b467eb4a01dd2d0cb90d2
##Scan# 2319
#SpectrumFile Plate1_1_20_GG1_01_16488.mzXML
#LibraryName FDALibrary_2_04302014.mgf
#MQScore -1
#Organism FDALibrary_2_04302014
#TIC_Query 0
#RT_Query -1
#MZErrorPPM -1
#SharedPeaks 0
#MassDiff 0
#LibMZ -1
#SpecMZ 465.094
#SpecCharge 0
#internalFilename spec-00000.mgf

>collision 0
155.0609 2.05
156.0443 3.75
157.0764 1.73
168.0454 1.71
170.0613 1.48
176.0078 5.82
183.0548 2.17
185.0702 4.53
194.0213 1.48
195.0127 3.66
196.0122 2.77
198.0539 5.33
199.0872 1.61
203.0814 7.24
211.0496 22.95
212.0547 3.22
225.0646 4.87
226.0978 18.74
227.0989 2.68
229.0604 35.76
239.0413 1.98
244.1083 10.3
252.0773 100.0
253.0781 14.91
257.0541 2.43
270.0869 46.9
271.0912 8.72
350.0738 2.82
358.0542 2.07
362.0328 1.76
370.0784 5.55
371.0866 5.6
378.0623 2.43
386.0497 16.35
387.0529 6.96
388.0442 6.36
406.0553 50.59
408.054 17.2
409.051 3.09
425.0821 4.19
427.0795 2.93
447.0832 18.95
449.0779 6.17
465.0945 492.32
