>compound Hoiamide C
>formula C37H62N4O7S3 
>ionization [M+H]+
>parentmass 771.384399
#inchi InChI=1S/C37H62N4O7S3/c1-12-15-21(5)29(42)23(7)30(43)22(6)26(47-11)16-27-38-25(17-49-27)32-40-37(10,19-50-32)35-41-36(9,18-51-35)34(46)39-28(20(4)13-2)31(44)24(8)33(45)48-14-3/h17,20-24,26,28-31,42-44H,12-16,18-19H2,1-11H3,(H,39,46)/t20-,21+,22-,23-,24+,26-,28-,29-,30-,31-,36+,37+/m0/s1
#inchikey STGNMXQTWDOGSE
#Ion_Source LC-ESI
#Instrument qToF
#Compound_Source Isolated
#PI Dorrestein/Gerwick
#Data_Collector Luzzatto/Garg
#Scan -1
#Precursor_MZ 771.393
#ExactMass 770.378
#Charge 1
#CAS_Number N/A
#Pubmed_ID 20687534
#Smiles N/A
#INCHI_AUX N/A
#Library_Class 2
#SpectrumID CCMSLIB00000070256
#IonMode Positive
#UpdateWorkflowName UPDATE-SINGLE-ANNOTATED-SILVER
#LibraryQualityString Silver
#TaskID 6c7cf0ddbcd944488b3f58728dc48405
##Scan# 3012
#SpectrumFile 1A10_HoiamideC_MH_771.mzXML
#LibraryName gnps_library.mgf
#MQScore -1
#Organism Dorrestein_TLK_Lib
#TIC_Query 0
#RT_Query -1
#MZErrorPPM -1
#SharedPeaks 0
#MassDiff 0
#LibMZ -1
#SpecMZ 771.393
#SpecCharge 0
#internalFilename spec-00000.mgf

>collision 0
100.017 28.43
172.025 77.0
197.0164 27.48
239.0277 37.38
265.0432 21.09
277.0818 38.02
278.09 21.09
281.1322 26.52
310.0721 30.03
327.1617 27.8
359.1585 100.0
377.1715 92.65
378.1745 49.84
386.1734 30.03
399.1825 20.77
409.1951 46.65
418.1905 20.77
441.1036 26.2
476.1939 36.1
477.216 26.52
503.2049 26.2
535.2214 31.95
575.2589 35.14
576.2747 24.92
583.209 50.16
610.2294 22.04
621.2564 84.66
623.2303 21.09
641.2596 37.7
652.3123 21.73
653.2831 43.13
657.345 38.66
675.3608 59.42
676.3649 27.16
690.3776 29.07
703.3343 86.58
704.3393 20.77
705.3427 30.03
707.3822 63.58
722.35 28.75
725.4007 32.91
735.3635 53.35
736.3776 24.28
753.3747 55.59
754.3766 23.96
771.3853 1235.46
