>compound Irbesartan
>formula C25H28N6O 
>ionization [M+H]+
>parentmass 429.24
#inchi InChI=1S/C25H28N6O/c1-2-3-10-22-26-25(15-6-7-16-25)24(32)31(22)17-18-11-13-19(14-12-18)20-8-4-5-9-21(20)23-27-29-30-28-23/h4-5,8-9,11-14H,2-3,6-7,10,15-17H2,1H3,(H,27,28,29,30)
#inchikey YOSHYTLCDANDAN
#Ion_Source LC-ESI
#Instrument qTof
#Compound_Source Isolated
#PI Sirenas
#Data_Collector Ed Esquenazi 
#Scan -1
#Precursor_MZ 429.24
#ExactMass 0.0
#Charge 1
#CAS_Number N/A
#Pubmed_ID N/A
#Smiles N/A
#INCHI_AUX N/A
#Library_Class 3
#SpectrumID CCMSLIB00000005547
#IonMode Positive
#UpdateWorkflowName UPDATE-SINGLE-ANNOTATED-BRONZE
#LibraryQualityString Bronze
#TaskID d19310cd93df49b68e9fcbec27720eb5
##Scan# 9
#SpectrumFile Irbesartan.mgf
#LibraryName fda_library.mgf
#MQScore -1
#Organism fda_library
#TIC_Query 0
#RT_Query -1
#MZErrorPPM -1
#SharedPeaks 0
#MassDiff 0
#LibMZ -1
#SpecMZ 429.24
#SpecCharge 0
#internalFilename spec-00000.mgf

>collision 0
129.0448 0.52
140.0494 0.63
151.0537 0.59
152.0617 0.99
153.0698 1.94
163.0532 0.34
165.0694 0.89
167.0731 1.05
179.073 2.8
180.0811 17.16
190.0652 6.99
192.079 8.78
206.0842 13.1
207.0923 100.0
386.2204 0.42
429.2393 0.0
