>compound Bifonazole
>formula C22H18N2
>ionization [M+H]+
>parentmass 311.15567
#inchi InChI=1S/C22H18N2/c1-3-7-18(8-4-1)19-11-13-21(14-12-19)22(24-16-15-23-17-24)20-9-5-2-6-10-20/h1-17,22H
#inchikey OCAPBUJLXMYKEJ
#Ion_Source LC-ESI
#Instrument qTof
#Compound_Source Commercial
#PI Dorrestein
#Data_Collector Garg_Neha
#Scan -1
#Precursor_MZ 311.154
#ExactMass 310.147
#Charge 1
#CAS_Number 60628-96-8
#Pubmed_ID N/A
#Smiles C1=CC=CC(=C1)C(C2=CC=C(C=C2)C3=CC=CC=C3)N4C=NC=C4
#INCHI_AUX N/A
#Library_Class 1
#SpectrumID CCMSLIB00000078316
#IonMode Positive
#UpdateWorkflowName UPDATE-SINGLE-ANNOTATED-GOLD
#LibraryQualityString Gold
#TaskID 77f51c88eb8b467eb4a01dd2d0cb90d2
##Scan# 1264
#SpectrumFile Plate5_21_40_GH7_01_16509.mzXML
#LibraryName FDALibrary_2_04302014.mgf
#MQScore -1
#Organism FDALibrary_2_04302014
#TIC_Query 0
#RT_Query -1
#MZErrorPPM -1
#SharedPeaks 0
#MassDiff 0
#LibMZ -1
#SpecMZ 311.154
#SpecCharge 0
#internalFilename spec-00000.mgf

>collision 0
115.054 4.16
141.0693 2.25
165.0698 24.81
202.0772 1.99
215.0848 7.98
226.0776 0.32
228.0933 27.4
241.1011 12.04
243.1183 100.0
311.1557 0.17
