>compound MLS002154025-01!Iocetamic acid16034-77-8
>formula C12H13I3N2O3
>ionization [M+H]+
>parentmass 614.8133127280905
#inchi InChI=1S/C12H13I3N2O3/c1-5(12(19)20)4-17(6(2)18)11-8(14)3-7(13)10(16)9(11)15/h3,5H,4,16H2,1-2H3,(H,19,20)
#inchikey GSVQIUGOUKJHRC
#Ion_Source LC-ESI
#Instrument qTof
#Compound_Source NIH Pharmacologically Active Library
#PI Dorrestein
#Data_Collector VP/LMS
#Scan -1
#Precursor_MZ 614.825
#ExactMass 613.806
#Charge 1
#CAS_Number N/A
#Pubmed_ID N/A
#Smiles CC(CN(C(=O)C)c1c(I)cc(I)c(N)c1I)C(=O)O
#INCHI_AUX N/A
#Library_Class 1
#SpectrumID CCMSLIB00000086115
#IonMode Positive
#UpdateWorkflowName UPDATE-SINGLE-ANNOTATED-GOLD
#LibraryQualityString Gold
#TaskID d252d724072548979f1f6f1ced849daf
##Scan# 1956
#SpectrumFile p5-E05_GE5_01_18462.mzXML
#LibraryName Pharm_Active_Library.mgf
#MQScore -1
#Organism Pharm_Active_Library
#TIC_Query 0
#RT_Query -1
#MZErrorPPM -1
#SharedPeaks 0
#MassDiff 0
#LibMZ -1
#SpecMZ 614.825
#SpecCharge 0
#internalFilename spec-00000.mgf

>collision 0
145.0746 0.74
148.0645 1.0
174.0787 8.91
187.0867 0.8
188.0933 1.2
189.0659 2.87
215.0825 1.79
216.0882 3.03
244.9573 4.78
245.9635 2.55
272.988 1.56
274.9692 3.33
298.9659 0.75
299.9766 0.99
300.9496 24.38
300.9847 100.0
314.9993 3.04
324.9834 0.83
326.9614 1.23
340.9774 0.78
342.9946 58.46
371.8625 10.67
372.8702 9.15
373.8766 2.71
426.883 4.03
427.8877 10.18
468.8944 0.83
469.8965 0.96
498.7662 8.08
526.7967 1.02
554.7888 1.77
596.8051 2.33
614.8133 0.0
