>compound Methocarbamol (Robaxin)
>formula C11H15NO5
>ionization [M+H]+
>parentmass 242.100449
#inchi InChI=1S/C11H15NO5/c1-15-9-4-2-3-5-10(9)16-6-8(13)7-17-11(12)14/h2-5,8,13H,6-7H2,1H3,(H2,12,14)
#inchikey GNXFOGHNGIVQEH
#Ion_Source LC-ESI
#Instrument qTof
#Compound_Source Commercial
#PI Dorrestein
#Data_Collector Garg_Neha
#Scan -1
#Precursor_MZ 242.102
#ExactMass 241.095
#Charge 1
#CAS_Number 532-03-6
#Pubmed_ID N/A
#Smiles C1=CC=CC(=C1OC)OCC(O)COC(N)=O
#INCHI_AUX N/A
#Library_Class 1
#SpectrumID CCMSLIB00000078264
#IonMode Positive
#UpdateWorkflowName UPDATE-SINGLE-ANNOTATED-GOLD
#LibraryQualityString Gold
#TaskID 77f51c88eb8b467eb4a01dd2d0cb90d2
##Scan# 1092
#SpectrumFile Plate4_41_60_GH4_01_16505.mzXML
#LibraryName FDALibrary_2_04302014.mgf
#MQScore -1
#Organism FDALibrary_2_04302014
#TIC_Query 0
#RT_Query -1
#MZErrorPPM -1
#SharedPeaks 0
#MassDiff 0
#LibMZ -1
#SpecMZ 242.102
#SpecCharge 0
#internalFilename spec-00000.mgf

>collision 0
103.0551 6.7
105.0699 7.39
107.0506 2.48
110.0353 5.2
118.0506 100.0
121.066 4.05
122.0362 18.56
123.0452 7.42
125.0596 20.62
135.0804 13.66
137.0586 7.42
145.0643 4.18
148.0526 7.35
151.0751 30.39
163.0756 86.14
181.0859 11.73
199.0965 18.37
224.0898 8.99
242.1011 4.9
