>compound MLS002222297-01!
>formula C17H25NO3
>ionization [M+H]+
>parentmass 292.190338
#inchi InChI=1S/C17H25NO3/c1-12-10-14(11-17(2,3)18(12)4)21-16(20)15(19)13-8-6-5-7-9-13/h5-9,12,14-15,19H,10-11H2,1-4H3
#inchikey QSAVEGSLJISCDF
#origInchi InChI=1S/C17H25NO3.ClH/c1-12-10-14(11-17(2,3)18(12)4)21-16(20)15(19)13-8-6-5-7-9-13;/h5-9,12,14-15,19H,10-11H2,1-4H3;1H
#Ion_Source LC-ESI
#Instrument qTof
#Compound_Source NIH Pharmacologically Active Library
#PI Dorrestein
#Data_Collector VP/LMS
#Scan -1
#Precursor_MZ 292.194
#ExactMass 291.183
#Charge 1
#CAS_Number N/A
#Pubmed_ID N/A
#Smiles CC1CC(CC(C)(C)N1C)OC(=O)C(O)c2ccccc2.Cl
#INCHI_AUX N/A
#Library_Class 3
#SpectrumID CCMSLIB00000084831
#IonMode Positive
#UpdateWorkflowName UPDATE-SINGLE-ANNOTATED-BRONZE
#LibraryQualityString Bronze
#TaskID d252d724072548979f1f6f1ced849daf
##Scan# 1254
#SpectrumFile p3-B04_GB4_01_18237.mzXML
#LibraryName Pharm_Active_Library.mgf
#MQScore -1
#Organism Pharm_Active_Library
#TIC_Query 0
#RT_Query -1
#MZErrorPPM -1
#SharedPeaks 0
#MassDiff 0
#LibMZ -1
#SpecMZ 292.194
#SpecCharge 0
#internalFilename spec-00000.mgf

>collision 0
96.0797 5.73
99.0449 5.73
107.051 28.52
109.102 100.0
123.1181 19.21
125.1214 5.73
127.0388 5.85
127.1128 5.73
148.1138 11.46
246.1843 15.51
292.1903 74.82
