>compound MLS000860080-01!NBI 27914
>formula C18H20Cl4N4
>ionization [M+H]+
>parentmass 433.052948
#inchi InChI=1S/C18H20Cl4N4/c1-3-6-26(9-11-4-5-11)18-15(22)17(23-10(2)24-18)25-16-13(20)7-12(19)8-14(16)21/h7-8,11H,3-6,9H2,1-2H3,(H,23,24,25)
#inchikey KNADXBVKFAUMCR
#Ion_Source LC-ESI
#Instrument qTof
#Compound_Source NIH Pharmacologically Active Library
#PI Dorrestein
#Data_Collector VP/LMS
#Scan -1
#Precursor_MZ 433.047
#ExactMass 432.04
#Charge 1
#CAS_Number N/A
#Pubmed_ID N/A
#Smiles CCCN(CC1CC1)c2nc(C)nc(Nc3c(Cl)cc(Cl)cc3Cl)c2Cl
#INCHI_AUX N/A
#Library_Class 1
#SpectrumID CCMSLIB00000086082
#IonMode Positive
#UpdateWorkflowName UPDATE-SINGLE-ANNOTATED-GOLD
#LibraryQualityString Gold
#TaskID d252d724072548979f1f6f1ced849daf
##Scan# 2791
#SpectrumFile p5-D04_GD4_01_18455.mzXML
#LibraryName Pharm_Active_Library.mgf
#MQScore -1
#Organism Pharm_Active_Library
#TIC_Query 0
#RT_Query -1
#MZErrorPPM -1
#SharedPeaks 0
#MassDiff 0
#LibMZ -1
#SpecMZ 433.047
#SpecCharge 0
#internalFilename spec-00000.mgf

>collision 0
243.9358 3.94
260.9608 2.99
267.0196 2.92
278.906 48.3
279.0203 4.38
285.9689 2.73
295.9304 3.2
314.9948 3.7
318.9353 3.66
322.9442 14.85
335.9608 4.21
336.956 11.21
348.9583 21.24
349.9626 5.95
362.9742 3.78
379.0046 72.21
391.0041 2.79
433.0529 35.44
