>compound Gatifloxacin
>formula C19H22FN3O4
>ionization [M+H]+
>parentmass 376.16671085609056
#inchi InChI=1S/C19H22FN3O4/c1-10-8-22(6-5-21-10)16-14(20)7-12-15(18(16)27-2)23(11-3-4-11)9-13(17(12)24)19(25)26/h7,9-11,21H,3-6,8H2,1-2H3,(H,25,26)
#inchikey XUBOMFCQGDBHNK
#Ion_Source DI-ESI
#Instrument qTof
#Compound_Source Commercial
#PI Norberto Lopes
#Data_Collector Denise Silva
#Scan -1
#Precursor_MZ 376.158
#ExactMass 375.159
#Charge 1
#CAS_Number 112811-59-3
#Pubmed_ID N/A
#Smiles O=C1C(C(O)=O)=CN(C2CC2)C3=C(OC)C(N4CC(C)NCC4)=C(F)C=C31
#INCHI_AUX N/A
#Library_Class 3
#SpectrumID CCMSLIB00000081728
#IonMode Positive
#UpdateWorkflowName UPDATE-SINGLE-ANNOTATED-BRONZE
#LibraryQualityString Bronze
#TaskID 52bd5f0db6314c93924d5ce5c86348eb
##Scan# 1
#SpectrumFile gnps_Gatifloxacin_pos_MplusH.mgf
#LibraryName gnps_library.mgf
#MQScore -1
#Organism batch_27_05_V02
#TIC_Query 0
#RT_Query -1
#MZErrorPPM -1
#SharedPeaks 0
#MassDiff 0
#LibMZ -1
#SpecMZ 376.158
#SpecCharge 0
#internalFilename spec-00000.mgf

>collision 0
192.0419 3.2
193.0445 4.77
203.0607 2.43
204.0692 2.39
205.0725 2.95
215.0573 2.07
216.0699 2.16
218.0684 3.02
219.0546 23.43
221.0668 4.05
233.0751 15.89
234.0734 9.82
235.0792 9.82
244.0896 2.71
245.0659 24.35
247.0816 11.52
248.0892 7.49
249.095 3.73
257.0981 2.35
259.0789 16.03
261.0917 100.0
275.1101 13.63
276.1096 5.99
279.0692 7.69
287.106 2.87
289.1244 69.05
297.1356 2.47
305.0865 5.0
315.1265 10.36
318.1499 3.53
330.1513 3.21
332.1657 41.7
376.1638 0.0
