>compound Ubenimex (Bestatin)
>formula C16H24N2O4
>ionization [M+H]+
>parentmass 309.18088370009053
#inchi InChI=1S/C16H24N2O4/c1-10(2)8-13(16(21)22)18-15(20)14(19)12(17)9-11-6-4-3-5-7-11/h3-7,10,12-14,19H,8-9,17H2,1-2H3,(H,18,20)(H,21,22)/t12-,13+,14+/m1/s1
#inchikey VGGGPCQERPFHOB
#Ion_Source LC-ESI
#Instrument qTof
#Compound_Source Commercial
#PI Dorrestein
#Data_Collector Garg_Neha
#Scan -1
#Precursor_MZ 309.181
#ExactMass 308.174
#Charge 1
#CAS_Number 58970-76-6, 65391-42-6 (HCl), 223763-80-2 (TFA)
#Pubmed_ID N/A
#Smiles C1=CC=CC(=C1)C[C@H]([C@@H](C(N[C@H](C(O)=O)CC(C)C)=O)O)N
#INCHI_AUX N/A
#Library_Class 1
#SpectrumID CCMSLIB00000078191
#IonMode Positive
#UpdateWorkflowName UPDATE-SINGLE-ANNOTATED-GOLD
#LibraryQualityString Gold
#TaskID 77f51c88eb8b467eb4a01dd2d0cb90d2
##Scan# 1057
#SpectrumFile Plate3_21_40_GG10_01_16499.mzXML
#LibraryName FDALibrary_2_04302014.mgf
#MQScore -1
#Organism FDALibrary_2_04302014
#TIC_Query 0
#RT_Query -1
#MZErrorPPM -1
#SharedPeaks 0
#MassDiff 0
#LibMZ -1
#SpecMZ 309.181
#SpecCharge 0
#internalFilename spec-00000.mgf

>collision 0
91.0557 0.68
102.0468 0.26
103.0543 4.66
105.0701 1.09
115.0547 1.12
117.0696 0.61
118.0652 0.29
120.0817 100.0
130.0861 0.45
132.0805 1.39
132.1011 2.66
133.0651 2.21
144.1018 9.7
150.0906 3.06
172.0965 2.71
190.1075 7.84
196.0952 2.11
246.147 1.0
263.1734 3.2
274.1431 1.02
291.1703 1.38
292.1562 1.12
309.1809 122.48
