>compound Bortezomib (Velcade)
>formula C19H25BN4O4
>ionization [M+Na]+
>parentmass 406.188782
#inchi InChI=1S/C19H25BN4O4/c1-13(2)10-17(20(27)28)24-18(25)15(11-14-6-4-3-5-7-14)23-19(26)16-12-21-8-9-22-16/h3-9,12-13,15,17,27-28H,10-11H2,1-2H3,(H,23,26)(H,24,25)/t15-,17-/m0/s1
#inchikey GXJABQQUPOEUTA
#Ion_Source LC-ESI
#Instrument qTof
#Compound_Source Commercial
#PI Dorrestein
#Data_Collector Garg_Neha
#Scan -1
#Precursor_MZ 407.186
#ExactMass 384.197
#Charge 1
#CAS_Number 179324-69-7
#Pubmed_ID N/A
#Smiles C1=CN=CC(=N1)C(N[C@H](C(N[C@H](B(O)O)CC(C)C)=O)CC2=CC=CC=C2)=O
#INCHI_AUX N/A
#Library_Class 1
#SpectrumID CCMSLIB00000077995
#IonMode Positive
#UpdateWorkflowName UPDATE-SINGLE-ANNOTATED-GOLD
#LibraryQualityString Gold
#TaskID 77f51c88eb8b467eb4a01dd2d0cb90d2
##Scan# 1211
#SpectrumFile Plate1_1_20_GG1_01_16488.mzXML
#LibraryName FDALibrary_2_04302014.mgf
#MQScore -1
#Organism FDALibrary_2_04302014
#TIC_Query 0
#RT_Query -1
#MZErrorPPM -1
#SharedPeaks 0
#MassDiff 0
#LibMZ -1
#SpecMZ 407.186
#SpecCharge 0
#internalFilename spec-00000.mgf

>collision 0
131.0581 3.3
183.005 3.02
188.0502 3.02
192.0425 2.95
198.0577 3.58
208.0835 3.16
226.0967 5.34
227.0894 3.23
239.1038 3.16
248.0766 7.44
252.0975 4.07
254.1019 3.65
255.0515 3.09
260.1146 3.79
266.0958 5.41
275.0933 7.87
276.0816 5.55
277.0816 4.21
278.1069 2.81
293.0991 5.34
294.0876 3.16
298.1069 3.23
305.1656 2.88
319.1183 3.02
363.1433 3.3
391.1803 6.88
406.1888 34.34
