>compound cyclo(L-Leu-L-Pro)
>formula C11H18N2O2 
>ionization [M+H]+
>parentmass 211.144028
#inchi InChI=1S/C11H18N2O2/c1-7(2)6-8-11(15)13-5-3-4-9(13)10(14)12-8/h7-9H,3-6H2,1-2H3,(H,12,14)
#inchikey SZJNCZMRZAUNQT
#Ion_Source DI-ESI
#Instrument qTof
#Compound_Source Isolated
#PI Keyzers
#Data_Collector R Keyzers
#Scan -1
#Precursor_MZ 211.145
#ExactMass 210.137
#Charge 1
#CAS_Number 2873-36-1
#Pubmed_ID N/A
#Smiles N/A
#INCHI_AUX N/A
#Library_Class 3
#SpectrumID CCMSLIB00000007048
#IonMode Positive
#UpdateWorkflowName UPDATE-SINGLE-ANNOTATED-BRONZE
#LibraryQualityString Bronze
#TaskID 76b66bf1ccd04cec9993212b36387ea3
##Scan# 3
#SpectrumFile CDB02_35I_pos_MSMS_003_2.mgf
#LibraryName gnps_library.mgf
#MQScore -1
#Organism test_rob_keyzers
#TIC_Query 0
#RT_Query -1
#MZErrorPPM -1
#SharedPeaks 0
#MassDiff 0
#LibMZ -1
#SpecMZ 211.145
#SpecCharge 0
#internalFilename spec-00000.mgf

>collision 0
41.0384 1.01
43.0544 1.33
44.0502 1.15
45.0341 10.28
70.066 100.0
72.0447 4.25
86.0974 30.3
98.0615 7.12
109.1016 0.6
114.0909 11.84
127.0861 7.64
135.1179 0.86
138.1267 7.54
155.1528 4.92
183.1498 28.39
211.144 340.47
