>compound Levofloxacin
>formula C18H20FN3O4
>ionization [M+H]+
>parentmass 362.15106079209056
#inchi InChI=1S/C18H20FN3O4/c1-10-9-26-17-14-11(16(23)12(18(24)25)8-22(10)14)7-13(19)15(17)21-5-3-20(2)4-6-21/h7-8,10H,3-6,9H2,1-2H3,(H,24,25)/t10-/m0/s1
#inchikey GSDSWSVVBLHKDQ
#Ion_Source DI-ESI
#Instrument qTof
#Compound_Source Commercial
#PI Norberto Lopes
#Data_Collector Denise Silva
#Scan -1
#Precursor_MZ 362.143
#ExactMass 361.144
#Charge 1
#CAS_Number 100986-85-4
#Pubmed_ID N/A
#Smiles C[C@H]1COC2=C(N3CCN(C)CC3)C(F)=CC4=C2N1C=C(C(O)=O)C4=O
#INCHI_AUX N/A
#Library_Class 3
#SpectrumID CCMSLIB00000081727
#IonMode Positive
#UpdateWorkflowName UPDATE-SINGLE-ANNOTATED-BRONZE
#LibraryQualityString Bronze
#TaskID 52bd5f0db6314c93924d5ce5c86348eb
##Scan# 1
#SpectrumFile gnps_Levofloxacin_pos_MplusH.mgf
#LibraryName gnps_library.mgf
#MQScore -1
#Organism batch_27_05_V02
#TIC_Query 0
#RT_Query -1
#MZErrorPPM -1
#SharedPeaks 0
#MassDiff 0
#LibMZ -1
#SpecMZ 362.143
#SpecCharge 0
#internalFilename spec-00000.mgf

>collision 0
179.0339 4.19
192.0419 1.43
193.0381 2.97
202.0627 1.23
203.0573 1.29
204.0459 1.44
219.0515 14.06
220.0595 3.85
221.068 20.06
233.0718 6.02
245.0682 2.0
247.0833 6.18
261.1011 100.0
273.0998 2.64
301.1162 3.09
316.1408 3.71
362.1538 0.0
