>compound cyclo(L-Leu-L-Pro)
>formula C11H18N2O2 
>ionization [M+H]+
>parentmass 211.143845
#inchi InChI=1S/C11H18N2O2/c1-7(2)6-8-11(15)13-5-3-4-9(13)10(14)12-8/h7-9H,3-6H2,1-2H3,(H,12,14)
#inchikey SZJNCZMRZAUNQT
#Ion_Source DI-ESI
#Instrument qTof
#Compound_Source Isolated
#PI Keyzers
#Data_Collector R Keyzers
#Scan -1
#Precursor_MZ 211.145
#ExactMass 210.137
#Charge 1
#CAS_Number 2873-36-1
#Pubmed_ID N/A
#Smiles N/A
#INCHI_AUX N/A
#Library_Class 3
#SpectrumID CCMSLIB00000007050
#IonMode Positive
#UpdateWorkflowName UPDATE-SINGLE-ANNOTATED-BRONZE
#LibraryQualityString Bronze
#TaskID 76b66bf1ccd04cec9993212b36387ea3
##Scan# 5
#SpectrumFile CDB02_35I_pos_MSMS_003_2.mgf
#LibraryName gnps_library.mgf
#MQScore -1
#Organism test_rob_keyzers
#TIC_Query 0
#RT_Query -1
#MZErrorPPM -1
#SharedPeaks 0
#MassDiff 0
#LibMZ -1
#SpecMZ 211.145
#SpecCharge 0
#internalFilename spec-00000.mgf

>collision 0
44.0495 1.73
45.0337 13.17
59.0488 4.31
68.049 1.2
69.0709 2.11
70.065 100.0
72.0431 11.68
86.0972 11.09
89.06 6.58
98.0612 5.93
111.0553 0.63
111.0917 0.68
114.091 13.24
127.087 0.97
155.0834 1.62
211.1439 19.74
