>compound Ivermectin
>formula C48H74O14
>ionization [M+Na]+
>parentmass 897.497253
#inchi InChI=1S/C48H74O14/c1-11-25(2)43-28(5)17-18-47(62-43)23-34-20-33(61-47)16-15-27(4)42(26(3)13-12-14-32-24-55-45-40(49)29(6)19-35(46(51)58-34)48(32,45)52)59-39-22-37(54-10)44(31(8)57-39)60-38-21-36(53-9)41(50)30(7)56-38/h12-15,19,25-26,28,30-31,33-45,49-50,52H,11,16-18,20-24H2,1-10H3/b13-12+,27-15+,32-14+/t25-,26-,28-,30-,31-,33+,34-,35+,36-,37-,38-,39-,40+,41-,42-,43+,44-,45+,47+,48+/m0/s1
#inchikey AZSNMRSAGSSBNP
#Ion_Source LC-ESI
#Instrument qTof
#Compound_Source Commercial
#PI Dorrestein
#Data_Collector Garg_Neha
#Scan -1
#Precursor_MZ 897.497
#ExactMass 874.508
#Charge 1
#CAS_Number 70288-86-7, 71827-03-7
#Pubmed_ID N/A
#Smiles [C@]12([C@]3([C@@H](C(=C[C@@]1(C(O[C@@H]4C[C@]5(O[C@@](C4)(C/C=C(/[C@H]([C@H](/C=C/C=C/2CO3)C)O[C@]6(C[C@@H]([C@H]([C@@H](O6)C)O[C@]7(C[C@@H]([C@H]([C@@H](O7)C)O)OC)[H])OC)[H])C)[H])O[C@@]([C@H](CC5)C)([C@@H](C)CC)[H])=O)[H])C)O)[H])O
#INCHI_AUX N/A
#Library_Class 1
#SpectrumID CCMSLIB00000078110
#IonMode Positive
#UpdateWorkflowName UPDATE-SINGLE-ANNOTATED-GOLD
#LibraryQualityString Gold
#TaskID 77f51c88eb8b467eb4a01dd2d0cb90d2
##Scan# 3830
#SpectrumFile Plate2_21_40_GG6_01_16494.mzXML
#LibraryName FDALibrary_2_04302014.mgf
#MQScore -1
#Organism FDALibrary_2_04302014
#TIC_Query 0
#RT_Query -1
#MZErrorPPM -1
#SharedPeaks 0
#MassDiff 0
#LibMZ -1
#SpecMZ 897.497
#SpecCharge 0
#internalFilename spec-00000.mgf

>collision 0
139.073 4.56
151.0747 3.97
153.0531 6.74
183.0624 16.09
184.0717 12.7
193.1199 4.22
240.1136 9.4
304.1489 4.31
305.1744 5.53
311.1478 5.09
329.1543 6.74
329.2081 29.04
377.2061 4.6
385.1989 4.94
449.2469 16.77
457.2569 13.81
458.2616 4.51
497.2471 5.24
521.2864 5.28
522.28 4.17
547.3481 6.45
548.3413 4.36
591.3223 4.99
609.3394 19.53
610.3426 7.46
619.3785 4.41
641.33 13.57
642.3342 8.73
665.3754 16.24
666.3587 6.16
673.4136 4.46
691.4189 17.26
692.4236 4.6
735.4057 5.24
737.3864 6.16
753.4175 100.0
754.4221 51.04
755.4181 7.8
769.4275 3.93
818.4787 7.22
835.4965 38.92
836.5021 15.66
837.5107 6.69
879.4873 6.3
897.4972 1339.8
