>compound Beclomethasone
>formula C22H29ClO5
>ionization [M+H]+
>parentmass 409.17762816009053
#inchi InChI=1S/C22H29ClO5/c1-12-8-16-15-5-4-13-9-14(25)6-7-19(13,2)21(15,23)17(26)10-20(16,3)22(12,28)18(27)11-24/h6-7,9,12,15-17,24,26,28H,4-5,8,10-11H2,1-3H3/t12?,15?,16?,17?,19?,20?,21-,22?/m0/s1
#inchikey NBMKJKDGKREAPL
#Ion_Source LC-ESI
#Instrument qTof
#Compound_Source Commercial
#PI Dorrestein
#Data_Collector Garg_Neha
#Scan -1
#Precursor_MZ 409.178
#ExactMass 408.17
#Charge 1
#CAS_Number N/A
#Pubmed_ID N/A
#Smiles CC1CC2C3CCC4=CC(=O)C=CC4(C)[C@@]3(Cl)C(O)CC2(C)C1(O)C(=O)CO
#INCHI_AUX N/A
#Library_Class 1
#SpectrumID CCMSLIB00000079063
#IonMode Positive
#UpdateWorkflowName UPDATE-SINGLE-ANNOTATED-GOLD
#LibraryQualityString Gold
#TaskID 278b19f5865741e282cec7349aa7e7a1
##Scan# 1226
#SpectrumFile NCP003432_C2_D11_BD1_01_15723.mzXML
#LibraryName NIHcollectionI_05062014.mgf
#MQScore -1
#Organism NIHcollectionI_05062014
#TIC_Query 0
#RT_Query -1
#MZErrorPPM -1
#SharedPeaks 0
#MassDiff 0
#LibMZ -1
#SpecMZ 409.178
#SpecCharge 0
#internalFilename spec-00000.mgf

>collision 0
121.0648 7.56
135.0802 7.07
147.0803 18.57
159.0814 3.41
161.0956 8.47
171.0802 13.19
173.0956 8.27
179.086 3.02
183.0788 2.74
185.0949 5.93
187.11 3.4
197.0956 5.01
209.0937 6.16
211.1106 8.5
221.0955 4.2
223.1118 5.92
224.1173 5.34
235.1121 3.62
237.1274 10.98
239.1422 14.06
248.1207 4.23
249.1275 5.7
261.1268 3.66
263.1432 10.75
267.1379 3.5
275.1406 4.28
277.1583 8.7
279.174 23.94
289.158 3.76
291.1739 6.8
297.1849 6.89
301.1597 5.53
307.1699 6.28
309.1847 5.47
319.1697 12.29
337.1794 19.53
355.1903 15.87
373.156 4.07
373.2015 12.13
391.1675 100.0
409.175 5.96
