>compound Pralatrexate(Folotyn)
>formula C23H23N7O5
>ionization [M+H]+
>parentmass 478.185303
#inchi InChI=1S/C23H23N7O5/c1-2-3-14(10-15-11-26-20-18(27-15)19(24)29-23(25)30-20)12-4-6-13(7-5-12)21(33)28-16(22(34)35)8-9-17(31)32/h1,4-7,11,14,16H,3,8-10H2,(H,28,33)(H,31,32)(H,34,35)(H4,24,25,26,29,30)/t14?,16-/m0/s1
#inchikey OGSBUKJUDHAQEA
#Ion_Source LC-ESI
#Instrument qTof
#Compound_Source Commercial
#PI Dorrestein
#Data_Collector Garg_Neha
#Scan -1
#Precursor_MZ 478.183
#ExactMass 477.176
#Charge 1
#CAS_Number 146464-95-1
#Pubmed_ID N/A
#Smiles N1=C(N=C2C(=C1N)N=C(C=N2)CC(C3=CC=C(C=C3)C(N[C@@H](CCC(O)=O)C(=O)O)=O)CC#C)N
#INCHI_AUX N/A
#Library_Class 1
#SpectrumID CCMSLIB00000078164
#IonMode Positive
#UpdateWorkflowName UPDATE-SINGLE-ANNOTATED-GOLD
#LibraryQualityString Gold
#TaskID 77f51c88eb8b467eb4a01dd2d0cb90d2
##Scan# 1036
#SpectrumFile Plate3_1_20_GG9_01_16498.mzXML
#LibraryName FDALibrary_2_04302014.mgf
#MQScore -1
#Organism FDALibrary_2_04302014
#TIC_Query 0
#RT_Query -1
#MZErrorPPM -1
#SharedPeaks 0
#MassDiff 0
#LibMZ -1
#SpecMZ 478.183
#SpecCharge 0
#internalFilename spec-00000.mgf

>collision 0
133.0503 0.79
135.0525 0.51
156.0558 1.23
162.0637 0.61
175.073 100.0
177.0855 2.64
260.1038 0.82
263.1008 0.79
264.1136 0.97
276.1232 3.34
277.1268 1.05
288.1002 0.43
291.0978 0.59
292.1064 0.5
303.1356 1.77
304.1193 17.71
305.122 4.82
310.118 0.83
321.1434 1.28
322.1319 7.06
330.1467 0.44
331.1302 20.2
332.1324 4.59
348.1567 0.56
349.1413 13.93
350.1426 3.4
394.1634 0.61
405.1682 0.42
432.1764 1.36
433.1856 0.52
438.1521 1.02
451.1719 1.82
460.1705 1.9
478.1862 165.91
