>compound MLS000584128-01!
>formula C12H8N2
>ionization [M+H]+
>parentmass 181.076157
#inchi InChI=1S/C12H8N2/c1-2-6-10-9(5-1)13-11-7-3-4-8-12(11)14-10/h1-8H
#inchikey PCNDJXKNXGMECE
#Ion_Source LC-ESI
#Instrument qTof
#Compound_Source NIH Natural Product Library
#PI Dorrestein
#Data_Collector VVP/LMS
#Scan -1
#Precursor_MZ 181.077
#ExactMass 180.069
#Charge 1
#CAS_Number N/A
#Pubmed_ID N/A
#Smiles c1ccc2nc3ccccc3nc2c1
#INCHI_AUX N/A
#Library_Class 1
#SpectrumID CCMSLIB00000079664
#IonMode Positive
#UpdateWorkflowName UPDATE-SINGLE-ANNOTATED-GOLD
#LibraryQualityString Gold
#TaskID b1d8e8f6646f4e71acdff9ca3d919d08
##Scan# 1950
#SpectrumFile p1-E09_GE9_01_17929.mzXML
#LibraryName NIH_Natural_Products_Library.mgf
#MQScore -1
#Organism NIH_Natural_Products_Library
#TIC_Query 0
#RT_Query -1
#MZErrorPPM -1
#SharedPeaks 0
#MassDiff 0
#LibMZ -1
#SpecMZ 181.077
#SpecCharge 0
#internalFilename spec-00000.mgf

>collision 0
101.0397 3.53
102.0322 24.31
103.0544 13.67
125.0394 5.72
126.0474 7.24
127.0534 26.63
128.0513 10.77
129.0448 28.02
152.0497 13.67
153.0559 21.31
154.0646 79.36
155.0614 22.03
166.0536 3.8
179.0599 58.98
180.0672 100.0
181.0762 1120.15
