>compound Etravirine (TMC125)
>formula C20H15BrN6O
>ionization [M+Na]+
>parentmass 457.039062
#inchi InChI=1S/C20H15BrN6O/c1-11-7-14(10-23)8-12(2)17(11)28-19-16(21)18(24)26-20(27-19)25-15-5-3-13(9-22)4-6-15/h3-8H,1-2H3,(H3,24,25,26,27)
#inchikey PYGWGZALEOIKDF
#Ion_Source LC-ESI
#Instrument qTof
#Compound_Source Commercial
#PI Dorrestein
#Data_Collector Garg_Neha
#Scan -1
#Precursor_MZ 457.038
#ExactMass 434.049
#Charge 1
#CAS_Number 269055-15-4, 1030633-39-6 (HCl), 1030633-41-0 (4-methylbenzenesulfonate)
#Pubmed_ID N/A
#Smiles C1(N=C(N=C(C=1Br)N)NC2C=CC(C#N)=CC=2)OC3C(=CC(C#N)=CC=3C)C
#INCHI_AUX N/A
#Library_Class 1
#SpectrumID CCMSLIB00000078572
#IonMode Positive
#UpdateWorkflowName UPDATE-SINGLE-ANNOTATED-GOLD
#LibraryQualityString Gold
#TaskID 77f51c88eb8b467eb4a01dd2d0cb90d2
##Scan# 2461
#SpectrumFile Plate9_21_40_GC5_01_15753.mzXML
#LibraryName FDALibrary_2_04302014.mgf
#MQScore -1
#Organism FDALibrary_2_04302014
#TIC_Query 0
#RT_Query -1
#MZErrorPPM -1
#SharedPeaks 0
#MassDiff 0
#LibMZ -1
#SpecMZ 457.038
#SpecCharge 0
#internalFilename spec-00000.mgf

>collision 0
119.0595 2.8
130.0639 1.59
148.0753 1.29
159.0638 0.91
168.0653 1.11
169.0723 1.43
172.0853 1.37
247.9657 1.05
250.9762 1.48
274.1171 1.82
277.988 1.82
279.0027 1.09
290.968 1.39
294.0097 1.04
305.9809 7.18
306.9868 4.46
307.9932 1.55
318.0101 1.2
321.0108 0.96
337.0061 0.93
457.0391 77.27
