>compound MLS001148572-01!Disipal341-69-5
>formula C18H23NO
>ionization [M+H]+
>parentmass 270.185547
#inchi InChI=1S/C18H23NO/c1-15-9-7-8-12-17(15)18(20-14-13-19(2)3)16-10-5-4-6-11-16/h4-12,18H,13-14H2,1-3H3
#inchikey QVYRGXJJSLMXQH
#origInchi InChI=1S/C18H23NO.ClH/c1-15-9-7-8-12-17(15)18(20-14-13-19(2)3)16-10-5-4-6-11-16;/h4-12,18H,13-14H2,1-3H3;1H
#Ion_Source LC-ESI
#Instrument qTof
#Compound_Source NIH Pharmacologically Active Library
#PI Dorrestein
#Data_Collector VP/LMS
#Scan -1
#Precursor_MZ 270.181
#ExactMass 269.178
#Charge 1
#CAS_Number N/A
#Pubmed_ID N/A
#Smiles CN(C)CCOC(c1ccccc1)c2ccccc2C.Cl
#INCHI_AUX N/A
#Library_Class 1
#SpectrumID CCMSLIB00000085320
#IonMode Positive
#UpdateWorkflowName UPDATE-SINGLE-ANNOTATED-GOLD
#LibraryQualityString Gold
#TaskID d252d724072548979f1f6f1ced849daf
##Scan# 1730
#SpectrumFile p3-H04_GH4_01_18309.mzXML
#LibraryName Pharm_Active_Library.mgf
#MQScore -1
#Organism Pharm_Active_Library
#TIC_Query 0
#RT_Query -1
#MZErrorPPM -1
#SharedPeaks 0
#MassDiff 0
#LibMZ -1
#SpecMZ 270.181
#SpecCharge 0
#internalFilename spec-00000.mgf

>collision 0
103.0538 1.19
115.0529 1.53
129.0683 0.39
139.0544 0.32
141.0695 10.16
165.0698 60.03
166.0775 100.0
181.1014 49.94
270.1855 0.08
