>compound Probenecid (Benemid)
>formula C13H19NO4S
>ionization [M+H]+
>parentmass 286.111328
#inchi InChI=1S/C13H19NO4S/c1-3-9-14(10-4-2)19(17,18)12-7-5-11(6-8-12)13(15)16/h5-8H,3-4,9-10H2,1-2H3,(H,15,16)
#inchikey DBABZHXKTCFAPX
#Ion_Source LC-ESI
#Instrument qTof
#Compound_Source Commercial
#PI Dorrestein
#Data_Collector Garg_Neha
#Scan -1
#Precursor_MZ 286.111
#ExactMass 285.103
#Charge 1
#CAS_Number 57-66-9
#Pubmed_ID N/A
#Smiles C1=C(C=CC(=C1)C(=O)O)S(N(CCC)CCC)(=O)=O
#INCHI_AUX N/A
#Library_Class 1
#SpectrumID CCMSLIB00000078627
#IonMode Positive
#UpdateWorkflowName UPDATE-SINGLE-ANNOTATED-GOLD
#LibraryQualityString Gold
#TaskID 77f51c88eb8b467eb4a01dd2d0cb90d2
##Scan# 1537
#SpectrumFile Plate10_1_20_GC1_01_15743.mzXML
#LibraryName FDALibrary_2_04302014.mgf
#MQScore -1
#Organism FDALibrary_2_04302014
#TIC_Query 0
#RT_Query -1
#MZErrorPPM -1
#SharedPeaks 0
#MassDiff 0
#LibMZ -1
#SpecMZ 286.111
#SpecCharge 0
#internalFilename spec-00000.mgf

>collision 0
105.0326 1.35
139.0387 2.47
184.9897 19.86
202.0165 55.69
244.0645 100.0
286.1113 64.48
