>compound Lafutidine
>formula C22H29N3O4S
>ionization [M+H]+
>parentmass 432.195923
#inchi InChI=1S/C22H29N3O4S/c26-21(18-30(27)17-20-7-6-14-28-20)23-9-2-5-13-29-22-15-19(8-10-24-22)16-25-11-3-1-4-12-25/h2,5-8,10,14-15H,1,3-4,9,11-13,16-18H2,(H,23,26)/b5-2-
#inchikey KMZQAVXSMUKBPD
#Ion_Source LC-ESI
#Instrument qTof
#Compound_Source Commercial
#PI Dorrestein
#Data_Collector Garg_Neha
#Scan -1
#Precursor_MZ 432.195
#ExactMass 431.188
#Charge 1
#CAS_Number 118288-08-7
#Pubmed_ID N/A
#Smiles C1=C(N=CC=C1CN2CCCCC2)OC/C=C\CNC(CS(=O)CC3=CC=CO3)=O
#INCHI_AUX N/A
#Library_Class 1
#SpectrumID CCMSLIB00000078416
#IonMode Positive
#UpdateWorkflowName UPDATE-SINGLE-ANNOTATED-GOLD
#LibraryQualityString Gold
#TaskID 77f51c88eb8b467eb4a01dd2d0cb90d2
##Scan# 1009
#SpectrumFile Plate6_61_80_GD10_01_15777.mzXML
#LibraryName FDALibrary_2_04302014.mgf
#MQScore -1
#Organism FDALibrary_2_04302014
#TIC_Query 0
#RT_Query -1
#MZErrorPPM -1
#SharedPeaks 0
#MassDiff 0
#LibMZ -1
#SpecMZ 432.195
#SpecCharge 0
#internalFilename spec-00000.mgf

>collision 0
96.0435 0.41
110.059 0.34
111.0678 3.3
142.0322 0.41
159.0342 9.19
160.0389 0.35
161.084 1.14
192.125 10.54
193.1332 52.97
218.1047 1.59
222.0567 0.67
240.0689 18.79
273.1588 1.16
334.1555 0.57
351.161 100.0
352.163 21.1
414.1819 1.53
432.1941 79.44
