>compound Chlorpheniramine
>formula C16H19ClN2
>ionization [M+H]+
>parentmass 275.1309527400905
#inchi InChI=1S/C16H19ClN2/c1-19(2)12-10-15(16-5-3-4-11-18-16)13-6-8-14(17)9-7-13/h3-9,11,15H,10,12H2,1-2H3
#inchikey SOYKEARSMXGVTM
#Ion_Source LC-ESI
#Instrument qTof
#Compound_Source Commercial
#PI Dorrestein
#Data_Collector Garg_Neha
#Scan -1
#Precursor_MZ 275.131
#ExactMass 274.124
#Charge 1
#CAS_Number N/A
#Pubmed_ID N/A
#Smiles CN(C)CCC(c1ccc(Cl)cc1)c2ccccn2
#INCHI_AUX N/A
#Library_Class 1
#SpectrumID CCMSLIB00000079132
#IonMode Positive
#UpdateWorkflowName UPDATE-SINGLE-ANNOTATED-GOLD
#LibraryQualityString Gold
#TaskID 278b19f5865741e282cec7349aa7e7a1
##Scan# 1066
#SpectrumFile NCP003512_E2_F11_BD6_01_15730.mzXML
#LibraryName NIHcollectionI_05062014.mgf
#MQScore -1
#Organism NIHcollectionI_05062014
#TIC_Query 0
#RT_Query -1
#MZErrorPPM -1
#SharedPeaks 0
#MassDiff 0
#LibMZ -1
#SpecMZ 275.131
#SpecCharge 0
#internalFilename spec-00000.mgf

>collision 0
117.0573 0.34
118.0654 1.19
125.0153 0.89
166.0648 0.39
167.0737 29.14
180.0813 2.89
194.0961 2.46
195.1031 1.58
202.0418 7.16
230.0753 100.0
275.132 29.1
