>compound MLS002153961-01!Ethotoin86-35-1
>formula C11H12N2O2
>ionization [M+H]+
>parentmass 205.096
#inchi InChI=1S/C11H12N2O2/c1-2-13-10(14)9(12-11(13)15)8-6-4-3-5-7-8/h3-7,9H,2H2,1H3,(H,12,15)
#inchikey SZQIFWWUIBRPBZ
#Ion_Source LC-ESI
#Instrument qTof
#Compound_Source NIH Pharmacologically Active Library
#PI Dorrestein
#Data_Collector VP/LMS
#Scan -1
#Precursor_MZ 205.096
#ExactMass 204.09
#Charge 1
#CAS_Number N/A
#Pubmed_ID N/A
#Smiles CCN1C(=O)NC(C1=O)c2ccccc2
#INCHI_AUX N/A
#Library_Class 3
#SpectrumID CCMSLIB00000085202
#IonMode Positive
#UpdateWorkflowName UPDATE-SINGLE-ANNOTATED-BRONZE
#LibraryQualityString Bronze
#TaskID d252d724072548979f1f6f1ced849daf
##Scan# 1553
#SpectrumFile p3-F11_GF11_01_18292.mzXML
#LibraryName Pharm_Active_Library.mgf
#MQScore -1
#Organism Pharm_Active_Library
#TIC_Query 0
#RT_Query -1
#MZErrorPPM -1
#SharedPeaks 0
#MassDiff 0
#LibMZ -1
#SpecMZ 205.096
#SpecCharge 0
#internalFilename spec-00000.mgf

>collision 0
106.0638 100.0
134.0609 14.9
175.0517 7.28
205.096 0.0
