>compound MLS002153451-01!N-Oleoyldopamine105955-11-1
>formula C26H43NO3
>ionization [M+H]+
>parentmass 418.33157068809055
#inchi InChI=1S/C26H43NO3/c1-2-3-4-5-6-7-8-9-10-11-12-13-14-15-16-17-26(30)27-21-20-23-18-19-24(28)25(29)22-23/h9-10,18-19,22,28-29H,2-8,11-17,20-21H2,1H3,(H,27,30)/b10-9-
#inchikey QQBPLXNESPTPNU
#Ion_Source LC-ESI
#Instrument qTof
#Compound_Source NIH Pharmacologically Active Library
#PI Dorrestein
#Data_Collector VP/LMS
#Scan -1
#Precursor_MZ 418.338
#ExactMass 417.324
#Charge 1
#CAS_Number N/A
#Pubmed_ID N/A
#Smiles CCCCCCCC/C=C\CCCCCCCC(=O)NCCc1ccc(O)c(O)c1
#INCHI_AUX N/A
#Library_Class 1
#SpectrumID CCMSLIB00000086025
#IonMode Positive
#UpdateWorkflowName UPDATE-SINGLE-ANNOTATED-GOLD
#LibraryQualityString Gold
#TaskID d252d724072548979f1f6f1ced849daf
##Scan# 2988
#SpectrumFile p5-B04_GB4_01_18443.mzXML
#LibraryName Pharm_Active_Library.mgf
#MQScore -1
#Organism Pharm_Active_Library
#TIC_Query 0
#RT_Query -1
#MZErrorPPM -1
#SharedPeaks 0
#MassDiff 0
#LibMZ -1
#SpecMZ 418.338
#SpecCharge 0
#internalFilename spec-00000.mgf

>collision 0
91.0554 6.98
93.0703 0.63
95.0856 0.98
97.1029 0.27
107.0499 0.26
107.0855 0.64
109.0652 1.33
109.1011 0.61
119.05 21.99
121.1021 1.07
123.0444 0.2
123.1158 0.32
135.044 0.38
135.1169 0.91
137.0607 100.0
139.0641 1.28
149.1311 0.44
154.0863 6.62
191.1795 0.22
265.2523 0.23
282.2779 0.29
418.3238 0.13
