>compound MLS001076687-01!
>formula C33H30N4O2
>ionization [M+H]+
>parentmass 515.244019
#inchi InChI=1S/C33H30N4O2/c1-4-9-30-35-31-21(2)18-24(32-34-27-12-7-8-13-28(27)36(32)3)19-29(31)37(30)20-22-14-16-23(17-15-22)25-10-5-6-11-26(25)33(38)39/h5-8,10-19H,4,9,20H2,1-3H3,(H,38,39)
#inchikey RMMXLENWKUUMAY
#Ion_Source LC-ESI
#Instrument qTof
#Compound_Source NIH Pharmacologically Active Library
#PI Dorrestein
#Data_Collector VP/LMS
#Scan -1
#Precursor_MZ 515.234
#ExactMass 514.237
#Charge 1
#CAS_Number N/A
#Pubmed_ID N/A
#Smiles CCCc1nc2c(C)cc(cc2n1Cc3ccc(cc3)c4ccccc4C(=O)O)c5nc6ccccc6n5C
#INCHI_AUX N/A
#Library_Class 1
#SpectrumID CCMSLIB00000085355
#IonMode Positive
#UpdateWorkflowName UPDATE-SINGLE-ANNOTATED-GOLD
#LibraryQualityString Gold
#TaskID d252d724072548979f1f6f1ced849daf
##Scan# 1806
#SpectrumFile p3-H08_GH8_01_18313.mzXML
#LibraryName Pharm_Active_Library.mgf
#MQScore -1
#Organism Pharm_Active_Library
#TIC_Query 0
#RT_Query -1
#MZErrorPPM -1
#SharedPeaks 0
#MassDiff 0
#LibMZ -1
#SpecMZ 515.234
#SpecCharge 0
#internalFilename spec-00000.mgf

>collision 0
133.0285 0.89
141.0683 0.49
152.061 2.19
153.0687 1.18
155.0848 1.3
165.0711 3.87
166.0779 0.81
167.0846 0.94
183.0804 1.85
193.0656 13.77
211.0761 48.84
261.1116 3.14
262.1211 1.08
274.1211 0.76
275.1296 6.13
276.1385 100.0
288.1362 0.93
289.1448 24.02
302.1528 1.32
303.1602 10.36
308.1265 1.03
317.1752 6.25
439.1798 0.41
453.1702 1.34
455.1842 1.56
467.1863 5.99
468.1899 2.06
471.2543 1.01
473.1959 0.75
485.1974 3.35
497.2345 94.94
498.2373 39.75
515.2452 120.49
