>compound MLS000069633-01!Acyclovir59277-89-3
>formula C8H11N5O3
>ionization [M+H]+
>parentmass 226.094
#inchi InChI=1S/C8H11N5O3/c9-8-11-6-5(7(15)12-8)10-3-13(6)4-16-2-1-14/h3,14H,1-2,4H2,(H3,9,11,12,15)
#inchikey MKUXAQIIEYXACX
#Ion_Source LC-ESI
#Instrument qTof
#Compound_Source NIH Pharmacologically Active Library
#PI Dorrestein
#Data_Collector VP/LMS
#Scan -1
#Precursor_MZ 226.094
#ExactMass 225.086
#Charge 1
#CAS_Number N/A
#Pubmed_ID N/A
#Smiles Nc1nc(O)c2ncn(COCCO)c2n1
#INCHI_AUX N/A
#Library_Class 1
#SpectrumID CCMSLIB00000085123
#IonMode Positive
#UpdateWorkflowName UPDATE-SINGLE-ANNOTATED-GOLD
#LibraryQualityString Gold
#TaskID d252d724072548979f1f6f1ced849daf
##Scan# 257
#SpectrumFile p3-F03_GF3_01_18284.mzXML
#LibraryName Pharm_Active_Library.mgf
#MQScore -1
#Organism Pharm_Active_Library
#TIC_Query 0
#RT_Query -1
#MZErrorPPM -1
#SharedPeaks 0
#MassDiff 0
#LibMZ -1
#SpecMZ 226.094
#SpecCharge 0
#internalFilename spec-00000.mgf

>collision 0
80.0443 12.0
125.0477 9.75
134.0354 10.25
135.0294 100.0
148.0461 4.75
226.094 0.0
