>compound MLS000859938-01!8-(p-Sulfophenyl)theophylline hydrate
>formula C13H12N4O5S
>ionization [M+H]+
>parentmass 337.0601169360905
#inchi InChI=1S/C13H12N4O5S/c1-16-11-9(12(18)17(2)13(16)19)14-10(15-11)7-3-5-8(6-4-7)23(20,21)22/h3-6H,1-2H3,(H,14,15)(H,20,21,22)
#inchikey LXJSJIXZOAMHTG
#origInchi InChI=1S/C13H12N4O5S.H2O/c1-16-11-9(12(18)17(2)13(16)19)14-10(15-11)7-3-5-8(6-4-7)23(20,21)22;/h3-6H,1-2H3,(H,14,15)(H,20,21,22);1H2
#Ion_Source LC-ESI
#Instrument qTof
#Compound_Source NIH Pharmacologically Active Library
#PI Dorrestein
#Data_Collector VP/LMS
#Scan -1
#Precursor_MZ 337.062
#ExactMass 336.053
#Charge 1
#CAS_Number N/A
#Pubmed_ID N/A
#Smiles Cn1c(=O)n(C)c2[nH]c(nc2c1=O)c3ccc(cc3)S(=O)(=O)O.O
#INCHI_AUX N/A
#Library_Class 1
#SpectrumID CCMSLIB00000085843
#IonMode Positive
#UpdateWorkflowName UPDATE-SINGLE-ANNOTATED-GOLD
#LibraryQualityString Gold
#TaskID d252d724072548979f1f6f1ced849daf
##Scan# 1235
#SpectrumFile p4-G02_GG2_01_18398.mzXML
#LibraryName Pharm_Active_Library.mgf
#MQScore -1
#Organism Pharm_Active_Library
#TIC_Query 0
#RT_Query -1
#MZErrorPPM -1
#SharedPeaks 0
#MassDiff 0
#LibMZ -1
#SpecMZ 337.062
#SpecCharge 0
#internalFilename spec-00000.mgf

>collision 0
95.0337 5.67
132.0451 7.83
134.0588 4.58
144.0678 3.83
171.0791 8.5
184.0041 22.67
196.0088 7.5
198.0246 4.33
199.0739 6.83
204.9975 5.42
211.017 6.75
219.0342 4.0
221.0016 4.5
223.0201 4.08
225.0334 6.08
251.9938 4.25
252.0436 16.25
256.0942 8.25
259.012 4.08
270.0177 4.42
280.0374 100.0
282.0415 4.42
337.0603 0.0
