>compound Marbofloxacin
>formula C17H19FN4O4
>ionization [M+H]+
>parentmass 363.14630976009056
#inchi InChI=1S/C17H19FN4O4/c1-19-3-5-21(6-4-19)14-12(18)7-10-13-16(14)26-9-20(2)22(13)8-11(15(10)23)17(24)25/h7-8H,3-6,9H2,1-2H3,(H,24,25)
#inchikey BPFYOAJNDMUVBL
#Ion_Source LC-ESI
#Instrument qTof
#Compound_Source Commercial
#PI Dorrestein
#Data_Collector Garg_Neha
#Scan -1
#Precursor_MZ 363.146
#ExactMass 362.139
#Charge 1
#CAS_Number 115550-35-1, 115551-26-3 (HCl)
#Pubmed_ID N/A
#Smiles C1(=C(C2=C3C(=C1)C(C(=CN3N(CO2)C)C(O)=O)=O)N4CCN(CC4)C)F
#INCHI_AUX N/A
#Library_Class 1
#SpectrumID CCMSLIB00000078157
#IonMode Positive
#UpdateWorkflowName UPDATE-SINGLE-ANNOTATED-GOLD
#LibraryQualityString Gold
#TaskID 77f51c88eb8b467eb4a01dd2d0cb90d2
##Scan# 1023
#SpectrumFile Plate3_1_20_GG9_01_16498.mzXML
#LibraryName FDALibrary_2_04302014.mgf
#MQScore -1
#Organism FDALibrary_2_04302014
#TIC_Query 0
#RT_Query -1
#MZErrorPPM -1
#SharedPeaks 0
#MassDiff 0
#LibMZ -1
#SpecMZ 363.146
#SpecCharge 0
#internalFilename spec-00000.mgf

>collision 0
157.0398 0.62
158.0273 1.46
164.0488 2.37
174.0339 0.55
185.0346 0.94
185.0679 1.19
191.0346 0.45
191.0615 0.68
192.0459 2.67
204.0454 4.35
205.041 9.79
206.0571 2.19
213.0667 2.92
215.0629 0.95
216.0416 0.97
218.0462 0.93
219.0561 1.87
221.0723 1.13
232.061 0.48
233.072 5.05
234.0765 0.97
259.0498 0.82
262.1058 1.12
276.1141 14.53
277.0619 6.24
320.1054 100.0
322.1072 1.5
345.1334 3.2
363.1483 201.02
