>compound MLS001032297-01!
>formula C27H28N2O5
>ionization [M+H]+
>parentmass 461.2070984480905
#inchi InChI=1S/C27H28N2O5/c1-15-23(10-9-20-19-5-3-6-21(19)27(32)34-25(15)20)33-16(2)26(31)28-12-17-11-18(14-28)22-7-4-8-24(30)29(22)13-17/h4,7-10,16-18H,3,5-6,11-14H2,1-2H3/t16?,17-,18+/m1/s1
#inchikey JSYZERWPNWZGEH
#Ion_Source LC-ESI
#Instrument qTof
#Compound_Source NIH Natural Product Library
#PI Dorrestein
#Data_Collector VVP/LMS
#Scan -1
#Precursor_MZ 461.208
#ExactMass 460.2
#Charge 1
#CAS_Number N/A
#Pubmed_ID N/A
#Smiles CC(Oc1ccc2c3CCCc3c(=O)oc2c1C)C(=O)N4C[C@H]5C[C@@H](C4)c6cccc(=O)n6C5
#INCHI_AUX N/A
#Library_Class 1
#SpectrumID CCMSLIB00000079438
#IonMode Positive
#UpdateWorkflowName UPDATE-SINGLE-ANNOTATED-GOLD
#LibraryQualityString Gold
#TaskID b1d8e8f6646f4e71acdff9ca3d919d08
##Scan# 1866
#SpectrumFile p1-D06_GD6_01_17914.mzXML
#LibraryName NIH_Natural_Products_Library.mgf
#MQScore -1
#Organism NIH_Natural_Products_Library
#TIC_Query 0
#RT_Query -1
#MZErrorPPM -1
#SharedPeaks 0
#MassDiff 0
#LibMZ -1
#SpecMZ 461.208
#SpecCharge 0
#internalFilename spec-00000.mgf

>collision 0
128.1444 0.41
145.1823 0.4
146.1559 20.11
147.1635 20.62
159.1729 1.51
202.2163 0.98
461.2097 0.03
