>compound 29122-68-7
>formula C14H22N2O3 
>ionization [M+H]+
>parentmass 267.171936
#inchi InChI=1S/C14H22N2O3/c1-10(2)16-8-12(17)9-19-13-5-3-11(4-6-13)7-14(15)18/h3-6,10,12,16-17H,7-9H2,1-2H3,(H2,15,18)
#inchikey METKIMKYRPQLGS
#Ion_Source LC-ESI
#Instrument qTof
#Compound_Source Commercial
#PI Dorrestein
#Data_Collector Garg_Neha
#Scan -1
#Precursor_MZ 267.172
#ExactMass 266.163
#Charge 1
#CAS_Number N/A
#Pubmed_ID N/A
#Smiles N/A
#INCHI_AUX N/A
#Library_Class 1
#SpectrumID CCMSLIB00000077060
#IonMode Positive
#UpdateWorkflowName UPDATE-SINGLE-ANNOTATED-GOLD
#LibraryQualityString Gold
#TaskID 48f7f52fc6d249b5abbcc6e7b3df5969
##Scan# 965
#SpectrumFile NCP003017_E2_F11_BA8_01_15703.mzXML
#LibraryName NIH_Clinical_Collection_2.mgf
#MQScore -1
#Organism NIHcollection2_04212014_2_mgf
#TIC_Query 0
#RT_Query -1
#MZErrorPPM -1
#SharedPeaks 0
#MassDiff 0
#LibMZ -1
#SpecMZ 267.172
#SpecCharge 0
#internalFilename spec-00000.mgf

>collision 0
98.0967 2.62
105.0681 3.37
107.0507 3.08
116.1064 13.64
117.0698 6.36
119.0483 4.78
133.0649 32.72
136.075 5.07
145.0653 100.0
147.0459 8.11
152.0701 4.74
161.0594 2.83
162.0899 11.14
163.0772 5.86
164.0697 16.76
166.0742 2.79
173.0609 8.15
178.0859 23.04
180.1018 9.4
190.086 65.41
207.1116 3.08
208.0982 13.31
225.1245 50.15
249.1601 11.98
267.1719 1408.07
