>compound N'-benzyl-N,N-dimethyl-N'-pyridin-2-ylethane-1,2-diamine
>formula C16H21N3
>ionization [M+H]+
>parentmass 256.181793
#inchi InChI=1S/C16H21N3/c1-18(2)12-13-19(16-10-6-7-11-17-16)14-15-8-4-3-5-9-15/h3-11H,12-14H2,1-2H3
#inchikey UFLGIAIHIAPJJC
#Ion_Source LC-ESI
#Instrument qTof
#Compound_Source Commercial
#PI Dorrestein
#Data_Collector Garg_Neha
#Scan -1
#Precursor_MZ 256.181
#ExactMass 255.174
#Charge 1
#CAS_Number N/A
#Pubmed_ID N/A
#Smiles CN(C)CCN(Cc1ccccc1)c2ccccn2
#INCHI_AUX N/A
#Library_Class 1
#SpectrumID CCMSLIB00000079210
#IonMode Positive
#UpdateWorkflowName UPDATE-SINGLE-ANNOTATED-GOLD
#LibraryQualityString Gold
#TaskID 278b19f5865741e282cec7349aa7e7a1
##Scan# 1068
#SpectrumFile NCP003592_G2_H11_BE3_01_15737.mzXML
#LibraryName NIHcollectionI_05062014.mgf
#MQScore -1
#Organism NIHcollectionI_05062014
#TIC_Query 0
#RT_Query -1
#MZErrorPPM -1
#SharedPeaks 0
#MassDiff 0
#LibMZ -1
#SpecMZ 256.181
#SpecCharge 0
#internalFilename spec-00000.mgf

>collision 0
91.0552 3.13
119.0611 13.52
120.0683 7.44
211.1251 100.0
256.1818 16.97
