>compound MLS000860012-01!
>formula C18H23NO3
>ionization [M+H]+
>parentmass 302.1750700480905
#inchi InChI=1S/C18H23NO3/c1-13(2-3-14-4-7-16(20)8-5-14)19-11-10-15-6-9-17(21)18(22)12-15/h4-9,12-13,19-22H,2-3,10-11H2,1H3
#inchikey JRWZLRBJNMZMFE
#origInchi InChI=1S/C18H23NO3.ClH/c1-13(2-3-14-4-7-16(20)8-5-14)19-11-10-15-6-9-17(21)18(22)12-15;/h4-9,12-13,19-22H,2-3,10-11H2,1H3;1H
#Ion_Source LC-ESI
#Instrument qTof
#Compound_Source NIH Pharmacologically Active Library
#PI Dorrestein
#Data_Collector VP/LMS
#Scan -1
#Precursor_MZ 302.178
#ExactMass 301.168
#Charge 1
#CAS_Number N/A
#Pubmed_ID N/A
#Smiles CC(CCc1ccc(O)cc1)NCCc2ccc(O)c(O)c2.Cl
#INCHI_AUX N/A
#Library_Class 1
#SpectrumID CCMSLIB00000084837
#IonMode Positive
#UpdateWorkflowName UPDATE-SINGLE-ANNOTATED-GOLD
#LibraryQualityString Gold
#TaskID d252d724072548979f1f6f1ced849daf
##Scan# 1320
#SpectrumFile p3-B06_GB6_01_18239.mzXML
#LibraryName Pharm_Active_Library.mgf
#MQScore -1
#Organism Pharm_Active_Library
#TIC_Query 0
#RT_Query -1
#MZErrorPPM -1
#SharedPeaks 0
#MassDiff 0
#LibMZ -1
#SpecMZ 302.178
#SpecCharge 0
#internalFilename spec-00000.mgf

>collision 0
91.0549 6.22
107.0494 100.0
109.063 2.68
119.0497 25.13
137.0606 71.04
302.1725 3.34
