>compound MLS000876995-01!methyl (2R,4aR,4bS,10aS,10bS,12aR)-6,10b-dihydroxy-2,4b,7,7,10a,12a-hexamethyl-12-methylidene-1,4,5,8-tetraoxo-4a,9,10,11-tetrahydronaphtho[1,2-h]isochromene-2-carboxylate
>formula C26H32O9
>ionization [M+H]+
>parentmass 489.2119090560905
#inchi InChI=1S/C26H32O9/c1-12-11-26(33)22(4)10-9-13(27)21(2,3)15(22)14(28)17(29)24(26,6)16-18(30)35-25(7,20(32)34-8)19(31)23(12,16)5/h16,28,33H,1,9-11H2,2-8H3/t16-,22+,23+,24-,25-,26+/m1/s1
#inchikey CYHGEJACRPDZDP
#Ion_Source LC-ESI
#Instrument qTof
#Compound_Source NIH Natural Product Library
#PI Dorrestein
#Data_Collector VVP/LMS
#Scan -1
#Precursor_MZ 489.212
#ExactMass 488.205
#Charge 1
#CAS_Number N/A
#Pubmed_ID N/A
#Smiles COC(=O)[C@]1(C)OC(=O)[C@@H]2[C@](C)(C(=C)C[C@]3(O)[C@@]4(C)CCC(=O)C(C)(C)C4=C(O)C(=O)[C@@]23C)C1=O
#INCHI_AUX N/A
#Library_Class 3
#SpectrumID CCMSLIB00000079536
#IonMode Positive
#UpdateWorkflowName UPDATE-SINGLE-ANNOTATED-BRONZE
#LibraryQualityString Bronze
#TaskID b1d8e8f6646f4e71acdff9ca3d919d08
##Scan# 2180
#SpectrumFile p1-H07_GH7_01_17963.mzXML
#LibraryName NIH_Natural_Products_Library.mgf
#MQScore -1
#Organism NIH_Natural_Products_Library
#TIC_Query 0
#RT_Query -1
#MZErrorPPM -1
#SharedPeaks 0
#MassDiff 0
#LibMZ -1
#SpecMZ 489.212
#SpecCharge 0
#internalFilename spec-00000.mgf

>collision 0
133.0638 22.63
137.0957 46.78
147.0804 32.78
165.0911 56.55
175.0735 31.72
177.0548 58.06
177.0893 19.91
187.1118 23.62
189.0897 26.5
191.1076 23.47
203.0701 23.77
210.1393 21.88
223.1472 17.87
225.1288 19.45
225.1627 25.81
229.123 19.23
234.1406 17.87
237.1281 46.03
238.1358 23.16
249.1627 34.44
252.1502 21.42
253.1579 60.41
263.1438 24.98
265.1222 28.16
266.1292 21.57
267.1738 25.81
271.168 31.72
277.1586 26.72
279.138 41.18
280.1453 21.2
281.1533 55.03
291.1369 27.18
293.1171 19.3
295.1687 43.07
305.1542 22.33
307.1339 23.47
309.1465 18.62
322.1539 21.88
323.1651 72.52
333.1473 18.09
341.1738 100.0
350.153 32.48
411.1761 17.87
489.2119 5.83
