>compound Ritonavir
>formula C37H48N6O5S2
>ionization [M+H]+
>parentmass 721.320312
#inchi InChI=1S/C37H48N6O5S2/c1-24(2)33(42-36(46)43(5)20-29-22-49-35(40-29)25(3)4)34(45)39-28(16-26-12-8-6-9-13-26)18-32(44)31(17-27-14-10-7-11-15-27)41-37(47)48-21-30-19-38-23-50-30/h6-15,19,22-25,28,31-33,44H,16-18,20-21H2,1-5H3,(H,39,45)(H,41,47)(H,42,46)/t28-,31-,32-,33-/m0/s1
#inchikey NCDNCNXCDXHOMX
#Ion_Source LC-ESI
#Instrument qTof
#Compound_Source Commercial
#PI Dorrestein
#Data_Collector Garg_Neha
#Scan -1
#Precursor_MZ 721.32
#ExactMass 720.313
#Charge 1
#CAS_Number 155213-67-5
#Pubmed_ID N/A
#Smiles C1=CC=CC=C1C[C@@H]([C@H](C[C@H](CC2=CC=CC=C2)NC([C@@H](NC(N(CC3=CSC(=N3)C(C)C)C)=O)C(C)C)=O)O)NC(OCC4=CN=CS4)=O
#INCHI_AUX N/A
#Library_Class 1
#SpectrumID CCMSLIB00000078032
#IonMode Positive
#UpdateWorkflowName UPDATE-SINGLE-ANNOTATED-GOLD
#LibraryQualityString Gold
#TaskID 77f51c88eb8b467eb4a01dd2d0cb90d2
##Scan# 1995
#SpectrumFile Plate1_21_40_GG2_01_16489.mzXML
#LibraryName FDALibrary_2_04302014.mgf
#MQScore -1
#Organism FDALibrary_2_04302014
#TIC_Query 0
#RT_Query -1
#MZErrorPPM -1
#SharedPeaks 0
#MassDiff 0
#LibMZ -1
#SpecMZ 721.32
#SpecCharge 0
#internalFilename spec-00000.mgf

>collision 0
98.0049 1.38
140.053 28.61
169.0788 0.56
171.0949 34.89
197.0748 61.24
268.1479 42.69
296.1439 100.0
297.146 24.7
330.1306 0.3
347.1576 1.99
365.1674 1.38
408.1774 0.35
409.1751 0.26
426.1845 31.34
427.1865 7.05
533.224 0.81
551.2306 1.3
703.3124 0.99
721.3211 30.65
