>compound MLS001165770-01!ROFECOXIB
>formula C17H14O4S
>ionization [M+H]+
>parentmass 315.07
#inchi InChI=1S/C17H14O4S/c1-22(19,20)14-9-7-12(8-10-14)15-11-21-17(18)16(15)13-5-3-2-4-6-13/h2-10H,11H2,1H3
#inchikey RZJQGNCSTQAWON
#Ion_Source LC-ESI
#Instrument qTof
#Compound_Source NIH Pharmacologically Active Library
#PI Dorrestein
#Data_Collector VP/LMS
#Scan -1
#Precursor_MZ 315.07
#ExactMass 314.061
#Charge 1
#CAS_Number N/A
#Pubmed_ID N/A
#Smiles CS(=O)(=O)c1ccc(cc1)C2=C(C(=O)OC2)c3ccccc3
#INCHI_AUX N/A
#Library_Class 1
#SpectrumID CCMSLIB00000085763
#IonMode Positive
#UpdateWorkflowName UPDATE-SINGLE-ANNOTATED-GOLD
#LibraryQualityString Gold
#TaskID d252d724072548979f1f6f1ced849daf
##Scan# 1883
#SpectrumFile p4-F03_GF3_01_18387.mzXML
#LibraryName Pharm_Active_Library.mgf
#MQScore -1
#Organism Pharm_Active_Library
#TIC_Query 0
#RT_Query -1
#MZErrorPPM -1
#SharedPeaks 0
#MassDiff 0
#LibMZ -1
#SpecMZ 315.07
#SpecCharge 0
#internalFilename spec-00000.mgf

>collision 0
152.0611 11.75
164.0579 1.87
165.0685 14.33
166.0749 3.25
176.06 1.51
177.0693 7.38
178.0765 51.68
181.0627 1.27
189.0688 64.0
190.0761 39.75
191.0841 100.0
192.0918 34.77
193.0624 1.65
206.072 32.13
207.0778 19.37
208.0839 2.06
218.0713 10.34
236.0823 1.39
315.0718 0.65
