>compound MLS001076089-01!
>formula C22H29ClO5
>ionization [M+H]+
>parentmass 409.17762816009053
#inchi InChI=1S/C22H29ClO5/c1-12-8-16-15-5-4-13-9-14(25)6-7-19(13,2)21(15,23)17(26)10-20(16,3)22(12,28)18(27)11-24/h6-7,9,12,15-17,24,26,28H,4-5,8,10-11H2,1-3H3/t12-,15-,16-,17-,19-,20-,21-,22-/m0/s1
#inchikey NBMKJKDGKREAPL
#Ion_Source LC-ESI
#Instrument qTof
#Compound_Source NIH Pharmacologically Active Library
#PI Dorrestein
#Data_Collector VP/LMS
#Scan -1
#Precursor_MZ 409.182
#ExactMass 408.17
#Charge 1
#CAS_Number N/A
#Pubmed_ID N/A
#Smiles C[C@H]1C[C@H]2[C@@H]3CCC4=CC(=O)C=C[C@]4(C)[C@@]3(Cl)[C@@H](O)C[C@]2(C)[C@@]1(O)C(=O)CO
#INCHI_AUX N/A
#Library_Class 1
#SpectrumID CCMSLIB00000086182
#IonMode Positive
#UpdateWorkflowName UPDATE-SINGLE-ANNOTATED-GOLD
#LibraryQualityString Gold
#TaskID d252d724072548979f1f6f1ced849daf
##Scan# 1794
#SpectrumFile p5-H04_GH4_01_18479.mzXML
#LibraryName Pharm_Active_Library.mgf
#MQScore -1
#Organism Pharm_Active_Library
#TIC_Query 0
#RT_Query -1
#MZErrorPPM -1
#SharedPeaks 0
#MassDiff 0
#LibMZ -1
#SpecMZ 409.182
#SpecCharge 0
#internalFilename spec-00000.mgf

>collision 0
105.0698 21.16
107.0841 12.65
117.0698 19.66
121.0652 92.72
128.0619 16.73
135.0805 37.69
143.0864 21.02
145.0639 22.18
147.0802 100.0
155.0865 14.76
158.0727 20.0
161.0949 40.61
171.0798 61.9
172.0877 14.97
173.095 48.23
178.078 12.59
179.0864 12.45
195.0797 15.92
196.0888 13.47
197.0947 32.45
205.1007 13.47
208.0876 13.27
209.0961 41.97
209.1332 15.37
210.104 21.63
211.1095 39.18
221.0961 29.05
221.1299 12.24
222.104 22.11
223.1107 32.72
224.1181 32.72
233.0924 15.17
234.1041 23.33
235.1093 21.09
237.1257 37.07
239.1432 31.56
248.1167 26.46
249.1284 34.29
251.1429 13.88
261.1248 17.01
262.1351 28.84
263.144 59.52
264.1487 21.9
277.1584 23.27
278.1667 22.72
291.1736 17.35
295.1671 11.97
409.1799 0.0
