>compound 16502-01-5
>formula C11H12N2
>ionization [M+H]+
>parentmass 173.107483
#inchi InChI=1S/C11H12N2/c1-2-4-10-8(3-1)9-5-6-12-7-11(9)13-10/h1-4,12-13H,5-7H2
#inchikey CFTOTSJVQRFXOF
#Ion_Source LC-ESI
#Instrument qTof
#Compound_Source Commercial
#PI Dorrestein
#Data_Collector Garg_Neha
#Scan -1
#Precursor_MZ 173.107
#ExactMass 172.1
#Charge 1
#CAS_Number N/A
#Pubmed_ID N/A
#Smiles C1Cc2c(CN1)[nH]c3ccccc23
#INCHI_AUX N/A
#Library_Class 1
#SpectrumID CCMSLIB00000079038
#IonMode Positive
#UpdateWorkflowName UPDATE-SINGLE-ANNOTATED-GOLD
#LibraryQualityString Gold
#TaskID 278b19f5865741e282cec7349aa7e7a1
##Scan# 1017
#SpectrumFile NCP003432_A2_B11_BC8_01_15722.mzXML
#LibraryName NIHcollectionI_05062014.mgf
#MQScore -1
#Organism NIHcollectionI_05062014
#TIC_Query 0
#RT_Query -1
#MZErrorPPM -1
#SharedPeaks 0
#MassDiff 0
#LibMZ -1
#SpecMZ 173.107
#SpecCharge 0
#internalFilename spec-00000.mgf

>collision 0
102.0469 0.26
103.0542 0.64
117.0694 1.04
127.0551 0.69
128.0503 1.7
130.0658 0.45
144.0818 100.0
156.0816 0.52
173.1075 6.66
