>compound Daidzein
>formula C15H10O4
>ionization [M+H]+
>parentmass 255.065414
#inchi InChI=1S/C15H10O4/c16-10-3-1-9(2-4-10)13-8-19-14-7-11(17)5-6-12(14)15(13)18/h1-8,16-17H
#inchikey ZQSIJRDFPHDXIC
#Ion_Source LC-ESI
#Instrument qTof
#Compound_Source Commercial
#PI Dorrestein
#Data_Collector Garg_Neha
#Scan -1
#Precursor_MZ 255.065
#ExactMass 254.058
#Charge 1
#CAS_Number 486-66-8
#Pubmed_ID N/A
#Smiles C1=C(C=C2C(=C1)C(C(=CO2)C3=CC=C(C=C3)O)=O)O
#INCHI_AUX N/A
#Library_Class 1
#SpectrumID CCMSLIB00000078314
#IonMode Positive
#UpdateWorkflowName UPDATE-SINGLE-ANNOTATED-GOLD
#LibraryQualityString Gold
#TaskID 77f51c88eb8b467eb4a01dd2d0cb90d2
##Scan# 1143
#SpectrumFile Plate5_21_40_GH7_01_16509.mzXML
#LibraryName FDALibrary_2_04302014.mgf
#MQScore -1
#Organism FDALibrary_2_04302014
#TIC_Query 0
#RT_Query -1
#MZErrorPPM -1
#SharedPeaks 0
#MassDiff 0
#LibMZ -1
#SpecMZ 255.065
#SpecCharge 0
#internalFilename spec-00000.mgf

>collision 0
115.0544 0.27
119.0485 0.56
128.0614 0.91
129.0683 0.47
139.0527 0.26
143.0862 0.81
149.0221 0.62
151.0538 0.68
152.0621 12.2
157.0648 0.93
165.0701 14.67
166.0768 4.76
167.0863 100.0
171.08 0.69
175.0388 0.26
181.0644 3.01
185.0593 0.42
199.0755 5.8
211.0751 0.26
227.0707 3.33
237.0561 2.4
255.0675 59.27
