>compound MLS001143604-01!
>formula C21H18FN3O2
>ionization [M+H]+
>parentmass 364.146
#inchi InChI=1S/C21H18FN3O2/c1-2-17-19-15(14-5-3-4-6-16(14)23-19)11-18-20(26)24(21(27)25(17)18)13-9-7-12(22)8-10-13/h3-10,17-18,23H,2,11H2,1H3/t17-,18-/m0/s1
#inchikey SBUXRMKDJWEXRL
#Ion_Source LC-ESI
#Instrument qTof
#Compound_Source NIH Natural Product Library
#PI Dorrestein
#Data_Collector VVP/LMS
#Scan -1
#Precursor_MZ 364.146
#ExactMass 363.138
#Charge 1
#CAS_Number N/A
#Pubmed_ID N/A
#Smiles CC[C@@H]1N2[C@@H](Cc3c1[nH]c4ccccc34)C(=O)N(C2=O)c5ccc(F)cc5
#INCHI_AUX N/A
#Library_Class 1
#SpectrumID CCMSLIB00000080440
#IonMode Positive
#UpdateWorkflowName UPDATE-SINGLE-ANNOTATED-GOLD
#LibraryQualityString Gold
#TaskID b1d8e8f6646f4e71acdff9ca3d919d08
##Scan# 2341
#SpectrumFile p2-H08_GH8_01_18068.mzXML
#LibraryName NIH_Natural_Products_Library.mgf
#MQScore -1
#Organism NIH_Natural_Products_Library
#TIC_Query 0
#RT_Query -1
#MZErrorPPM -1
#SharedPeaks 0
#MassDiff 0
#LibMZ -1
#SpecMZ 364.146
#SpecCharge 0
#internalFilename spec-00000.mgf

>collision 0
103.0537 1.67
115.0543 1.15
117.0568 1.17
127.0512 1.43
128.0626 12.89
129.0698 11.69
130.0662 8.77
138.0349 0.63
140.0506 1.41
142.0746 2.44
143.0848 11.94
145.0884 0.6
153.0696 7.99
154.0653 13.66
155.0728 45.39
156.0765 4.82
166.0641 0.57
167.0729 3.18
168.0796 9.3
169.0832 6.39
170.0966 100.0
180.081 0.76
184.109 0.93
195.0553 1.88
197.1074 1.15
225.1001 1.16
364.1432 0.0
