>compound MLS000028591-01!
>formula C12H13NO3
>ionization [M+H]+
>parentmass 220.095
#inchi InChI=1S/C12H13NO3/c1-16-10-6-4-9(5-7-10)12(15)13-8-2-3-11(13)14/h4-7H,2-3,8H2,1H3
#inchikey ZXNRTKGTQJPIJK
#Ion_Source LC-ESI
#Instrument qTof
#Compound_Source NIH Pharmacologically Active Library
#PI Dorrestein
#Data_Collector VP/LMS
#Scan -1
#Precursor_MZ 220.095
#ExactMass 219.09
#Charge 1
#CAS_Number N/A
#Pubmed_ID N/A
#Smiles COc1ccc(cc1)C(=O)N2CCCC2=O
#INCHI_AUX N/A
#Library_Class 1
#SpectrumID CCMSLIB00000085246
#IonMode Positive
#UpdateWorkflowName UPDATE-SINGLE-ANNOTATED-GOLD
#LibraryQualityString Gold
#TaskID d252d724072548979f1f6f1ced849daf
##Scan# 1632
#SpectrumFile p3-G06_GG6_01_18299.mzXML
#LibraryName Pharm_Active_Library.mgf
#MQScore -1
#Organism Pharm_Active_Library
#TIC_Query 0
#RT_Query -1
#MZErrorPPM -1
#SharedPeaks 0
#MassDiff 0
#LibMZ -1
#SpecMZ 220.095
#SpecCharge 0
#internalFilename spec-00000.mgf

>collision 0
92.0249 6.77
107.0482 5.74
123.0446 2.27
125.0609 2.19
135.0435 100.0
220.095 0.0
