>compound Chlorzoxazone
>formula C7H4ClNO2 
>ionization [M+H]+
>parentmass 170.000488
#inchi InChI=1S/C7H4ClNO2/c8-4-1-2-6-5(3-4)9-7(10)11-6/h1-3H,(H,9,10)
#inchikey TZFWDZFKRBELIQ
#Ion_Source LC-ESI
#Instrument qTof
#Compound_Source Commercial
#PI Dorrestein
#Data_Collector Garg_Neha
#Scan -1
#Precursor_MZ 170.0
#ExactMass 168.993
#Charge 1
#CAS_Number N/A
#Pubmed_ID N/A
#Smiles N/A
#INCHI_AUX N/A
#Library_Class 1
#SpectrumID CCMSLIB00000076996
#IonMode Positive
#UpdateWorkflowName UPDATE-SINGLE-ANNOTATED-GOLD
#LibraryQualityString Gold
#TaskID 48f7f52fc6d249b5abbcc6e7b3df5969
##Scan# 1229
#SpectrumFile NCP002928_E2_F11_BA4_01_15698.mzXML
#LibraryName NIH_Clinical_Collection_2.mgf
#MQScore -1
#Organism NIHcollection2_04212014_2_mgf
#TIC_Query 0
#RT_Query -1
#MZErrorPPM -1
#SharedPeaks 0
#MassDiff 0
#LibMZ -1
#SpecMZ 170
#SpecCharge 0
#internalFilename spec-00000.mgf

>collision 0
99.0004 21.83
114.0098 100.0
126.0102 13.62
126.9932 12.21
142.0045 34.04
170.0005 962.21
