>compound Acetamide, 2-amino-N-(1-methyl-1,2-diphenylethyl)-, (+/-)- [CAS]
>formula C17H20N2O
>ionization [M+H]+
>parentmass 269.165
#inchi InChI=1S/C17H20N2O/c1-17(19-16(20)13-18,15-10-6-3-7-11-15)12-14-8-4-2-5-9-14/h2-11H,12-13,18H2,1H3,(H,19,20)
#inchikey YSGASDXSLKIKOD
#Ion_Source LC-ESI
#Instrument qTof
#Compound_Source Commercial
#PI Dorrestein
#Data_Collector Garg_Neha
#Scan -1
#Precursor_MZ 269.165
#ExactMass 268.158
#Charge 1
#CAS_Number N/A
#Pubmed_ID N/A
#Smiles CC(Cc1ccccc1)(NC(=O)CN)c2ccccc2
#INCHI_AUX N/A
#Library_Class 1
#SpectrumID CCMSLIB00000079267
#IonMode Positive
#UpdateWorkflowName UPDATE-SINGLE-ANNOTATED-GOLD
#LibraryQualityString Gold
#TaskID 278b19f5865741e282cec7349aa7e7a1
##Scan# 1125
#SpectrumFile NCP003512_A2_B11_BD4_01_15728.mzXML
#LibraryName NIHcollectionI_05062014.mgf
#MQScore -1
#Organism NIHcollectionI_05062014
#TIC_Query 0
#RT_Query -1
#MZErrorPPM -1
#SharedPeaks 0
#MassDiff 0
#LibMZ -1
#SpecMZ 269.165
#SpecCharge 0
#internalFilename spec-00000.mgf

>collision 0
91.0552 6.64
115.0544 5.25
117.0704 16.49
151.0543 0.3
152.063 0.39
165.0696 1.06
167.0855 5.16
180.0939 0.51
195.1185 100.0
269.165 0.0
