>compound MLS000563039-01!
>formula C25H31NO10
>ionization [M+H]+
>parentmass 506.20207264409055
#inchi InChI=1S/C25H31NO10/c1-3-12-14-7-16-13-8-17(28)18(33-2)6-11(13)4-5-26(16)23(32)15(14)10-34-24(12)36-25-22(31)21(30)20(29)19(9-27)35-25/h3,6,8,10,12,14,16,19-22,24-25,27-31H,1,4-5,7,9H2,2H3/t12-,14+,16-,19-,20-,21+,22-,24?,25+/m1/s1
#inchikey BCYNGTTVQNJTCV
#Ion_Source LC-ESI
#Instrument qTof
#Compound_Source NIH Natural Product Library
#PI Dorrestein
#Data_Collector VVP/LMS
#Scan -1
#Precursor_MZ 506.203
#ExactMass 505.195
#Charge 1
#CAS_Number N/A
#Pubmed_ID N/A
#Smiles COc1cc2CCN3[C@H](C[C@H]4[C@@H](C=C)C(O[C@@H]5O[C@H](CO)[C@@H](O)[C@H](O)[C@H]5O)OC=C4C3=O)c2cc1O
#INCHI_AUX N/A
#Library_Class 1
#SpectrumID CCMSLIB00000079476
#IonMode Positive
#UpdateWorkflowName UPDATE-SINGLE-ANNOTATED-GOLD
#LibraryQualityString Gold
#TaskID b1d8e8f6646f4e71acdff9ca3d919d08
##Scan# 1545
#SpectrumFile p1-H06_GH6_01_17962.mzXML
#LibraryName NIH_Natural_Products_Library.mgf
#MQScore -1
#Organism NIH_Natural_Products_Library
#TIC_Query 0
#RT_Query -1
#MZErrorPPM -1
#SharedPeaks 0
#MassDiff 0
#LibMZ -1
#SpecMZ 506.203
#SpecCharge 0
#internalFilename spec-00000.mgf

>collision 0
117.0701 0.73
135.0677 0.41
149.0598 1.2
151.0743 4.2
163.0613 3.47
178.0861 100.0
206.08 1.22
274.1064 25.04
298.1451 0.62
326.1392 0.59
344.1487 13.34
506.2048 0.15
