>compound MLS000517295-01!
>formula C10H12O4
>ionization [M+H]+
>parentmass 197.081
#inchi InChI=1S/C10H12O4/c1-5-4-7(11)6(2)9(12)8(5)10(13)14-3/h4,11-12H,1-3H3
#inchikey UUQHKWMIDYRWHH
#Ion_Source LC-ESI
#Instrument qTof
#Compound_Source NIH Natural Product Library
#PI Dorrestein
#Data_Collector VVP/LMS
#Scan -1
#Precursor_MZ 197.081
#ExactMass 196.074
#Charge 1
#CAS_Number N/A
#Pubmed_ID N/A
#Smiles COC(=O)c1c(C)cc(O)c(C)c1O
#INCHI_AUX N/A
#Library_Class 1
#SpectrumID CCMSLIB00000080250
#IonMode Positive
#UpdateWorkflowName UPDATE-SINGLE-ANNOTATED-GOLD
#LibraryQualityString Gold
#TaskID b1d8e8f6646f4e71acdff9ca3d919d08
##Scan# 2069
#SpectrumFile p2-B06_GB6_01_17994.mzXML
#LibraryName NIH_Natural_Products_Library.mgf
#MQScore -1
#Organism NIH_Natural_Products_Library
#TIC_Query 0
#RT_Query -1
#MZErrorPPM -1
#SharedPeaks 0
#MassDiff 0
#LibMZ -1
#SpecMZ 197.081
#SpecCharge 0
#internalFilename spec-00000.mgf

>collision 0
107.0482 7.05
109.0652 14.74
137.0614 11.37
165.0553 100.0
197.081 0.0
