>compound Glipizide (Glucotrol)
>formula C21H27N5O4S
>ionization [M+Na]+
>parentmass 468.167908
#inchi InChI=1S/C21H27N5O4S/c1-15-13-24-19(14-23-15)20(27)22-12-11-16-7-9-18(10-8-16)31(29,30)26-21(28)25-17-5-3-2-4-6-17/h7-10,13-14,17H,2-6,11-12H2,1H3,(H,22,27)(H2,25,26,28)
#inchikey ZJJXGWJIGJFDTL
#Ion_Source LC-ESI
#Instrument qTof
#Compound_Source Commercial
#PI Dorrestein
#Data_Collector Garg_Neha
#Scan -1
#Precursor_MZ 468.168
#ExactMass 445.178
#Charge 1
#CAS_Number 29094-61-9
#Pubmed_ID N/A
#Smiles C1(=CC=C(C=C1)CCNC(C2=CN=C(C=N2)C)=O)S(NC(NC3CCCCC3)=O)(=O)=O
#INCHI_AUX N/A
#Library_Class 1
#SpectrumID CCMSLIB00000078249
#IonMode Positive
#UpdateWorkflowName UPDATE-SINGLE-ANNOTATED-GOLD
#LibraryQualityString Gold
#TaskID 77f51c88eb8b467eb4a01dd2d0cb90d2
##Scan# 1298
#SpectrumFile Plate4_21_40_GH3_01_16504.mzXML
#LibraryName FDALibrary_2_04302014.mgf
#MQScore -1
#Organism FDALibrary_2_04302014
#TIC_Query 0
#RT_Query -1
#MZErrorPPM -1
#SharedPeaks 0
#MassDiff 0
#LibMZ -1
#SpecMZ 468.168
#SpecCharge 0
#internalFilename spec-00000.mgf

>collision 0
171.9817 0.53
199.1541 0.53
262.9782 0.51
277.1888 0.51
286.067 0.57
321.1024 0.74
343.0839 28.29
344.0883 6.27
345.0846 1.32
347.0812 1.66
348.0861 1.27
359.0412 0.68
366.0546 0.94
369.0643 100.0
371.0611 6.18
372.0651 1.39
377.0555 0.74
378.0614 1.06
468.1674 85.89
