>compound MLS002639247-01!
>formula C16H23NO6
>ionization [M+H]+
>parentmass 326.15981390809054
#inchi InChI=1S/C16H23NO6/c1-9-13(18)23-11-5-7-17-6-4-10(12(11)17)8-22-14(19)16(3,21)15(9,2)20/h4,9,11-12,20-21H,5-8H2,1-3H3
#inchikey QVCMHGGNRFRMAD
#Ion_Source LC-ESI
#Instrument qTof
#Compound_Source NIH Natural Product Library
#PI Dorrestein
#Data_Collector VVP/LMS
#Scan -1
#Precursor_MZ 326.16
#ExactMass 325.153
#Charge 1
#CAS_Number N/A
#Pubmed_ID N/A
#Smiles CC1C(=O)OC2CCN3CC=C(COC(=O)C(C)(O)C1(C)O)C23
#INCHI_AUX N/A
#Library_Class 1
#SpectrumID CCMSLIB00000079685
#IonMode Positive
#UpdateWorkflowName UPDATE-SINGLE-ANNOTATED-GOLD
#LibraryQualityString Gold
#TaskID b1d8e8f6646f4e71acdff9ca3d919d08
##Scan# 1253
#SpectrumFile p1-G09-2_GG9_01_17969.mzXML
#LibraryName NIH_Natural_Products_Library.mgf
#MQScore -1
#Organism NIH_Natural_Products_Library
#TIC_Query 0
#RT_Query -1
#MZErrorPPM -1
#SharedPeaks 0
#MassDiff 0
#LibMZ -1
#SpecMZ 326.16
#SpecCharge 0
#internalFilename spec-00000.mgf

>collision 0
112.074 100.0
118.0854 11.02
208.1474 7.01
237.1474 9.22
326.1624 4.21
