>compound MLS001201789-01!Ektebin
>formula C9H12N2S
>ionization [M+H]+
>parentmass 181.079147
#inchi InChI=1S/C9H12N2S/c1-2-3-8-6-7(9(10)12)4-5-11-8/h4-6H,2-3H2,1H3,(H2,10,12)
#inchikey VRDIULHPQTYCLN
#Ion_Source LC-ESI
#Instrument qTof
#Compound_Source NIH Pharmacologically Active Library
#PI Dorrestein
#Data_Collector VP/LMS
#Scan -1
#Precursor_MZ 181.082
#ExactMass 180.072
#Charge 1
#CAS_Number N/A
#Pubmed_ID N/A
#Smiles CCCc1cc(ccn1)C(=N)S
#INCHI_AUX N/A
#Library_Class 1
#SpectrumID CCMSLIB00000085618
#IonMode Positive
#UpdateWorkflowName UPDATE-SINGLE-ANNOTATED-GOLD
#LibraryQualityString Gold
#TaskID d252d724072548979f1f6f1ced849daf
##Scan# 1112
#SpectrumFile p4-D06_GD6_01_18366.mzXML
#LibraryName Pharm_Active_Library.mgf
#MQScore -1
#Organism Pharm_Active_Library
#TIC_Query 0
#RT_Query -1
#MZErrorPPM -1
#SharedPeaks 0
#MassDiff 0
#LibMZ -1
#SpecMZ 181.082
#SpecCharge 0
#internalFilename spec-00000.mgf

>collision 0
92.0489 7.11
93.0574 5.47
97.0098 1.46
103.0291 0.92
106.0647 20.51
110.0058 3.35
118.0525 36.13
119.0603 30.79
120.0806 13.79
121.0888 57.09
124.021 6.01
125.0295 61.55
136.0214 0.67
147.092 36.29
148.0988 12.8
152.0405 13.6
154.0683 54.19
181.0793 12.0
