>compound MLS001049137-01!(E)-1-(2,4-dimethoxyphenyl)-3-(4-methoxyphenyl)prop-2-en-1-one
>formula C18H18O4
>ionization [M+H]+
>parentmass 299.127014
#inchi InChI=1S/C18H18O4/c1-20-14-7-4-13(5-8-14)6-11-17(19)16-10-9-15(21-2)12-18(16)22-3/h4-12H,1-3H3/b11-6+
#inchikey HVAKUYCEWDPRCA
#Ion_Source LC-ESI
#Instrument qTof
#Compound_Source NIH Natural Product Library
#PI Dorrestein
#Data_Collector VVP/LMS
#Scan -1
#Precursor_MZ 299.128
#ExactMass 298.121
#Charge 1
#CAS_Number N/A
#Pubmed_ID N/A
#Smiles COc1ccc(/C=C/C(=O)c2ccc(OC)cc2OC)cc1
#INCHI_AUX N/A
#Library_Class 1
#SpectrumID CCMSLIB00000080045
#IonMode Positive
#UpdateWorkflowName UPDATE-SINGLE-ANNOTATED-GOLD
#LibraryQualityString Gold
#TaskID b1d8e8f6646f4e71acdff9ca3d919d08
##Scan# 2341
#SpectrumFile p2-D03_GD3_01_18015.mzXML
#LibraryName NIH_Natural_Products_Library.mgf
#MQScore -1
#Organism NIH_Natural_Products_Library
#TIC_Query 0
#RT_Query -1
#MZErrorPPM -1
#SharedPeaks 0
#MassDiff 0
#LibMZ -1
#SpecMZ 299.128
#SpecCharge 0
#internalFilename spec-00000.mgf

>collision 0
103.055 0.33
105.0346 0.89
107.012 2.7
107.0475 0.78
109.0642 3.3
118.0415 2.49
119.0492 0.52
121.0648 0.76
122.0359 10.44
133.0644 7.38
135.044 4.91
137.0597 1.27
150.0308 8.27
161.0594 6.9
165.0557 100.0
191.0704 0.61
299.128 0.56
