>compound MLS000860020-01!1-Allyl-3,7-dimethyl-8-sulfophenylxanthine
>formula C16H16N4O5S
>ionization [M+H]+
>parentmass 377.090576
#inchi InChI=1S/C16H16N4O5S/c1-4-9-20-15(21)12-14(19(3)16(20)22)17-13(18(12)2)10-5-7-11(8-6-10)26(23,24)25/h4-8H,1,9H2,2-3H3,(H,23,24,25)
#inchikey CDMZOKMMANFJMU
#Ion_Source LC-ESI
#Instrument qTof
#Compound_Source NIH Pharmacologically Active Library
#PI Dorrestein
#Data_Collector VP/LMS
#Scan -1
#Precursor_MZ 377.094
#ExactMass 376.084
#Charge 1
#CAS_Number N/A
#Pubmed_ID N/A
#Smiles Cn1c(nc2n(C)c(=O)n(CC=C)c(=O)c12)c3ccc(cc3)S(=O)(=O)O
#INCHI_AUX N/A
#Library_Class 1
#SpectrumID CCMSLIB00000084867
#IonMode Positive
#UpdateWorkflowName UPDATE-SINGLE-ANNOTATED-GOLD
#LibraryQualityString Gold
#TaskID d252d724072548979f1f6f1ced849daf
##Scan# 1430
#SpectrumFile p3-B10_GB10_01_18243.mzXML
#LibraryName Pharm_Active_Library.mgf
#MQScore -1
#Organism Pharm_Active_Library
#TIC_Query 0
#RT_Query -1
#MZErrorPPM -1
#SharedPeaks 0
#MassDiff 0
#LibMZ -1
#SpecMZ 377.094
#SpecCharge 0
#internalFilename spec-00000.mgf

>collision 0
90.9961 1.42
116.0531 1.95
145.0521 1.48
145.0749 1.48
171.0083 1.56
172.0638 1.51
172.9781 1.59
181.998 1.62
183.0159 1.95
184.005 7.75
185.9948 1.9
186.1035 2.06
187.1081 1.56
190.0709 1.42
198.0195 3.4
200.0381 1.48
201.0291 1.39
225.0331 6.61
237.036 1.45
245.0717 2.43
266.0589 7.0
267.04 3.76
278.0209 1.78
279.0309 23.7
280.0344 4.88
281.0319 2.56
281.0993 2.56
294.0538 100.0
296.0519 7.72
337.063 3.48
377.091 39.73
