>compound MLS002154116-01!Levocabastine hydrochloride79547-78-7
>formula C26H29FN2O2
>ionization [M+H]+
>parentmass 421.229614
#inchi InChI=1S/C26H29FN2O2/c1-19-17-29(16-15-26(19,24(30)31)21-5-3-2-4-6-21)23-11-13-25(18-28,14-12-23)20-7-9-22(27)10-8-20/h2-10,19,23H,11-17H2,1H3,(H,30,31)/t19-,23-,25-,26-/m1/s1
#inchikey ZCGOMHNNNFPNMX
#origInchi InChI=1S/C26H29FN2O2.ClH/c1-19-17-29(16-15-26(19,24(30)31)21-5-3-2-4-6-21)23-11-13-25(18-28,14-12-23)20-7-9-22(27)10-8-20;/h2-10,19,23H,11-17H2,1H3,(H,30,31);1H/t19-,23-,25-,26-;/m1./s1
#Ion_Source LC-ESI
#Instrument qTof
#Compound_Source NIH Pharmacologically Active Library
#PI Dorrestein
#Data_Collector VP/LMS
#Scan -1
#Precursor_MZ 421.235
#ExactMass 420.221
#Charge 1
#CAS_Number N/A
#Pubmed_ID N/A
#Smiles C[C@@H]1CN(CC[C@]1(C(=O)O)c2ccccc2)[C@H]3CC[C@](CC3)(C#N)c4ccc(F)cc4.Cl
#INCHI_AUX N/A
#Library_Class 1
#SpectrumID CCMSLIB00000086153
#IonMode Positive
#UpdateWorkflowName UPDATE-SINGLE-ANNOTATED-GOLD
#LibraryQualityString Gold
#TaskID d252d724072548979f1f6f1ced849daf
##Scan# 1702
#SpectrumFile p5-G03_GG3_01_18472.mzXML
#LibraryName Pharm_Active_Library.mgf
#MQScore -1
#Organism Pharm_Active_Library
#TIC_Query 0
#RT_Query -1
#MZErrorPPM -1
#SharedPeaks 0
#MassDiff 0
#LibMZ -1
#SpecMZ 421.235
#SpecCharge 0
#internalFilename spec-00000.mgf

>collision 0
91.0548 1.5
105.0696 3.7
106.0658 1.17
107.0288 0.89
109.0457 39.68
115.0543 1.51
117.0698 7.7
121.0465 1.32
128.0618 1.09
129.0705 1.5
131.0848 2.19
132.0821 3.16
133.0448 12.17
134.0403 22.17
135.06 4.51
140.0491 1.22
143.0856 1.85
144.0812 1.31
145.1014 11.23
146.0514 0.97
147.0612 10.37
155.0839 1.08
159.0595 3.02
160.0562 14.66
161.0744 3.8
170.0532 0.87
174.1281 100.0
175.0925 9.15
187.0789 1.65
202.1037 3.13
220.133 29.04
271.1601 3.54
375.2227 5.05
376.2252 1.47
421.2296 166.89
