>compound NCGC00160212-01!THALICSINE
>formula C21H19NO5
>ionization [M+H]+
>parentmass 366.133911
#inchi InChI=1S/C21H19NO5/c1-22(2)7-6-12-13-5-4-11-8-16-20(26-10-25-16)19-17(11)18(13)15(27-21(19)23)9-14(12)24-3/h4-5,8-9H,6-7,10H2,1-3H3
#inchikey ZAVZMGKHLUNLAR
#Ion_Source LC-ESI
#Instrument qTOF
#Compound_Source Prestwick Phytochem Lib
#PI Dorrestein
#Data_Collector VVP/LMS
#Scan -1
#Precursor_MZ 366.134
#ExactMass 365.126
#Charge 1
#CAS_Number N/A
#Pubmed_ID N/A
#Smiles COC1=C(CCN(C)C)C2=C3C(OC(=O)C4=C5OCOC5=CC(C=C2)=C34)=C1
#INCHI_AUX N/A
#Library_Class 1
#SpectrumID CCMSLIB00000078762
#IonMode Positive
#UpdateWorkflowName UPDATE-SINGLE-ANNOTATED-GOLD
#LibraryQualityString Gold
#TaskID 67c915c6594c435cadc1fe2b5358144d
##Scan# 1617
#SpectrumFile p1-E03_GE3_01_17923.mzXML
#LibraryName phytochem_lib.mgf
#MQScore -1
#Organism phytochem_lib
#TIC_Query 0
#RT_Query -1
#MZErrorPPM -1
#SharedPeaks 0
#MassDiff 0
#LibMZ -1
#SpecMZ 366.134
#SpecCharge 0
#internalFilename spec-00000.mgf

>collision 0
166.0778 1.34
178.0777 1.27
179.0857 4.03
189.0699 3.15
192.0568 0.87
204.0565 1.41
205.0653 3.88
207.0804 9.24
217.0646 1.4
220.0514 1.92
221.0586 2.2
222.067 2.2
231.0451 1.15
232.0514 0.75
233.0595 2.12
234.0681 1.55
235.0767 5.95
249.0539 2.96
250.0622 1.78
259.0393 3.09
260.0452 2.71
262.0624 3.3
263.071 12.46
264.0407 0.85
275.0332 1.11
276.0418 1.55
277.0502 3.66
278.0572 4.2
290.0589 50.71
291.065 14.49
305.0435 2.29
306.054 100.0
321.0783 59.44
366.1364 1.92
