>compound MLS000060711-01!
>formula C11H13NO3
>ionization [M+H]+
>parentmass 208.097
#inchi InChI=1S/C11H13NO3/c1-8(13)12-10(11(14)15)7-9-5-3-2-4-6-9/h2-6,10H,7H2,1H3,(H,12,13)(H,14,15)
#inchikey CBQJSKKFNMDLON
#Ion_Source LC-ESI
#Instrument qTof
#Compound_Source NIH Natural Product Library
#PI Dorrestein
#Data_Collector VVP/LMS
#Scan -1
#Precursor_MZ 208.097
#ExactMass 207.09
#Charge 1
#CAS_Number N/A
#Pubmed_ID N/A
#Smiles CC(=O)NC(Cc1ccccc1)C(=O)O
#INCHI_AUX N/A
#Library_Class 1
#SpectrumID CCMSLIB00000080029
#IonMode Positive
#UpdateWorkflowName UPDATE-SINGLE-ANNOTATED-GOLD
#LibraryQualityString Gold
#TaskID b1d8e8f6646f4e71acdff9ca3d919d08
##Scan# 1489
#SpectrumFile p2-B03_GB3_01_17991.mzXML
#LibraryName NIH_Natural_Products_Library.mgf
#MQScore -1
#Organism NIH_Natural_Products_Library
#TIC_Query 0
#RT_Query -1
#MZErrorPPM -1
#SharedPeaks 0
#MassDiff 0
#LibMZ -1
#SpecMZ 208.097
#SpecCharge 0
#internalFilename spec-00000.mgf

>collision 0
103.0555 53.15
107.0495 8.65
119.0724 7.57
120.0808 100.0
131.0481 8.29
133.0516 3.42
208.097 0.0
