>compound MLS002153303-01!
>formula C18H20N2O6
>ionization [M+H]+
>parentmass 361.138
#inchi InChI=1S/C18H20N2O6/c1-5-26-18(22)15-11(3)19-10(2)14(17(21)25-4)16(15)12-7-6-8-13(9-12)20(23)24/h6-9,16,22H,5H2,1-4H3/b18-15+
#inchikey OYFHPBSUARUOQE
#Ion_Source LC-ESI
#Instrument qTof
#Compound_Source NIH Pharmacologically Active Library
#PI Dorrestein
#Data_Collector VP/LMS
#Scan -1
#Precursor_MZ 361.138
#ExactMass 360.132
#Charge 1
#CAS_Number N/A
#Pubmed_ID N/A
#Smiles CCO/C(=C\1/C(C(=C(C)N=C1C)C(=O)OC)c2cccc(c2)[N+](=O)[O-])/O
#INCHI_AUX N/A
#Library_Class 1
#SpectrumID CCMSLIB00000085005
#IonMode Positive
#UpdateWorkflowName UPDATE-SINGLE-ANNOTATED-GOLD
#LibraryQualityString Gold
#TaskID d252d724072548979f1f6f1ced849daf
##Scan# 2305
#SpectrumFile p3-D08_GD8_01_18265.mzXML
#LibraryName Pharm_Active_Library.mgf
#MQScore -1
#Organism Pharm_Active_Library
#TIC_Query 0
#RT_Query -1
#MZErrorPPM -1
#SharedPeaks 0
#MassDiff 0
#LibMZ -1
#SpecMZ 361.138
#SpecCharge 0
#internalFilename spec-00000.mgf

>collision 0
140.0622 8.47
168.0805 35.87
176.0334 9.96
180.08 18.24
181.0861 15.81
182.0947 20.67
184.1088 7.3
196.0738 12.11
197.0808 9.07
198.0897 12.96
208.0748 34.8
209.0819 26.8
210.0897 71.0
212.0691 14.08
225.0764 11.27
226.0862 100.0
236.0686 25.16
237.0761 10.8
239.0826 8.7
240.0647 10.1
240.1002 15.39
241.1071 8.56
242.0782 15.62
243.0863 16.74
253.0724 14.22
254.0803 84.71
255.085 44.11
257.0685 7.39
257.0929 8.0
267.0863 8.7
268.0941 45.79
269.1032 56.31
281.0918 11.65
283.0708 33.58
283.118 8.42
284.0776 22.4
285.0629 23.95
298.0939 24.18
302.0897 24.18
315.0976 97.85
329.1132 39.71
361.1394 0.0
