>compound MLS000028626-01!
>formula C18H15Cl3N2O
>ionization [M+H]+
>parentmass 381.03125
#inchi InChI=1S/C18H15Cl3N2O/c19-14-3-1-13(2-4-14)11-24-18(10-23-8-7-22-12-23)16-6-5-15(20)9-17(16)21/h1-9,12,18H,10-11H2
#inchikey LEZWWPYKPKIXLL
#origInchi InChI=1S/C18H15Cl3N2O.HNO3/c19-14-3-1-13(2-4-14)11-24-18(10-23-8-7-22-12-23)16-6-5-15(20)9-17(16)21;2-1(3)4/h1-9,12,18H,10-11H2;(H,2,3,4)
#Ion_Source LC-ESI
#Instrument qTof
#Compound_Source NIH Pharmacologically Active Library
#PI Dorrestein
#Data_Collector VP/LMS
#Scan -1
#Precursor_MZ 381.034
#ExactMass 380.025
#Charge 1
#CAS_Number N/A
#Pubmed_ID N/A
#Smiles Clc1ccc(COC(Cn2ccnc2)c3ccc(Cl)cc3Cl)cc1.O[N+](=O)[O-]
#INCHI_AUX N/A
#Library_Class 1
#SpectrumID CCMSLIB00000084986
#IonMode Positive
#UpdateWorkflowName UPDATE-SINGLE-ANNOTATED-GOLD
#LibraryQualityString Gold
#TaskID d252d724072548979f1f6f1ced849daf
##Scan# 2036
#SpectrumFile p3-D06_GD6_01_18263.mzXML
#LibraryName Pharm_Active_Library.mgf
#MQScore -1
#Organism Pharm_Active_Library
#TIC_Query 0
#RT_Query -1
#MZErrorPPM -1
#SharedPeaks 0
#MassDiff 0
#LibMZ -1
#SpecMZ 381.034
#SpecCharge 0
#internalFilename spec-00000.mgf

>collision 0
89.038 1.49
90.0453 0.48
99.0 6.97
125.0165 100.0
136.0073 0.31
137.0151 0.56
171.9839 0.41
178.0772 0.63
212.0394 0.65
213.0467 0.54
247.0073 0.53
248.0137 0.94
282.9852 0.52
381.0313 6.3
