>compound MLS001074702-01!
>formula C11H14N4O4
>ionization [M+H]+
>parentmass 267.109
#inchi InChI=1S/C11H14N4O4/c12-9-5-1-2-15(10(5)14-4-13-9)11-8(18)7(17)6(3-16)19-11/h1-2,4,6-8,11,16-18H,3H2,(H2,12,13,14)/t6-,7-,8-,11-/m1/s1
#inchikey HDZZVAMISRMYHH
#Ion_Source LC-ESI
#Instrument qTof
#Compound_Source NIH Natural Product Library
#PI Dorrestein
#Data_Collector VVP/LMS
#Scan -1
#Precursor_MZ 267.109
#ExactMass 266.102
#Charge 1
#CAS_Number N/A
#Pubmed_ID N/A
#Smiles Nc1ncnc2n(ccc12)[C@@H]3O[C@H](CO)[C@@H](O)[C@H]3O
#INCHI_AUX N/A
#Library_Class 1
#SpectrumID CCMSLIB00000080127
#IonMode Positive
#UpdateWorkflowName UPDATE-SINGLE-ANNOTATED-GOLD
#LibraryQualityString Gold
#TaskID b1d8e8f6646f4e71acdff9ca3d919d08
##Scan# 123
#SpectrumFile p2-E04_GE4_01_18028.mzXML
#LibraryName NIH_Natural_Products_Library.mgf
#MQScore -1
#Organism NIH_Natural_Products_Library
#TIC_Query 0
#RT_Query -1
#MZErrorPPM -1
#SharedPeaks 0
#MassDiff 0
#LibMZ -1
#SpecMZ 267.109
#SpecCharge 0
#internalFilename spec-00000.mgf

>collision 0
118.0395 18.52
119.0446 3.02
135.0672 100.0
137.0564 2.24
267.109 0.0
