>compound MLS001159063-01!3-(4-chlorophenyl)-2-[[2-(4-methyl-6-oxobenzo[c]chromen-3-yl)oxyacetyl]amino]propanoic acid
>formula C25H20ClNO6
>ionization [M+H]+
>parentmass 466.106
#inchi InChI=1S/C25H20ClNO6/c1-14-21(11-10-18-17-4-2-3-5-19(17)25(31)33-23(14)18)32-13-22(28)27-20(24(29)30)12-15-6-8-16(26)9-7-15/h2-11,20H,12-13H2,1H3,(H,27,28)(H,29,30)
#inchikey CSYGMMBAZUTWOT
#Ion_Source LC-ESI
#Instrument qTof
#Compound_Source NIH Natural Product Library
#PI Dorrestein
#Data_Collector VVP/LMS
#Scan -1
#Precursor_MZ 466.106
#ExactMass 465.098
#Charge 1
#CAS_Number N/A
#Pubmed_ID N/A
#Smiles Cc1c(OCC(=O)NC(Cc2ccc(Cl)cc2)C(=O)O)ccc3c4ccccc4c(=O)oc13
#INCHI_AUX N/A
#Library_Class 1
#SpectrumID CCMSLIB00000080069
#IonMode Positive
#UpdateWorkflowName UPDATE-SINGLE-ANNOTATED-GOLD
#LibraryQualityString Gold
#TaskID b1d8e8f6646f4e71acdff9ca3d919d08
##Scan# 2321
#SpectrumFile p2-G03_GG3_01_18051.mzXML
#LibraryName NIH_Natural_Products_Library.mgf
#MQScore -1
#Organism NIH_Natural_Products_Library
#TIC_Query 0
#RT_Query -1
#MZErrorPPM -1
#SharedPeaks 0
#MassDiff 0
#LibMZ -1
#SpecMZ 466.106
#SpecCharge 0
#internalFilename spec-00000.mgf

>collision 0
103.0541 3.05
115.0541 1.0
117.0686 2.78
118.0662 1.78
119.0722 7.1
125.0156 4.79
130.0658 11.54
131.0734 15.47
137.0161 0.97
139.0304 10.4
151.0296 7.89
152.0625 4.46
153.0697 14.04
154.0415 14.22
155.0845 3.07
165.0693 1.88
166.0416 37.66
167.0858 1.82
181.065 100.0
183.0786 3.28
184.0542 1.68
185.0596 1.26
196.0523 1.42
209.0592 9.0
211.0756 6.15
212.0481 1.01
213.053 0.98
227.069 6.46
239.0714 56.84
267.0641 1.02
466.106 0.0
