>compound MLS001076855-01!
>formula C21H23N3O4S
>ionization [M+H]+
>parentmass 414.149
#inchi InChI=1S/C21H23N3O4S/c1-27-16-6-4-7-17(28-2)19(16)20(26)22-21(29)23-10-13-9-14(12-23)15-5-3-8-18(25)24(15)11-13/h3-8,13-14H,9-12H2,1-2H3,(H,22,26,29)/t13-,14-/m1/s1
#inchikey VLZRAAIOWQWWGS
#Ion_Source LC-ESI
#Instrument qTof
#Compound_Source NIH Natural Product Library
#PI Dorrestein
#Data_Collector VVP/LMS
#Scan -1
#Precursor_MZ 414.149
#ExactMass 413.141
#Charge 1
#CAS_Number N/A
#Pubmed_ID N/A
#Smiles COc1cccc(OC)c1C(=O)NC(=S)N2C[C@H]3C[C@H](C2)c4cccc(=O)n4C3
#INCHI_AUX N/A
#Library_Class 1
#SpectrumID CCMSLIB00000079561
#IonMode Positive
#UpdateWorkflowName UPDATE-SINGLE-ANNOTATED-GOLD
#LibraryQualityString Gold
#TaskID b1d8e8f6646f4e71acdff9ca3d919d08
##Scan# 1686
#SpectrumFile p1-B08_GB8_01_17892.mzXML
#LibraryName NIH_Natural_Products_Library.mgf
#MQScore -1
#Organism NIH_Natural_Products_Library
#TIC_Query 0
#RT_Query -1
#MZErrorPPM -1
#SharedPeaks 0
#MassDiff 0
#LibMZ -1
#SpecMZ 414.149
#SpecCharge 0
#internalFilename spec-00000.mgf

>collision 0
107.0136 4.24
109.0652 0.35
122.0364 3.45
137.0595 0.22
150.0316 17.97
165.0557 100.0
414.149 0.0
