>compound NCGC00160175-01!PTEROCARPIN METHYLETHER
>formula C17H14O5
>ionization [M+H]+
>parentmass 299.092
#inchi InChI=1S/C17H14O5/c1-18-9-2-3-10-13(4-9)19-7-12-11-5-15-16(21-8-20-15)6-14(11)22-17(10)12/h2-6,12,17H,7-8H2,1H3/t12-,17-/m0/s1
#inchikey YLZYAUCOYZKLMA
#Ion_Source LC-ESI
#Instrument qTOF
#Compound_Source Prestwick Phytochem Lib
#PI Dorrestein
#Data_Collector VVP/LMS
#Scan -1
#Precursor_MZ 299.092
#ExactMass 298.084
#Charge 1
#CAS_Number N/A
#Pubmed_ID N/A
#Smiles COC1=CC2=C(C=C1)[C@@H]3OC4=C(C=C5OCOC5=C4)[C@@H]3CO2
#INCHI_AUX N/A
#Library_Class 1
#SpectrumID CCMSLIB00000078686
#IonMode Positive
#UpdateWorkflowName UPDATE-SINGLE-ANNOTATED-GOLD
#LibraryQualityString Gold
#TaskID 67c915c6594c435cadc1fe2b5358144d
##Scan# 2450
#SpectrumFile p1-A02_GA2_01_17875.mzXML
#LibraryName phytochem_lib.mgf
#MQScore -1
#Organism phytochem_lib
#TIC_Query 0
#RT_Query -1
#MZErrorPPM -1
#SharedPeaks 0
#MassDiff 0
#LibMZ -1
#SpecMZ 299.092
#SpecCharge 0
#internalFilename spec-00000.mgf

>collision 0
109.0661 6.63
119.0472 1.64
121.028 6.07
123.0443 7.56
133.0266 3.15
137.0601 39.42
146.0372 1.46
147.0458 3.71
151.0387 100.0
152.0822 1.66
175.04 11.97
177.0542 3.5
227.0688 2.42
269.0827 5.9
283.0587 3.15
299.092 0.0
