>compound Mianserin hydrochloride
>formula C18H20N2
>ionization [M+H]+
>parentmass 265.1699250920905
#inchi InChI=1S/C18H20N2/c1-19-10-11-20-17-9-5-3-7-15(17)12-14-6-2-4-8-16(14)18(20)13-19/h2-9,18H,10-13H2,1H3
#inchikey UEQUQVLFIPOEMF
#origInchi InChI=1S/C18H20N2.ClH/c1-19-10-11-20-17-9-5-3-7-15(17)12-14-6-2-4-8-16(14)18(20)13-19;/h2-9,18H,10-13H2,1H3;1H
#Ion_Source LC-ESI
#Instrument qTof
#Compound_Source Commercial
#PI Dorrestein
#Data_Collector Garg_Neha
#Scan -1
#Precursor_MZ 265.17
#ExactMass 264.163
#Charge 1
#CAS_Number 21535-47-7, 24219-97-4 (free base)
#Pubmed_ID N/A
#Smiles C12(N3C(C4=C(CC=1C=CC=C2)C=CC=C4)CN(CC3)C).Cl
#INCHI_AUX N/A
#Library_Class 1
#SpectrumID CCMSLIB00000078126
#IonMode Positive
#UpdateWorkflowName UPDATE-SINGLE-ANNOTATED-GOLD
#LibraryQualityString Gold
#TaskID 77f51c88eb8b467eb4a01dd2d0cb90d2
##Scan# 1135
#SpectrumFile Plate2_41_60_GG7_01_16495.mzXML
#LibraryName FDALibrary_2_04302014.mgf
#MQScore -1
#Organism FDALibrary_2_04302014
#TIC_Query 0
#RT_Query -1
#MZErrorPPM -1
#SharedPeaks 0
#MassDiff 0
#LibMZ -1
#SpecMZ 265.17
#SpecCharge 0
#internalFilename spec-00000.mgf

>collision 0
91.0548 1.67
105.0709 2.29
106.0649 3.33
115.0535 3.48
117.0695 3.26
118.0656 8.98
120.0806 5.97
129.0697 2.49
130.0656 4.42
131.0731 1.91
132.0812 3.48
144.081 7.31
145.0877 2.42
146.0964 10.58
157.0876 1.69
158.0964 6.53
161.1076 11.4
170.0971 0.78
172.1118 3.21
174.1152 2.82
178.0773 2.4
179.0862 4.47
181.1011 1.73
192.0819 1.31
193.0893 14.39
194.0952 7.18
204.0796 2.02
205.0875 1.69
206.0964 5.93
207.1042 5.62
208.1129 100.0
219.1038 2.96
220.1125 8.96
222.1279 18.55
232.1128 1.77
234.1278 6.91
249.1371 1.01
250.1461 5.83
265.1726 179.25
