>compound (6aR,9R,10aR)-9-(methylsulfanylmethyl)-7-propyl-6,6a,8,9,10,10a-hexahydro-4H-indolo[4,3-fg]quinoline
>formula C19H26N2S
>ionization [M+H]+
>parentmass 315.18894628409055
#inchi InChI=1S/C19H26N2S/c1-3-7-21-11-13(12-22-2)8-16-15-5-4-6-17-19(15)14(10-20-17)9-18(16)21/h4-6,10,13,16,18,20H,3,7-9,11-12H2,1-2H3/t13-,16-,18-/m1/s1
#inchikey YEHCICAEULNIGD
#Ion_Source LC-ESI
#Instrument qTof
#Compound_Source Commercial
#PI Dorrestein
#Data_Collector Garg_Neha
#Scan -1
#Precursor_MZ 315.189
#ExactMass 314.182
#Charge 1
#CAS_Number N/A
#Pubmed_ID N/A
#Smiles CCCN1C[C@H](CSC)C[C@H]2[C@H]1Cc3c[nH]c4cccc2c34
#INCHI_AUX N/A
#Library_Class 1
#SpectrumID CCMSLIB00000079239
#IonMode Positive
#UpdateWorkflowName UPDATE-SINGLE-ANNOTATED-GOLD
#LibraryQualityString Gold
#TaskID 278b19f5865741e282cec7349aa7e7a1
##Scan# 1152
#SpectrumFile NCP003672_A27B27C27D27_BE4_01_15740.mzXML
#LibraryName NIHcollectionI_05062014.mgf
#MQScore -1
#Organism NIHcollectionI_05062014
#TIC_Query 0
#RT_Query -1
#MZErrorPPM -1
#SharedPeaks 0
#MassDiff 0
#LibMZ -1
#SpecMZ 315.189
#SpecCharge 0
#internalFilename spec-00000.mgf

>collision 0
130.0638 1.74
143.0855 1.84
144.0811 1.36
153.0699 2.9
154.0643 24.38
155.0712 12.23
156.0794 3.76
165.0708 3.29
166.0777 2.43
167.0734 18.52
170.0962 9.17
179.0854 5.4
180.0813 17.27
182.0963 7.1
193.0884 26.26
195.1026 6.02
196.1118 11.9
198.1269 8.52
208.1124 100.0
210.1271 10.28
225.1387 5.36
244.1154 3.02
267.1857 9.35
315.1903 592.27
