>compound Haloperidol
>formula C21H23ClFNO2
>ionization [M+H]+
>parentmass 376.1474113280906
#inchi InChI=1S/C21H23ClFNO2/c22-18-7-5-17(6-8-18)21(26)11-14-24(15-12-21)13-1-2-20(25)16-3-9-19(23)10-4-16/h3-10,26H,1-2,11-15H2
#inchikey LNEPOXFFQSENCJ
#Ion_Source LC-ESI
#Instrument qTof
#Compound_Source Commercial
#PI Dorrestein
#Data_Collector Garg_Neha
#Scan -1
#Precursor_MZ 376.147
#ExactMass 375.14
#Charge 1
#CAS_Number N/A
#Pubmed_ID N/A
#Smiles OC1(CCN(CCCC(=O)c2ccc(F)cc2)CC1)c3ccc(Cl)cc3
#INCHI_AUX N/A
#Library_Class 1
#SpectrumID CCMSLIB00000079074
#IonMode Positive
#UpdateWorkflowName UPDATE-SINGLE-ANNOTATED-GOLD
#LibraryQualityString Gold
#TaskID 278b19f5865741e282cec7349aa7e7a1
##Scan# 1154
#SpectrumFile NCP003432_E2_F11_BD2_01_15724.mzXML
#LibraryName NIHcollectionI_05062014.mgf
#MQScore -1
#Organism NIHcollectionI_05062014
#TIC_Query 0
#RT_Query -1
#MZErrorPPM -1
#SharedPeaks 0
#MassDiff 0
#LibMZ -1
#SpecMZ 376.147
#SpecCharge 0
#internalFilename spec-00000.mgf

>collision 0
109.044 0.4
113.0396 0.28
123.0251 58.21
135.0594 0.31
163.0559 0.77
165.0723 100.0
194.0971 1.1
264.1763 0.21
292.1684 0.24
358.137 10.65
376.1495 145.05
