>compound Thiophene, 5-bromo-2-(4-fluorophenyl)-3-[4-(methylsulfonyl)phenyl]- [CAS]
>formula C17H12BrFO2S2
>ionization [M+H]+
>parentmass 410.950378
#inchi InChI=1S/C17H12BrFO2S2/c1-23(20,21)14-8-4-11(5-9-14)15-10-16(18)22-17(15)12-2-6-13(19)7-3-12/h2-10H,1H3
#inchikey AJFTZWGGHJXZOB
#Ion_Source LC-ESI
#Instrument qTof
#Compound_Source Commercial
#PI Dorrestein
#Data_Collector Garg_Neha
#Scan -1
#Precursor_MZ 410.952
#ExactMass 409.945
#Charge 1
#CAS_Number N/A
#Pubmed_ID N/A
#Smiles CS(=O)(=O)c1ccc(cc1)c2cc(Br)sc2c3ccc(F)cc3
#INCHI_AUX N/A
#Library_Class 1
#SpectrumID CCMSLIB00000079212
#IonMode Positive
#UpdateWorkflowName UPDATE-SINGLE-ANNOTATED-GOLD
#LibraryQualityString Gold
#TaskID 278b19f5865741e282cec7349aa7e7a1
##Scan# 2858
#SpectrumFile NCP003672_A27B27C27D27_BE4_01_15740.mzXML
#LibraryName NIHcollectionI_05062014.mgf
#MQScore -1
#Organism NIHcollectionI_05062014
#TIC_Query 0
#RT_Query -1
#MZErrorPPM -1
#SharedPeaks 0
#MassDiff 0
#LibMZ -1
#SpecMZ 410.952
#SpecCharge 0
#internalFilename spec-00000.mgf

>collision 0
220.0684 51.36
232.0328 3.09
233.0428 2.62
252.0399 55.44
253.047 45.17
255.047 1.87
318.9393 11.86
331.9655 100.0
333.9626 91.24
410.9504 82.29
