>compound MLS001304066-01!Hesperidin520-26-3
>formula C28H34O15
>ionization [M+H]+
>parentmass 611.1970468400905
#inchi InChI=1S/C28H34O15/c1-10-21(32)23(34)25(36)27(40-10)39-9-19-22(33)24(35)26(37)28(43-19)41-12-6-14(30)20-15(31)8-17(42-18(20)7-12)11-3-4-16(38-2)13(29)5-11/h3-7,10,17,19,21-30,32-37H,8-9H2,1-2H3/t10-,17-,19+,21-,22+,23+,24-,25+,26+,27+,28+/m0/s1
#inchikey QUQPHWDTPGMPEX
#Ion_Source LC-ESI
#Instrument qTof
#Compound_Source NIH Pharmacologically Active Library
#PI Dorrestein
#Data_Collector VP/LMS
#Scan -1
#Precursor_MZ 611.208
#ExactMass 610.19
#Charge 1
#CAS_Number N/A
#Pubmed_ID N/A
#Smiles COc1ccc(cc1O)[C@@H]2CC(=O)c3c(O)cc(O[C@@H]4O[C@H](CO[C@@H]5O[C@@H](C)[C@H](O)[C@@H](O)[C@H]5O)[C@@H](O)[C@H](O)[C@H]4O)cc3O2
#INCHI_AUX N/A
#Library_Class 1
#SpectrumID CCMSLIB00000085579
#IonMode Positive
#UpdateWorkflowName UPDATE-SINGLE-ANNOTATED-GOLD
#LibraryQualityString Gold
#TaskID d252d724072548979f1f6f1ced849daf
##Scan# 1465
#SpectrumFile p4-C10_GC10_01_18358.mzXML
#LibraryName Pharm_Active_Library.mgf
#MQScore -1
#Organism Pharm_Active_Library
#TIC_Query 0
#RT_Query -1
#MZErrorPPM -1
#SharedPeaks 0
#MassDiff 0
#LibMZ -1
#SpecMZ 611.208
#SpecCharge 0
#internalFilename spec-00000.mgf

>collision 0
117.0336 1.42
119.0489 0.85
129.0556 2.71
135.0448 1.38
137.0604 2.88
145.0293 2.88
147.0649 0.94
149.0606 2.05
151.0397 1.87
153.0187 80.59
163.0392 1.3
165.018 3.3
177.0551 56.19
179.034 9.4
191.0338 1.24
195.0286 11.98
219.0292 5.54
235.0616 0.72
243.067 1.03
245.0426 5.13
261.0761 1.67
263.0544 6.43
285.0751 3.42
301.0689 6.6
303.0865 100.0
315.0861 1.28
327.0836 1.7
345.0955 1.2
611.197 0.0
