>compound MLS002472923-01!7-methoxy-8-(3-methyl-2-oxobutyl)chromen-2-one
>formula C15H16O4
>ionization [M+H]+
>parentmass 261.113
#inchi InChI=1S/C15H16O4/c1-9(2)12(16)8-11-13(18-3)6-4-10-5-7-14(17)19-15(10)11/h4-7,9H,8H2,1-3H3
#inchikey OMOYQLRHKFGVGN
#Ion_Source LC-ESI
#Instrument qTof
#Compound_Source NIH Natural Product Library
#PI Dorrestein
#Data_Collector VVP/LMS
#Scan -1
#Precursor_MZ 261.113
#ExactMass 260.105
#Charge 1
#CAS_Number N/A
#Pubmed_ID N/A
#Smiles COc1ccc2ccc(=O)oc2c1CC(=O)C(C)C
#INCHI_AUX N/A
#Library_Class 1
#SpectrumID CCMSLIB00000080097
#IonMode Positive
#UpdateWorkflowName UPDATE-SINGLE-ANNOTATED-GOLD
#LibraryQualityString Gold
#TaskID b1d8e8f6646f4e71acdff9ca3d919d08
##Scan# 2054
#SpectrumFile p2-A04_GA4_01_17981.mzXML
#LibraryName NIH_Natural_Products_Library.mgf
#MQScore -1
#Organism NIH_Natural_Products_Library
#TIC_Query 0
#RT_Query -1
#MZErrorPPM -1
#SharedPeaks 0
#MassDiff 0
#LibMZ -1
#SpecMZ 261.113
#SpecCharge 0
#internalFilename spec-00000.mgf

>collision 0
102.0452 2.42
103.0546 28.45
105.0691 1.3
115.0543 2.78
117.0339 0.51
117.0708 1.2
118.0395 1.4
119.0489 0.44
127.0549 0.45
128.0624 2.21
129.0706 0.94
131.0498 100.0
143.048 0.49
144.0556 0.43
145.0644 2.64
147.0434 1.72
157.0631 0.65
159.0444 4.07
161.0597 3.08
171.0443 0.93
172.0516 0.44
173.0609 1.86
175.0385 1.27
177.0547 0.67
185.0587 2.23
186.0315 0.56
189.0552 31.45
201.0545 1.1
203.0691 1.02
219.0638 0.86
261.113 0.0
