>compound Indomethacin (Indocid, Indocin)
>formula C19H16ClNO4
>ionization [M+H]+
>parentmass 358.083282
#inchi InChI=1S/C19H16ClNO4/c1-11-15(10-18(22)23)16-9-14(25-2)7-8-17(16)21(11)19(24)12-3-5-13(20)6-4-12/h3-9H,10H2,1-2H3,(H,22,23)
#inchikey CGIGDMFJXJATDK
#Ion_Source LC-ESI
#Instrument qTof
#Compound_Source Commercial
#PI Dorrestein
#Data_Collector Garg_Neha
#Scan -1
#Precursor_MZ 358.084
#ExactMass 357.077
#Charge 1
#CAS_Number 53-86-1
#Pubmed_ID N/A
#Smiles C1=C(C=C2C(=C1)N(C(=C2CC(O)=O)C)C(C3=CC=C(C=C3)Cl)=O)OC
#INCHI_AUX N/A
#Library_Class 1
#SpectrumID CCMSLIB00000078256
#IonMode Positive
#UpdateWorkflowName UPDATE-SINGLE-ANNOTATED-GOLD
#LibraryQualityString Gold
#TaskID 77f51c88eb8b467eb4a01dd2d0cb90d2
##Scan# 1814
#SpectrumFile Plate4_21_40_GH3_01_16504.mzXML
#LibraryName FDALibrary_2_04302014.mgf
#MQScore -1
#Organism FDALibrary_2_04302014
#TIC_Query 0
#RT_Query -1
#MZErrorPPM -1
#SharedPeaks 0
#MassDiff 0
#LibMZ -1
#SpecMZ 358.084
#SpecCharge 0
#internalFilename spec-00000.mgf

>collision 0
128.0618 0.88
138.9944 100.0
139.9975 9.49
159.0684 1.01
174.0901 13.24
358.0833 20.04
