>compound MLS000728638-01!2-(1H-indol-3-yl)-2-oxo-N-[(1R)-1-phenylethyl]acetamide
>formula C18H16N2O2
>ionization [M+H]+
>parentmass 293.129
#inchi InChI=1S/C18H16N2O2/c1-12(13-7-3-2-4-8-13)20-18(22)17(21)15-11-19-16-10-6-5-9-14(15)16/h2-12,19H,1H3,(H,20,22)/t12-/m1/s1
#inchikey JCQKMELKMGOGMR
#Ion_Source LC-ESI
#Instrument qTof
#Compound_Source NIH Natural Product Library
#PI Dorrestein
#Data_Collector VVP/LMS
#Scan -1
#Precursor_MZ 293.129
#ExactMass 292.121
#Charge 1
#CAS_Number N/A
#Pubmed_ID N/A
#Smiles C[C@@H](NC(=O)C(=O)c1c[nH]c2ccccc12)c3ccccc3
#INCHI_AUX N/A
#Library_Class 1
#SpectrumID CCMSLIB00000080110
#IonMode Positive
#UpdateWorkflowName UPDATE-SINGLE-ANNOTATED-GOLD
#LibraryQualityString Gold
#TaskID b1d8e8f6646f4e71acdff9ca3d919d08
##Scan# 2253
#SpectrumFile p2-C04_GC4_01_18004.mzXML
#LibraryName NIH_Natural_Products_Library.mgf
#MQScore -1
#Organism NIH_Natural_Products_Library
#TIC_Query 0
#RT_Query -1
#MZErrorPPM -1
#SharedPeaks 0
#MassDiff 0
#LibMZ -1
#SpecMZ 293.129
#SpecCharge 0
#internalFilename spec-00000.mgf

>collision 0
105.0709 70.73
116.0508 12.33
144.0454 100.0
198.0783 1.91
204.0793 5.54
232.0753 3.24
233.0827 13.79
250.1119 2.17
293.129 0.0
