>compound HHQ
>formula C16H21NO 
>ionization [M+H]+
>parentmass 244.17
#inchi InChI=1S/C16H21NO/c1-2-3-4-5-6-9-13-12-16(18)14-10-7-8-11-15(14)17-13/h7-8,10-12H,2-6,9H2,1H3,(H,17,18)
#inchikey UYRHHBXYXSYGHA
#Ion_Source DI-ESI
#Instrument LTQ-FT-ICR
#Compound_Source Crude
#PI Dorrestein
#Data_Collector J Watrous
#Scan -1
#Precursor_MZ 244.17
#ExactMass 0.0
#Charge 1
#CAS_Number N/A
#Pubmed_ID N/A
#Smiles N/A
#INCHI_AUX N/A
#Library_Class 3
#SpectrumID CCMSLIB00000072121
#IonMode Positive
#UpdateWorkflowName UPDATE-SINGLE-ANNOTATED-BRONZE
#LibraryQualityString Bronze
#TaskID 3bbf0c46eeeb406782b2f3cd0ad9b2b3
##Scan# 1
#SpectrumFile HHQ_1H_LTQ_244_1696.mzXML
#LibraryName gnps_library.mgf
#MQScore -1
#Organism GNPS_JDW_Batch_Library_Centroid
#TIC_Query 0
#RT_Query -1
#MZErrorPPM -1
#SharedPeaks 0
#MassDiff 0
#LibMZ -1
#SpecMZ 244.17
#SpecCharge 0
#internalFilename spec-00000.mgf

>collision 0
198.0909 0.49
244.17 0.0
