>compound MLS001056593-01!
>formula C24H22N2O3
>ionization [M+H]+
>parentmass 387.170258
#inchi InChI=1S/C24H22N2O3/c1-2-3-22-23(16-4-10-19(27)11-5-16)25-26(18-8-14-21(29)15-9-18)24(22)17-6-12-20(28)13-7-17/h4-15,27-29H,2-3H2,1H3
#inchikey IOTXSIGGFRQYKW
#Ion_Source LC-ESI
#Instrument qTof
#Compound_Source NIH Pharmacologically Active Library
#PI Dorrestein
#Data_Collector VP/LMS
#Scan -1
#Precursor_MZ 387.171
#ExactMass 386.163
#Charge 1
#CAS_Number N/A
#Pubmed_ID N/A
#Smiles CCCc1c(nn(c1c2ccc(O)cc2)c3ccc(O)cc3)c4ccc(O)cc4
#INCHI_AUX N/A
#Library_Class 1
#SpectrumID CCMSLIB00000084978
#IonMode Positive
#UpdateWorkflowName UPDATE-SINGLE-ANNOTATED-GOLD
#LibraryQualityString Gold
#TaskID d252d724072548979f1f6f1ced849daf
##Scan# 2037
#SpectrumFile p3-D05_GD5_01_18262.mzXML
#LibraryName Pharm_Active_Library.mgf
#MQScore -1
#Organism Pharm_Active_Library
#TIC_Query 0
#RT_Query -1
#MZErrorPPM -1
#SharedPeaks 0
#MassDiff 0
#LibMZ -1
#SpecMZ 387.171
#SpecCharge 0
#internalFilename spec-00000.mgf

>collision 0
107.0492 13.49
108.0444 7.02
119.0488 19.17
120.0442 44.79
131.0493 4.08
132.0448 13.75
133.0525 19.68
153.0698 2.74
162.0905 9.88
180.0792 4.28
181.0644 14.09
183.068 4.98
184.0746 2.79
196.0766 7.32
197.0605 3.71
198.0905 9.88
199.0757 14.45
212.0705 97.95
224.0694 11.96
225.0782 100.0
226.0849 81.76
227.0822 43.3
238.0859 40.06
269.1296 3.39
316.0968 3.93
327.111 3.5
342.0986 3.1
343.1079 30.52
344.1152 29.72
345.1222 77.09
357.1235 38.24
387.1708 356.45
