>compound Raltegravir (MK-0518)
>formula C20H21FN6O5
>ionization [M+H]+
>parentmass 445.163544
#inchi InChI=1S/C20H21FN6O5/c1-10-25-26-17(32-10)16(30)24-20(2,3)19-23-13(14(28)18(31)27(19)4)15(29)22-9-11-5-7-12(21)8-6-11/h5-8,28H,9H2,1-4H3,(H,22,29)(H,24,30)
#inchikey CZFFBEXEKNGXKS
#Ion_Source LC-ESI
#Instrument qTof
#Compound_Source Commercial
#PI Dorrestein
#Data_Collector Garg_Neha
#Scan -1
#Precursor_MZ 445.163
#ExactMass 444.156
#Charge 1
#CAS_Number 518048-05-0, 1292804-07-9 (sodium salt)
#Pubmed_ID N/A
#Smiles N1(C(=NC(=C(C1=O)O)C(NCC2=CC=C(C=C2)F)=O)C(NC(C3=NN=C(O3)C)=O)(C)C)C
#INCHI_AUX N/A
#Library_Class 1
#SpectrumID CCMSLIB00000078384
#IonMode Positive
#UpdateWorkflowName UPDATE-SINGLE-ANNOTATED-GOLD
#LibraryQualityString Gold
#TaskID 77f51c88eb8b467eb4a01dd2d0cb90d2
##Scan# 1238
#SpectrumFile Plate6_21_40_GD8_01_15775.mzXML
#LibraryName FDALibrary_2_04302014.mgf
#MQScore -1
#Organism FDALibrary_2_04302014
#TIC_Query 0
#RT_Query -1
#MZErrorPPM -1
#SharedPeaks 0
#MassDiff 0
#LibMZ -1
#SpecMZ 445.163
#SpecCharge 0
#internalFilename spec-00000.mgf

>collision 0
109.0445 37.58
110.0474 2.62
125.0332 0.36
125.0727 0.4
153.0295 0.49
165.066 2.74
167.0396 0.25
183.0747 2.09
193.0765 15.51
208.0723 2.67
209.0722 0.64
210.0872 0.42
226.0837 1.6
236.0667 4.12
237.069 0.33
253.0927 8.04
254.0956 1.81
275.1202 0.33
278.0939 5.32
316.1145 0.34
318.1248 1.97
319.1301 0.46
344.1039 0.76
361.1331 100.0
362.1353 19.93
427.1524 0.23
445.1658 111.41
