>compound NCGC00160269-01!3,4-Dihydroxy-2-hydroxymethyl-3,4,4a,12a-tetrahydro-2H-1,5-dioxa-12-thia-naphthacene-6,11-dione
>formula C16H14O7S
>ionization [M+H]+
>parentmass 351.054
#inchi InChI=1S/C16H14O7S/c17-5-8-11(20)12(21)14-16(22-8)24-15-10(19)7-4-2-1-3-6(7)9(18)13(15)23-14/h1-4,8,11-12,14,16-17,20-21H,5H2/t8-,11-,12+,14-,16+/m1/s1
#inchikey VWUYXIYVXWUEKE
#Ion_Source LC-ESI
#Instrument qTOF
#Compound_Source Prestwick Phytochem Lib
#PI Dorrestein
#Data_Collector VVP/LMS
#Scan -1
#Precursor_MZ 351.054
#ExactMass 350.046
#Charge 1
#CAS_Number N/A
#Pubmed_ID N/A
#Smiles OC[C@H]1O[C@H]2SC3=C(O[C@@H]2[C@@H](O)[C@@H]1O)C(=O)C4=C(C=CC=C4)C3=O
#INCHI_AUX N/A
#Library_Class 1
#SpectrumID CCMSLIB00000078736
#IonMode Positive
#UpdateWorkflowName UPDATE-SINGLE-ANNOTATED-GOLD
#LibraryQualityString Gold
#TaskID 67c915c6594c435cadc1fe2b5358144d
##Scan# 1657
#SpectrumFile p1-A03_GA3_01_17876.mzXML
#LibraryName phytochem_lib.mgf
#MQScore -1
#Organism phytochem_lib
#TIC_Query 0
#RT_Query -1
#MZErrorPPM -1
#SharedPeaks 0
#MassDiff 0
#LibMZ -1
#SpecMZ 351.054
#SpecCharge 0
#internalFilename spec-00000.mgf

>collision 0
105.0333 14.95
115.0556 10.09
121.0087 21.08
128.0458 10.99
131.0474 14.77
133.0074 13.33
146.0364 9.37
147.0226 19.28
149.0043 79.1
157.0288 8.83
161.0021 20.9
170.0196 9.37
171.0241 14.23
173.0236 10.09
177.0001 88.11
184.0319 9.19
188.998 66.67
198.0681 11.35
199.0217 16.4
201.0211 9.73
203.0163 49.91
204.0205 12.97
216.9956 100.0
227.0137 45.05
228.0184 9.55
231.009 47.57
243.0132 12.97
351.054 0.0
