>compound MLS002153902-01!Monocrotaline315-22-0
>formula C16H23NO6
>ionization [M+H]+
>parentmass 326.158722
#inchi InChI=1S/C16H23NO6/c1-9-13(18)23-11-5-7-17-6-4-10(12(11)17)8-22-14(19)16(3,21)15(9,2)20/h4,9,11-12,20-21H,5-8H2,1-3H3/t9-,11+,12+,15+,16-/m0/s1
#inchikey QVCMHGGNRFRMAD
#Ion_Source LC-ESI
#Instrument qTof
#Compound_Source NIH Pharmacologically Active Library
#PI Dorrestein
#Data_Collector VP/LMS
#Scan -1
#Precursor_MZ 326.162
#ExactMass 325.153
#Charge 1
#CAS_Number N/A
#Pubmed_ID N/A
#Smiles C[C@H]1C(=O)O[C@@H]2CCN3CC=C(COC(=O)[C@](C)(O)[C@]1(C)O)[C@H]23
#INCHI_AUX N/A
#Library_Class 1
#SpectrumID CCMSLIB00000085787
#IonMode Positive
#UpdateWorkflowName UPDATE-SINGLE-ANNOTATED-GOLD
#LibraryQualityString Gold
#TaskID d252d724072548979f1f6f1ced849daf
##Scan# 409
#SpectrumFile p4-F06_GF6_01_18390.mzXML
#LibraryName Pharm_Active_Library.mgf
#MQScore -1
#Organism Pharm_Active_Library
#TIC_Query 0
#RT_Query -1
#MZErrorPPM -1
#SharedPeaks 0
#MassDiff 0
#LibMZ -1
#SpecMZ 326.162
#SpecCharge 0
#internalFilename spec-00000.mgf

>collision 0
93.0562 6.0
94.0634 20.29
95.0739 6.33
106.0628 7.63
107.0702 6.13
108.0812 5.48
109.0652 4.63
110.0961 6.26
117.0689 5.35
118.0632 8.48
120.0801 100.0
121.0877 68.56
122.0941 23.29
136.0727 4.89
138.0906 13.96
139.0979 17.48
156.1004 8.22
164.1074 15.39
180.1018 4.7
184.0979 13.57
194.1157 23.55
208.0979 4.24
222.1106 4.96
228.1248 4.11
237.1343 29.55
280.1524 20.81
298.1634 11.29
308.1523 8.35
326.1587 117.29
