>compound MLS002153860-01!Trolox53188-07-1
>formula C14H18O4
>ionization [M+H]+
>parentmass 251.12778550809054
#inchi InChI=1S/C14H18O4/c1-7-8(2)12-10(9(3)11(7)15)5-6-14(4,18-12)13(16)17/h15H,5-6H2,1-4H3,(H,16,17)
#inchikey GLEVLJDDWXEYCO
#Ion_Source LC-ESI
#Instrument qTof
#Compound_Source NIH Pharmacologically Active Library
#PI Dorrestein
#Data_Collector VP/LMS
#Scan -1
#Precursor_MZ 251.133
#ExactMass 250.121
#Charge 1
#CAS_Number N/A
#Pubmed_ID N/A
#Smiles Cc1c(C)c2OC(C)(CCc2c(C)c1O)C(=O)O
#INCHI_AUX N/A
#Library_Class 1
#SpectrumID CCMSLIB00000085558
#IonMode Positive
#UpdateWorkflowName UPDATE-SINGLE-ANNOTATED-GOLD
#LibraryQualityString Gold
#TaskID d252d724072548979f1f6f1ced849daf
##Scan# 1822
#SpectrumFile p4-C07_GC7_01_18355.mzXML
#LibraryName Pharm_Active_Library.mgf
#MQScore -1
#Organism Pharm_Active_Library
#TIC_Query 0
#RT_Query -1
#MZErrorPPM -1
#SharedPeaks 0
#MassDiff 0
#LibMZ -1
#SpecMZ 251.133
#SpecCharge 0
#internalFilename spec-00000.mgf

>collision 0
100.0323 4.7
107.0837 15.38
121.1011 11.95
162.1259 4.94
251.1278 0.0
