>compound N-[4-[1-[2-(6-methylpyridin-2-yl)ethyl]piperidine-4-carbonyl]phenyl]methanesulfonamide
>formula C21H27N3O3S
>ionization [M+H]+
>parentmass 402.1845891760905
#inchi InChI=1S/C21H27N3O3S/c1-16-4-3-5-19(22-16)12-15-24-13-10-18(11-14-24)21(25)17-6-8-20(9-7-17)23-28(2,26)27/h3-9,18,23H,10-15H2,1-2H3
#inchikey SRUISGSHWFJION
#Ion_Source LC-ESI
#Instrument qTof
#Compound_Source Commercial
#PI Dorrestein
#Data_Collector Garg_Neha
#Scan -1
#Precursor_MZ 402.185
#ExactMass 401.177
#Charge 1
#CAS_Number N/A
#Pubmed_ID N/A
#Smiles Cc1cccc(CCN2CCC(CC2)C(=O)c3ccc(NS(=O)(=O)C)cc3)n1
#INCHI_AUX N/A
#Library_Class 1
#SpectrumID CCMSLIB00000079044
#IonMode Positive
#UpdateWorkflowName UPDATE-SINGLE-ANNOTATED-GOLD
#LibraryQualityString Gold
#TaskID 278b19f5865741e282cec7349aa7e7a1
##Scan# 993
#SpectrumFile NCP003432_A2_B11_BC8_01_15722.mzXML
#LibraryName NIHcollectionI_05062014.mgf
#MQScore -1
#Organism NIHcollectionI_05062014
#TIC_Query 0
#RT_Query -1
#MZErrorPPM -1
#SharedPeaks 0
#MassDiff 0
#LibMZ -1
#SpecMZ 402.185
#SpecCharge 0
#internalFilename spec-00000.mgf

>collision 0
147.0674 0.35
172.0762 1.76
173.082 0.86
216.1262 27.23
252.069 7.64
266.0851 1.07
295.112 100.0
402.1866 108.56
