>compound N-[3-(3-cyanopyrazolo[1,5-a]pyrimidin-7-yl)phenyl]-N-ethylacetamide
>formula C17H15N5O
>ionization [M+H]+
>parentmass 306.135742
#inchi InChI=1S/C17H15N5O/c1-3-21(12(2)23)15-6-4-5-13(9-15)16-7-8-19-17-14(10-18)11-20-22(16)17/h4-9,11H,3H2,1-2H3
#inchikey HUNXMJYCHXQEGX
#Ion_Source LC-ESI
#Instrument qTof
#Compound_Source Commercial
#PI Dorrestein
#Data_Collector Garg_Neha
#Scan -1
#Precursor_MZ 306.135
#ExactMass 305.128
#Charge 1
#CAS_Number N/A
#Pubmed_ID N/A
#Smiles CCN(C(=O)C)c1cccc(c1)c2ccnc3c(C#N)cnn23
#INCHI_AUX N/A
#Library_Class 1
#SpectrumID CCMSLIB00000079240
#IonMode Positive
#UpdateWorkflowName UPDATE-SINGLE-ANNOTATED-GOLD
#LibraryQualityString Gold
#TaskID 278b19f5865741e282cec7349aa7e7a1
##Scan# 1197
#SpectrumFile NCP003672_E27F27G26H26_BE5_01_15741.mzXML
#LibraryName NIHcollectionI_05062014.mgf
#MQScore -1
#Organism NIHcollectionI_05062014
#TIC_Query 0
#RT_Query -1
#MZErrorPPM -1
#SharedPeaks 0
#MassDiff 0
#LibMZ -1
#SpecMZ 306.135
#SpecCharge 0
#internalFilename spec-00000.mgf

>collision 0
155.0605 3.11
182.0704 2.37
209.0821 15.22
219.0659 19.05
221.0811 2.09
222.0899 8.81
234.0765 3.4
236.0935 100.0
238.1069 1.04
249.1001 2.31
260.093 12.11
262.0734 1.99
264.1241 44.23
278.1032 2.66
288.1237 3.09
306.1357 336.47
