>compound (S)-N-[[3-[3-Fluoro-4-(4-morpholinyl)phenyl]-2-oxo-5-oxazolidinyl]methyl]phthalimide
>formula C22H20FN3O5
>ionization [M+H]+
>parentmass 426.14597541209054
#inchi InChI=1S/C22H20FN3O5/c23-18-11-14(5-6-19(18)24-7-9-30-10-8-24)25-12-15(31-22(25)29)13-26-20(27)16-3-1-2-4-17(16)21(26)28/h1-6,11,15H,7-10,12-13H2/t15-/m1/s1
#inchikey FKZUTWSVQLXKQE
#Ion_Source DI-ESI
#Instrument qTof
#Compound_Source Commercial
#PI Norberto Lopes
#Data_Collector Norberto Lopes
#Scan -1
#Precursor_MZ 426.143
#ExactMass 425.139
#Charge 1
#CAS_Number 168828-89-5
#Pubmed_ID N/A
#Smiles O=C1N(C[C@@H]2OC(N(C3=CC=C(N4CCOCC4)C(F)=C3)C2)=O)C(C5=C1C=CC=C5)=O
#INCHI_AUX N/A
#Library_Class 3
#SpectrumID CCMSLIB00000081557
#IonMode Positive
#UpdateWorkflowName UPDATE-SINGLE-ANNOTATED-BRONZE
#LibraryQualityString Bronze
#TaskID 4a07f16a650f4095b43fe6b0b09ff8bb
##Scan# 1
#SpectrumFile gnps_S_N_3_3_Fluoro_4_4_morpholinyl_phenyl_2_oxo_5_pos_MplusH.mgf
#LibraryName gnps_library.mgf
#MQScore -1
#Organism batch_27_05
#TIC_Query 0
#RT_Query -1
#MZErrorPPM -1
#SharedPeaks 0
#MassDiff 0
#LibMZ -1
#SpecMZ 426.143
#SpecCharge 0
#internalFilename spec-00000.mgf

>collision 0
130.0256 6.25
135.0435 9.63
136.0504 9.5
148.0518 50.23
149.0595 32.37
150.0673 9.77
151.0625 23.26
160.037 57.06
161.0466 6.74
162.0667 20.01
163.0639 54.75
164.07 10.49
165.0771 14.75
169.0718 35.43
172.0525 6.94
174.0556 38.48
175.0628 10.18
176.0707 9.0
177.0803 18.39
178.085 4.76
186.0524 100.0
189.0782 94.55
190.0843 24.11
191.0944 91.94
195.0887 51.31
196.096 8.95
207.0883 4.05
209.1047 10.82
217.1097 19.74
218.1098 4.27
235.1205 50.92
310.0974 6.22
338.1272 3.96
426.1431 151.25
