>compound 94-20-2
>formula C10H13ClN2O3S 
>ionization [M+H]+
>parentmass 277.040039
#inchi InChI=1S/C10H13ClN2O3S/c1-2-7-12-10(14)13-17(15,16)9-5-3-8(11)4-6-9/h3-6H,2,7H2,1H3,(H2,12,13,14)
#inchikey RKWGIWYCVPQPMF
#Ion_Source LC-ESI
#Instrument qTof
#Compound_Source Commercial
#PI Dorrestein
#Data_Collector Garg_Neha
#Scan -1
#Precursor_MZ 277.041
#ExactMass 276.034
#Charge 1
#CAS_Number N/A
#Pubmed_ID N/A
#Smiles N/A
#INCHI_AUX N/A
#Library_Class 1
#SpectrumID CCMSLIB00000076963
#IonMode Positive
#UpdateWorkflowName UPDATE-SINGLE-ANNOTATED-GOLD
#LibraryQualityString Gold
#TaskID 48f7f52fc6d249b5abbcc6e7b3df5969
##Scan# 1346
#SpectrumFile NCP002928_A2_B11_BA2_01_15696.mzXML
#LibraryName NIH_Clinical_Collection_2.mgf
#MQScore -1
#Organism NIHcollection2_04212014_2_mgf
#TIC_Query 0
#RT_Query -1
#MZErrorPPM -1
#SharedPeaks 0
#MassDiff 0
#LibMZ -1
#SpecMZ 277.041
#SpecCharge 0
#internalFilename spec-00000.mgf

>collision 0
87.0011 0.82
110.9993 9.7
114.9947 1.27
139.006 13.48
174.9613 94.98
191.9882 100.0
277.04 28.49
