>compound MLS000862181-01!GR 113808
>formula C19H27N3O4S
>ionization [M+H]+
>parentmass 394.178558
#inchi InChI=1S/C19H27N3O4S/c1-21-13-17(16-5-3-4-6-18(16)21)19(23)26-14-15-7-10-22(11-8-15)12-9-20-27(2,24)25/h3-6,13,15,20H,7-12,14H2,1-2H3
#inchikey MOZPSIXKYJUTKI
#Ion_Source LC-ESI
#Instrument qTof
#Compound_Source NIH Pharmacologically Active Library
#PI Dorrestein
#Data_Collector VP/LMS
#Scan -1
#Precursor_MZ 394.187
#ExactMass 393.172
#Charge 1
#CAS_Number N/A
#Pubmed_ID N/A
#Smiles Cn1cc(C(=O)OCC2CCN(CCNS(=O)(=O)C)CC2)c3ccccc13
#INCHI_AUX N/A
#Library_Class 1
#SpectrumID CCMSLIB00000085650
#IonMode Positive
#UpdateWorkflowName UPDATE-SINGLE-ANNOTATED-GOLD
#LibraryQualityString Gold
#TaskID d252d724072548979f1f6f1ced849daf
##Scan# 1530
#SpectrumFile p4-D10_GD10_01_18370.mzXML
#LibraryName Pharm_Active_Library.mgf
#MQScore -1
#Organism Pharm_Active_Library
#TIC_Query 0
#RT_Query -1
#MZErrorPPM -1
#SharedPeaks 0
#MassDiff 0
#LibMZ -1
#SpecMZ 394.187
#SpecCharge 0
#internalFilename spec-00000.mgf

>collision 0
98.0969 15.54
103.0537 2.22
110.0965 8.93
122.0271 17.73
124.0233 1.07
124.1113 1.44
128.0492 0.7
130.0648 9.56
132.0802 0.49
136.0409 0.35
139.1223 1.82
140.1291 0.6
146.0589 0.3
151.0526 2.32
158.0606 100.0
160.0658 0.69
165.0682 3.12
167.0628 0.22
176.069 0.28
177.0695 0.23
191.0835 0.23
219.1164 82.14
221.1126 4.14
299.1745 0.74
394.1786 2.0
