>compound MLS001076501-01!
>formula C24H34O5
>ionization [M+H]+
>parentmass 403.2479006400905
#inchi InChI=1S/C24H34O5/c1-13(4-7-21(28)29)16-5-6-17-22-18(12-20(27)24(16,17)3)23(2)9-8-15(25)10-14(23)11-19(22)26/h13-14,16-18,22H,4-12H2,1-3H3,(H,28,29)/t13-,14+,16-,17+,18+,22+,23+,24-/m1/s1
#inchikey OHXPGWPVLFPUSM
#Ion_Source LC-ESI
#Instrument qTof
#Compound_Source NIH Pharmacologically Active Library
#PI Dorrestein
#Data_Collector VP/LMS
#Scan -1
#Precursor_MZ 403.25
#ExactMass 402.241
#Charge 1
#CAS_Number N/A
#Pubmed_ID N/A
#Smiles C[C@H](CCC(=O)O)[C@H]1CC[C@H]2[C@H]3[C@H](CC(=O)[C@]12C)[C@@]4(C)CCC(=O)C[C@H]4CC3=O
#INCHI_AUX N/A
#Library_Class 1
#SpectrumID CCMSLIB00000085428
#IonMode Positive
#UpdateWorkflowName UPDATE-SINGLE-ANNOTATED-GOLD
#LibraryQualityString Gold
#TaskID d252d724072548979f1f6f1ced849daf
##Scan# 1861
#SpectrumFile p4-A09_GA9_01_18333.mzXML
#LibraryName Pharm_Active_Library.mgf
#MQScore -1
#Organism Pharm_Active_Library
#TIC_Query 0
#RT_Query -1
#MZErrorPPM -1
#SharedPeaks 0
#MassDiff 0
#LibMZ -1
#SpecMZ 403.25
#SpecCharge 0
#internalFilename spec-00000.mgf

>collision 0
105.0696 28.83
107.0846 20.21
119.0852 20.42
121.0649 17.92
131.085 22.34
143.0853 29.87
145.1012 35.43
147.118 30.91
155.0847 29.56
157.0997 35.22
159.0799 26.44
159.1173 41.71
161.0963 19.22
167.0857 18.18
169.1018 25.14
171.1174 18.23
173.0953 14.49
175.1103 13.97
181.1024 13.97
182.1089 17.14
185.1343 40.36
193.1013 22.81
195.1166 56.21
197.1313 100.0
207.1163 18.29
209.1322 38.39
211.1477 61.71
213.1273 25.61
221.1311 29.77
223.1483 13.92
225.1275 29.19
227.1429 17.09
235.1485 22.18
239.1449 29.35
241.1227 19.06
243.1374 16.88
247.148 23.69
249.1645 17.35
251.1803 16.31
257.1517 13.87
263.1801 22.29
273.1636 15.69
291.1747 25.04
303.2105 15.64
307.207 14.44
309.1846 17.04
321.2234 59.01
325.2148 16.52
331.2043 22.55
339.2318 45.09
349.216 45.04
367.2267 59.27
403.2504 0.0
