>compound 19-Norandrosta-4,9-dien-3,17-dione
>formula C18H22O2
>ionization [M+H]+
>parentmass 271.16925639609053
#inchi InChI=1S/C18H22O2/c1-18-9-8-14-13-5-3-12(19)10-11(13)2-4-15(14)16(18)6-7-17(18)20/h10,15-16H,2-9H2,1H3/t15-,16+,18+/m1/s1
#inchikey BHTWZQKERRCPRZ
#Ion_Source DI-ESI
#Instrument qTof
#Compound_Source Commercial
#PI Norberto Lopes
#Data_Collector Norberto Lopes
#Scan -1
#Precursor_MZ 271.163
#ExactMass 270.162
#Charge 1
#CAS_Number 13885-20-6
#Pubmed_ID N/A
#Smiles C[C@@]12[C@](CCC2=O)([H])[C@]3([H])CCC4=CC(CCC4=C3CC1)=O
#INCHI_AUX N/A
#Library_Class 3
#SpectrumID CCMSLIB00000081559
#IonMode Positive
#UpdateWorkflowName UPDATE-SINGLE-ANNOTATED-BRONZE
#LibraryQualityString Bronze
#TaskID 4a07f16a650f4095b43fe6b0b09ff8bb
##Scan# 1
#SpectrumFile gnps_19_Norandrosta_4_9_dien_3_17_dione_pos_MplusH.mgf
#LibraryName gnps_library.mgf
#MQScore -1
#Organism batch_27_05
#TIC_Query 0
#RT_Query -1
#MZErrorPPM -1
#SharedPeaks 0
#MassDiff 0
#LibMZ -1
#SpecMZ 271.163
#SpecCharge 0
#internalFilename spec-00000.mgf

>collision 0
167.0838 4.73
271.1693 0.0
