>compound 7,3',4'-Trihydroxyflavone
>formula C15H10O5
>ionization [M+H]+
>parentmass 271.0600998720905
#inchi InChI=1S/C15H10O5/c16-9-2-3-10-12(18)7-14(20-15(10)6-9)8-1-4-11(17)13(19)5-8/h1-7,16-17,19H
#inchikey PVFGJHYLIHMCQD
#Ion_Source DI-ESI
#Instrument qTof
#Compound_Source Isolated
#PI Norberto Lopes
#Data_Collector Denise Silva
#Scan -1
#Precursor_MZ 271.036
#ExactMass 270.053
#Charge 1
#CAS_Number 2150-11-0
#Pubmed_ID N/A
#Smiles OC1=C(O)C=C(C2=CC(C3=CC=C(O)C=C3O2)=O)C=C1
#INCHI_AUX N/A
#Library_Class 3
#SpectrumID CCMSLIB00000081708
#IonMode Positive
#UpdateWorkflowName UPDATE-SINGLE-ANNOTATED-BRONZE
#LibraryQualityString Bronze
#TaskID 52bd5f0db6314c93924d5ce5c86348eb
##Scan# 1
#SpectrumFile gnps_7_3_4_Trihydroxyflavone_pos_MplusH.mgf
#LibraryName gnps_library.mgf
#MQScore -1
#Organism batch_27_05_V02
#TIC_Query 0
#RT_Query -1
#MZErrorPPM -1
#SharedPeaks 0
#MassDiff 0
#LibMZ -1
#SpecMZ 271.036
#SpecCharge 0
#internalFilename spec-00000.mgf

>collision 0
141.0555 7.92
145.0299 12.27
147.0301 2.01
159.0643 3.39
169.0478 15.47
173.0445 4.19
181.0484 9.13
187.0586 12.05
211.0404 6.27
239.0355 3.56
271.0601 0.0
