>compound Nefiracetam (Translon)
>formula C14H18N2O2
>ionization [M+H]+
>parentmass 247.143829
#inchi InChI=1S/C14H18N2O2/c1-10-5-3-6-11(2)14(10)15-12(17)9-16-8-4-7-13(16)18/h3,5-6H,4,7-9H2,1-2H3,(H,15,17)
#inchikey NGHTXZCKLWZPGK
#Ion_Source LC-ESI
#Instrument qTof
#Compound_Source Commercial
#PI Dorrestein
#Data_Collector Garg_Neha
#Scan -1
#Precursor_MZ 247.144
#ExactMass 246.137
#Charge 1
#CAS_Number 77191-36-7
#Pubmed_ID N/A
#Smiles C(N1C(CCC1)=O)C(NC2=C(C=CC=C2C)C)=O
#INCHI_AUX N/A
#Library_Class 1
#SpectrumID CCMSLIB00000078363
#IonMode Positive
#UpdateWorkflowName UPDATE-SINGLE-ANNOTATED-GOLD
#LibraryQualityString Gold
#TaskID 77f51c88eb8b467eb4a01dd2d0cb90d2
##Scan# 1104
#SpectrumFile Plate5_61_88_GH9_01_16511.mzXML
#LibraryName FDALibrary_2_04302014.mgf
#MQScore -1
#Organism FDALibrary_2_04302014
#TIC_Query 0
#RT_Query -1
#MZErrorPPM -1
#SharedPeaks 0
#MassDiff 0
#LibMZ -1
#SpecMZ 247.144
#SpecCharge 0
#internalFilename spec-00000.mgf

>collision 0
98.0598 56.39
105.0679 2.06
125.1065 2.26
126.0549 100.0
134.0962 1.86
247.1438 12.78
