>compound Mometasone furoate
>formula C27H30Cl2O6
>ionization [M+H]+
>parentmass 521.148376
#inchi InChI=1S/C27H30Cl2O6/c1-15-11-19-18-7-6-16-12-17(30)8-9-24(16,2)26(18,29)21(31)13-25(19,3)27(15,22(32)14-28)35-23(33)20-5-4-10-34-20/h4-5,8-10,12,15,18-19,21,31H,6-7,11,13-14H2,1-3H3/t15-,18+,19+,21-,24+,25+,26-,27-/m1/s1
#inchikey WOFMFGQZHJDGCX
#Ion_Source LC-ESI
#Instrument qTof
#Compound_Source Commercial
#PI Dorrestein
#Data_Collector Garg_Neha
#Scan -1
#Precursor_MZ 521.149
#ExactMass 520.142
#Charge 1
#CAS_Number 83919-23-7
#Pubmed_ID N/A
#Smiles C1C(C=C2[C@](C=1)([C@]3([C@@](CC2)([C@]4([C@](C[C@H]3O)([C@@]([C@@H](C4)C)(C(CCl)=O)OC(=O)C5=CC=CO5)C)[H])[H])Cl)C)=O
#INCHI_AUX N/A
#Library_Class 1
#SpectrumID CCMSLIB00000078372
#IonMode Positive
#UpdateWorkflowName UPDATE-SINGLE-ANNOTATED-GOLD
#LibraryQualityString Gold
#TaskID 77f51c88eb8b467eb4a01dd2d0cb90d2
##Scan# 2338
#SpectrumFile Plate6_1_20_GD7_01_15774.mzXML
#LibraryName FDALibrary_2_04302014.mgf
#MQScore -1
#Organism FDALibrary_2_04302014
#TIC_Query 0
#RT_Query -1
#MZErrorPPM -1
#SharedPeaks 0
#MassDiff 0
#LibMZ -1
#SpecMZ 521.149
#SpecCharge 0
#internalFilename spec-00000.mgf

>collision 0
119.0855 4.89
121.0662 7.38
135.0803 19.58
147.0811 25.47
159.0812 6.2
171.0569 5.78
171.0816 17.65
173.0956 13.63
185.0971 15.46
197.0951 5.25
211.112 6.36
221.0962 8.22
223.1108 14.93
224.1189 10.14
235.1128 7.71
237.1292 10.09
248.1201 10.5
249.1282 8.2
259.1096 4.74
261.1265 6.17
262.135 6.44
263.1431 54.09
275.142 6.22
277.1594 12.88
278.1662 31.32
279.1736 39.89
281.1526 4.76
286.1352 7.28
288.1492 7.73
291.1377 5.06
291.1743 7.74
301.1585 17.34
306.1615 7.12
319.1697 16.17
327.1518 6.32
337.135 16.95
345.1638 4.46
355.1459 100.0
357.1435 27.29
358.1461 4.82
373.1576 20.49
391.1227 28.12
393.1199 17.53
503.1403 86.02
504.1427 34.34
507.1336 9.47
521.1484 2.94
