>compound MLS001140347-01!1-[2-(6,7-dimethoxy-3,4-dihydro-1H-isoquinolin-2-yl)-2-oxoethyl]pyridin-2-one
>formula C18H20N2O4
>ionization [M+H]+
>parentmass 329.15
#inchi InChI=1S/C18H20N2O4/c1-23-15-9-13-6-8-20(11-14(13)10-16(15)24-2)18(22)12-19-7-4-3-5-17(19)21/h3-5,7,9-10H,6,8,11-12H2,1-2H3
#inchikey NOFPMGWDFVQQRC
#Ion_Source LC-ESI
#Instrument qTof
#Compound_Source NIH Natural Product Library
#PI Dorrestein
#Data_Collector VVP/LMS
#Scan -1
#Precursor_MZ 329.15
#ExactMass 328.142
#Charge 1
#CAS_Number N/A
#Pubmed_ID N/A
#Smiles COc1cc2CCN(Cc2cc1OC)C(=O)Cn3ccccc3=O
#INCHI_AUX N/A
#Library_Class 1
#SpectrumID CCMSLIB00000080267
#IonMode Positive
#UpdateWorkflowName UPDATE-SINGLE-ANNOTATED-GOLD
#LibraryQualityString Gold
#TaskID b1d8e8f6646f4e71acdff9ca3d919d08
##Scan# 1551
#SpectrumFile p2-D06_GD6_01_18018.mzXML
#LibraryName NIH_Natural_Products_Library.mgf
#MQScore -1
#Organism NIH_Natural_Products_Library
#TIC_Query 0
#RT_Query -1
#MZErrorPPM -1
#SharedPeaks 0
#MassDiff 0
#LibMZ -1
#SpecMZ 329.15
#SpecCharge 0
#internalFilename spec-00000.mgf

>collision 0
108.0453 71.49
133.0656 0.98
134.0741 1.85
136.0401 100.0
150.0689 3.5
151.0753 2.42
152.0818 1.62
162.0916 9.47
165.0918 18.35
179.0931 3.39
194.1176 23.32
329.15 0.0
