>compound MLS002153199-01!Actinonin13434-13-4
>formula C19H35N3O5
>ionization [M+H]+
>parentmass 386.266
#inchi InChI=1S/C19H35N3O5/c1-4-5-6-8-14(11-16(24)21-27)18(25)20-17(13(2)3)19(26)22-10-7-9-15(22)12-23/h13-15,17,23,27H,4-12H2,1-3H3,(H,20,25)(H,21,24)
#inchikey XJLATMLVMSFZBN
#Ion_Source LC-ESI
#Instrument qTof
#Compound_Source NIH Pharmacologically Active Library
#PI Dorrestein
#Data_Collector VP/LMS
#Scan -1
#Precursor_MZ 386.266
#ExactMass 385.258
#Charge 1
#CAS_Number N/A
#Pubmed_ID N/A
#Smiles CCCCCC(CC(=O)NO)C(=O)NC(C(C)C)C(=O)N1CCCC1CO
#INCHI_AUX N/A
#Library_Class 1
#SpectrumID CCMSLIB00000085105
#IonMode Positive
#UpdateWorkflowName UPDATE-SINGLE-ANNOTATED-GOLD
#LibraryQualityString Gold
#TaskID d252d724072548979f1f6f1ced849daf
##Scan# 1531
#SpectrumFile p3-E10_GE10_01_18279.mzXML
#LibraryName Pharm_Active_Library.mgf
#MQScore -1
#Organism Pharm_Active_Library
#TIC_Query 0
#RT_Query -1
#MZErrorPPM -1
#SharedPeaks 0
#MassDiff 0
#LibMZ -1
#SpecMZ 386.266
#SpecCharge 0
#internalFilename spec-00000.mgf

>collision 0
97.1009 7.4
98.061 6.54
102.0912 100.0
107.0858 8.61
111.0454 7.57
125.095 12.56
171.1159 6.54
185.1312 7.75
201.1505 9.81
224.164 35.11
236.1589 5.68
239.1659 6.37
336.2381 7.4
353.2449 8.61
386.266 0.0
