>compound Sulfinpyrazone
>formula C23H20N2O3S 
>ionization [M+H]+
>parentmass 405.128479
#inchi InChI=1S/C23H20N2O3S/c26-22-21(16-17-29(28)20-14-8-3-9-15-20)23(27)25(19-12-6-2-7-13-19)24(22)18-10-4-1-5-11-18/h1-15,21H,16-17H2
#inchikey MBGGBVCUIVRRBF
#Ion_Source LC-ESI
#Instrument qTof
#Compound_Source Commercial
#PI Dorrestein
#Data_Collector Garg_Neha
#Scan -1
#Precursor_MZ 405.13
#ExactMass 404.119
#Charge 1
#CAS_Number N/A
#Pubmed_ID N/A
#Smiles N/A
#INCHI_AUX N/A
#Library_Class 1
#SpectrumID CCMSLIB00000077050
#IonMode Positive
#UpdateWorkflowName UPDATE-SINGLE-ANNOTATED-GOLD
#LibraryQualityString Gold
#TaskID 48f7f52fc6d249b5abbcc6e7b3df5969
##Scan# 1460
#SpectrumFile NCP003017_E2_F11_BA8_01_15703.mzXML
#LibraryName NIH_Clinical_Collection_2.mgf
#MQScore -1
#Organism NIHcollection2_04212014_2_mgf
#TIC_Query 0
#RT_Query -1
#MZErrorPPM -1
#SharedPeaks 0
#MassDiff 0
#LibMZ -1
#SpecMZ 405.13
#SpecCharge 0
#internalFilename spec-00000.mgf

>collision 0
104.0495 1.96
117.0554 0.57
118.0658 1.48
129.0578 2.43
130.0645 5.11
132.0451 1.22
132.0814 2.5
142.0656 0.58
158.0609 16.32
160.0748 2.12
183.0916 4.73
185.0476 20.75
186.0549 14.33
211.0866 11.08
221.1082 0.9
232.098 0.66
233.1064 2.83
249.1039 0.99
250.1103 0.56
251.1186 4.06
253.0977 9.06
259.0874 0.69
260.0931 1.6
261.1024 5.84
266.0644 2.41
277.0986 2.34
278.1047 5.49
279.1144 100.0
294.0583 6.07
387.1176 19.08
405.1285 91.96
