>compound Lenalidomide
>formula C13H13N3O3
>ionization [M+H]+
>parentmass 260.10257
#inchi InChI=1S/C13H13N3O3/c14-9-3-1-2-7-8(9)6-16(13(7)19)10-4-5-11(17)15-12(10)18/h1-3,10H,4-6,14H2,(H,15,17,18)
#inchikey GOTYRUGSSMKFNF
#Ion_Source LC-ESI
#Instrument qTof
#Compound_Source Commercial
#PI Dorrestein
#Data_Collector Garg_Neha
#Scan -1
#Precursor_MZ 260.103
#ExactMass 259.096
#Charge 1
#CAS_Number 191732-72-6, 1243329-97-6 (HCl)
#Pubmed_ID N/A
#Smiles C1=CC(=C2C(=C1)C(N(C2)C3C(NC(CC3)=O)=O)=O)N
#INCHI_AUX N/A
#Library_Class 1
#SpectrumID CCMSLIB00000078006
#IonMode Positive
#UpdateWorkflowName UPDATE-SINGLE-ANNOTATED-GOLD
#LibraryQualityString Gold
#TaskID 77f51c88eb8b467eb4a01dd2d0cb90d2
##Scan# 1032
#SpectrumFile Plate1_1_20_GG1_01_16488.mzXML
#LibraryName FDALibrary_2_04302014.mgf
#MQScore -1
#Organism FDALibrary_2_04302014
#TIC_Query 0
#RT_Query -1
#MZErrorPPM -1
#SharedPeaks 0
#MassDiff 0
#LibMZ -1
#SpecMZ 260.103
#SpecCharge 0
#internalFilename spec-00000.mgf

>collision 0
106.0646 3.97
131.0616 0.88
149.0709 100.0
159.0919 3.81
169.077 0.89
187.0857 34.39
215.0814 9.66
260.1026 25.77
