>compound MLS001074095-01!50-22-6
>formula C21H30O4
>ionization [M+H]+
>parentmass 347.22168589209053
#inchi InChI=1S/C21H30O4/c1-20-8-7-13(23)9-12(20)3-4-14-15-5-6-16(18(25)11-22)21(15,2)10-17(24)19(14)20/h9,14-17,19,22,24H,3-8,10-11H2,1-2H3/t14-,15-,16+,17-,19+,20-,21-/m0/s1
#inchikey OMFXVFTZEKFJBZ
#Ion_Source LC-ESI
#Instrument qTof
#Compound_Source NIH Pharmacologically Active Library
#PI Dorrestein
#Data_Collector VP/LMS
#Scan -1
#Precursor_MZ 347.218
#ExactMass 346.214
#Charge 1
#CAS_Number N/A
#Pubmed_ID N/A
#Smiles C[C@@]12C[C@H](O)[C@H]3[C@@H](CCC4=CC(=O)CC[C@]34C)[C@@H]2CC[C@@H]1C(=O)CO
#INCHI_AUX N/A
#Library_Class 1
#SpectrumID CCMSLIB00000085263
#IonMode Positive
#UpdateWorkflowName UPDATE-SINGLE-ANNOTATED-GOLD
#LibraryQualityString Gold
#TaskID d252d724072548979f1f6f1ced849daf
##Scan# 1850
#SpectrumFile p3-G08_GG8_01_18301.mzXML
#LibraryName Pharm_Active_Library.mgf
#MQScore -1
#Organism Pharm_Active_Library
#TIC_Query 0
#RT_Query -1
#MZErrorPPM -1
#SharedPeaks 0
#MassDiff 0
#LibMZ -1
#SpecMZ 347.218
#SpecCharge 0
#internalFilename spec-00000.mgf

>collision 0
91.0542 13.81
95.0855 10.35
97.065 24.42
105.0701 42.71
107.0855 23.47
109.0647 20.58
115.0556 14.02
117.0707 19.11
119.0857 45.99
121.0651 100.0
123.08 32.48
129.0703 24.98
131.0863 44.09
133.0657 8.46
133.1012 32.53
135.0794 17.3
141.0692 9.79
142.0776 21.74
143.0846 32.96
145.1022 24.55
147.0806 19.37
147.1167 17.34
149.0958 16.52
155.0853 11.17
156.0925 17.21
157.1011 22.3
159.1168 31.49
161.0965 16.31
163.1114 34.77
168.0925 10.87
171.0802 6.9
171.1171 15.49
173.1313 10.87
183.1169 13.81
185.1311 13.2
189.1275 10.91
201.1277 10.57
211.1468 13.11
229.1602 8.07
329.21 14.11
347.2229 0.0
