>compound SKF 83566
>formula C17H18BrNO
>ionization [M+H]+
>parentmass 332.066315
#inchi InChI=1S/C17H18BrNO/c1-19-8-7-13-9-16(18)17(20)10-14(13)15(11-19)12-5-3-2-4-6-12/h2-6,9-10,15,20H,7-8,11H2,1H3
#inchikey XFTVOHWWEQGXLS
#Ion_Source LC-ESI
#Instrument qTof
#Compound_Source Commercial
#PI Dorrestein
#Data_Collector Garg_Neha
#Scan -1
#Precursor_MZ 332.064
#ExactMass 331.057
#Charge 1
#CAS_Number N/A
#Pubmed_ID N/A
#Smiles CN1CCc2cc(Br)c(O)cc2C(C1)c3ccccc3
#INCHI_AUX N/A
#Library_Class 1
#SpectrumID CCMSLIB00000079157
#IonMode Positive
#UpdateWorkflowName UPDATE-SINGLE-ANNOTATED-GOLD
#LibraryQualityString Gold
#TaskID 278b19f5865741e282cec7349aa7e7a1
##Scan# 1092
#SpectrumFile NCP003592_A2_B11_BD8_01_15734.mzXML
#LibraryName NIHcollectionI_05062014.mgf
#MQScore -1
#Organism NIHcollectionI_05062014
#TIC_Query 0
#RT_Query -1
#MZErrorPPM -1
#SharedPeaks 0
#MassDiff 0
#LibMZ -1
#SpecMZ 332.064
#SpecCharge 0
#internalFilename spec-00000.mgf

>collision 0
91.0542 14.92
105.0695 8.19
120.0573 10.16
128.0629 2.83
129.069 5.48
131.0495 10.69
132.0564 5.76
133.0876 2.38
134.0973 7.02
144.0573 47.78
146.0708 5.67
147.0668 2.84
160.0757 6.03
161.0849 2.3
162.091 9.97
175.0985 5.05
193.1027 4.73
194.0724 2.23
195.0806 6.32
196.0888 4.42
198.9748 23.42
203.0856 2.74
204.0932 2.83
207.0811 40.0
209.0951 7.81
221.0952 23.44
222.104 100.0
222.975 9.71
224.1204 6.78
225.9866 4.08
240.0029 11.27
253.1452 9.65
254.0178 4.18
301.0206 10.43
332.0663 860.72
