>compound OXAPROZIN
>formula C18H15NO3
>ionization [M+H]+
>parentmass 294.1124697920905
#inchi InChI=1S/C18H15NO3/c20-16(21)12-11-15-19-17(13-7-3-1-4-8-13)18(22-15)14-9-5-2-6-10-14/h1-10H,11-12H2,(H,20,21)
#inchikey OFPXSFXSNFPTHF
#Ion_Source LC-ESI
#Instrument qTof
#Compound_Source Commercial
#PI Dorrestein
#Data_Collector Garg_Neha
#Scan -1
#Precursor_MZ 294.112
#ExactMass 293.105
#Charge 1
#CAS_Number N/A
#Pubmed_ID N/A
#Smiles OC(=O)CCc1nc(c(o1)c2ccccc2)c3ccccc3
#INCHI_AUX N/A
#Library_Class 1
#SpectrumID CCMSLIB00000078946
#IonMode Positive
#UpdateWorkflowName UPDATE-SINGLE-ANNOTATED-GOLD
#LibraryQualityString Gold
#TaskID 278b19f5865741e282cec7349aa7e7a1
##Scan# 1662
#SpectrumFile NCP003272_E2_F11_BC2_01_15715.mzXML
#LibraryName NIHcollectionI_05062014.mgf
#MQScore -1
#Organism NIHcollectionI_05062014
#TIC_Query 0
#RT_Query -1
#MZErrorPPM -1
#SharedPeaks 0
#MassDiff 0
#LibMZ -1
#SpecMZ 294.112
#SpecCharge 0
#internalFilename spec-00000.mgf

>collision 0
102.0475 0.32
103.0551 57.08
115.0545 1.59
117.07 4.33
152.0628 0.65
167.0863 1.89
177.0701 0.54
194.0957 1.24
195.081 0.67
206.0963 9.56
220.1125 0.48
222.0923 0.22
234.0917 16.8
248.105 0.71
249.1141 0.25
276.1039 100.0
294.1152 146.84
