>compound MLS001048919-01!(E)-N-[2-(1H-imidazol-5-yl)ethyl]-3-phenylprop-2-enamide
>formula C14H15N3O
>ionization [M+H]+
>parentmass 242.129
#inchi InChI=1S/C14H15N3O/c18-14(7-6-12-4-2-1-3-5-12)16-9-8-13-10-15-11-17-13/h1-7,10-11H,8-9H2,(H,15,17)(H,16,18)/b7-6+
#inchikey HCENGXRZXKAJLN
#Ion_Source LC-ESI
#Instrument qTof
#Compound_Source NIH Natural Product Library
#PI Dorrestein
#Data_Collector VVP/LMS
#Scan -1
#Precursor_MZ 242.129
#ExactMass 241.122
#Charge 1
#CAS_Number N/A
#Pubmed_ID N/A
#Smiles O=C(NCCc1c[nH]cn1)/C=C/c2ccccc2
#INCHI_AUX N/A
#Library_Class 1
#SpectrumID CCMSLIB00000079637
#IonMode Positive
#UpdateWorkflowName UPDATE-SINGLE-ANNOTATED-GOLD
#LibraryQualityString Gold
#TaskID b1d8e8f6646f4e71acdff9ca3d919d08
##Scan# 1446
#SpectrumFile p1-B09_GB9_01_17893.mzXML
#LibraryName NIH_Natural_Products_Library.mgf
#MQScore -1
#Organism NIH_Natural_Products_Library
#TIC_Query 0
#RT_Query -1
#MZErrorPPM -1
#SharedPeaks 0
#MassDiff 0
#LibMZ -1
#SpecMZ 242.129
#SpecCharge 0
#internalFilename spec-00000.mgf

>collision 0
95.0609 13.69
102.0471 3.14
103.0554 100.0
112.0875 5.64
131.0499 79.24
242.129 0.0
