>compound 6ALPHA-METHYL-11BETA-HYDROXYPROGESTERONE
>formula C22H32O3 
>ionization [M+H]+
>parentmass 345.243225
#inchi InChI=1S/C22H32O3/c1-12-9-15-17-6-5-16(13(2)23)22(17,4)11-19(25)20(15)21(3)8-7-14(24)10-18(12)21/h10,12,15-17,19-20,25H,5-9,11H2,1-4H3/t12-,15-,16+,17-,19-,20+,21-,22+/m0/s1
#inchikey GZENKSODFLBBHQ
#Ion_Source LC-ESI
#Instrument qTof
#Compound_Source Commercial
#PI Dorrestein
#Data_Collector Garg_Neha
#Scan -1
#Precursor_MZ 345.244
#ExactMass 344.235
#Charge 1
#CAS_Number N/A
#Pubmed_ID N/A
#Smiles N/A
#INCHI_AUX N/A
#Library_Class 1
#SpectrumID CCMSLIB00000077031
#IonMode Positive
#UpdateWorkflowName UPDATE-SINGLE-ANNOTATED-GOLD
#LibraryQualityString Gold
#TaskID 48f7f52fc6d249b5abbcc6e7b3df5969
##Scan# 1729
#SpectrumFile NCP003017_A2_B11_BA6_01_15701.mzXML
#LibraryName NIH_Clinical_Collection_2.mgf
#MQScore -1
#Organism NIHcollection2_04212014_2_mgf
#TIC_Query 0
#RT_Query -1
#MZErrorPPM -1
#SharedPeaks 0
#MassDiff 0
#LibMZ -1
#SpecMZ 345.244
#SpecCharge 0
#internalFilename spec-00000.mgf

>collision 0
97.0639 8.02
105.0699 2.45
109.1016 2.59
119.0851 3.54
121.1012 2.42
123.0804 5.68
131.0855 3.21
133.1008 4.31
135.0802 23.25
137.095 13.05
143.0845 3.13
145.1 3.94
147.1169 3.9
149.0977 2.65
155.0861 2.3
157.1018 3.77
159.1157 6.53
161.096 4.31
161.1324 4.58
173.1321 6.46
175.112 4.35
177.1277 6.01
185.1326 2.57
187.1118 2.71
187.1482 3.65
189.1261 7.98
191.1428 4.21
199.1475 3.42
203.1418 3.42
215.1444 2.28
225.1637 3.0
231.1746 3.5
241.1586 3.15
243.1741 5.12
251.1787 2.8
267.1744 2.96
267.2104 6.96
269.1905 4.89
285.2234 12.2
291.2134 3.71
309.223 31.1
327.234 100.0
345.2453 430.61
