>compound MLS001077345-01!
>formula C10H12ClN5O3
>ionization [M+H]+
>parentmass 286.07
#inchi InChI=1S/C10H12ClN5O3/c11-10-14-8(12)7-9(15-10)16(3-13-7)6-1-4(18)5(2-17)19-6/h3-6,17-18H,1-2H2,(H2,12,14,15)/t4-,5+,6+/m0/s1
#inchikey PTOAARAWEBMLNO
#Ion_Source LC-ESI
#Instrument qTof
#Compound_Source NIH Pharmacologically Active Library
#PI Dorrestein
#Data_Collector VP/LMS
#Scan -1
#Precursor_MZ 286.07
#ExactMass 285.063
#Charge 1
#CAS_Number N/A
#Pubmed_ID N/A
#Smiles Nc1nc(Cl)nc2n(cnc12)[C@H]3C[C@H](O)[C@@H](CO)O3
#INCHI_AUX N/A
#Library_Class 1
#SpectrumID CCMSLIB00000084991
#IonMode Positive
#UpdateWorkflowName UPDATE-SINGLE-ANNOTATED-GOLD
#LibraryQualityString Gold
#TaskID d252d724072548979f1f6f1ced849daf
##Scan# 1213
#SpectrumFile p3-D06_GD6_01_18263.mzXML
#LibraryName Pharm_Active_Library.mgf
#MQScore -1
#Organism Pharm_Active_Library
#TIC_Query 0
#RT_Query -1
#MZErrorPPM -1
#SharedPeaks 0
#MassDiff 0
#LibMZ -1
#SpecMZ 286.07
#SpecCharge 0
#internalFilename spec-00000.mgf

>collision 0
101.0242 4.88
107.0341 12.0
134.0448 100.0
145.0536 4.47
170.0227 92.47
286.07 0.0
