>compound Bisacodyl
>formula C22H19NO4
>ionization [M+H]+
>parentmass 362.138794
#inchi InChI=1S/C22H19NO4/c1-15(24)26-19-10-6-17(7-11-19)22(21-5-3-4-14-23-21)18-8-12-20(13-9-18)27-16(2)25/h3-14,22H,1-2H3
#inchikey KHOITXIGCFIULA
#Ion_Source LC-ESI
#Instrument qTof
#Compound_Source Commercial
#PI Dorrestein
#Data_Collector Garg_Neha
#Scan -1
#Precursor_MZ 362.139
#ExactMass 361.131
#Charge 1
#CAS_Number 30652-11-0
#Pubmed_ID N/A
#Smiles C1(=CC=C(C=C1)OC(=O)C)C(C2=CC=CC=N2)C3=CC=C(C=C3)OC(=O)C
#INCHI_AUX N/A
#Library_Class 1
#SpectrumID CCMSLIB00000078638
#IonMode Positive
#UpdateWorkflowName UPDATE-SINGLE-ANNOTATED-GOLD
#LibraryQualityString Gold
#TaskID 77f51c88eb8b467eb4a01dd2d0cb90d2
##Scan# 1257
#SpectrumFile Plate10_21_40_GC2_01_15744.mzXML
#LibraryName FDALibrary_2_04302014.mgf
#MQScore -1
#Organism FDALibrary_2_04302014
#TIC_Query 0
#RT_Query -1
#MZErrorPPM -1
#SharedPeaks 0
#MassDiff 0
#LibMZ -1
#SpecMZ 362.139
#SpecCharge 0
#internalFilename spec-00000.mgf

>collision 0
156.0812 3.27
183.0682 9.39
184.0756 100.0
227.0926 5.55
297.1115 2.94
362.1388 154.53
