>compound MLS000728660-01!
>formula C31H40O13
>ionization [M+H]+
>parentmass 621.255
#inchi InChI=1S/C31H40O13/c1-3-22-23(13-21-12-19(35)11-20(42-21)10-18(34)9-6-16-4-7-17(33)8-5-16)24(29(39)40-2)15-41-30(22)44-31-28(38)27(37)26(36)25(14-32)43-31/h3-5,7-8,15,20-23,25-28,30-33,36-38H,1,6,9-14H2,2H3/t20-,21+,22+,23-,25?,26?,27?,28?,30-,31?/m0/s1
#inchikey BAKYVUHOODEWGV
#Ion_Source LC-ESI
#Instrument qTof
#Compound_Source NIH Natural Product Library
#PI Dorrestein
#Data_Collector VVP/LMS
#Scan -1
#Precursor_MZ 621.255
#ExactMass 620.247
#Charge 1
#CAS_Number N/A
#Pubmed_ID N/A
#Smiles COC(=O)C1=CO[C@@H](OC2OC(CO)C(O)C(O)C2O)[C@H](C=C)[C@@H]1C[C@H]3CC(=O)C[C@H](CC(=O)CCc4ccc(O)cc4)O3
#INCHI_AUX N/A
#Library_Class 1
#SpectrumID CCMSLIB00000079454
#IonMode Positive
#UpdateWorkflowName UPDATE-SINGLE-ANNOTATED-GOLD
#LibraryQualityString Gold
#TaskID b1d8e8f6646f4e71acdff9ca3d919d08
##Scan# 1703
#SpectrumFile p1-E06_GE6_01_17926.mzXML
#LibraryName NIH_Natural_Products_Library.mgf
#MQScore -1
#Organism NIH_Natural_Products_Library
#TIC_Query 0
#RT_Query -1
#MZErrorPPM -1
#SharedPeaks 0
#MassDiff 0
#LibMZ -1
#SpecMZ 621.255
#SpecCharge 0
#internalFilename spec-00000.mgf

>collision 0
107.0489 100.0
111.0431 5.35
121.0266 6.88
123.044 7.16
129.0712 10.57
133.0656 5.22
139.0391 14.12
139.0768 5.91
145.0631 9.39
147.0441 8.28
151.0392 27.12
153.0565 9.32
159.0441 11.75
163.0752 9.6
165.0545 72.74
167.0692 23.5
175.0396 5.29
175.0765 17.39
177.0557 10.85
193.0859 19.61
217.0856 21.07
218.0929 4.94
225.0921 7.02
243.1 5.84
245.0793 6.54
261.1119 16.55
262.119 10.22
278.1153 6.33
279.1244 24.34
303.121 8.62
339.1216 6.68
391.1542 13.35
409.1674 28.58
621.2614 0.0
