>compound MLS000860026-01!R()-Propylnorapomorphine hydrochloride
>formula C19H21NO2
>ionization [M+H]+
>parentmass 296.16450536409053
#inchi InChI=1S/C19H21NO2/c1-2-9-20-10-8-12-4-3-5-14-17(12)15(20)11-13-6-7-16(21)19(22)18(13)14/h3-7,15,21-22H,2,8-11H2,1H3/t15-/m1/s1
#inchikey BTGAJCKRXPNBFI
#origInchi InChI=1S/C19H21NO2.ClH/c1-2-9-20-10-8-12-4-3-5-14-17(12)15(20)11-13-6-7-16(21)19(22)18(13)14;/h3-7,15,21-22H,2,8-11H2,1H3;1H/t15-;/m1./s1
#Ion_Source LC-ESI
#Instrument qTof
#Compound_Source NIH Pharmacologically Active Library
#PI Dorrestein
#Data_Collector VP/LMS
#Scan -1
#Precursor_MZ 296.167
#ExactMass 295.157
#Charge 1
#CAS_Number N/A
#Pubmed_ID N/A
#Smiles CCCN1CCc2cccc-3c2[C@H]1Cc4ccc(O)c(O)c43.Cl
#INCHI_AUX N/A
#Library_Class 1
#SpectrumID CCMSLIB00000085096
#IonMode Positive
#UpdateWorkflowName UPDATE-SINGLE-ANNOTATED-GOLD
#LibraryQualityString Gold
#TaskID d252d724072548979f1f6f1ced849daf
##Scan# 1410
#SpectrumFile p3-E10_GE10_01_18279.mzXML
#LibraryName Pharm_Active_Library.mgf
#MQScore -1
#Organism Pharm_Active_Library
#TIC_Query 0
#RT_Query -1
#MZErrorPPM -1
#SharedPeaks 0
#MassDiff 0
#LibMZ -1
#SpecMZ 296.167
#SpecCharge 0
#internalFilename spec-00000.mgf

>collision 0
165.0683 1.56
176.0625 0.69
179.0861 0.47
181.0658 0.41
189.0692 11.81
191.0848 100.0
201.0688 4.32
207.0794 0.3
209.0958 0.38
219.0793 34.35
237.0898 17.99
296.1645 0.0
