>compound 19-Nortestosterone
>formula C18H26O2
>ionization [M+H]+
>parentmass 275.20055652409053
#inchi InChI=1S/C18H26O2/c1-18-9-8-14-13-5-3-12(19)10-11(13)2-4-15(14)16(18)6-7-17(18)20/h10,13-17,20H,2-9H2,1H3/t13-,14+,15+,16-,17-,18-/m0/s1
#inchikey NPAGDVCDWIYMMC
#Ion_Source LC-ESI
#Instrument qTof
#Compound_Source Commercial
#PI Dorrestein
#Data_Collector Garg_Neha
#Scan -1
#Precursor_MZ 275.201
#ExactMass 274.193
#Charge 1
#CAS_Number N/A
#Pubmed_ID N/A
#Smiles C[C@@]12CC[C@H]3[C@@H](CCC4=CC(=O)CC[C@H]34)[C@@H]2CC[C@@H]1O
#INCHI_AUX N/A
#Library_Class 1
#SpectrumID CCMSLIB00000079002
#IonMode Positive
#UpdateWorkflowName UPDATE-SINGLE-ANNOTATED-GOLD
#LibraryQualityString Gold
#TaskID 278b19f5865741e282cec7349aa7e7a1
##Scan# 1351
#SpectrumFile NCP003352_E2_F11_BC6_01_15720.mzXML
#LibraryName NIHcollectionI_05062014.mgf
#MQScore -1
#Organism NIHcollectionI_05062014
#TIC_Query 0
#RT_Query -1
#MZErrorPPM -1
#SharedPeaks 0
#MassDiff 0
#LibMZ -1
#SpecMZ 275.201
#SpecCharge 0
#internalFilename spec-00000.mgf

>collision 0
95.0861 2.97
105.0707 6.97
107.0483 6.63
107.0863 6.71
109.0652 49.56
117.0694 3.24
119.0858 7.72
121.1019 6.24
123.0802 2.31
129.0704 2.73
131.0856 7.74
133.1014 8.81
135.08 6.77
135.1165 11.1
141.0693 2.66
142.0777 2.85
143.0851 15.66
145.1017 34.79
147.0819 3.98
147.1165 14.53
149.0963 9.48
149.132 9.55
155.0856 4.81
157.1016 11.25
159.1172 8.88
161.0959 12.9
161.1321 11.26
163.112 12.95
171.1167 7.05
173.1309 2.76
175.1114 7.35
175.1489 3.48
177.1269 3.78
183.1172 13.75
185.1325 14.0
187.1483 19.8
189.128 2.84
197.1331 10.08
199.1486 18.27
201.1265 8.05
203.1431 10.55
213.1647 6.78
215.1419 2.89
217.1585 2.53
229.1955 3.12
231.174 6.27
239.1798 69.2
257.1908 100.0
275.2031 520.3
