>compound Nobiletin
>formula C21H22O8
>ionization [M+H]+
>parentmass 403.1387441160905
#inchi InChI=1S/C21H22O8/c1-23-13-8-7-11(9-15(13)24-2)14-10-12(22)16-17(25-3)19(26-4)21(28-6)20(27-5)18(16)29-14/h7-10H,1-6H3
#inchikey MRIAQLRQZPPODS
#Ion_Source LC-ESI
#Instrument qTof
#Compound_Source Commercial
#PI Dorrestein
#Data_Collector Garg_Neha
#Scan -1
#Precursor_MZ 403.139
#ExactMass 402.131
#Charge 1
#CAS_Number N/A
#Pubmed_ID N/A
#Smiles COc1ccc(cc1OC)c2cc(=O)c3c(OC)c(OC)c(OC)c(OC)c3o2
#INCHI_AUX N/A
#Library_Class 1
#SpectrumID CCMSLIB00000078911
#IonMode Positive
#UpdateWorkflowName UPDATE-SINGLE-ANNOTATED-GOLD
#LibraryQualityString Gold
#TaskID 278b19f5865741e282cec7349aa7e7a1
##Scan# 1472
#SpectrumFile NCP003272_A2_B11_BB8_01_15713.mzXML
#LibraryName NIHcollectionI_05062014.mgf
#MQScore -1
#Organism NIHcollectionI_05062014
#TIC_Query 0
#RT_Query -1
#MZErrorPPM -1
#SharedPeaks 0
#MassDiff 0
#LibMZ -1
#SpecMZ 403.139
#SpecCharge 0
#internalFilename spec-00000.mgf

>collision 0
165.0202 0.74
183.0295 3.52
193.0136 0.68
211.0238 4.79
244.0712 0.56
258.0512 1.24
272.0674 0.49
274.0821 0.86
299.0914 1.44
301.0691 1.93
302.0782 1.32
309.0746 0.62
313.0709 1.35
315.0511 1.83
325.0688 0.5
327.0869 9.7
328.0597 0.72
328.0916 2.22
329.0657 2.28
330.0738 6.58
341.0993 1.19
343.0443 1.82
343.0796 1.29
344.0894 1.25
345.0983 5.64
346.1026 0.76
355.0806 8.13
356.0886 1.0
358.0679 11.76
359.0731 2.75
369.095 0.95
373.0931 100.0
374.0963 22.34
387.1072 1.76
388.1152 6.97
403.1409 235.31
