>compound MLS001140885-01!3-(5-hydroxy-1H-indol-3-yl)-2-[2-(2-oxochromen-7-yl)oxypropanoylamino]propanoic acid
>formula C23H20N2O7
>ionization [M+H]+
>parentmass 437.135
#inchi InChI=1S/C23H20N2O7/c1-12(31-16-5-2-13-3-7-21(27)32-20(13)10-16)22(28)25-19(23(29)30)8-14-11-24-18-6-4-15(26)9-17(14)18/h2-7,9-12,19,24,26H,8H2,1H3,(H,25,28)(H,29,30)
#inchikey HQVRAAHWGUMKGD
#Ion_Source LC-ESI
#Instrument qTof
#Compound_Source NIH Natural Product Library
#PI Dorrestein
#Data_Collector VVP/LMS
#Scan -1
#Precursor_MZ 437.135
#ExactMass 436.127
#Charge 1
#CAS_Number N/A
#Pubmed_ID N/A
#Smiles CC(Oc1ccc2ccc(=O)oc2c1)C(=O)NC(Cc3c[nH]c4ccc(O)cc34)C(=O)O
#INCHI_AUX N/A
#Library_Class 1
#SpectrumID CCMSLIB00000080037
#IonMode Positive
#UpdateWorkflowName UPDATE-SINGLE-ANNOTATED-GOLD
#LibraryQualityString Gold
#TaskID b1d8e8f6646f4e71acdff9ca3d919d08
##Scan# 1686
#SpectrumFile p2-C03_GC3_01_18003.mzXML
#LibraryName NIH_Natural_Products_Library.mgf
#MQScore -1
#Organism NIH_Natural_Products_Library
#TIC_Query 0
#RT_Query -1
#MZErrorPPM -1
#SharedPeaks 0
#MassDiff 0
#LibMZ -1
#SpecMZ 437.135
#SpecCharge 0
#internalFilename spec-00000.mgf

>collision 0
103.0545 7.06
105.0712 6.44
107.0487 6.58
115.053 7.93
117.0316 6.2
118.0643 5.72
120.0582 4.85
121.0654 4.18
131.0486 6.82
132.0588 3.27
133.0659 5.67
134.0614 19.7
145.0273 8.84
145.065 3.7
146.061 100.0
147.0647 7.21
148.0523 4.71
148.0769 13.41
156.0795 3.41
158.0607 26.0
159.0674 13.6
160.0749 21.96
161.0598 16.72
162.0558 18.89
163.0757 32.72
170.0605 6.63
171.0687 6.1
172.0767 3.6
174.0789 35.51
175.0869 26.09
176.0537 3.65
184.0758 12.59
186.0566 35.51
186.09 11.0
187.0599 6.1
189.0556 62.09
190.0598 11.68
201.1033 6.01
202.1088 3.36
204.0658 22.25
213.1006 3.94
214.0852 8.41
229.1 4.04
230.1056 11.0
233.0766 7.26
391.129 4.85
392.1265 3.41
437.135 0.0
