>compound HOMOHARRINGTONINE
>formula C29H39NO9
>ionization [M+H]+
>parentmass 546.2697582800906
#inchi InChI=1S/C29H39NO9/c1-27(2,33)8-5-10-29(34,16-23(31)36-4)26(32)39-25-22(35-3)15-28-9-6-11-30(28)12-7-18-13-20-21(38-17-37-20)14-19(18)24(25)28/h13-15,24-25,33-34H,5-12,16-17H2,1-4H3/t24-,25-,28+,29-/m1/s1
#inchikey HYFHYPWGAURHIV
#Ion_Source LC-ESI
#Instrument qTof
#Compound_Source Commercial
#PI Dorrestein
#Data_Collector Garg_Neha
#Scan -1
#Precursor_MZ 546.27
#ExactMass 545.263
#Charge 1
#CAS_Number N/A
#Pubmed_ID N/A
#Smiles COC(=O)C[C@](O)(CCCC(C)(C)O)C(=O)O[C@H]1[C@H]2c3cc4OCOc4cc3CCN5CCC[C@]25C=C1OC
#INCHI_AUX N/A
#Library_Class 1
#SpectrumID CCMSLIB00000079065
#IonMode Positive
#UpdateWorkflowName UPDATE-SINGLE-ANNOTATED-GOLD
#LibraryQualityString Gold
#TaskID 278b19f5865741e282cec7349aa7e7a1
##Scan# 1037
#SpectrumFile NCP003432_C2_D11_BD1_01_15723.mzXML
#LibraryName NIHcollectionI_05062014.mgf
#MQScore -1
#Organism NIHcollectionI_05062014
#TIC_Query 0
#RT_Query -1
#MZErrorPPM -1
#SharedPeaks 0
#MassDiff 0
#LibMZ -1
#SpecMZ 546.27
#SpecCharge 0
#internalFilename spec-00000.mgf

>collision 0
149.06 0.9
150.0921 8.22
173.0601 1.35
176.0709 3.58
185.0598 0.78
200.0702 0.74
208.1127 0.93
214.0852 0.82
215.0696 2.07
219.0818 0.82
223.0753 2.96
223.1112 2.0
225.0898 1.26
226.0872 7.05
227.0948 12.48
228.0988 2.67
229.0871 2.34
229.1096 4.03
236.1063 1.89
237.0908 2.11
238.0875 1.64
240.1026 7.07
241.1053 1.72
242.083 1.86
249.0918 1.08
251.1057 8.68
253.0875 3.79
253.1079 3.45
254.1145 1.51
266.1182 18.79
267.1243 12.06
268.098 1.44
268.1308 3.42
269.1171 1.76
270.1132 4.21
271.1162 0.91
281.1169 3.16
282.1151 1.73
283.1205 4.12
284.1287 16.31
285.131 2.95
296.1282 1.86
298.1458 100.0
299.1476 27.64
316.1547 7.98
317.1572 2.04
544.2535 2.28
546.2726 110.46
