>compound Sparfloxacin
>formula C19H22F2N4O3
>ionization [M+H]+
>parentmass 393.1732734560905
#inchi InChI=1S/C19H22F2N4O3/c1-8-5-24(6-9(2)23-8)17-13(20)15(22)12-16(14(17)21)25(10-3-4-10)7-11(18(12)26)19(27)28/h7-10,23H,3-6,22H2,1-2H3,(H,27,28)/t8-,9+
#inchikey DZZWHBIBMUVIIW
#Ion_Source LC-ESI
#Instrument qTof
#Compound_Source Commercial
#PI Dorrestein
#Data_Collector Garg_Neha
#Scan -1
#Precursor_MZ 393.173
#ExactMass 392.166
#Charge 1
#CAS_Number 110871-86-8
#Pubmed_ID N/A
#Smiles [C@@H]1(N[C@H](CN(C1)C2=C(C3=C(C(=C2F)N)C(C(=CN3C4CC4)C(O)=O)=O)F)C)C
#INCHI_AUX N/A
#Library_Class 1
#SpectrumID CCMSLIB00000078326
#IonMode Positive
#UpdateWorkflowName UPDATE-SINGLE-ANNOTATED-GOLD
#LibraryQualityString Gold
#TaskID 77f51c88eb8b467eb4a01dd2d0cb90d2
##Scan# 1055
#SpectrumFile Plate5_41_60_GH8_01_16510.mzXML
#LibraryName FDALibrary_2_04302014.mgf
#MQScore -1
#Organism FDALibrary_2_04302014
#TIC_Query 0
#RT_Query -1
#MZErrorPPM -1
#SharedPeaks 0
#MassDiff 0
#LibMZ -1
#SpecMZ 393.173
#SpecCharge 0
#internalFilename spec-00000.mgf

>collision 0
196.0432 1.89
209.0526 1.98
210.0603 4.16
214.0534 1.74
215.0606 2.04
221.0513 1.73
224.0745 4.25
230.0723 24.49
231.0788 16.01
232.0838 2.82
235.0688 4.7
237.0834 8.98
238.0819 4.88
244.0881 3.94
245.0964 2.88
246.1014 2.67
251.0871 100.0
252.0918 14.59
253.1042 1.86
256.087 1.73
264.0575 5.45
265.1036 5.23
270.1047 1.91
271.1077 2.21
272.1193 4.16
273.116 2.6
277.0652 13.83
286.1306 3.35
288.1428 1.76
292.1266 85.0
306.1412 7.36
307.1478 2.03
312.1382 1.97
314.1552 1.82
318.106 12.57
327.1619 2.51
332.1558 2.06
336.1154 3.15
349.1852 98.9
375.1639 12.25
376.1686 2.21
393.1782 316.28
