>compound Pyochelin
>formula C14H16N2O3S2 
>ionization [M+H]+
>parentmass 325.068
#inchi InChI=1S/C14H16N2O3S2/c1-16-10(14(18)19)7-21-13(16)9-6-20-12(15-9)8-4-2-3-5-11(8)17/h2-5,9-10,13,15H,6-7H2,1H3,(H,18,19)/b12-8+/t9-,10+,13?/m1/s1
#inchikey VRTHPBIMOLQLGL
#Ion_Source DI-ESI
#Instrument LTQ-FT-ICR
#Compound_Source Crude
#PI Dorrestein
#Data_Collector J Watrous
#Scan -1
#Precursor_MZ 325.068
#ExactMass 0.0
#Charge 1
#CAS_Number N/A
#Pubmed_ID N/A
#Smiles N/A
#INCHI_AUX N/A
#Library_Class 3
#SpectrumID CCMSLIB00000072237
#IonMode Positive
#UpdateWorkflowName UPDATE-SINGLE-ANNOTATED-BRONZE
#LibraryQualityString Bronze
#TaskID 3bbf0c46eeeb406782b2f3cd0ad9b2b3
##Scan# 1
#SpectrumFile Pyochelin_1H_LTQ_325_0675.mzXML
#LibraryName gnps_library.mgf
#MQScore -1
#Organism GNPS_JDW_Batch_Library_Centroid
#TIC_Query 0
#RT_Query -1
#MZErrorPPM -1
#SharedPeaks 0
#MassDiff 0
#LibMZ -1
#SpecMZ 325.068
#SpecCharge 0
#internalFilename spec-00000.mgf

>collision 0
95.0011 2.27
114.0011 0.66
132.0011 0.71
133.092 0.68
146.0011 7.17
159.0011 16.58
160.0011 73.13
165.092 1.69
172.0011 100.0
174.0011 1.16
186.0011 10.2
190.0011 5.66
221.092 1.27
228.092 3.83
235.0011 2.06
240.092 1.37
325.0691 0.0
