>compound Riluzole (Rilutek)
>formula C8H5F3N2OS
>ionization [M+H]+
>parentmass 235.015
#inchi InChI=1S/C8H5F3N2OS/c9-8(10,11)14-4-1-2-5-6(3-4)15-7(12)13-5/h1-3H,(H2,12,13)
#inchikey FTALBRSUTCGOEG
#Ion_Source LC-ESI
#Instrument qTof
#Compound_Source Commercial
#PI Dorrestein
#Data_Collector Garg_Neha
#Scan -1
#Precursor_MZ 235.015
#ExactMass 234.007
#Charge 1
#CAS_Number 1744-22-5
#Pubmed_ID N/A
#Smiles C12=C(C=CC(=C1)OC(F)(F)F)N=C(S2)N
#INCHI_AUX N/A
#Library_Class 1
#SpectrumID CCMSLIB00000078205
#IonMode Positive
#UpdateWorkflowName UPDATE-SINGLE-ANNOTATED-GOLD
#LibraryQualityString Gold
#TaskID 77f51c88eb8b467eb4a01dd2d0cb90d2
##Scan# 1234
#SpectrumFile Plate3_41_60_GG11_01_16500.mzXML
#LibraryName FDALibrary_2_04302014.mgf
#MQScore -1
#Organism FDALibrary_2_04302014
#TIC_Query 0
#RT_Query -1
#MZErrorPPM -1
#SharedPeaks 0
#MassDiff 0
#LibMZ -1
#SpecMZ 235.015
#SpecCharge 0
#internalFilename spec-00000.mgf

>collision 0
75.0365 1.22
96.0041 2.78
110.0406 1.26
111.0138 1.96
122.0068 8.83
123.9993 6.8
131.006 1.06
133.0414 2.84
138.0256 38.64
142.0133 1.23
149.019 20.38
166.0204 100.0
169.0229 4.32
176.0326 18.97
192.9947 61.7
202.0353 5.83
208.0049 70.86
235.0173 975.76
