>compound MLS001076668-01!BENAZEPRIL HYDROCHLORIDE
>formula C24H28N2O5
>ionization [M+H]+
>parentmass 425.205444
#inchi InChI=1S/C24H28N2O5/c1-2-31-24(30)20(14-12-17-8-4-3-5-9-17)25-19-15-13-18-10-6-7-11-21(18)26(23(19)29)16-22(27)28/h3-11,19-20,25H,2,12-16H2,1H3,(H,27,28)/t19-,20-/m0/s1
#inchikey XPCFTKFZXHTYIP
#origInchi InChI=1S/C24H28N2O5.ClH/c1-2-31-24(30)20(14-12-17-8-4-3-5-9-17)25-19-15-13-18-10-6-7-11-21(18)26(23(19)29)16-22(27)28;/h3-11,19-20,25H,2,12-16H2,1H3,(H,27,28);1H/t19-,20-;/m0./s1
#Ion_Source LC-ESI
#Instrument qTof
#Compound_Source NIH Pharmacologically Active Library
#PI Dorrestein
#Data_Collector VP/LMS
#Scan -1
#Precursor_MZ 425.2
#ExactMass 424.2
#Charge 1
#CAS_Number N/A
#Pubmed_ID N/A
#Smiles CCOC(=O)[C@H](CCc1ccccc1)N[C@H]2CCc3ccccc3N(CC(=O)O)C2=O.Cl
#INCHI_AUX N/A
#Library_Class 1
#SpectrumID CCMSLIB00000085360
#IonMode Positive
#UpdateWorkflowName UPDATE-SINGLE-ANNOTATED-GOLD
#LibraryQualityString Gold
#TaskID d252d724072548979f1f6f1ced849daf
##Scan# 1739
#SpectrumFile p3-H09_GH9_01_18314.mzXML
#LibraryName Pharm_Active_Library.mgf
#MQScore -1
#Organism Pharm_Active_Library
#TIC_Query 0
#RT_Query -1
#MZErrorPPM -1
#SharedPeaks 0
#MassDiff 0
#LibMZ -1
#SpecMZ 425.2
#SpecCharge 0
#internalFilename spec-00000.mgf

>collision 0
91.0544 3.23
115.0534 1.61
117.0697 9.43
118.0657 38.67
120.0811 1.8
130.065 13.97
131.0732 16.07
132.0794 4.37
134.095 0.53
136.0762 0.67
144.0808 21.62
146.0957 9.4
154.0668 0.36
156.0808 0.4
162.0915 8.39
164.0708 16.24
172.0752 1.34
172.1122 1.03
190.0869 100.0
247.1061 1.57
273.1218 0.47
323.1761 0.56
351.1708 92.38
425.2054 1.09
