>compound 7-nitro-5-phenyl-1,3-dihydro-1,4-benzodiazepin-2-one
>formula C15H11N3O3
>ionization [M+H]+
>parentmass 282.087
#inchi InChI=1S/C15H11N3O3/c19-14-9-16-15(10-4-2-1-3-5-10)12-8-11(18(20)21)6-7-13(12)17-14/h1-8H,9H2,(H,17,19)
#inchikey KJONHKAYOJNZEC
#Ion_Source LC-ESI
#Instrument qTof
#Compound_Source Commercial
#PI Dorrestein
#Data_Collector Garg_Neha
#Scan -1
#Precursor_MZ 282.087
#ExactMass 281.08
#Charge 1
#CAS_Number N/A
#Pubmed_ID N/A
#Smiles [O-][N+](=O)c1ccc2NC(=O)CN=C(c3ccccc3)c2c1
#INCHI_AUX N/A
#Library_Class 1
#SpectrumID CCMSLIB00000078921
#IonMode Positive
#UpdateWorkflowName UPDATE-SINGLE-ANNOTATED-GOLD
#LibraryQualityString Gold
#TaskID 278b19f5865741e282cec7349aa7e7a1
##Scan# 1250
#SpectrumFile NCP003272_C2_D11_BC1_01_15714.mzXML
#LibraryName NIHcollectionI_05062014.mgf
#MQScore -1
#Organism NIHcollectionI_05062014
#TIC_Query 0
#RT_Query -1
#MZErrorPPM -1
#SharedPeaks 0
#MassDiff 0
#LibMZ -1
#SpecMZ 282.087
#SpecCharge 0
#internalFilename spec-00000.mgf

>collision 0
104.0494 0.94
105.0463 0.46
116.0513 0.67
129.0436 0.44
130.0517 1.24
151.0501 0.52
152.0614 0.43
156.0802 0.42
158.0476 2.32
164.0616 0.58
165.0413 0.49
165.0697 0.62
168.0806 0.95
176.0464 2.32
177.0427 0.48
179.0727 2.62
180.0812 33.6
181.0853 5.18
183.0913 0.47
184.0762 0.51
187.036 1.12
190.0661 1.91
191.0722 1.23
192.0815 1.21
193.0873 0.91
194.0926 1.05
195.0696 0.57
195.0909 1.33
196.0773 2.45
204.0401 0.38
206.0597 0.46
206.0826 1.24
207.0926 32.53
208.098 12.0
211.0879 3.03
217.077 0.38
219.0674 0.57
223.0866 1.51
224.0939 0.78
225.0905 0.39
235.0869 9.95
236.0949 58.42
238.0977 0.9
239.0819 3.31
240.0886 5.92
251.0818 3.19
252.0875 1.9
253.084 0.64
254.093 2.1
265.0831 0.38
268.0854 100.0
282.087 0.0
