>compound MLS000736759-01!Guanabenz
>formula C8H8Cl2N4
>ionization [M+H]+
>parentmass 231.019669
#inchi InChI=1S/C8H8Cl2N4/c9-6-2-1-3-7(10)5(6)4-13-14-8(11)12/h1-4H,(H4,11,12,14)
#inchikey WDZVGELJXXEGPV
#Ion_Source LC-ESI
#Instrument qTof
#Compound_Source NIH Pharmacologically Active Library
#PI Dorrestein
#Data_Collector VP/LMS
#Scan -1
#Precursor_MZ 231.022
#ExactMass 230.013
#Charge 1
#CAS_Number N/A
#Pubmed_ID N/A
#Smiles NC(=N)NN=Cc1c(Cl)cccc1Cl
#INCHI_AUX N/A
#Library_Class 1
#SpectrumID CCMSLIB00000085874
#IonMode Positive
#UpdateWorkflowName UPDATE-SINGLE-ANNOTATED-GOLD
#LibraryQualityString Gold
#TaskID d252d724072548979f1f6f1ced849daf
##Scan# 1421
#SpectrumFile p4-G06_GG6_01_18402.mzXML
#LibraryName Pharm_Active_Library.mgf
#MQScore -1
#Organism Pharm_Active_Library
#TIC_Query 0
#RT_Query -1
#MZErrorPPM -1
#SharedPeaks 0
#MassDiff 0
#LibMZ -1
#SpecMZ 231.022
#SpecCharge 0
#internalFilename spec-00000.mgf

>collision 0
100.0189 32.58
104.0131 1.0
105.0213 1.15
108.9845 21.67
111.9947 3.95
112.9794 2.51
117.0445 0.81
118.029 1.27
118.0517 1.12
126.0099 1.1
132.9607 1.1
135.9951 15.58
139.9906 2.05
144.9605 6.75
153.0195 5.59
154.0051 5.4
158.9764 3.0
164.0007 20.91
171.9718 100.0
188.999 3.51
213.9932 10.72
231.0197 1.13
