>compound MLS002153284-01!
>formula C10H12ClN5O4
>ionization [M+H]+
>parentmass 302.06505799609056
#inchi InChI=1S/C10H12ClN5O4/c11-10-14-7(12)4-8(15-10)16(2-13-4)9-6(19)5(18)3(1-17)20-9/h2-3,5-6,9,17-19H,1H2,(H2,12,14,15)/t3-,5-,6-,9-/m1/s1
#inchikey BIXYYZIIJIXVFW
#Ion_Source LC-ESI
#Instrument qTof
#Compound_Source NIH Pharmacologically Active Library
#PI Dorrestein
#Data_Collector VP/LMS
#Scan -1
#Precursor_MZ 302.071
#ExactMass 301.058
#Charge 1
#CAS_Number N/A
#Pubmed_ID N/A
#Smiles Nc1nc(Cl)nc2n(cnc12)[C@@H]3O[C@H](CO)[C@@H](O)[C@H]3O
#INCHI_AUX N/A
#Library_Class 1
#SpectrumID CCMSLIB00000086051
#IonMode Positive
#UpdateWorkflowName UPDATE-SINGLE-ANNOTATED-GOLD
#LibraryQualityString Gold
#TaskID d252d724072548979f1f6f1ced849daf
##Scan# 1131
#SpectrumFile p5-C04_GC4_01_18449.mzXML
#LibraryName Pharm_Active_Library.mgf
#MQScore -1
#Organism Pharm_Active_Library
#TIC_Query 0
#RT_Query -1
#MZErrorPPM -1
#SharedPeaks 0
#MassDiff 0
#LibMZ -1
#SpecMZ 302.071
#SpecCharge 0
#internalFilename spec-00000.mgf

>collision 0
62.0113 1.33
107.0351 5.37
108.0386 1.36
133.0496 1.36
134.0471 87.35
135.0455 6.7
152.0578 8.09
153.0606 2.17
170.0237 100.0
302.0651 0.0
