>compound Azacyclonol
>formula C18H21NO
>ionization [M+H]+
>parentmass 268.170715
#inchi InChI=1S/C18H21NO/c20-18(15-7-3-1-4-8-15,16-9-5-2-6-10-16)17-11-13-19-14-12-17/h1-10,17,19-20H,11-14H2
#inchikey ZMISODWVFHHWNR
#Ion_Source LC-ESI
#Instrument qTof
#Compound_Source Commercial
#PI Dorrestein
#Data_Collector Garg_Neha
#Scan -1
#Precursor_MZ 268.17
#ExactMass 267.162
#Charge 1
#CAS_Number 115-46-8, 595598-07-5, 1798-50-1 (HCl)
#Pubmed_ID N/A
#Smiles N1CCC(CC1)C(O)(C2C=CC=CC=2)C3C=CC=CC=3
#INCHI_AUX N/A
#Library_Class 1
#SpectrumID CCMSLIB00000078604
#IonMode Positive
#UpdateWorkflowName UPDATE-SINGLE-ANNOTATED-GOLD
#LibraryQualityString Gold
#TaskID 77f51c88eb8b467eb4a01dd2d0cb90d2
##Scan# 1076
#SpectrumFile Plate9_61_80_GC7_01_15756.mzXML
#LibraryName FDALibrary_2_04302014.mgf
#MQScore -1
#Organism FDALibrary_2_04302014
#TIC_Query 0
#RT_Query -1
#MZErrorPPM -1
#SharedPeaks 0
#MassDiff 0
#LibMZ -1
#SpecMZ 268.17
#SpecCharge 0
#internalFilename spec-00000.mgf

>collision 0
91.0539 4.21
103.0544 1.32
105.0692 4.27
115.0534 1.83
117.0686 1.82
119.0865 0.21
127.0541 0.76
128.0626 11.75
129.0683 3.92
130.066 2.66
132.0808 9.88
141.0698 0.69
143.086 33.42
145.0896 0.83
146.0969 0.8
152.0621 0.97
153.0696 0.46
155.0855 0.48
165.0707 1.56
166.0772 2.11
167.0868 12.5
172.1104 1.16
178.0789 0.98
179.0841 1.1
181.1018 7.43
191.0855 0.66
192.0931 0.55
193.101 0.29
204.0946 1.1
205.1014 1.41
207.1186 1.29
219.1168 1.32
221.1324 1.71
251.1649 49.63
268.1726 42.07
