>compound Cefditoren pivoxil
>formula C25H28N6O7S3
>ionization [M+H]+
>parentmass 621.126404
#inchi InChI=1S/C25H28N6O7S3/c1-12-15(41-10-27-12)7-6-13-8-39-21-17(29-19(32)16(30-36-5)14-9-40-24(26)28-14)20(33)31(21)18(13)22(34)37-11-38-23(35)25(2,3)4/h6-7,9-10,17,21H,8,11H2,1-5H3,(H2,26,28)(H,29,32)/b7-6-,30-16-/t17-,21+/m0/s1
#inchikey AFZFFLVORLEPPO
#Ion_Source LC-ESI
#Instrument qTof
#Compound_Source Commercial
#PI Dorrestein
#Data_Collector Garg_Neha
#Scan -1
#Precursor_MZ 621.125
#ExactMass 620.118
#Charge 1
#CAS_Number 117467-28-4
#Pubmed_ID N/A
#Smiles N12[C@](SCC(=C1C(=O)OCOC(C(C)(C)C)=O)\C=C/C3SC=NC=3C)([C@H](C2=O)NC(=O)/C(=N\OC)C4=CSC(=N4)N)[H]
#INCHI_AUX N/A
#Library_Class 1
#SpectrumID CCMSLIB00000078282
#IonMode Positive
#UpdateWorkflowName UPDATE-SINGLE-ANNOTATED-GOLD
#LibraryQualityString Gold
#TaskID 77f51c88eb8b467eb4a01dd2d0cb90d2
##Scan# 1319
#SpectrumFile Plate4_61_88_GH5_01_16506.mzXML
#LibraryName FDALibrary_2_04302014.mgf
#MQScore -1
#Organism FDALibrary_2_04302014
#TIC_Query 0
#RT_Query -1
#MZErrorPPM -1
#SharedPeaks 0
#MassDiff 0
#LibMZ -1
#SpecMZ 621.125
#SpecCharge 0
#internalFilename spec-00000.mgf

>collision 0
125.0062 3.16
126.0123 7.05
141.0009 2.26
156.023 6.86
162.037 5.22
166.031 10.64
167.0365 1.94
181.0184 2.68
182.028 4.65
197.0493 20.31
205.0396 2.17
207.9897 42.66
209.0111 11.06
210.0202 19.79
212.0158 2.27
213.0453 3.56
217.0425 2.63
223.0514 1.81
225.041 2.03
225.998 3.06
227.0049 4.82
241.0395 100.0
243.0347 7.6
249.0169 17.17
257.0163 2.82
258.0218 1.95
261.0158 2.28
262.9946 8.3
267.0245 4.89
276.0259 2.43
285.012 6.59
304.0207 2.41
350.0237 2.04
351.0862 2.26
381.0935 7.44
461.0514 3.56
489.0485 5.77
507.0547 17.16
546.0931 3.73
591.1143 21.16
592.1119 6.25
621.1254 244.76
