>compound Methoxsalen
>formula C12H8O4 
>ionization [M+H]+
>parentmass 217.050278
#inchi InChI=1S/C12H8O4/c1-14-12-10-8(4-5-15-10)6-7-2-3-9(13)16-11(7)12/h2-6H,1H3
#inchikey QXKHYNVANLEOEG
#Ion_Source LC-ESI
#Instrument qTof
#Compound_Source Commercial
#PI Dorrestein
#Data_Collector Garg_Neha
#Scan -1
#Precursor_MZ 217.051
#ExactMass 216.042
#Charge 1
#CAS_Number N/A
#Pubmed_ID N/A
#Smiles N/A
#INCHI_AUX N/A
#Library_Class 1
#SpectrumID CCMSLIB00000077111
#IonMode Positive
#UpdateWorkflowName UPDATE-SINGLE-ANNOTATED-GOLD
#LibraryQualityString Gold
#TaskID 48f7f52fc6d249b5abbcc6e7b3df5969
##Scan# 1307
#SpectrumFile NCP003106_E2_F11_BB4_01_15707.mzXML
#LibraryName NIH_Clinical_Collection_2.mgf
#MQScore -1
#Organism NIHcollection2_04212014_2_mgf
#TIC_Query 0
#RT_Query -1
#MZErrorPPM -1
#SharedPeaks 0
#MassDiff 0
#LibMZ -1
#SpecMZ 217.051
#SpecCharge 0
#internalFilename spec-00000.mgf

>collision 0
118.0396 12.94
119.0476 6.63
145.0658 7.12
157.0284 10.36
158.0365 6.96
173.0579 7.44
174.0315 100.0
185.024 9.71
189.056 15.7
202.0265 49.84
217.0503 251.46
