>compound MLS000028587-01!MELOXICAM
>formula C14H13N3O4S2
>ionization [M+H]+
>parentmass 352.040985
#inchi InChI=1S/C14H13N3O4S2/c1-8-7-15-14(22-8)16-13(19)11-12(18)9-5-3-4-6-10(9)23(20,21)17(11)2/h3-7,18H,1-2H3,(H,15,16,19)
#inchikey ZRVUJXDFFKFLMG
#Ion_Source LC-ESI
#Instrument qTof
#Compound_Source NIH Pharmacologically Active Library
#PI Dorrestein
#Data_Collector VP/LMS
#Scan -1
#Precursor_MZ 352.048
#ExactMass 351.035
#Charge 1
#CAS_Number N/A
#Pubmed_ID N/A
#Smiles CN1C(=C(O)c2ccccc2S1(=O)=O)C(=O)Nc3ncc(C)s3
#INCHI_AUX N/A
#Library_Class 1
#SpectrumID CCMSLIB00000085616
#IonMode Positive
#UpdateWorkflowName UPDATE-SINGLE-ANNOTATED-GOLD
#LibraryQualityString Gold
#TaskID d252d724072548979f1f6f1ced849daf
##Scan# 2025
#SpectrumFile p4-D06_GD6_01_18366.mzXML
#LibraryName Pharm_Active_Library.mgf
#MQScore -1
#Organism Pharm_Active_Library
#TIC_Query 0
#RT_Query -1
#MZErrorPPM -1
#SharedPeaks 0
#MassDiff 0
#LibMZ -1
#SpecMZ 352.048
#SpecCharge 0
#internalFilename spec-00000.mgf

>collision 0
88.0228 0.36
91.0544 0.32
97.0098 0.62
104.0246 0.25
105.0344 0.94
109.0106 1.88
113.0171 1.36
114.0018 2.35
115.0342 100.0
118.0646 0.34
120.0209 0.24
121.0285 0.34
125.0063 1.04
127.0321 0.55
135.9975 0.51
137.0059 1.93
141.0131 84.07
146.0594 0.83
153.0011 7.43
154.005 0.74
156.0584 0.25
164.0162 2.31
176.0163 0.29
184.0539 0.64
194.0262 0.95
352.042 0.16
