>compound MLS001333745-01!13292-46-1
>formula C43H58N4O12
>ionization [M+H]+
>parentmass 823.4123997480906
#inchi InChI=1S/C43H58N4O12/c1-21-12-11-13-22(2)42(55)45-33-28(20-44-47-17-15-46(9)16-18-47)37(52)30-31(38(33)53)36(51)26(6)40-32(30)41(54)43(8,59-40)57-19-14-29(56-10)23(3)39(58-27(7)48)25(5)35(50)24(4)34(21)49/h11-14,19-21,23-25,29,34-35,39,49-53H,15-18H2,1-10H3,(H,45,55)/t21-,23+,24+,25+,29-,34-,35+,39+,43-/m0/s1
#inchikey JQXXHWHPUNPDRT
#Ion_Source LC-ESI
#Instrument qTof
#Compound_Source NIH Pharmacologically Active Library
#PI Dorrestein
#Data_Collector VP/LMS
#Scan -1
#Precursor_MZ 823.427
#ExactMass 822.405
#Charge 1
#CAS_Number N/A
#Pubmed_ID N/A
#Smiles CO[C@H]1C=CO[C@@]2(C)Oc3c(C2=O)c4c(O)c(C=NN5CCN(C)CC5)c(NC(=O)C(=CC=C[C@H](C)[C@H](O)[C@@H](C)[C@@H](O)[C@@H](C)[C@H](OC(=O)C)[C@@H]1C)C)c(O)c4c(O)c3C
#INCHI_AUX N/A
#Library_Class 1
#SpectrumID CCMSLIB00000085828
#IonMode Positive
#UpdateWorkflowName UPDATE-SINGLE-ANNOTATED-GOLD
#LibraryQualityString Gold
#TaskID d252d724072548979f1f6f1ced849daf
##Scan# 2048
#SpectrumFile p4-F11_GF11_01_18395.mzXML
#LibraryName Pharm_Active_Library.mgf
#MQScore -1
#Organism Pharm_Active_Library
#TIC_Query 0
#RT_Query -1
#MZErrorPPM -1
#SharedPeaks 0
#MassDiff 0
#LibMZ -1
#SpecMZ 823.427
#SpecCharge 0
#internalFilename spec-00000.mgf

>collision 0
93.0701 4.69
95.0489 6.76
95.0856 19.33
97.0654 4.84
105.0699 10.89
107.0858 26.77
109.0643 15.96
109.101 8.33
111.0801 6.09
119.0856 12.79
121.0643 10.35
121.1007 11.2
123.0803 48.49
125.096 7.04
133.0641 4.84
133.1009 12.12
135.0802 26.67
135.1163 12.17
137.0954 12.67
139.0743 4.95
143.0848 4.61
145.1004 28.74
147.1164 20.74
149.0954 5.91
151.0756 100.0
153.0904 16.44
157.1001 7.88
159.1161 11.72
161.0957 32.29
163.1118 93.31
165.1262 8.28
173.0958 18.87
173.1316 13.96
175.1114 22.56
175.1471 4.66
177.0903 6.46
177.1265 4.87
179.1065 32.77
185.1317 8.14
191.1065 42.2
193.121 8.72
201.1266 12.55
203.142 8.01
213.1261 5.77
219.1371 9.26
231.1368 8.7
269.1886 5.07
279.1733 5.49
297.1838 11.52
315.1938 7.36
823.4209 0.12
