>compound MLS002153161-01!Iofetamine hydrochloride116316-03-1
>formula C12H18IN
>ionization [M+H]+
>parentmass 304.055359
#inchi InChI=1S/C12H18IN/c1-9(2)14-10(3)8-11-4-6-12(13)7-5-11/h4-7,9-10,14H,8H2,1-3H3
#inchikey ISEHJSHTIVKELA
#origInchi InChI=1S/C12H18IN.ClH/c1-9(2)14-10(3)8-11-4-6-12(13)7-5-11;/h4-7,9-10,14H,8H2,1-3H3;1H
#Ion_Source LC-ESI
#Instrument qTof
#Compound_Source NIH Pharmacologically Active Library
#PI Dorrestein
#Data_Collector VP/LMS
#Scan -1
#Precursor_MZ 304.059
#ExactMass 303.048
#Charge 1
#CAS_Number N/A
#Pubmed_ID N/A
#Smiles CC(C)NC(C)Cc1ccc(I)cc1.Cl
#INCHI_AUX N/A
#Library_Class 1
#SpectrumID CCMSLIB00000084809
#IonMode Positive
#UpdateWorkflowName UPDATE-SINGLE-ANNOTATED-GOLD
#LibraryQualityString Gold
#TaskID d252d724072548979f1f6f1ced849daf
##Scan# 1617
#SpectrumFile p3-A11_GA11_01_18232.mzXML
#LibraryName Pharm_Active_Library.mgf
#MQScore -1
#Organism Pharm_Active_Library
#TIC_Query 0
#RT_Query -1
#MZErrorPPM -1
#SharedPeaks 0
#MassDiff 0
#LibMZ -1
#SpecMZ 304.059
#SpecCharge 0
#internalFilename spec-00000.mgf

>collision 0
89.0393 0.85
90.047 1.15
91.0548 0.9
117.0712 38.64
118.0781 17.27
216.9529 100.0
244.9833 9.33
304.0554 1.3
