>compound Linagliptin (BI-1356)
>formula C25H28N8O2
>ionization [M+H]+
>parentmass 473.242706
#inchi InChI=1S/C25H28N8O2/c1-4-5-13-32-21-22(29-24(32)31-12-8-9-17(26)14-31)30(3)25(35)33(23(21)34)15-20-27-16(2)18-10-6-7-11-19(18)28-20/h6-7,10-11,17H,8-9,12-15,26H2,1-3H3/t17-/m1/s1
#inchikey LTXREWYXXSTFRX
#Ion_Source LC-ESI
#Instrument qTof
#Compound_Source Commercial
#PI Dorrestein
#Data_Collector Garg_Neha
#Scan -1
#Precursor_MZ 473.241
#ExactMass 472.234
#Charge 1
#CAS_Number 668270-12-0
#Pubmed_ID N/A
#Smiles C1=CC=C2C(=C1)N=C(N=C2C)CN3C(N(C4=C(C3=O)N(C(=N4)N5C[C@@H](CCC5)N)CC#CC)C)=O
#INCHI_AUX N/A
#Library_Class 1
#SpectrumID CCMSLIB00000078544
#IonMode Positive
#UpdateWorkflowName UPDATE-SINGLE-ANNOTATED-GOLD
#LibraryQualityString Gold
#TaskID 77f51c88eb8b467eb4a01dd2d0cb90d2
##Scan# 1073
#SpectrumFile Plate9_1_20_GC4_01_15750.mzXML
#LibraryName FDALibrary_2_04302014.mgf
#MQScore -1
#Organism FDALibrary_2_04302014
#TIC_Query 0
#RT_Query -1
#MZErrorPPM -1
#SharedPeaks 0
#MassDiff 0
#LibMZ -1
#SpecMZ 473.241
#SpecCharge 0
#internalFilename spec-00000.mgf

>collision 0
137.0843 2.21
139.0639 2.4
158.0838 19.64
165.0771 3.27
177.1125 5.01
178.121 5.31
194.1395 3.18
205.109 24.79
220.1199 2.11
222.1345 4.58
236.1151 2.4
246.099 13.32
257.1397 3.01
263.1257 19.91
274.1686 2.22
323.1259 3.32
336.1326 21.65
337.1285 24.43
349.1396 9.55
350.1373 50.44
351.1435 45.47
363.1416 13.58
364.1522 100.0
365.1575 32.87
374.1353 5.21
375.1438 24.49
376.1498 13.48
386.1499 2.22
387.1555 2.85
388.1538 3.01
390.1686 6.49
393.1882 3.72
402.1681 12.9
403.1757 56.1
404.1821 50.73
419.1957 7.07
420.2022 79.55
473.2427 604.17
