>compound MLS000028756-01!(-)-BICUCULLINE METHOBROMIDE
>formula C21H20NO6
>ionization [M+H]+
>parentmass 383.13633881209057
#inchi InChI=1S/C21H20NO6/c1-22(2)6-5-11-7-15-16(26-9-25-15)8-13(11)18(22)19-12-3-4-14-20(27-10-24-14)17(12)21(23)28-19/h3-4,7-8,18-19H,5-6,9-10H2,1-2H3/q+1/t18-,19+/m0/s1
#inchikey WDIQXKYUSINZME
#origInchi InChI=1S/C21H20NO6.BrH/c1-22(2)6-5-11-7-15-16(26-9-25-15)8-13(11)18(22)19-12-3-4-14-20(27-10-24-14)17(12)21(23)28-19;/h3-4,7-8,18-19H,5-6,9-10H2,1-2H3;1H/q+1;/p-1/t18-,19+;/m0./s1
#Ion_Source LC-ESI
#Instrument qTof
#Compound_Source NIH Pharmacologically Active Library
#PI Dorrestein
#Data_Collector VP/LMS
#Scan -1
#Precursor_MZ 382.128
#ExactMass 382.129
#Charge 1
#CAS_Number N/A
#Pubmed_ID N/A
#Smiles C[N+]1(C)CCc2cc3OCOc3cc2[C@H]1[C@@H]4OC(=O)c5c6OCOc6ccc45.[Br-]
#INCHI_AUX N/A
#Library_Class 1
#SpectrumID CCMSLIB00000085791
#IonMode Positive
#UpdateWorkflowName UPDATE-SINGLE-ANNOTATED-GOLD
#LibraryQualityString Gold
#TaskID d252d724072548979f1f6f1ced849daf
##Scan# 1333
#SpectrumFile p4-F06_GF6_01_18390.mzXML
#LibraryName Pharm_Active_Library.mgf
#MQScore -1
#Organism Pharm_Active_Library
#TIC_Query 0
#RT_Query -1
#MZErrorPPM -1
#SharedPeaks 0
#MassDiff 0
#LibMZ -1
#SpecMZ 382.128
#SpecCharge 0
#internalFilename spec-00000.mgf

>collision 0
121.0284 10.51
149.0219 13.39
149.0597 9.15
161.0593 9.61
173.084 9.23
175.0984 13.46
177.0561 8.62
177.069 6.28
178.0768 8.25
188.0689 26.17
203.0935 39.49
204.0573 7.03
221.0597 10.51
233.0588 41.23
235.074 16.79
245.0578 6.28
247.0748 15.73
251.0718 8.09
261.0544 100.0
262.0615 18.53
263.071 35.7
275.0699 6.43
279.0651 18.31
281.0445 8.55
289.0487 87.29
291.0651 25.49
292.0722 23.37
293.0798 8.85
303.0657 47.73
307.0618 21.41
308.0679 9.38
319.0599 53.33
321.0764 14.98
323.055 6.73
337.0739 16.19
367.1076 6.28
382.1277 46.9
383.1381 0.0
