>compound MLS001074083-01!60719-84-8
>formula C10H9N3O
>ionization [M+H]+
>parentmass 188.080414
#inchi InChI=1S/C10H9N3O/c11-9-5-8(6-13-10(9)14)7-1-3-12-4-2-7/h1-6H,11H2,(H,13,14)
#inchikey RNLQIBCLLYYYFJ
#Ion_Source LC-ESI
#Instrument qTof
#Compound_Source NIH Pharmacologically Active Library
#PI Dorrestein
#Data_Collector VP/LMS
#Scan -1
#Precursor_MZ 188.082
#ExactMass 187.075
#Charge 1
#CAS_Number N/A
#Pubmed_ID N/A
#Smiles Nc1cc(cnc1O)c2ccncc2
#INCHI_AUX N/A
#Library_Class 3
#SpectrumID CCMSLIB00000085888
#IonMode Positive
#UpdateWorkflowName UPDATE-SINGLE-ANNOTATED-BRONZE
#LibraryQualityString Bronze
#TaskID d252d724072548979f1f6f1ced849daf
##Scan# 134
#SpectrumFile p4-G07_GG7_01_18403.mzXML
#LibraryName Pharm_Active_Library.mgf
#MQScore -1
#Organism Pharm_Active_Library
#TIC_Query 0
#RT_Query -1
#MZErrorPPM -1
#SharedPeaks 0
#MassDiff 0
#LibMZ -1
#SpecMZ 188.082
#SpecCharge 0
#internalFilename spec-00000.mgf

>collision 0
90.0459 8.75
102.0322 7.58
104.0493 31.48
105.0458 6.9
106.064 21.38
107.0606 12.63
116.0477 16.84
117.058 36.2
118.0514 22.73
131.0598 20.2
132.0667 33.0
133.075 100.0
142.0538 15.99
145.0511 8.92
159.0774 17.68
160.085 59.76
187.0731 7.24
188.0804 66.33
