>compound diphenylcyclopropenone
>formula C15H10O
>ionization [M+H]+
>parentmass 207.080811
#inchi InChI=1S/C15H10O/c16-15-13(11-7-3-1-4-8-11)14(15)12-9-5-2-6-10-12/h1-10H
#inchikey HCIBTBXNLVOFER
#Ion_Source LC-ESI
#Instrument qTof
#Compound_Source Commercial
#PI Dorrestein
#Data_Collector Garg_Neha
#Scan -1
#Precursor_MZ 207.08
#ExactMass 206.073
#Charge 1
#CAS_Number N/A
#Pubmed_ID N/A
#Smiles O=c1c(c1c2ccccc2)c3ccccc3
#INCHI_AUX N/A
#Library_Class 1
#SpectrumID CCMSLIB00000079170
#IonMode Positive
#UpdateWorkflowName UPDATE-SINGLE-ANNOTATED-GOLD
#LibraryQualityString Gold
#TaskID 278b19f5865741e282cec7349aa7e7a1
##Scan# 1345
#SpectrumFile NCP003592_C2_D11_BE1_01_15735.mzXML
#LibraryName NIHcollectionI_05062014.mgf
#MQScore -1
#Organism NIHcollectionI_05062014
#TIC_Query 0
#RT_Query -1
#MZErrorPPM -1
#SharedPeaks 0
#MassDiff 0
#LibMZ -1
#SpecMZ 207.08
#SpecCharge 0
#internalFilename spec-00000.mgf

>collision 0
151.0542 2.24
152.0613 1.98
176.0622 4.54
177.0696 7.46
178.0785 100.0
179.0837 19.06
207.0808 137.33
