>compound MLS001401383-01!DIPHENOXYLATE
>formula C30H32N2O2
>ionization [M+H]+
>parentmass 453.254333
#inchi InChI=1S/C30H32N2O2/c1-2-34-28(33)29(25-12-6-3-7-13-25)18-21-32(22-19-29)23-20-30(24-31,26-14-8-4-9-15-26)27-16-10-5-11-17-27/h3-17H,2,18-23H2,1H3
#inchikey HYPPXZBJBPSRLK
#origInchi InChI=1S/C30H32N2O2.ClH/c1-2-34-28(33)29(25-12-6-3-7-13-25)18-21-32(22-19-29)23-20-30(24-31,26-14-8-4-9-15-26)27-16-10-5-11-17-27;/h3-17H,2,18-23H2,1H3;1H
#Ion_Source LC-ESI
#Instrument qTof
#Compound_Source NIH Pharmacologically Active Library
#PI Dorrestein
#Data_Collector VP/LMS
#Scan -1
#Precursor_MZ 453.25
#ExactMass 452.246
#Charge 1
#CAS_Number N/A
#Pubmed_ID N/A
#Smiles CCOC(=O)C1(CCN(CCC(C#N)(c2ccccc2)c3ccccc3)CC1)c4ccccc4.Cl
#INCHI_AUX N/A
#Library_Class 1
#SpectrumID CCMSLIB00000085948
#IonMode Positive
#UpdateWorkflowName UPDATE-SINGLE-ANNOTATED-GOLD
#LibraryQualityString Gold
#TaskID d252d724072548979f1f6f1ced849daf
##Scan# 1993
#SpectrumFile p4-H06_GH6_01_18414.mzXML
#LibraryName Pharm_Active_Library.mgf
#MQScore -1
#Organism Pharm_Active_Library
#TIC_Query 0
#RT_Query -1
#MZErrorPPM -1
#SharedPeaks 0
#MassDiff 0
#LibMZ -1
#SpecMZ 453.25
#SpecCharge 0
#internalFilename spec-00000.mgf

>collision 0
103.0543 12.29
106.0643 4.39
110.0962 4.07
115.0547 6.32
117.0698 15.16
120.0807 6.92
126.0549 23.89
127.0624 6.29
128.063 7.97
129.0696 8.04
132.0812 8.74
143.0857 20.25
144.0566 7.38
144.0815 14.65
145.0886 5.72
155.0932 5.93
158.0967 64.3
159.0688 6.31
159.1034 28.56
160.1121 28.43
161.1182 5.79
162.0674 9.18
165.0703 80.31
172.112 48.36
174.1271 6.61
186.0913 7.36
186.1266 11.75
187.0994 100.0
187.1352 25.8
190.1219 4.82
192.0814 69.84
204.1023 50.26
218.1173 27.92
220.111 12.28
232.1327 21.67
233.1406 35.26
249.1387 57.81
260.1656 5.09
275.1537 7.95
351.187 7.34
379.217 31.94
407.2119 7.97
425.224 41.88
453.2569 268.23
