>compound Fluocinonide
>formula C26H32F2O7 
>ionization [M+H]+
>parentmass 495.2188862560905
#inchi InChI=1S/C26H32F2O7/c1-13(29)33-12-20(32)26-21(34-22(2,3)35-26)10-15-16-9-18(27)17-8-14(30)6-7-23(17,4)25(16,28)19(31)11-24(15,26)5/h6-8,15-16,18-19,21,31H,9-12H2,1-5H3/t15-,16-,18-,19-,21+,23-,24-,25-,26+/m0/s1
#inchikey WJOHZNCJWYWUJD
#Ion_Source LC-ESI
#Instrument qTof
#Compound_Source Isolated
#PI Sirenas
#Data_Collector Ed Esquenazi 
#Scan -1
#Precursor_MZ 495.221
#ExactMass 0.0
#Charge 1
#CAS_Number N/A
#Pubmed_ID N/A
#Smiles N/A
#INCHI_AUX N/A
#Library_Class 3
#SpectrumID CCMSLIB00000005047
#IonMode Positive
#UpdateWorkflowName UPDATE-SINGLE-ANNOTATED-BRONZE
#LibraryQualityString Bronze
#TaskID d19310cd93df49b68e9fcbec27720eb5
##Scan# 3
#SpectrumFile Fluocinonide.mgf
#LibraryName fda_library.mgf
#MQScore -1
#Organism fda_library
#TIC_Query 0
#RT_Query -1
#MZErrorPPM -1
#SharedPeaks 0
#MassDiff 0
#LibMZ -1
#SpecMZ 495.221
#SpecCharge 0
#internalFilename spec-00000.mgf

>collision 0
105.0681 11.22
107.0479 9.39
121.0646 100.0
123.0442 9.6
129.0697 10.16
133.064 12.94
135.0807 26.14
141.0699 5.74
145.0635 16.56
147.0788 9.03
149.0594 6.09
151.0561 5.66
159.0815 10.24
171.0802 34.43
177.0713 10.98
183.0818 11.2
185.0979 8.48
195.0798 7.32
197.0969 5.88
203.0717 5.89
203.0852 6.13
205.1 10.3
209.095 8.71
211.1116 21.59
223.1118 17.82
235.1104 25.79
239.1093 7.03
246.1051 12.69
247.1148 6.74
248.1205 12.02
249.129 19.11
251.1059 10.78
251.1425 11.7
258.1028 10.8
261.1294 15.38
263.1455 16.51
265.1214 7.29
273.1283 14.11
275.1058 5.9
277.1201 16.92
291.1405 20.2
295.1315 8.56
319.131 9.06
495.2243 0.0
