>compound MLS000877018-01!2-(3,4-dihydroxyphenyl)-5,7-dihydroxy-3-methoxychromen-4-one
>formula C16H12O7
>ionization [M+H]+
>parentmass 317.065979
#inchi InChI=1S/C16H12O7/c1-22-16-14(21)13-11(20)5-8(17)6-12(13)23-15(16)7-2-3-9(18)10(19)4-7/h2-6,17-20H,1H3
#inchikey WEPBGSIAWZTEJR
#Ion_Source LC-ESI
#Instrument qTof
#Compound_Source NIH Natural Product Library
#PI Dorrestein
#Data_Collector VVP/LMS
#Scan -1
#Precursor_MZ 317.066
#ExactMass 316.058
#Charge 1
#CAS_Number N/A
#Pubmed_ID N/A
#Smiles COc1c(oc2cc(O)cc(O)c2c1=O)c3ccc(O)c(O)c3
#INCHI_AUX N/A
#Library_Class 3
#SpectrumID CCMSLIB00000079418
#IonMode Positive
#UpdateWorkflowName UPDATE-SINGLE-ANNOTATED-BRONZE
#LibraryQualityString Bronze
#TaskID b1d8e8f6646f4e71acdff9ca3d919d08
##Scan# 1799
#SpectrumFile p1-A06_GA6_01_17879.mzXML
#LibraryName NIH_Natural_Products_Library.mgf
#MQScore -1
#Organism NIH_Natural_Products_Library
#TIC_Query 0
#RT_Query -1
#MZErrorPPM -1
#SharedPeaks 0
#MassDiff 0
#LibMZ -1
#SpecMZ 317.066
#SpecCharge 0
#internalFilename spec-00000.mgf

>collision 0
109.0281 3.33
110.0351 4.85
137.0227 18.33
138.03 3.04
153.0186 10.16
187.0371 2.8
193.012 4.5
200.0456 7.59
202.0613 3.68
227.0343 5.14
257.0421 9.57
274.0482 28.55
285.0411 11.56
301.0331 42.73
302.0418 100.0
303.0487 16.23
317.066 18.33
