>compound Aztreonam
>formula C13H17N5O8S2 
>ionization [M+H]+
>parentmass 436.06
#inchi InChI=1S/C13H17N5O8S2/c1-5-7(10(20)18(5)28(23,24)25)16-9(19)8(6-4-27-12(14)15-6)17-26-13(2,3)11(21)22/h4-5,7H,1-3H3,(H2,14,15)(H,16,19)(H,21,22)(H,23,24,25)/b17-8-/t5-,7-/m0/s1
#inchikey WZPBZJONDBGPKJ
#Ion_Source LC-ESI
#Instrument qTof
#Compound_Source Isolated
#PI Sirenas
#Data_Collector Ed Esquenazi 
#Scan -1
#Precursor_MZ 436.06
#ExactMass 0.0
#Charge 1
#CAS_Number N/A
#Pubmed_ID N/A
#Smiles N/A
#INCHI_AUX N/A
#Library_Class 3
#SpectrumID CCMSLIB00000005429
#IonMode Positive
#UpdateWorkflowName UPDATE-SINGLE-ANNOTATED-BRONZE
#LibraryQualityString Bronze
#TaskID d19310cd93df49b68e9fcbec27720eb5
##Scan# 2
#SpectrumFile Aztreonam.mgf
#LibraryName fda_library.mgf
#MQScore -1
#Organism fda_library
#TIC_Query 0
#RT_Query -1
#MZErrorPPM -1
#SharedPeaks 0
#MassDiff 0
#LibMZ -1
#SpecMZ 436.06
#SpecCharge 0
#internalFilename spec-00000.mgf

>collision 0
126.0118 4.94
153.0215 1.29
171.0342 1.7
181.0188 5.93
199.0275 3.34
209.0125 13.83
210.0206 46.79
227.0222 8.19
269.0703 6.78
285.066 4.24
313.0602 100.0
356.1011 2.5
436.06 0.0
