>compound Betapar
>formula C22H28O5 
>ionization [M+H]+
>parentmass 373.2009504480905
#inchi InChI=1S/C22H28O5/c1-12-8-16-15-5-4-13-9-14(24)6-7-20(13,2)19(15)17(25)10-21(16,3)22(12,27)18(26)11-23/h6-7,9,12,15-16,19,23,27H,4-5,8,10-11H2,1-3H3/t12-,15-,16?,19?,20-,21-,22-/m0/s1
#inchikey PIDANAQULIKBQS
#Ion_Source LC-ESI
#Instrument qTof
#Compound_Source Isolated
#PI Sirenas
#Data_Collector Ed Esquenazi 
#Scan -1
#Precursor_MZ 373.164
#ExactMass 0.0
#Charge 1
#CAS_Number N/A
#Pubmed_ID N/A
#Smiles N/A
#INCHI_AUX N/A
#Library_Class 3
#SpectrumID CCMSLIB00000005657
#IonMode Positive
#UpdateWorkflowName UPDATE-SINGLE-ANNOTATED-BRONZE
#LibraryQualityString Bronze
#TaskID d19310cd93df49b68e9fcbec27720eb5
##Scan# 3
#SpectrumFile Betapar.mgf
#LibraryName fda_library.mgf
#MQScore -1
#Organism fda_library
#TIC_Query 0
#RT_Query -1
#MZErrorPPM -1
#SharedPeaks 0
#MassDiff 0
#LibMZ -1
#SpecMZ 373.164
#SpecCharge 0
#internalFilename spec-00000.mgf

>collision 0
105.0696 12.01
109.0271 16.46
127.0549 10.84
131.0857 36.84
132.0577 48.75
135.0787 20.45
145.0655 28.73
147.08 100.0
158.0707 32.15
159.0802 63.38
170.0733 13.25
171.0797 52.51
173.0944 16.55
187.1128 33.84
196.0882 29.73
197.0972 19.89
198.1051 25.7
233.0982 11.26
248.1199 13.93
249.1285 15.3
263.1429 13.81
373.201 0.0
