>compound MLS001074201-01!
>formula C20H28N2O3
>ionization [M+H]+
>parentmass 345.216278
#inchi InChI=1S/C20H28N2O3/c1-22-14-8-13-21-18(22)15-25-19(23)20(24,16-9-4-2-5-10-16)17-11-6-3-7-12-17/h2,4-5,9-10,17,24H,3,6-8,11-15H2,1H3
#inchikey DUDKAZCAISNGQN
#origInchi InChI=1S/C20H28N2O3.ClH/c1-22-14-8-13-21-18(22)15-25-19(23)20(24,16-9-4-2-5-10-16)17-11-6-3-7-12-17;/h2,4-5,9-10,17,24H,3,6-8,11-15H2,1H3;1H
#Ion_Source LC-ESI
#Instrument qTof
#Compound_Source NIH Pharmacologically Active Library
#PI Dorrestein
#Data_Collector VP/LMS
#Scan -1
#Precursor_MZ 345.224
#ExactMass 344.21
#Charge 1
#CAS_Number N/A
#Pubmed_ID N/A
#Smiles CN1CCCN=C1COC(=O)C(O)(C2CCCCC2)c3ccccc3.Cl
#INCHI_AUX N/A
#Library_Class 1
#SpectrumID CCMSLIB00000085811
#IonMode Positive
#UpdateWorkflowName UPDATE-SINGLE-ANNOTATED-GOLD
#LibraryQualityString Gold
#TaskID d252d724072548979f1f6f1ced849daf
##Scan# 1737
#SpectrumFile p4-F09_GF9_01_18393.mzXML
#LibraryName Pharm_Active_Library.mgf
#MQScore -1
#Organism Pharm_Active_Library
#TIC_Query 0
#RT_Query -1
#MZErrorPPM -1
#SharedPeaks 0
#MassDiff 0
#LibMZ -1
#SpecMZ 345.224
#SpecCharge 0
#internalFilename spec-00000.mgf

>collision 0
111.0907 3.22
129.1027 100.0
327.2049 1.1
345.2163 6.56
