>compound MLS002153864-01!(S)-()-Atenolol
>formula C14H22N2O3
>ionization [M+H]+
>parentmass 267.1703190160905
#inchi InChI=1S/C14H22N2O3/c1-10(2)16-8-12(17)9-19-13-5-3-11(4-6-13)7-14(15)18/h3-6,10,12,16-17H,7-9H2,1-2H3,(H2,15,18)/t12-/m0/s1
#inchikey METKIMKYRPQLGS
#Ion_Source LC-ESI
#Instrument qTof
#Compound_Source NIH Pharmacologically Active Library
#PI Dorrestein
#Data_Collector VP/LMS
#Scan -1
#Precursor_MZ 267.173
#ExactMass 266.163
#Charge 1
#CAS_Number N/A
#Pubmed_ID N/A
#Smiles CC(C)NC[C@H](O)COc1ccc(CC(=O)N)cc1
#INCHI_AUX N/A
#Library_Class 1
#SpectrumID CCMSLIB00000086187
#IonMode Positive
#UpdateWorkflowName UPDATE-SINGLE-ANNOTATED-GOLD
#LibraryQualityString Gold
#TaskID d252d724072548979f1f6f1ced849daf
##Scan# 1046
#SpectrumFile p5-H04_GH4_01_18479.mzXML
#LibraryName Pharm_Active_Library.mgf
#MQScore -1
#Organism Pharm_Active_Library
#TIC_Query 0
#RT_Query -1
#MZErrorPPM -1
#SharedPeaks 0
#MassDiff 0
#LibMZ -1
#SpecMZ 267.173
#SpecCharge 0
#internalFilename spec-00000.mgf

>collision 0
91.0559 6.55
98.0947 6.18
103.0535 3.09
104.0498 3.21
105.0327 3.28
105.0715 9.83
107.0496 18.15
116.1061 4.6
117.0333 5.23
117.0685 18.71
119.048 9.45
121.0648 11.15
133.0642 49.91
145.0652 100.0
152.0711 3.02
178.0855 9.89
267.1681 2.33
