>compound MLS001140256-01!
>formula C18H17FN2O2
>ionization [M+H]+
>parentmass 313.133026
#inchi InChI=1S/C18H17FN2O2/c19-15-5-2-1-4-14(15)18(23)20-9-12-8-13(11-20)16-6-3-7-17(22)21(16)10-12/h1-7,12-13H,8-11H2/t12-,13+/m1/s1
#inchikey WUKSHEBWAYSRQU
#Ion_Source LC-ESI
#Instrument qTof
#Compound_Source NIH Natural Product Library
#PI Dorrestein
#Data_Collector VVP/LMS
#Scan -1
#Precursor_MZ 313.135
#ExactMass 312.127
#Charge 1
#CAS_Number N/A
#Pubmed_ID N/A
#Smiles Fc1ccccc1C(=O)N2C[C@H]3C[C@@H](C2)c4cccc(=O)n4C3
#INCHI_AUX N/A
#Library_Class 1
#SpectrumID CCMSLIB00000079778
#IonMode Positive
#UpdateWorkflowName UPDATE-SINGLE-ANNOTATED-GOLD
#LibraryQualityString Gold
#TaskID b1d8e8f6646f4e71acdff9ca3d919d08
##Scan# 1524
#SpectrumFile p1-H10_GH10_01_17966.mzXML
#LibraryName NIH_Natural_Products_Library.mgf
#MQScore -1
#Organism NIH_Natural_Products_Library
#TIC_Query 0
#RT_Query -1
#MZErrorPPM -1
#SharedPeaks 0
#MassDiff 0
#LibMZ -1
#SpecMZ 313.135
#SpecCharge 0
#internalFilename spec-00000.mgf

>collision 0
95.0285 3.56
115.0549 0.38
117.0571 1.31
123.024 100.0
132.0797 0.47
142.0639 0.69
145.0521 0.41
160.0744 9.11
217.0883 0.39
313.133 15.99
