>compound MLS001401457-01!Nefazodone
>formula C25H32ClN5O2
>ionization [M+H]+
>parentmass 470.23114
#inchi InChI=1S/C25H32ClN5O2/c1-2-24-27-31(25(32)30(24)18-19-33-23-10-4-3-5-11-23)13-7-12-28-14-16-29(17-15-28)22-9-6-8-21(26)20-22/h3-6,8-11,20H,2,7,12-19H2,1H3
#inchikey VRBKIVRKKCLPHA
#origInchi InChI=1S/C25H32ClN5O2.ClH/c1-2-24-27-31(25(32)30(24)18-19-33-23-10-4-3-5-11-23)13-7-12-28-14-16-29(17-15-28)22-9-6-8-21(26)20-22;/h3-6,8-11,20H,2,7,12-19H2,1H3;1H
#Ion_Source LC-ESI
#Instrument qTof
#Compound_Source NIH Pharmacologically Active Library
#PI Dorrestein
#Data_Collector VP/LMS
#Scan -1
#Precursor_MZ 470.24
#ExactMass 469.224
#Charge 1
#CAS_Number N/A
#Pubmed_ID N/A
#Smiles CCc1nn(CCCN2CCN(CC2)c3cccc(Cl)c3)c(=O)n1CCOc4ccccc4.Cl
#INCHI_AUX N/A
#Library_Class 1
#SpectrumID CCMSLIB00000085601
#IonMode Positive
#UpdateWorkflowName UPDATE-SINGLE-ANNOTATED-GOLD
#LibraryQualityString Gold
#TaskID d252d724072548979f1f6f1ced849daf
##Scan# 1860
#SpectrumFile p4-D03_GD3_01_18363.mzXML
#LibraryName Pharm_Active_Library.mgf
#MQScore -1
#Organism Pharm_Active_Library
#TIC_Query 0
#RT_Query -1
#MZErrorPPM -1
#SharedPeaks 0
#MassDiff 0
#LibMZ -1
#SpecMZ 470.24
#SpecCharge 0
#internalFilename spec-00000.mgf

>collision 0
93.069 0.34
97.039 0.27
103.056 0.48
107.0476 0.3
112.0525 0.25
121.0655 2.76
124.0506 0.42
125.0565 0.31
126.0666 5.67
135.078 0.79
138.0662 1.04
140.0824 11.24
152.0813 2.0
153.0902 6.03
154.0978 21.49
180.1135 25.29
181.1201 7.95
246.1244 43.89
274.1556 100.0
470.2311 16.5
