>compound MLS000863591-01!methyl 3-ethenyl-4-[[6-[4-(4-hydroxyphenyl)-2-oxobutyl]-4-oxooxan-2-yl]methyl]-2-[3,4,5-trihydroxy-6-(hydroxymethyl)oxan-2-yl]oxy-3,4-dihydro-2H-pyran-5-carboxylate
>formula C31H40O13
>ionization [M+H]+
>parentmass 621.255
#inchi InChI=1S/C31H40O13/c1-3-22-23(13-21-12-19(35)11-20(42-21)10-18(34)9-6-16-4-7-17(33)8-5-16)24(29(39)40-2)15-41-30(22)44-31-28(38)27(37)26(36)25(14-32)43-31/h3-5,7-8,15,20-23,25-28,30-33,36-38H,1,6,9-14H2,2H3
#inchikey BAKYVUHOODEWGV
#Ion_Source LC-ESI
#Instrument qTof
#Compound_Source NIH Natural Product Library
#PI Dorrestein
#Data_Collector VVP/LMS
#Scan -1
#Precursor_MZ 621.255
#ExactMass 620.247
#Charge 1
#CAS_Number N/A
#Pubmed_ID N/A
#Smiles COC(=O)C1=COC(OC2OC(CO)C(O)C(O)C2O)C(C=C)C1CC3CC(=O)CC(CC(=O)CCc4ccc(O)cc4)O3
#INCHI_AUX N/A
#Library_Class 1
#SpectrumID CCMSLIB00000080618
#IonMode Positive
#UpdateWorkflowName UPDATE-SINGLE-ANNOTATED-GOLD
#LibraryQualityString Gold
#TaskID b1d8e8f6646f4e71acdff9ca3d919d08
##Scan# 1670
#SpectrumFile p2-H11_GH11_01_18071.mzXML
#LibraryName NIH_Natural_Products_Library.mgf
#MQScore -1
#Organism NIH_Natural_Products_Library
#TIC_Query 0
#RT_Query -1
#MZErrorPPM -1
#SharedPeaks 0
#MassDiff 0
#LibMZ -1
#SpecMZ 621.255
#SpecCharge 0
#internalFilename spec-00000.mgf

>collision 0
107.0499 100.0
109.0647 5.75
121.0283 5.33
121.0645 7.54
123.0443 5.92
125.0584 4.48
129.0701 4.39
131.0487 4.18
133.0638 10.23
135.0458 5.24
139.0394 10.66
147.0437 9.16
147.0805 11.3
149.0233 7.12
149.0587 14.19
151.0389 34.95
153.0526 9.04
157.0662 3.96
159.0452 5.58
163.0752 4.56
165.0555 69.82
167.0704 26.04
173.0597 9.89
175.0388 5.58
175.0773 23.96
191.0711 15.56
193.0859 13.0
217.0859 20.97
219.0638 14.92
243.1005 4.26
245.081 14.49
246.0867 5.24
261.1113 12.66
279.1231 14.79
357.1303 3.84
621.2509 0.0
