>compound Dipyridamole
>formula C24H40N8O4 
>ionization [M+H]+
>parentmass 505.324
#inchi InChI=1S/C24H40N8O4/c33-15-11-31(12-16-34)23-26-20-19(21(27-23)29-7-3-1-4-8-29)25-24(32(13-17-35)14-18-36)28-22(20)30-9-5-2-6-10-30/h33-36H,1-18H2
#inchikey IZEKFCXSFNUWAM
#Ion_Source LC-ESI
#Instrument qTof
#Compound_Source Isolated
#PI Sirenas
#Data_Collector Ed Esquenazi 
#Scan -1
#Precursor_MZ 505.324
#ExactMass 0.0
#Charge 1
#CAS_Number N/A
#Pubmed_ID N/A
#Smiles N/A
#INCHI_AUX N/A
#Library_Class 3
#SpectrumID CCMSLIB00000004984
#IonMode Positive
#UpdateWorkflowName UPDATE-SINGLE-ANNOTATED-BRONZE
#LibraryQualityString Bronze
#TaskID d19310cd93df49b68e9fcbec27720eb5
##Scan# 3
#SpectrumFile Dipyridamole.mgf
#LibraryName fda_library.mgf
#MQScore -1
#Organism fda_library
#TIC_Query 0
#RT_Query -1
#MZErrorPPM -1
#SharedPeaks 0
#MassDiff 0
#LibMZ -1
#SpecMZ 505.324
#SpecCharge 0
#internalFilename spec-00000.mgf

>collision 0
302.1737 0.67
304.189 0.32
315.1822 0.28
316.189 0.77
317.1858 0.41
328.1894 0.33
330.2016 0.92
333.1913 0.36
341.2207 0.37
343.202 0.62
346.2 1.22
348.2151 1.23
355.2032 0.27
357.2172 0.69
360.2141 1.66
369.2188 0.33
372.2368 0.53
373.2126 0.4
378.2233 0.44
382.235 0.31
385.2471 11.14
387.2273 0.43
395.2402 0.61
398.2556 0.43
399.2618 2.56
402.2265 0.42
404.2397 1.93
411.2608 0.51
414.2503 0.82
416.2638 1.23
417.2379 1.78
420.2356 1.26
422.2507 2.54
424.2681 0.25
429.2729 12.96
431.2531 0.7
442.2796 1.15
443.2867 1.84
449.2615 0.3
460.2902 4.7
487.3139 3.6
505.3242 0.0
