>compound MLS001159193-01!
>formula C23H20FN3O2
>ionization [M+H]+
>parentmass 390.16123155209056
#inchi InChI=1S/C23H20FN3O2/c24-15-9-7-14(8-10-15)21-22-18(17-5-1-2-6-19(17)26-22)12-20(27-21)23(28)25-13-16-4-3-11-29-16/h1-2,5-10,12,16,27H,3-4,11,13H2,(H,25,28)
#inchikey UTRZMYUYKQTKPQ
#Ion_Source LC-ESI
#Instrument qTof
#Compound_Source NIH Natural Product Library
#PI Dorrestein
#Data_Collector VVP/LMS
#Scan -1
#Precursor_MZ 390.162
#ExactMass 389.154
#Charge 1
#CAS_Number N/A
#Pubmed_ID N/A
#Smiles Fc1ccc(cc1)c2[nH]c(cc3c4ccccc4nc23)C(=O)NCC5CCCO5
#INCHI_AUX N/A
#Library_Class 1
#SpectrumID CCMSLIB00000079959
#IonMode Positive
#UpdateWorkflowName UPDATE-SINGLE-ANNOTATED-GOLD
#LibraryQualityString Gold
#TaskID b1d8e8f6646f4e71acdff9ca3d919d08
##Scan# 2422
#SpectrumFile p2-C02_GC2_01_18002.mzXML
#LibraryName NIH_Natural_Products_Library.mgf
#MQScore -1
#Organism NIH_Natural_Products_Library
#TIC_Query 0
#RT_Query -1
#MZErrorPPM -1
#SharedPeaks 0
#MassDiff 0
#LibMZ -1
#SpecMZ 390.162
#SpecCharge 0
#internalFilename spec-00000.mgf

>collision 0
207.0621 0.4
214.0653 0.54
233.0636 0.46
234.0732 4.95
235.0778 1.49
238.0677 0.67
241.0773 2.41
259.0875 0.54
260.0768 15.45
262.088 45.88
264.0913 0.27
266.0629 0.51
280.0978 10.37
288.0944 3.81
290.0823 1.72
306.104 0.43
307.0906 8.78
308.0927 1.28
372.1534 0.71
373.1561 0.2
390.1633 4.05
