>compound MLS001142796-01!
>formula C24H22ClFN4O3
>ionization [M+H]+
>parentmass 469.144
#inchi InChI=1S/C24H22ClFN4O3/c1-13(21(31)27-12-16-17(25)7-5-8-18(16)26)30-22(32)24(2)20-15(10-11-29(24)23(30)33)14-6-3-4-9-19(14)28-20/h3-9,13,28H,10-12H2,1-2H3,(H,27,31)/t13-,24-/m0/s1
#inchikey FHZRIROWYFCPID
#Ion_Source LC-ESI
#Instrument qTof
#Compound_Source NIH Natural Product Library
#PI Dorrestein
#Data_Collector VVP/LMS
#Scan -1
#Precursor_MZ 469.144
#ExactMass 468.136
#Charge 1
#CAS_Number N/A
#Pubmed_ID N/A
#Smiles C[C@H](N1C(=O)N2CCc3c([nH]c4ccccc34)[C@@]2(C)C1=O)C(=O)NCc5c(F)cccc5Cl
#INCHI_AUX N/A
#Library_Class 1
#SpectrumID CCMSLIB00000080455
#IonMode Positive
#UpdateWorkflowName UPDATE-SINGLE-ANNOTATED-GOLD
#LibraryQualityString Gold
#TaskID b1d8e8f6646f4e71acdff9ca3d919d08
##Scan# 2329
#SpectrumFile p2-C09_GC9_01_18009.mzXML
#LibraryName NIH_Natural_Products_Library.mgf
#MQScore -1
#Organism NIH_Natural_Products_Library
#TIC_Query 0
#RT_Query -1
#MZErrorPPM -1
#SharedPeaks 0
#MassDiff 0
#LibMZ -1
#SpecMZ 469.144
#SpecCharge 0
#internalFilename spec-00000.mgf

>collision 0
107.0302 0.68
117.072 0.52
130.0626 0.35
143.0063 5.68
143.0737 0.71
144.0818 13.41
145.0845 1.29
154.0658 0.38
155.0742 0.72
156.0804 0.99
167.0702 0.69
168.0816 5.93
170.0987 0.81
171.0928 0.42
182.0871 0.49
183.0926 6.15
184.099 2.3
185.1088 24.89
187.0878 0.35
195.0923 0.63
196.0768 0.64
196.1131 0.42
198.1176 0.51
209.093 0.36
211.0888 28.49
212.0911 3.42
213.1052 2.59
238.1357 0.87
239.0818 2.55
239.1189 0.68
254.1318 100.0
256.1345 1.44
264.1251 0.45
282.126 17.4
284.1274 0.94
286.0801 0.91
327.1055 0.56
353.0853 0.39
396.1295 1.21
424.1258 0.36
469.1456 0.0
