>compound MLS001183742-01!
>formula C17H17ClO6
>ionization [M+H]+
>parentmass 353.0786423960905
#inchi InChI=1S/C17H17ClO6/c1-8-5-9(19)6-12(23-4)17(8)16(20)13-10(21-2)7-11(22-3)14(18)15(13)24-17/h6-8H,5H2,1-4H3
#inchikey DDUHZTYCFQRHIY
#Ion_Source LC-ESI
#Instrument qTof
#Compound_Source NIH Pharmacologically Active Library
#PI Dorrestein
#Data_Collector VP/LMS
#Scan -1
#Precursor_MZ 353.073
#ExactMass 352.071
#Charge 1
#CAS_Number N/A
#Pubmed_ID N/A
#Smiles COC1=CC(=O)CC(C)C21Oc3c(C2=O)c(OC)cc(OC)c3Cl
#INCHI_AUX N/A
#Library_Class 1
#SpectrumID CCMSLIB00000085321
#IonMode Positive
#UpdateWorkflowName UPDATE-SINGLE-ANNOTATED-GOLD
#LibraryQualityString Gold
#TaskID d252d724072548979f1f6f1ced849daf
##Scan# 1993
#SpectrumFile p3-H04_GH4_01_18309.mzXML
#LibraryName Pharm_Active_Library.mgf
#MQScore -1
#Organism Pharm_Active_Library
#TIC_Query 0
#RT_Query -1
#MZErrorPPM -1
#SharedPeaks 0
#MassDiff 0
#LibMZ -1
#SpecMZ 353.073
#SpecCharge 0
#internalFilename spec-00000.mgf

>collision 0
94.0413 3.74
107.0487 6.07
122.037 19.2
128.9748 7.76
141.9816 3.46
150.032 14.21
156.9676 2.19
165.055 100.0
169.975 4.3
171.9919 23.28
182.9843 2.36
191.071 1.88
199.9874 29.36
215.0118 61.9
217.9977 4.69
224.0242 7.37
242.0336 2.29
252.0192 3.25
265.0623 3.63
270.0309 6.68
285.0544 19.4
293.0579 2.19
311.0659 2.29
353.0819 0.0
