>compound NCGC00160255-01!CONVOLICINE
>formula C18H23NO5
>ionization [M+H]+
>parentmass 334.165
#inchi InChI=1S/C18H23NO5/c1-11(20)19-13-5-6-14(19)10-15(9-13)24-18(21)12-4-7-16(22-2)17(8-12)23-3/h4,7-8,13-15H,5-6,9-10H2,1-3H3/t13-,14?,15?/m1/s1
#inchikey HZEOENYXYFFKIU
#Ion_Source LC-ESI
#Instrument qTOF
#Compound_Source Prestwick Phytochem Lib
#PI Dorrestein
#Data_Collector VVP/LMS
#Scan -1
#Precursor_MZ 334.165
#ExactMass 333.158
#Charge 1
#CAS_Number N/A
#Pubmed_ID N/A
#Smiles COC1=C(OC)C=C(C=C1)C(=O)OC2CC3CC[C@H](C2)N3C(C)=O
#INCHI_AUX N/A
#Library_Class 1
#SpectrumID CCMSLIB00000078703
#IonMode Positive
#UpdateWorkflowName UPDATE-SINGLE-ANNOTATED-GOLD
#LibraryQualityString Gold
#TaskID 67c915c6594c435cadc1fe2b5358144d
##Scan# 1871
#SpectrumFile p1-D02_GD2_01_17910.mzXML
#LibraryName phytochem_lib.mgf
#MQScore -1
#Organism phytochem_lib
#TIC_Query 0
#RT_Query -1
#MZErrorPPM -1
#SharedPeaks 0
#MassDiff 0
#LibMZ -1
#SpecMZ 334.165
#SpecCharge 0
#internalFilename spec-00000.mgf

>collision 0
107.0138 0.36
108.057 1.32
109.0291 0.89
109.0644 0.65
110.0978 100.0
111.0081 0.62
121.0277 0.58
122.0359 0.63
124.0512 3.29
137.0589 0.38
139.0755 6.99
165.0555 5.69
183.0662 2.01
184.0724 0.68
227.0782 0.39
334.165 0.0
