>compound DOXYCYCLINE
>formula C22H24N2O8 
>ionization [M+H]+
>parentmass 445.162231
#inchi InChI=1S/C22H24N2O8/c1-7-8-5-4-6-9(25)11(8)16(26)12-10(7)17(27)14-15(24(2)3)18(28)13(21(23)31)20(30)22(14,32)19(12)29/h4-7,10,14-15,17,25-27,30,32H,1-3H3,(H2,23,31)/t7-,10+,14+,15-,17-,22-/m0/s1
#inchikey SGKRLCUYIXIAHR
#Ion_Source LC-ESI
#Instrument qTof
#Compound_Source Commercial
#PI Dorrestein
#Data_Collector Garg_Neha
#Scan -1
#Precursor_MZ 445.164
#ExactMass 444.153
#Charge 1
#CAS_Number N/A
#Pubmed_ID N/A
#Smiles N/A
#INCHI_AUX N/A
#Library_Class 1
#SpectrumID CCMSLIB00000077090
#IonMode Positive
#UpdateWorkflowName UPDATE-SINGLE-ANNOTATED-GOLD
#LibraryQualityString Gold
#TaskID 48f7f52fc6d249b5abbcc6e7b3df5969
##Scan# 1083
#SpectrumFile NCP003106_C2_D11_BB3_01_15706.mzXML
#LibraryName NIH_Clinical_Collection_2.mgf
#MQScore -1
#Organism NIHcollection2_04212014_2_mgf
#TIC_Query 0
#RT_Query -1
#MZErrorPPM -1
#SharedPeaks 0
#MassDiff 0
#LibMZ -1
#SpecMZ 445.164
#SpecCharge 0
#internalFilename spec-00000.mgf

>collision 0
98.0602 1.23
126.0549 1.32
154.0496 3.73
173.0601 0.56
182.0807 0.74
192.0643 0.64
201.0535 4.46
210.0767 0.65
211.0763 1.02
223.0744 0.7
225.0897 0.58
227.0708 0.72
239.0696 1.18
241.0859 2.65
251.07 0.82
253.0851 1.05
255.066 0.79
257.0809 0.7
265.0847 0.86
267.0648 7.64
268.0692 1.38
269.0797 3.42
281.082 0.73
285.0754 1.85
291.0649 0.8
293.0786 2.58
297.0753 1.02
303.0647 0.69
306.0529 1.04
319.0603 0.93
321.0753 6.85
322.0791 1.84
334.047 1.13
337.0703 1.52
339.0868 4.32
349.0708 1.68
364.1181 0.9
365.0673 0.64
367.0796 1.32
392.1127 1.64
410.1221 4.19
428.1346 100.0
430.1388 3.82
445.1607 42.78
