>compound MLS001141331-01!(2S)-2-[[2-(3-benzyl-4,8-dimethyl-2-oxochromen-7-yl)oxyacetyl]amino]-3-phenylpropanoic acid
>formula C29H27NO6
>ionization [M+H]+
>parentmass 486.192993
#inchi InChI=1S/C29H27NO6/c1-18-22-13-14-25(19(2)27(22)36-29(34)23(18)15-20-9-5-3-6-10-20)35-17-26(31)30-24(28(32)33)16-21-11-7-4-8-12-21/h3-14,24H,15-17H2,1-2H3,(H,30,31)(H,32,33)/t24-/m0/s1
#inchikey XKWILXCQJFNUJH
#Ion_Source LC-ESI
#Instrument qTof
#Compound_Source NIH Natural Product Library
#PI Dorrestein
#Data_Collector VVP/LMS
#Scan -1
#Precursor_MZ 486.192
#ExactMass 485.184
#Charge 1
#CAS_Number N/A
#Pubmed_ID N/A
#Smiles Cc1c(Cc2ccccc2)c(=O)oc3c(C)c(OCC(=O)N[C@@H](Cc4ccccc4)C(=O)O)ccc13
#INCHI_AUX N/A
#Library_Class 1
#SpectrumID CCMSLIB00000079356
#IonMode Positive
#UpdateWorkflowName UPDATE-SINGLE-ANNOTATED-GOLD
#LibraryQualityString Gold
#TaskID b1d8e8f6646f4e71acdff9ca3d919d08
##Scan# 2437
#SpectrumFile p1-A05_GA5_01_17878.mzXML
#LibraryName NIH_Natural_Products_Library.mgf
#MQScore -1
#Organism NIH_Natural_Products_Library
#TIC_Query 0
#RT_Query -1
#MZErrorPPM -1
#SharedPeaks 0
#MassDiff 0
#LibMZ -1
#SpecMZ 486.192
#SpecCharge 0
#internalFilename spec-00000.mgf

>collision 0
103.0541 3.21
105.0699 8.63
115.0544 5.88
117.0576 7.37
119.0848 1.08
123.044 1.32
129.0689 2.12
130.0649 16.65
131.0487 1.66
132.0811 71.87
144.0573 1.39
149.058 1.98
160.0758 1.46
175.075 6.33
179.0859 2.3
192.0927 4.74
203.0705 100.0
207.1158 5.3
217.1003 1.55
220.088 2.14
235.1118 6.36
237.1255 1.63
250.0987 1.52
265.1214 6.6
293.1171 33.23
321.1112 1.1
362.1364 1.17
408.1435 5.71
440.1854 2.21
486.193 0.96
