>compound Alfuzosin hydrochloride (Uroxatral)
>formula C19H27N5O4
>ionization [M+H]+
>parentmass 390.2135807960905
#inchi InChI=1S/C19H27N5O4/c1-24(8-5-7-21-18(25)14-6-4-9-28-14)19-22-13-11-16(27-3)15(26-2)10-12(13)17(20)23-19/h10-11,14H,4-9H2,1-3H3,(H,21,25)(H2,20,22,23)
#inchikey WNMJYKCGWZFFKR
#origInchi InChI=1S/C19H27N5O4.ClH/c1-24(8-5-7-21-18(25)14-6-4-9-28-14)19-22-13-11-16(27-3)15(26-2)10-12(13)17(20)23-19;/h10-11,14H,4-9H2,1-3H3,(H,21,25)(H2,20,22,23);1H
#Ion_Source LC-ESI
#Instrument qTof
#Compound_Source Commercial
#PI Dorrestein
#Data_Collector Garg_Neha
#Scan -1
#Precursor_MZ 390.214
#ExactMass 389.206
#Charge 1
#CAS_Number 81403-68-1, 81403-80-7 (free base)
#Pubmed_ID N/A
#Smiles C1(=C(C=C2C(=C1)C(=NC(=N2)N(CCCNC(C3CCCO3)=O)C)N)OC)OC.Cl
#INCHI_AUX N/A
#Library_Class 1
#SpectrumID CCMSLIB00000078138
#IonMode Positive
#UpdateWorkflowName UPDATE-SINGLE-ANNOTATED-GOLD
#LibraryQualityString Gold
#TaskID 77f51c88eb8b467eb4a01dd2d0cb90d2
##Scan# 1059
#SpectrumFile Plate2_61_88_GG8_01_16496.mzXML
#LibraryName FDALibrary_2_04302014.mgf
#MQScore -1
#Organism FDALibrary_2_04302014
#TIC_Query 0
#RT_Query -1
#MZErrorPPM -1
#SharedPeaks 0
#MassDiff 0
#LibMZ -1
#SpecMZ 390.214
#SpecCharge 0
#internalFilename spec-00000.mgf

>collision 0
100.0773 0.52
128.0701 1.57
156.1031 73.22
216.1012 1.22
219.0882 7.68
220.095 6.28
229.1078 0.29
231.087 0.71
231.123 0.45
232.0959 0.71
233.1038 0.73
234.1112 3.48
235.1207 100.0
245.1031 0.36
247.1197 11.12
259.1196 3.37
260.1256 2.0
261.1354 1.4
275.1509 19.96
277.1541 0.41
292.1761 2.71
374.1805 2.16
375.189 0.55
390.2157 150.25
