>compound MLS001148268-01!51803-78-2
>formula C13H12N2O5S
>ionization [M+H]+
>parentmass 309.05396893609054
#inchi InChI=1S/C13H12N2O5S/c1-21(18,19)14-12-8-7-10(15(16)17)9-13(12)20-11-5-3-2-4-6-11/h2-9,14H,1H3
#inchikey HYWYRSMBCFDLJT
#Ion_Source LC-ESI
#Instrument qTof
#Compound_Source NIH Pharmacologically Active Library
#PI Dorrestein
#Data_Collector VP/LMS
#Scan -1
#Precursor_MZ 309.051
#ExactMass 308.047
#Charge 1
#CAS_Number N/A
#Pubmed_ID N/A
#Smiles CS(=O)(=O)Nc1ccc(cc1Oc2ccccc2)[N+](=O)[O-]
#INCHI_AUX N/A
#Library_Class 1
#SpectrumID CCMSLIB00000085268
#IonMode Positive
#UpdateWorkflowName UPDATE-SINGLE-ANNOTATED-GOLD
#LibraryQualityString Gold
#TaskID d252d724072548979f1f6f1ced849daf
##Scan# 2169
#SpectrumFile p3-G08_GG8_01_18301.mzXML
#LibraryName Pharm_Active_Library.mgf
#MQScore -1
#Organism Pharm_Active_Library
#TIC_Query 0
#RT_Query -1
#MZErrorPPM -1
#SharedPeaks 0
#MassDiff 0
#LibMZ -1
#SpecMZ 309.051
#SpecCharge 0
#internalFilename spec-00000.mgf

>collision 0
75.0263 1.86
104.049 3.35
106.0275 2.84
115.0549 2.97
120.0441 1.86
128.0571 6.22
129.068 6.91
130.0628 1.83
139.0549 1.77
143.0709 2.75
144.042 4.73
154.0651 100.0
155.0515 9.69
155.0693 13.86
156.0464 2.34
156.0803 9.22
166.0651 4.96
170.0589 2.24
172.0055 1.99
172.0768 5.49
182.0602 15.31
183.0679 60.7
184.0755 14.14
185.0749 1.99
199.0578 4.14
200.0691 6.31
213.0656 12.5
214.0733 6.09
215.0578 14.8
216.06 4.48
229.0625 2.34
230.0693 3.79
262.0521 3.25
292.052 21.53
309.0566 0.0
