>compound MLS002153178-01!Tyrphostin AG 527133550-32-0
>formula C18H16N2O3
>ionization [M+H]+
>parentmass 309.1233688240905
#inchi InChI=1S/C18H16N2O3/c1-12(14-5-3-2-4-6-14)20-18(23)15(11-19)9-13-7-8-16(21)17(22)10-13/h2-10,12,21-22H,1H3,(H,20,23)/b15-9+/t12-/m1/s1
#inchikey UMGQVUWXNOJOSJ
#Ion_Source LC-ESI
#Instrument qTof
#Compound_Source NIH Pharmacologically Active Library
#PI Dorrestein
#Data_Collector VP/LMS
#Scan -1
#Precursor_MZ 309.126
#ExactMass 308.116
#Charge 1
#CAS_Number N/A
#Pubmed_ID N/A
#Smiles C[C@@H](NC(=O)/C(=C/c1ccc(O)c(O)c1)/C#N)c2ccccc2
#INCHI_AUX N/A
#Library_Class 3
#SpectrumID CCMSLIB00000086012
#IonMode Positive
#UpdateWorkflowName UPDATE-SINGLE-ANNOTATED-BRONZE
#LibraryQualityString Bronze
#TaskID d252d724072548979f1f6f1ced849daf
##Scan# 1888
#SpectrumFile p5-B02_GB2_01_18441.mzXML
#LibraryName Pharm_Active_Library.mgf
#MQScore -1
#Organism Pharm_Active_Library
#TIC_Query 0
#RT_Query -1
#MZErrorPPM -1
#SharedPeaks 0
#MassDiff 0
#LibMZ -1
#SpecMZ 309.126
#SpecCharge 0
#internalFilename spec-00000.mgf

>collision 0
45.0581 2.34
103.0542 15.24
104.0493 5.28
105.0704 100.0
106.0736 14.07
114.033 8.85
132.0436 10.84
134.0688 2.34
155.1067 2.52
160.0403 26.85
163.0415 2.34
170.0254 12.49
188.0342 7.21
309.1271 0.0
