>compound MLS002206418-01!2-[benzoyl(methyl)amino]acetic acid
>formula C10H11NO3
>ionization [M+H]+
>parentmass 194.082
#inchi InChI=1S/C10H11NO3/c1-11(7-9(12)13)10(14)8-5-3-2-4-6-8/h2-6H,7H2,1H3,(H,12,13)
#inchikey PKCSYDDSNIJRIX
#Ion_Source LC-ESI
#Instrument qTof
#Compound_Source NIH Natural Product Library
#PI Dorrestein
#Data_Collector VVP/LMS
#Scan -1
#Precursor_MZ 194.082
#ExactMass 193.074
#Charge 1
#CAS_Number N/A
#Pubmed_ID N/A
#Smiles CN(CC(=O)O)C(=O)c1ccccc1
#INCHI_AUX N/A
#Library_Class 3
#SpectrumID CCMSLIB00000079400
#IonMode Positive
#UpdateWorkflowName UPDATE-SINGLE-ANNOTATED-BRONZE
#LibraryQualityString Bronze
#TaskID b1d8e8f6646f4e71acdff9ca3d919d08
##Scan# 1344
#SpectrumFile p1-G05_GG5_01_17949.mzXML
#LibraryName NIH_Natural_Products_Library.mgf
#MQScore -1
#Organism NIH_Natural_Products_Library
#TIC_Query 0
#RT_Query -1
#MZErrorPPM -1
#SharedPeaks 0
#MassDiff 0
#LibMZ -1
#SpecMZ 194.082
#SpecCharge 0
#internalFilename spec-00000.mgf

>collision 0
105.0324 100.0
194.082 0.0
