>compound MLS000069723-01!FENBENDAZOLE43210-67-9
>formula C15H13N3O2S
>ionization [M+H]+
>parentmass 300.078644
#inchi InChI=1S/C15H13N3O2S/c1-20-15(19)18-14-16-12-8-7-11(9-13(12)17-14)21-10-5-3-2-4-6-10/h2-9H,1H3,(H2,16,17,18,19)
#inchikey HDDSHPAODJUKPD
#Ion_Source LC-ESI
#Instrument qTof
#Compound_Source NIH Pharmacologically Active Library
#PI Dorrestein
#Data_Collector VP/LMS
#Scan -1
#Precursor_MZ 300.083
#ExactMass 299.073
#Charge 1
#CAS_Number N/A
#Pubmed_ID N/A
#Smiles COC(=O)Nc1nc2cc(Sc3ccccc3)ccc2[nH]1
#INCHI_AUX N/A
#Library_Class 1
#SpectrumID CCMSLIB00000085891
#IonMode Positive
#UpdateWorkflowName UPDATE-SINGLE-ANNOTATED-GOLD
#LibraryQualityString Gold
#TaskID d252d724072548979f1f6f1ced849daf
##Scan# 1861
#SpectrumFile p4-G08_GG8_01_18404.mzXML
#LibraryName Pharm_Active_Library.mgf
#MQScore -1
#Organism Pharm_Active_Library
#TIC_Query 0
#RT_Query -1
#MZErrorPPM -1
#SharedPeaks 0
#MassDiff 0
#LibMZ -1
#SpecMZ 300.083
#SpecCharge 0
#internalFilename spec-00000.mgf

>collision 0
104.037 3.65
130.0393 0.73
131.0484 22.17
146.0349 0.59
147.0008 0.54
158.0347 1.28
159.0441 92.79
171.0259 2.22
174.0298 0.57
186.0372 0.45
190.0078 22.78
198.0375 3.03
213.0477 0.76
225.0481 2.33
240.059 3.55
268.0562 100.0
300.0809 1.8
