>compound Abacavir sulfate
>formula C14H18N6O
>ionization [M+H]+
>parentmass 287.1614856480905
#inchi InChI=1S/C14H18N6O/c15-14-18-12(17-9-2-3-9)11-13(19-14)20(7-16-11)10-4-1-8(5-10)6-21/h1,4,7-10,21H,2-3,5-6H2,(H3,15,17,18,19)/t8-,10+/m1/s1
#inchikey MCGSCOLBFJQGHM
#origInchi InChI=1S/2C14H18N6O.H2O4S/c2*15-14-18-12(17-9-2-3-9)11-13(19-14)20(7-16-11)10-4-1-8(5-10)6-21;1-5(2,3)4/h2*1,4,7-10,21H,2-3,5-6H2,(H3,15,17,18,19);(H2,1,2,3,4)/t2*8-,10+;/m11./s1
#Ion_Source LC-ESI
#Instrument qTof
#Compound_Source Commercial
#PI Dorrestein
#Data_Collector Garg_Neha
#Scan -1
#Precursor_MZ 287.161
#ExactMass 286.154
#Charge 1
#CAS_Number 188062-50-2, 136470-78-5 (FREE BASE)
#Pubmed_ID N/A
#Smiles [C@H]1(C=C[C@@H](C1)N2C=NC3C(=NC(=NC2=3)N)NC4CC4)CO.S(=O)(=O)(O)O.[C@H]5(C=C[C@@H](C5)N6C=NC7C(=NC(=NC6=7)N)NC8CC8)CO
#INCHI_AUX N/A
#Library_Class 1
#SpectrumID CCMSLIB00000078595
#IonMode Positive
#UpdateWorkflowName UPDATE-SINGLE-ANNOTATED-GOLD
#LibraryQualityString Gold
#TaskID 77f51c88eb8b467eb4a01dd2d0cb90d2
##Scan# 987
#SpectrumFile Plate9_61_80_GC7_01_15756.mzXML
#LibraryName FDALibrary_2_04302014.mgf
#MQScore -1
#Organism FDALibrary_2_04302014
#TIC_Query 0
#RT_Query -1
#MZErrorPPM -1
#SharedPeaks 0
#MassDiff 0
#LibMZ -1
#SpecMZ 287.161
#SpecCharge 0
#internalFilename spec-00000.mgf

>collision 0
109.0503 0.8
134.0457 2.58
136.0605 0.26
147.0672 0.56
150.0651 10.88
163.0721 1.31
164.0926 2.18
174.0775 8.5
176.0789 0.34
191.105 100.0
287.1641 65.09
