>compound MLS000860031-01!BMY 7378 dihydrochloride
>formula C22H31N3O3
>ionization [M+H]+
>parentmass 386.244171
#inchi InChI=1S/C22H31N3O3/c1-28-19-7-3-2-6-18(19)24-13-10-23(11-14-24)12-15-25-20(26)16-22(17-21(25)27)8-4-5-9-22/h2-3,6-7H,4-5,8-17H2,1H3
#inchikey AYYCFGDXLUPJAQ
#origInchi InChI=1S/C22H31N3O3.ClH/c1-28-19-7-3-2-6-18(19)24-13-10-23(11-14-24)12-15-25-20(26)16-22(17-21(25)27)8-4-5-9-22;/h2-3,6-7H,4-5,8-17H2,1H3;1H
#Ion_Source LC-ESI
#Instrument qTof
#Compound_Source NIH Pharmacologically Active Library
#PI Dorrestein
#Data_Collector VP/LMS
#Scan -1
#Precursor_MZ 386.248
#ExactMass 385.237
#Charge 1
#CAS_Number N/A
#Pubmed_ID N/A
#Smiles COc1ccccc1N2CCN(CCN3C(=O)CC4(CCCC4)CC3=O)CC2.Cl
#INCHI_AUX N/A
#Library_Class 1
#SpectrumID CCMSLIB00000084908
#IonMode Positive
#UpdateWorkflowName UPDATE-SINGLE-ANNOTATED-GOLD
#LibraryQualityString Gold
#TaskID d252d724072548979f1f6f1ced849daf
##Scan# 1641
#SpectrumFile p3-C06_GC6_01_18251.mzXML
#LibraryName Pharm_Active_Library.mgf
#MQScore -1
#Organism Pharm_Active_Library
#TIC_Query 0
#RT_Query -1
#MZErrorPPM -1
#SharedPeaks 0
#MassDiff 0
#LibMZ -1
#SpecMZ 386.248
#SpecCharge 0
#internalFilename spec-00000.mgf

>collision 0
109.0656 35.53
118.0644 0.2
120.0445 0.44
123.0805 0.33
150.0919 0.8
166.1215 0.75
194.1187 100.0
386.2442 18.03
