>compound TRICLABENDAZOLE
>formula C14H9Cl3N2OS
>ionization [M+H]+
>parentmass 358.95874
#inchi InChI=1S/C14H9Cl3N2OS/c1-21-14-18-9-5-8(16)12(6-10(9)19-14)20-11-4-2-3-7(15)13(11)17/h2-6H,1H3,(H,18,19)
#inchikey NQPDXQQQCQDHHW
#Ion_Source LC-ESI
#Instrument qTof
#Compound_Source Commercial
#PI Dorrestein
#Data_Collector Garg_Neha
#Scan -1
#Precursor_MZ 358.957
#ExactMass 357.95
#Charge 1
#CAS_Number N/A
#Pubmed_ID N/A
#Smiles CSc1nc2cc(Cl)c(Oc3cccc(Cl)c3Cl)cc2[nH]1
#INCHI_AUX N/A
#Library_Class 1
#SpectrumID CCMSLIB00000078991
#IonMode Positive
#UpdateWorkflowName UPDATE-SINGLE-ANNOTATED-GOLD
#LibraryQualityString Gold
#TaskID 278b19f5865741e282cec7349aa7e7a1
##Scan# 2289
#SpectrumFile NCP003352_C2_D11_BC5_01_15719.mzXML
#LibraryName NIHcollectionI_05062014.mgf
#MQScore -1
#Organism NIHcollectionI_05062014
#TIC_Query 0
#RT_Query -1
#MZErrorPPM -1
#SharedPeaks 0
#MassDiff 0
#LibMZ -1
#SpecMZ 358.957
#SpecCharge 0
#internalFilename spec-00000.mgf

>collision 0
165.0204 15.54
170.9776 9.61
198.9706 23.11
214.0036 10.02
231.9871 7.77
251.996 7.57
273.9982 71.37
275.9955 21.68
308.9664 25.56
343.9352 100.0
344.9399 20.86
358.9587 307.57
