>compound MLS000069640-01!SULFAMETER
>formula C11H12N4O3S
>ionization [M+H]+
>parentmass 281.072
#inchi InChI=1S/C11H12N4O3S/c1-18-9-6-13-11(14-7-9)15-19(16,17)10-4-2-8(12)3-5-10/h2-7H,12H2,1H3,(H,13,14,15)
#inchikey GPTONYMQFTZPKC
#Ion_Source LC-ESI
#Instrument qTof
#Compound_Source NIH Pharmacologically Active Library
#PI Dorrestein
#Data_Collector VP/LMS
#Scan -1
#Precursor_MZ 281.072
#ExactMass 280.063
#Charge 1
#CAS_Number N/A
#Pubmed_ID N/A
#Smiles COc1cnc(NS(=O)(=O)c2ccc(N)cc2)nc1
#INCHI_AUX N/A
#Library_Class 1
#SpectrumID CCMSLIB00000084761
#IonMode Positive
#UpdateWorkflowName UPDATE-SINGLE-ANNOTATED-GOLD
#LibraryQualityString Gold
#TaskID d252d724072548979f1f6f1ced849daf
##Scan# 1364
#SpectrumFile p3-A05_GA5_01_18227.mzXML
#LibraryName Pharm_Active_Library.mgf
#MQScore -1
#Organism Pharm_Active_Library
#TIC_Query 0
#RT_Query -1
#MZErrorPPM -1
#SharedPeaks 0
#MassDiff 0
#LibMZ -1
#SpecMZ 281.072
#SpecCharge 0
#internalFilename spec-00000.mgf

>collision 0
44.9963 1.72
66.0083 1.88
92.0497 8.05
93.0573 3.03
94.0393 1.63
99.0547 2.75
108.0451 100.0
109.0505 9.2
110.0353 4.41
111.0435 16.16
124.0515 5.27
126.0679 51.64
157.0621 2.91
172.0751 30.98
185.0828 2.49
200.0693 7.51
215.0924 18.68
281.072 0.0
