>compound MLS002222329-01!26305-03-3
>formula C34H63N5O9
>ionization [M+Na]+
>parentmass 708.453186
#inchi InChI=1S/C34H63N5O9/c1-17(2)12-23(37-33(47)31(21(9)10)39-34(48)30(20(7)8)38-27(42)14-19(5)6)25(40)15-28(43)35-22(11)32(46)36-24(13-18(3)4)26(41)16-29(44)45/h17-26,30-31,40-41H,12-16H2,1-11H3,(H,35,43)(H,36,46)(H,37,47)(H,38,42)(H,39,48)(H,44,45)/t22-,23-,24-,25-,26-,30-,31-/m0/s1
#inchikey FAXGPCHRFPCXOO
#Ion_Source LC-ESI
#Instrument qTof
#Compound_Source NIH Pharmacologically Active Library
#PI Dorrestein
#Data_Collector VP/LMS
#Scan -1
#Precursor_MZ 708.464
#ExactMass 685.463
#Charge 1
#CAS_Number N/A
#Pubmed_ID N/A
#Smiles CC(C)C[C@H](NC(=O)[C@H](C)NC(=O)C[C@H](O)[C@H](CC(C)C)NC(=O)[C@@H](NC(=O)[C@@H](NC(=O)CC(C)C)C(C)C)C(C)C)[C@@H](O)CC(=O)O
#INCHI_AUX N/A
#Library_Class 1
#SpectrumID CCMSLIB00000086130
#IonMode Positive
#UpdateWorkflowName UPDATE-SINGLE-ANNOTATED-GOLD
#LibraryQualityString Gold
#TaskID d252d724072548979f1f6f1ced849daf
##Scan# 1901
#SpectrumFile p5-F03_GF3_01_18466.mzXML
#LibraryName Pharm_Active_Library.mgf
#MQScore -1
#Organism Pharm_Active_Library
#TIC_Query 0
#RT_Query -1
#MZErrorPPM -1
#SharedPeaks 0
#MassDiff 0
#LibMZ -1
#SpecMZ 708.464
#SpecCharge 0
#internalFilename spec-00000.mgf

>collision 0
176.1281 0.59
229.1538 0.87
277.1866 1.89
322.2102 0.72
323.1924 0.93
346.2479 0.83
348.2283 0.7
364.2543 0.98
366.2345 0.85
390.2372 0.55
402.2722 2.97
404.2852 0.58
408.246 2.49
418.2367 0.87
418.304 2.37
420.2843 100.0
421.2868 23.2
426.2557 2.49
436.2471 6.31
437.2504 1.01
454.258 3.93
455.2618 0.59
461.3107 1.07
462.2946 1.19
463.3091 0.69
480.3049 2.64
481.3095 1.19
485.331 0.7
487.3212 1.12
505.3362 4.09
506.3401 0.98
525.3231 1.3
533.3312 1.09
535.3101 0.62
551.3419 5.38
552.3467 1.17
628.4399 2.95
629.4448 1.28
630.418 1.7
631.4293 0.91
646.4507 13.64
647.4556 3.76
648.4295 7.55
649.4353 2.63
690.4404 7.65
692.4359 0.77
708.4532 161.26
