>compound TADALAFIL
>formula C22H19N3O4
>ionization [M+H]+
>parentmass 390.145905
#inchi InChI=1S/C22H19N3O4/c1-24-10-19(26)25-16(22(24)27)9-14-13-4-2-3-5-15(13)23-20(14)21(25)12-6-7-17-18(8-12)29-11-28-17/h2-8,16,21,23H,9-11H2,1H3/t16-,21-/m1/s1
#inchikey WOXKDUGGOYFFRN
#Ion_Source LC-ESI
#Instrument qTof
#Compound_Source Commercial
#PI Dorrestein
#Data_Collector Garg_Neha
#Scan -1
#Precursor_MZ 390.145
#ExactMass 389.138
#Charge 1
#CAS_Number N/A
#Pubmed_ID N/A
#Smiles CN1CC(=O)N2[C@@H](c3[nH]c4ccccc4c3C[C@@H]2C1=O)c5ccc6OCOc6c5
#INCHI_AUX N/A
#Library_Class 1
#SpectrumID CCMSLIB00000078956
#IonMode Positive
#UpdateWorkflowName UPDATE-SINGLE-ANNOTATED-GOLD
#LibraryQualityString Gold
#TaskID 278b19f5865741e282cec7349aa7e7a1
##Scan# 1319
#SpectrumFile NCP003272_G2_H11_BC3_01_15716.mzXML
#LibraryName NIHcollectionI_05062014.mgf
#MQScore -1
#Organism NIHcollectionI_05062014
#TIC_Query 0
#RT_Query -1
#MZErrorPPM -1
#SharedPeaks 0
#MassDiff 0
#LibMZ -1
#SpecMZ 390.145
#SpecCharge 0
#internalFilename spec-00000.mgf

>collision 0
130.065 1.17
135.0443 17.01
144.0805 0.4
169.0763 10.76
170.0595 1.39
183.0913 0.54
188.0705 0.34
197.0713 4.78
204.0807 2.27
205.0879 3.14
216.0822 0.41
225.0659 0.62
232.0756 2.93
233.0823 3.87
240.1124 7.11
244.0757 0.55
250.0862 3.01
262.0856 17.88
268.1089 100.0
274.0849 3.92
302.0811 6.44
390.1441 32.03
