>compound Rifaximin (Xifaxan)
>formula C43H51N3O11
>ionization [M+H]+
>parentmass 786.3596359040905
#inchi InChI=1S/C43H51N3O11/c1-19-14-16-46-28(18-19)44-32-29-30-37(50)25(7)40-31(29)41(52)43(9,57-40)55-17-15-27(54-10)22(4)39(56-26(8)47)24(6)36(49)23(5)35(48)20(2)12-11-13-21(3)42(53)45-33(34(32)46)38(30)51/h11-18,20,22-24,27,35-36,39,48-51H,1-10H3,(H,45,53)/b12-11+,17-15+,21-13-/t20-,22-,23+,24-,27+,35+,36-,39-,43-/m1/s1
#inchikey NZCRJKRKKOLAOJ
#Ion_Source LC-ESI
#Instrument qTof
#Compound_Source Commercial
#PI Dorrestein
#Data_Collector Garg_Neha
#Scan -1
#Precursor_MZ 786.36
#ExactMass 785.352
#Charge 1
#CAS_Number 80621-81-4
#Pubmed_ID N/A
#Smiles [C@@H]1([C@H]([C@@H]([C@@H]([C@H](/C=C/O[C@@]2(OC3C(=C(C4C(=C(NC(/C(=C\C=C\[C@H]([C@@H]([C@@H]1C)O)C)C)=O)C5=C(C=4C=3C2=O)N=C6N5C=CC(=C6)C)O)O)C)C)OC)C)OC(C)=O)C)O
#INCHI_AUX N/A
#Library_Class 1
#SpectrumID CCMSLIB00000078289
#IonMode Positive
#UpdateWorkflowName UPDATE-SINGLE-ANNOTATED-GOLD
#LibraryQualityString Gold
#TaskID 77f51c88eb8b467eb4a01dd2d0cb90d2
##Scan# 1616
#SpectrumFile Plate4_61_88_GH5_01_16506.mzXML
#LibraryName FDALibrary_2_04302014.mgf
#MQScore -1
#Organism FDALibrary_2_04302014
#TIC_Query 0
#RT_Query -1
#MZErrorPPM -1
#SharedPeaks 0
#MassDiff 0
#LibMZ -1
#SpecMZ 786.36
#SpecCharge 0
#internalFilename spec-00000.mgf

>collision 0
95.0485 2.27
95.0861 5.53
97.0647 2.28
107.0858 6.7
109.0643 4.5
111.0805 3.02
119.0849 3.88
121.1013 2.44
123.0801 12.16
133.0631 2.14
133.1008 5.27
135.0798 7.8
135.1154 4.52
145.1011 6.83
147.1169 8.33
149.0958 2.13
151.0753 35.36
153.0904 5.96
161.0947 8.44
163.1111 23.78
165.1253 3.54
173.0943 5.72
173.1331 3.34
175.1101 7.87
177.0898 2.83
179.1064 8.37
185.1317 2.74
191.1064 10.76
193.1216 4.22
201.1262 2.4
219.1351 3.54
231.1368 3.68
279.1705 2.22
362.1132 24.49
466.1765 3.1
676.3017 3.18
718.3153 2.12
736.3225 6.83
737.3306 3.39
754.3351 100.0
755.3362 46.34
786.363 307.43
