>compound MLS000069661-01!1-(1-ADAMANTYL)ETHYLAMINE HYDROCHLORIDE
>formula C12H21N
>ionization [M+H]+
>parentmass 180.175049
#inchi InChI=1S/C12H21N/c1-8(13)12-5-9-2-10(6-12)4-11(3-9)7-12/h8-11H,2-7,13H2,1H3
#inchikey UBCHPRBFMUDMNC
#origInchi InChI=1S/C12H21N.ClH/c1-8(13)12-5-9-2-10(6-12)4-11(3-9)7-12;/h8-11H,2-7,13H2,1H3;1H/t8?,9-,10+,11-,12-;
#Ion_Source LC-ESI
#Instrument qTof
#Compound_Source NIH Pharmacologically Active Library
#PI Dorrestein
#Data_Collector VP/LMS
#Scan -1
#Precursor_MZ 180.177
#ExactMass 179.167
#Charge 1
#CAS_Number N/A
#Pubmed_ID N/A
#Smiles CC(N)[C@]1(C[C@@H]2C[C@H]3C[C@@H](C2)C1)C3.Cl
#INCHI_AUX N/A
#Library_Class 1
#SpectrumID CCMSLIB00000085739
#IonMode Positive
#UpdateWorkflowName UPDATE-SINGLE-ANNOTATED-GOLD
#LibraryQualityString Gold
#TaskID d252d724072548979f1f6f1ced849daf
##Scan# 1431
#SpectrumFile p4-E10_GE10_01_18382.mzXML
#LibraryName Pharm_Active_Library.mgf
#MQScore -1
#Organism Pharm_Active_Library
#TIC_Query 0
#RT_Query -1
#MZErrorPPM -1
#SharedPeaks 0
#MassDiff 0
#LibMZ -1
#SpecMZ 180.177
#SpecCharge 0
#internalFilename spec-00000.mgf

>collision 0
91.0545 7.89
93.0699 12.67
95.0853 5.35
105.0697 6.99
107.0854 37.16
109.1007 2.71
119.0855 1.15
121.1012 33.51
133.1003 0.67
135.1161 30.38
163.1477 100.0
165.1524 1.44
180.1747 2.42
