>compound MLS002153184-01!7-Cyclopentyl-5-(4-phenoxyphenyl)-7H-pyrrolo[2,3-d]pyrimidin-4-ylamine
>formula C23H22N4O
>ionization [M+H]+
>parentmass 371.18808
#inchi InChI=1S/C23H22N4O/c24-22-21-20(14-27(17-6-4-5-7-17)23(21)26-15-25-22)16-10-12-19(13-11-16)28-18-8-2-1-3-9-18/h1-3,8-15,17H,4-7H2,(H2,24,25,26)
#inchikey FMETVQKSDIOGPX
#Ion_Source LC-ESI
#Instrument qTof
#Compound_Source NIH Pharmacologically Active Library
#PI Dorrestein
#Data_Collector VP/LMS
#Scan -1
#Precursor_MZ 371.187
#ExactMass 370.179
#Charge 1
#CAS_Number N/A
#Pubmed_ID N/A
#Smiles Nc1ncnc2n(cc(c3ccc(Oc4ccccc4)cc3)c12)C5CCCC5
#INCHI_AUX N/A
#Library_Class 1
#SpectrumID CCMSLIB00000085925
#IonMode Positive
#UpdateWorkflowName UPDATE-SINGLE-ANNOTATED-GOLD
#LibraryQualityString Gold
#TaskID d252d724072548979f1f6f1ced849daf
##Scan# 2092
#SpectrumFile p4-H02_GH2_01_18410.mzXML
#LibraryName Pharm_Active_Library.mgf
#MQScore -1
#Organism Pharm_Active_Library
#TIC_Query 0
#RT_Query -1
#MZErrorPPM -1
#SharedPeaks 0
#MassDiff 0
#LibMZ -1
#SpecMZ 371.187
#SpecCharge 0
#internalFilename spec-00000.mgf

>collision 0
141.0573 0.3
155.0602 0.54
156.0683 0.33
166.0529 1.97
168.0691 1.54
180.0558 1.39
182.0698 0.69
183.0799 15.63
192.0568 0.48
193.0644 13.96
197.0824 0.59
198.0883 0.77
204.0804 0.57
207.0805 2.47
208.0514 1.16
209.0832 29.72
210.0908 29.61
225.0781 1.32
226.0833 0.98
230.0838 0.32
231.0901 1.31
232.0761 4.21
234.0894 0.84
241.0759 0.34
257.0944 0.3
258.1021 0.78
259.0866 5.64
261.1023 3.78
276.1133 2.44
285.0895 0.48
286.0972 5.91
302.1156 0.32
303.1255 100.0
371.1869 47.22
