>compound MLS001158005-01!(3S)-N-[(2S)-1-[(2-methoxyphenyl)methylamino]-4-methylsulfanyl-1-oxobutan-2-yl]-1,2,3,4-tetrahydroisoquinoline-3-carboxamide
>formula C23H29N3O3S
>ionization [M+H]+
>parentmass 428.201
#inchi InChI=1S/C23H29N3O3S/c1-29-21-10-6-5-9-18(21)15-25-22(27)19(11-12-30-2)26-23(28)20-13-16-7-3-4-8-17(16)14-24-20/h3-10,19-20,24H,11-15H2,1-2H3,(H,25,27)(H,26,28)/t19-,20-/m0/s1
#inchikey UGFKKUYAHVXETN
#Ion_Source LC-ESI
#Instrument qTof
#Compound_Source NIH Natural Product Library
#PI Dorrestein
#Data_Collector VVP/LMS
#Scan -1
#Precursor_MZ 428.201
#ExactMass 427.193
#Charge 1
#CAS_Number N/A
#Pubmed_ID N/A
#Smiles COc1ccccc1CNC(=O)[C@H](CCSC)NC(=O)[C@@H]2Cc3ccccc3CN2
#INCHI_AUX N/A
#Library_Class 1
#SpectrumID CCMSLIB00000079873
#IonMode Positive
#UpdateWorkflowName UPDATE-SINGLE-ANNOTATED-GOLD
#LibraryQualityString Gold
#TaskID b1d8e8f6646f4e71acdff9ca3d919d08
##Scan# 1714
#SpectrumFile p1-C12_GC12_01_17908.mzXML
#LibraryName NIH_Natural_Products_Library.mgf
#MQScore -1
#Organism NIH_Natural_Products_Library
#TIC_Query 0
#RT_Query -1
#MZErrorPPM -1
#SharedPeaks 0
#MassDiff 0
#LibMZ -1
#SpecMZ 428.201
#SpecCharge 0
#internalFilename spec-00000.mgf

>collision 0
103.0535 1.13
105.0691 1.56
115.0547 4.04
117.0582 5.24
121.0658 41.69
130.0662 42.96
132.0819 100.0
138.0915 2.03
170.0964 3.5
187.0865 0.25
197.1075 0.21
198.0914 1.42
215.118 17.26
263.1204 3.22
428.201 0.0
