>compound MLS001032306-01!2-[(5-hydroxy-2,2-dimethyl-4-oxo-3H-chromen-7-yl)oxy]-N-[(3-methoxyphenyl)methyl]acetamide
>formula C21H23NO6
>ionization [M+H]+
>parentmass 386.16
#inchi InChI=1S/C21H23NO6/c1-21(2)10-17(24)20-16(23)8-15(9-18(20)28-21)27-12-19(25)22-11-13-5-4-6-14(7-13)26-3/h4-9,23H,10-12H2,1-3H3,(H,22,25)
#inchikey HVRIXSUEIHGMDA
#Ion_Source LC-ESI
#Instrument qTof
#Compound_Source NIH Natural Product Library
#PI Dorrestein
#Data_Collector VVP/LMS
#Scan -1
#Precursor_MZ 386.16
#ExactMass 385.153
#Charge 1
#CAS_Number N/A
#Pubmed_ID N/A
#Smiles COc1cccc(CNC(=O)COc2cc(O)c3C(=O)CC(C)(C)Oc3c2)c1
#INCHI_AUX N/A
#Library_Class 1
#SpectrumID CCMSLIB00000079872
#IonMode Positive
#UpdateWorkflowName UPDATE-SINGLE-ANNOTATED-GOLD
#LibraryQualityString Gold
#TaskID b1d8e8f6646f4e71acdff9ca3d919d08
##Scan# 2275
#SpectrumFile p1-C12_GC12_01_17908.mzXML
#LibraryName NIH_Natural_Products_Library.mgf
#MQScore -1
#Organism NIH_Natural_Products_Library
#TIC_Query 0
#RT_Query -1
#MZErrorPPM -1
#SharedPeaks 0
#MassDiff 0
#LibMZ -1
#SpecMZ 386.16
#SpecCharge 0
#internalFilename spec-00000.mgf

>collision 0
97.0281 0.53
105.0336 0.89
106.0427 2.9
109.0653 5.51
121.0658 100.0
125.0223 0.43
137.0597 7.3
153.0187 56.0
163.0746 0.89
165.0179 5.48
183.0284 0.42
191.0701 11.23
209.0808 33.54
221.0812 6.05
278.1023 4.47
386.1598 0.0
