>compound MLS000859956-01!U-74389G
>formula C37H50N6O2
>ionization [M+H]+
>parentmass 611.405151
#inchi InChI=1S/C37H50N6O2/c1-36-13-11-27(44)23-26(36)7-8-28-29-9-10-31(37(29,2)14-12-30(28)36)32(45)25-40-19-21-42(22-20-40)34-24-33(41-15-3-4-16-41)38-35(39-34)43-17-5-6-18-43/h11-13,23-24,28-29,31H,3-10,14-22,25H2,1-2H3/t28-,29-,31+,36-,37-/m0/s1
#inchikey LBGLGTAQLROFTM
#origInchi InChI=1S/C37H50N6O2.C4H4O4/c1-36-13-11-27(44)23-26(36)7-8-28-29-9-10-31(37(29,2)14-12-30(28)36)32(45)25-40-19-21-42(22-20-40)34-24-33(41-15-3-4-16-41)38-35(39-34)43-17-5-6-18-43;5-3(6)1-2-4(7)8/h11-13,23-24,28-29,31H,3-10,14-22,25H2,1-2H3;1-2H,(H,5,6)(H,7,8)/b;2-1-/t28-,29-,31+,36-,37-;/m0./s1
#Ion_Source LC-ESI
#Instrument qTof
#Compound_Source NIH Pharmacologically Active Library
#PI Dorrestein
#Data_Collector VP/LMS
#Scan -1
#Precursor_MZ 611.411
#ExactMass 610.4
#Charge 1
#CAS_Number N/A
#Pubmed_ID N/A
#Smiles C[C@@]12CC=C3[C@@H](CCC4=CC(=O)C=C[C@@]43C)[C@@H]2CC[C@@H]1C(=O)CN5CCN(CC5)c6cc(nc(n6)N7CCCC7)N8CCCC8.OC(=O)/C=C\C(=O)O
#INCHI_AUX N/A
#Library_Class 3
#SpectrumID CCMSLIB00000086020
#IonMode Positive
#UpdateWorkflowName UPDATE-SINGLE-ANNOTATED-BRONZE
#LibraryQualityString Bronze
#TaskID d252d724072548979f1f6f1ced849daf
##Scan# 1704
#SpectrumFile p5-B03_GB3_01_18442.mzXML
#LibraryName Pharm_Active_Library.mgf
#MQScore -1
#Organism Pharm_Active_Library
#TIC_Query 0
#RT_Query -1
#MZErrorPPM -1
#SharedPeaks 0
#MassDiff 0
#LibMZ -1
#SpecMZ 611.411
#SpecCharge 0
#internalFilename spec-00000.mgf

>collision 0
99.0915 4.12
121.0779 4.71
246.1612 7.84
247.1798 3.82
256.1431 4.61
256.1686 4.61
260.1884 7.16
301.216 18.73
315.2332 6.76
330.2397 3.92
353.2489 3.82
371.2559 5.88
395.2502 3.92
426.3164 4.31
428.1519 4.12
567.2465 3.82
568.3952 5.59
569.3857 3.82
578.3688 4.02
582.3628 4.31
596.3823 100.0
597.3864 40.2
611.4052 84.31
