>compound Kanamycin A
>formula C18H36N4O11
>ionization [M+H]+
>parentmass 485.243988
#inchi InChI=1S/C18H36N4O11/c19-2-6-10(25)12(27)13(28)18(30-6)33-16-5(21)1-4(20)15(14(16)29)32-17-11(26)8(22)9(24)7(3-23)31-17/h4-18,23-29H,1-3,19-22H2/t4-,5+,6-,7-,8+,9-,10-,11-,12+,13-,14-,15+,16-,17-,18-/m1/s1
#inchikey SBUJHOSQTJFQJX
#Ion_Source DI-ESI
#Instrument Hybrid FT
#Compound_Source commercial
#PI Dorrestein/Moore
#Data_Collector Roland Kersten
#Scan -1
#Precursor_MZ 485.0
#ExactMass 484.238
#Charge 1
#CAS_Number N/A
#Pubmed_ID N/A
#Smiles O([C@@H]2[C@@H](O)[C@H](O[C@H]1O[C@H](CN)[C@@H](O)[C@H](O)[C@H]1O)[C@@H](N)C[C@H]2N)[C@H]3O[C@@H]([C@@H](O)[C@H](N)[C@H]3O)CO
#INCHI_AUX N/A
#Library_Class 3
#SpectrumID CCMSLIB00000075308
#IonMode Positive
#UpdateWorkflowName UPDATE-SINGLE-ANNOTATED-BRONZE
#LibraryQualityString Bronze
#TaskID 216f7e25eb284d139eda10f0ea06e32c
##Scan# 5
#SpectrumFile Kanamycin_A_FT_485mz.mzXML
#LibraryName gnps_library.mgf
#MQScore -1
#Organism empty
#TIC_Query 0
#RT_Query -1
#MZErrorPPM -1
#SharedPeaks 0
#MassDiff 0
#LibMZ -1
#SpecMZ 485
#SpecCharge 0
#internalFilename spec-00000.mgf

>collision 0
145.097 0.31
163.1076 5.93
187.1076 0.6
205.1182 5.44
263.1238 0.64
271.1289 0.61
281.1344 0.3
289.1397 0.39
305.1343 1.9
307.15 0.54
323.145 2.76
324.1759 100.0
325.1605 2.41
330.166 0.49
348.1766 9.09
366.1871 15.71
414.1867 0.4
432.1976 4.21
450.2081 6.45
468.2186 1.15
485.2453 1.01
