>compound Loxapine
>formula C18H18ClN3O
>ionization [M+H]+
>parentmass 328.122345
#inchi InChI=1S/C18H18ClN3O/c1-21-8-10-22(11-9-21)18-14-12-13(19)6-7-16(14)23-17-5-3-2-4-15(17)20-18/h2-7,12H,8-11H2,1H3
#inchikey XJGVXQDUIWGIRW
#Ion_Source LC-ESI
#Instrument qTof
#Compound_Source Commercial
#PI Dorrestein
#Data_Collector Garg_Neha
#Scan -1
#Precursor_MZ 328.121
#ExactMass 327.114
#Charge 1
#CAS_Number N/A
#Pubmed_ID N/A
#Smiles CN1CCN(CC1)C2=Nc3ccccc3Oc4ccc(Cl)cc24
#INCHI_AUX N/A
#Library_Class 1
#SpectrumID CCMSLIB00000079149
#IonMode Positive
#UpdateWorkflowName UPDATE-SINGLE-ANNOTATED-GOLD
#LibraryQualityString Gold
#TaskID 278b19f5865741e282cec7349aa7e7a1
##Scan# 1160
#SpectrumFile NCP003592_A2_B11_BD8_01_15734.mzXML
#LibraryName NIHcollectionI_05062014.mgf
#MQScore -1
#Organism NIHcollectionI_05062014
#TIC_Query 0
#RT_Query -1
#MZErrorPPM -1
#SharedPeaks 0
#MassDiff 0
#LibMZ -1
#SpecMZ 328.121
#SpecCharge 0
#internalFilename spec-00000.mgf

>collision 0
49.9792 2.19
123.0577 3.75
124.0651 2.24
137.037 2.47
163.0899 8.13
164.027 1.96
193.0509 5.76
227.0496 2.01
235.0845 2.56
244.0519 3.65
261.1053 2.01
271.064 100.0
297.0795 25.86
298.0859 3.93
328.1223 191.5
