>compound MLS002415730-01!
>formula C9H11NO2
>ionization [M+H]+
>parentmass 166.087
#inchi InChI=1S/C9H11NO2/c1-2-12-9(11)7-5-3-4-6-8(7)10/h3-6H,2,10H2,1H3
#inchikey TWLLPUMZVVGILS
#Ion_Source LC-ESI
#Instrument qTof
#Compound_Source NIH Natural Product Library
#PI Dorrestein
#Data_Collector VVP/LMS
#Scan -1
#Precursor_MZ 166.087
#ExactMass 165.079
#Charge 1
#CAS_Number N/A
#Pubmed_ID N/A
#Smiles CCOC(=O)c1ccccc1N
#INCHI_AUX N/A
#Library_Class 1
#SpectrumID CCMSLIB00000080192
#IonMode Positive
#UpdateWorkflowName UPDATE-SINGLE-ANNOTATED-GOLD
#LibraryQualityString Gold
#TaskID b1d8e8f6646f4e71acdff9ca3d919d08
##Scan# 2040
#SpectrumFile p2-D05_GD5_01_18017.mzXML
#LibraryName NIH_Natural_Products_Library.mgf
#MQScore -1
#Organism NIH_Natural_Products_Library
#TIC_Query 0
#RT_Query -1
#MZErrorPPM -1
#SharedPeaks 0
#MassDiff 0
#LibMZ -1
#SpecMZ 166.087
#SpecCharge 0
#internalFilename spec-00000.mgf

>collision 0
120.0454 100.0
166.087 0.0
