>compound MLS001075929-01!N-[2-[7-methoxy-6-[(2,4,6-trioxo-1,3-diazinan-5-ylidene)methyl]-1,3-benzodioxol-5-yl]ethyl]-N-methylbenzamide
>formula C23H21N3O7
>ionization [M+H]+
>parentmass 452.146
#inchi InChI=1S/C23H21N3O7/c1-26(22(29)13-6-4-3-5-7-13)9-8-14-10-17-19(33-12-32-17)18(31-2)15(14)11-16-20(27)24-23(30)25-21(16)28/h3-7,10-11H,8-9,12H2,1-2H3,(H2,24,25,27,28,30)
#inchikey PVSWCIQNCLYJJV
#Ion_Source LC-ESI
#Instrument qTof
#Compound_Source NIH Natural Product Library
#PI Dorrestein
#Data_Collector VVP/LMS
#Scan -1
#Precursor_MZ 452.146
#ExactMass 451.138
#Charge 1
#CAS_Number N/A
#Pubmed_ID N/A
#Smiles COc1c2OCOc2cc(CCN(C)C(=O)c3ccccc3)c1C=C4C(=O)NC(=O)NC4=O
#INCHI_AUX N/A
#Library_Class 1
#SpectrumID CCMSLIB00000080342
#IonMode Positive
#UpdateWorkflowName UPDATE-SINGLE-ANNOTATED-GOLD
#LibraryQualityString Gold
#TaskID b1d8e8f6646f4e71acdff9ca3d919d08
##Scan# 1756
#SpectrumFile p2-E07_GE7_01_18031.mzXML
#LibraryName NIH_Natural_Products_Library.mgf
#MQScore -1
#Organism NIH_Natural_Products_Library
#TIC_Query 0
#RT_Query -1
#MZErrorPPM -1
#SharedPeaks 0
#MassDiff 0
#LibMZ -1
#SpecMZ 452.146
#SpecCharge 0
#internalFilename spec-00000.mgf

>collision 0
105.0336 100.0
133.0278 1.03
136.0748 1.04
141.0292 1.04
145.063 1.61
160.0765 1.31
162.0907 1.4
165.0541 2.56
173.0597 1.49
174.0288 0.91
175.0345 0.88
177.053 1.55
189.0535 8.97
190.0596 1.85
201.0566 2.3
203.074 2.42
204.0395 0.99
204.0738 0.94
205.0749 4.22
207.0892 1.9
213.0439 0.91
214.0527 1.27
216.041 1.82
217.0412 1.52
220.0968 12.63
221.1017 1.44
229.0493 7.48
230.0558 1.03
231.0656 5.26
232.0627 0.88
244.0643 1.2
247.0625 2.59
257.0536 0.89
260.0876 1.21
274.082 1.39
285.0521 2.79
287.0676 1.91
312.1212 1.2
317.0794 2.53
452.1474 0.0
