>compound MLS001157756-01!N-cyclopropyl-3-(7-hydroxy-4-methyl-2-oxochromen-3-yl)propanamide
>formula C16H17NO4
>ionization [M+H]+
>parentmass 288.124
#inchi InChI=1S/C16H17NO4/c1-9-12-5-4-11(18)8-14(12)21-16(20)13(9)6-7-15(19)17-10-2-3-10/h4-5,8,10,18H,2-3,6-7H2,1H3,(H,17,19)
#inchikey LETKKDJDILSMMC
#Ion_Source LC-ESI
#Instrument qTof
#Compound_Source NIH Natural Product Library
#PI Dorrestein
#Data_Collector VVP/LMS
#Scan -1
#Precursor_MZ 288.124
#ExactMass 287.116
#Charge 1
#CAS_Number N/A
#Pubmed_ID N/A
#Smiles Cc1c(CCC(=O)NC2CC2)c(=O)oc3cc(O)ccc13
#INCHI_AUX N/A
#Library_Class 1
#SpectrumID CCMSLIB00000080388
#IonMode Positive
#UpdateWorkflowName UPDATE-SINGLE-ANNOTATED-GOLD
#LibraryQualityString Gold
#TaskID b1d8e8f6646f4e71acdff9ca3d919d08
##Scan# 1630
#SpectrumFile p2-B08_GB8_01_17996.mzXML
#LibraryName NIH_Natural_Products_Library.mgf
#MQScore -1
#Organism NIH_Natural_Products_Library
#TIC_Query 0
#RT_Query -1
#MZErrorPPM -1
#SharedPeaks 0
#MassDiff 0
#LibMZ -1
#SpecMZ 288.124
#SpecCharge 0
#internalFilename spec-00000.mgf

>collision 0
103.0543 1.5
105.0699 3.94
107.0486 0.68
115.0546 3.68
117.0698 0.47
119.0865 0.77
127.0545 1.95
129.0689 1.16
131.048 0.72
133.0648 8.31
135.0431 0.48
144.0572 2.71
145.064 0.7
147.0445 1.41
147.0803 1.83
157.0648 0.52
160.0511 1.61
161.0603 17.33
175.0753 2.88
189.0552 100.0
203.0703 17.42
231.0669 2.15
288.1221 0.0
