>compound MLS001077323-01!51333-22-3
>formula C25H34O6
>ionization [M+H]+
>parentmass 431.24281526009054
#inchi InChI=1S/C25H34O6/c1-4-5-21-30-20-11-17-16-7-6-14-10-15(27)8-9-23(14,2)22(16)18(28)12-24(17,3)25(20,31-21)19(29)13-26/h8-10,16-18,20-22,26,28H,4-7,11-13H2,1-3H3/t16-,17-,18-,20+,21?,22+,23-,24-,25+/m0/s1
#inchikey VOVIALXJUBGFJZ
#Ion_Source LC-ESI
#Instrument qTof
#Compound_Source NIH Pharmacologically Active Library
#PI Dorrestein
#Data_Collector VP/LMS
#Scan -1
#Precursor_MZ 431.246
#ExactMass 430.236
#Charge 1
#CAS_Number N/A
#Pubmed_ID N/A
#Smiles CCCC1O[C@@H]2C[C@H]3[C@@H]4CCC5=CC(=O)C=C[C@]5(C)[C@H]4[C@@H](O)C[C@]3(C)[C@@]2(O1)C(=O)CO
#INCHI_AUX N/A
#Library_Class 1
#SpectrumID CCMSLIB00000085430
#IonMode Positive
#UpdateWorkflowName UPDATE-SINGLE-ANNOTATED-GOLD
#LibraryQualityString Gold
#TaskID d252d724072548979f1f6f1ced849daf
##Scan# 2070
#SpectrumFile p4-A09_GA9_01_18333.mzXML
#LibraryName Pharm_Active_Library.mgf
#MQScore -1
#Organism Pharm_Active_Library
#TIC_Query 0
#RT_Query -1
#MZErrorPPM -1
#SharedPeaks 0
#MassDiff 0
#LibMZ -1
#SpecMZ 431.246
#SpecCharge 0
#internalFilename spec-00000.mgf

>collision 0
105.0697 8.5
115.054 4.5
117.0698 4.43
119.085 9.27
121.0648 31.31
131.0845 6.87
132.0562 5.67
135.0805 11.55
143.0862 4.87
145.0646 11.53
145.1019 6.97
147.0809 100.0
155.0842 4.04
158.0723 16.06
159.0807 18.62
161.096 7.6
171.0804 45.24
173.0965 52.04
179.0859 5.99
183.0811 6.9
185.0963 9.91
187.1107 6.74
192.0935 5.45
193.1003 5.62
195.0803 6.82
196.0878 6.6
197.0956 13.83
199.1115 7.65
207.117 8.06
208.0881 5.9
209.0964 11.08
210.1044 9.78
211.1116 29.19
213.1285 4.76
221.0959 8.72
221.1323 4.01
222.1044 10.09
223.1116 12.86
225.1277 19.9
234.1049 6.33
235.111 12.23
237.1274 13.9
239.1429 5.0
247.1133 5.71
248.1182 8.13
249.1278 10.7
261.1258 5.44
262.1349 6.11
263.1421 11.71
277.1585 9.09
305.1516 4.77
431.245 0.0
