>compound MLS000860007-01!CGS-12066A maleate salt
>formula C17H17F3N4
>ionization [M+H]+
>parentmass 335.147125
#inchi InChI=1S/C17H17F3N4/c1-22-7-9-23(10-8-22)16-15-3-2-6-24(15)14-5-4-12(17(18,19)20)11-13(14)21-16/h2-6,11H,7-10H2,1H3
#inchikey LXFHSCDLMBZYKY
#origInchi InChI=1S/C17H17F3N4.C4H4O4/c1-22-7-9-23(10-8-22)16-15-3-2-6-24(15)14-5-4-12(17(18,19)20)11-13(14)21-16;5-3(6)1-2-4(7)8/h2-6,11H,7-10H2,1H3;1-2H,(H,5,6)(H,7,8)/b;2-1-
#Ion_Source LC-ESI
#Instrument qTof
#Compound_Source NIH Pharmacologically Active Library
#PI Dorrestein
#Data_Collector VP/LMS
#Scan -1
#Precursor_MZ 335.153
#ExactMass 334.141
#Charge 1
#CAS_Number N/A
#Pubmed_ID N/A
#Smiles CN1CCN(CC1)c2nc3cc(ccc3n4cccc24)C(F)(F)F.OC(=O)/C=C\C(=O)O
#INCHI_AUX N/A
#Library_Class 1
#SpectrumID CCMSLIB00000085663
#IonMode Positive
#UpdateWorkflowName UPDATE-SINGLE-ANNOTATED-GOLD
#LibraryQualityString Gold
#TaskID d252d724072548979f1f6f1ced849daf
##Scan# 1696
#SpectrumFile p4-D11_GD11_01_18371.mzXML
#LibraryName Pharm_Active_Library.mgf
#MQScore -1
#Organism Pharm_Active_Library
#TIC_Query 0
#RT_Query -1
#MZErrorPPM -1
#SharedPeaks 0
#MassDiff 0
#LibMZ -1
#SpecMZ 335.153
#SpecCharge 0
#internalFilename spec-00000.mgf

>collision 0
166.0517 0.44
168.0678 1.04
182.0831 1.25
192.0673 0.64
208.0362 2.31
215.0408 0.71
217.056 0.74
231.0719 0.7
235.0484 9.22
237.0637 12.17
251.0788 13.51
258.0821 0.8
261.0635 2.08
262.0591 2.89
263.0663 3.17
278.091 100.0
304.1053 7.04
335.1471 1.2
