>compound HALOMETASONE MONOHYDRATE
>formula C22H27ClF2O5
>ionization [M+H]+
>parentmass 445.160339
#inchi InChI=1S/C22H27ClF2O5/c1-10-4-11-12-5-15(24)13-6-16(27)14(23)7-19(13,2)21(12,25)17(28)8-20(11,3)22(10,30)18(29)9-26/h6-7,10-12,15,17,26,28,30H,4-5,8-9H2,1-3H3/t10-,11+,12+,15+,17+,19+,20+,21+,22+/m1/s1
#inchikey GGXMRPUKBWXVHE
#Ion_Source LC-ESI
#Instrument qTof
#Compound_Source Commercial
#PI Dorrestein
#Data_Collector Garg_Neha
#Scan -1
#Precursor_MZ 445.159
#ExactMass 444.152
#Charge 1
#CAS_Number N/A
#Pubmed_ID N/A
#Smiles C[C@@H]1C[C@H]2[C@@H]3C[C@H](F)C4=CC(=O)C(=C[C@]4(C)[C@@]3(F)[C@@H](O)C[C@]2(C)[C@@]1(O)C(=O)CO)Cl
#INCHI_AUX N/A
#Library_Class 1
#SpectrumID CCMSLIB00000078983
#IonMode Positive
#UpdateWorkflowName UPDATE-SINGLE-ANNOTATED-GOLD
#LibraryQualityString Gold
#TaskID 278b19f5865741e282cec7349aa7e7a1
##Scan# 1378
#SpectrumFile NCP003352_A2_B11_BC4_01_15718.mzXML
#LibraryName NIHcollectionI_05062014.mgf
#MQScore -1
#Organism NIHcollectionI_05062014
#TIC_Query 0
#RT_Query -1
#MZErrorPPM -1
#SharedPeaks 0
#MassDiff 0
#LibMZ -1
#SpecMZ 445.159
#SpecCharge 0
#internalFilename spec-00000.mgf

>collision 0
133.0661 8.25
133.1018 8.25
137.0962 8.97
155.0246 100.0
181.0414 8.37
191.1067 10.41
209.0986 9.81
221.0991 9.45
227.1074 12.2
236.1194 8.25
257.077 8.01
269.0728 8.13
270.0792 13.4
271.0882 8.85
283.0892 9.45
287.0844 53.83
307.0907 46.65
309.092 10.65
311.1186 19.26
312.1087 9.09
313.1168 11.12
329.1282 12.8
330.1257 9.21
331.1291 19.74
343.1288 16.03
347.1204 8.25
349.1358 14.71
350.1313 9.45
367.1323 8.13
369.1273 15.79
371.1245 19.98
377.1351 11.6
385.1432 9.93
389.1332 23.44
391.1306 8.73
407.1384 9.45
409.1393 10.65
427.1449 24.76
445.16 3.23
