>compound MLS002222301-01!
>formula C19H28NO3
>ionization [M+H]+
>parentmass 319.21419520809053
#inchi InChI=1S/C19H28NO3/c1-20(2)13-12-17(14-20)23-18(21)19(22,16-10-6-7-11-16)15-8-4-3-5-9-15/h3-5,8-9,16-17,22H,6-7,10-14H2,1-2H3/q+1
#inchikey ANGKOCUUWGHLCE
#origInchi InChI=1S/C19H28NO3.BrH/c1-20(2)13-12-17(14-20)23-18(21)19(22,16-10-6-7-11-16)15-8-4-3-5-9-15;/h3-5,8-9,16-17,22H,6-7,10-14H2,1-2H3;1H/q+1;/p-1
#Ion_Source LC-ESI
#Instrument qTof
#Compound_Source NIH Pharmacologically Active Library
#PI Dorrestein
#Data_Collector VP/LMS
#Scan -1
#Precursor_MZ 318.207
#ExactMass 318.207
#Charge 1
#CAS_Number N/A
#Pubmed_ID N/A
#Smiles C[N+]1(C)CCC(C1)OC(=O)C(O)(C2CCCC2)c3ccccc3.[Br-]
#INCHI_AUX N/A
#Library_Class 1
#SpectrumID CCMSLIB00000086019
#IonMode Positive
#UpdateWorkflowName UPDATE-SINGLE-ANNOTATED-GOLD
#LibraryQualityString Gold
#TaskID d252d724072548979f1f6f1ced849daf
##Scan# 1572
#SpectrumFile p5-B03_GB3_01_18442.mzXML
#LibraryName Pharm_Active_Library.mgf
#MQScore -1
#Organism Pharm_Active_Library
#TIC_Query 0
#RT_Query -1
#MZErrorPPM -1
#SharedPeaks 0
#MassDiff 0
#LibMZ -1
#SpecMZ 318.207
#SpecCharge 0
#internalFilename spec-00000.mgf

>collision 0
88.0761 0.38
98.0973 4.31
100.0756 0.54
101.0853 0.65
105.0338 0.5
116.1088 100.0
119.0497 0.27
129.0709 0.55
157.1023 0.75
175.1116 1.22
319.2142 0.0
