>compound MLS000574930-01!
>formula C19H22O7
>ionization [M+Na]+
>parentmass 385.123932
#inchi InChI=1S/C19H22O7/c1-8-4-12(21)26-17(8)18(3)6-11-19(7-20)10(5-13(22)25-11)9(2)14(23)15(24)16(18)19/h4,9-11,17,20,24H,5-7H2,1-3H3/t9-,10+,11-,17+,18+,19-/m1/s1
#inchikey SRNFRTSVHROPLE
#Ion_Source LC-ESI
#Instrument qTof
#Compound_Source NIH Natural Product Library
#PI Dorrestein
#Data_Collector VVP/LMS
#Scan -1
#Precursor_MZ 385.126
#ExactMass 362.137
#Charge 1
#CAS_Number N/A
#Pubmed_ID N/A
#Smiles C[C@@H]1[C@@H]2CC(=O)O[C@@H]3C[C@](C)([C@H]4OC(=O)C=C4C)C(=C(O)C1=O)[C@@]32CO
#INCHI_AUX N/A
#Library_Class 3
#SpectrumID CCMSLIB00000079375
#IonMode Positive
#UpdateWorkflowName UPDATE-SINGLE-ANNOTATED-BRONZE
#LibraryQualityString Bronze
#TaskID b1d8e8f6646f4e71acdff9ca3d919d08
##Scan# 1373
#SpectrumFile p1-C05_GC5_01_17901.mzXML
#LibraryName NIH_Natural_Products_Library.mgf
#MQScore -1
#Organism NIH_Natural_Products_Library
#TIC_Query 0
#RT_Query -1
#MZErrorPPM -1
#SharedPeaks 0
#MassDiff 0
#LibMZ -1
#SpecMZ 385.126
#SpecCharge 0
#internalFilename spec-00000.mgf

>collision 0
120.0177 15.1
121.0249 5.96
201.0895 3.64
287.0885 21.46
288.0959 100.0
307.1163 3.72
355.1177 3.95
385.1239 85.9
