>compound Ticlopidine hydrochloride
>formula C14H14ClNS
>ionization [M+H]+
>parentmass 264.061279
#inchi InChI=1S/C14H14ClNS/c15-13-4-2-1-3-11(13)9-16-7-5-14-12(10-16)6-8-17-14/h1-4,6,8H,5,7,9-10H2
#inchikey PHWBOXQYWZNQIN
#origInchi InChI=1S/C14H14ClNS.ClH/c15-13-4-2-1-3-11(13)9-16-7-5-14-12(10-16)6-8-17-14;/h1-4,6,8H,5,7,9-10H2;1H
#Ion_Source LC-ESI
#Instrument qTof
#Compound_Source Commercial
#PI Dorrestein
#Data_Collector Garg_Neha
#Scan -1
#Precursor_MZ 264.061
#ExactMass 263.054
#Charge 1
#CAS_Number 53885-35-1
#Pubmed_ID N/A
#Smiles C12(=C(CN(CC1)CC3=C(Cl)C=CC=C3)C=CS2).Cl
#INCHI_AUX N/A
#Library_Class 1
#SpectrumID CCMSLIB00000078369
#IonMode Positive
#UpdateWorkflowName UPDATE-SINGLE-ANNOTATED-GOLD
#LibraryQualityString Gold
#TaskID 77f51c88eb8b467eb4a01dd2d0cb90d2
##Scan# 1069
#SpectrumFile Plate6_1_20_GD7_01_15774.mzXML
#LibraryName FDALibrary_2_04302014.mgf
#MQScore -1
#Organism FDALibrary_2_04302014
#TIC_Query 0
#RT_Query -1
#MZErrorPPM -1
#SharedPeaks 0
#MassDiff 0
#LibMZ -1
#SpecMZ 264.061
#SpecCharge 0
#internalFilename spec-00000.mgf

>collision 0
111.0254 0.44
125.0149 59.77
138.0368 0.52
154.0417 100.0
235.0341 1.15
236.0287 0.46
264.0613 138.97
