>compound MLS001141244-01!2-[[2-(3-benzyl-4-methyl-2-oxochromen-7-yl)oxyacetyl]amino]-3-(4-chlorophenyl)propanoic acid
>formula C28H24ClNO6
>ionization [M+H]+
>parentmass 506.134949
#inchi InChI=1S/C28H24ClNO6/c1-17-22-12-11-21(15-25(22)36-28(34)23(17)13-18-5-3-2-4-6-18)35-16-26(31)30-24(27(32)33)14-19-7-9-20(29)10-8-19/h2-12,15,24H,13-14,16H2,1H3,(H,30,31)(H,32,33)
#inchikey AZJZQQIQLHEHGL
#Ion_Source LC-ESI
#Instrument qTof
#Compound_Source NIH Natural Product Library
#PI Dorrestein
#Data_Collector VVP/LMS
#Scan -1
#Precursor_MZ 506.137
#ExactMass 505.129
#Charge 1
#CAS_Number N/A
#Pubmed_ID N/A
#Smiles Cc1c(Cc2ccccc2)c(=O)oc3cc(OCC(=O)NC(Cc4ccc(Cl)cc4)C(=O)O)ccc13
#INCHI_AUX N/A
#Library_Class 1
#SpectrumID CCMSLIB00000080095
#IonMode Positive
#UpdateWorkflowName UPDATE-SINGLE-ANNOTATED-GOLD
#LibraryQualityString Gold
#TaskID b1d8e8f6646f4e71acdff9ca3d919d08
##Scan# 2439
#SpectrumFile p2-A04_GA4_01_17981.mzXML
#LibraryName NIH_Natural_Products_Library.mgf
#MQScore -1
#Organism NIH_Natural_Products_Library
#TIC_Query 0
#RT_Query -1
#MZErrorPPM -1
#SharedPeaks 0
#MassDiff 0
#LibMZ -1
#SpecMZ 506.137
#SpecCharge 0
#internalFilename spec-00000.mgf

>collision 0
103.0536 3.76
105.068 2.66
115.0526 3.04
118.0651 1.72
119.0723 4.35
125.0155 9.24
130.0655 13.44
131.0725 22.79
133.0639 2.47
137.0153 2.45
139.0306 12.37
145.0656 2.16
151.0309 3.28
154.0408 13.72
161.0593 8.96
165.0701 1.66
166.0423 80.51
169.041 1.96
173.059 2.67
178.0782 12.09
184.0506 2.52
189.0554 100.0
193.1008 10.64
201.0538 1.62
212.0471 2.29
221.0967 17.07
223.1106 2.14
229.0516 2.62
233.0964 1.73
249.091 8.49
251.1067 6.98
267.1019 2.38
279.1024 24.57
281.082 4.09
307.0965 2.0
428.0898 8.59
460.1308 3.3
506.1366 1.38
