>compound MLS002153535-01!Chloro-IB-MECA
>formula C18H18ClIN6O4
>ionization [M+H]+
>parentmass 545.0195551880905
#inchi InChI=1S/C18H18ClIN6O4/c1-21-16(29)13-11(27)12(28)17(30-13)26-7-23-10-14(24-18(19)25-15(10)26)22-6-8-3-2-4-9(20)5-8/h2-5,7,11-13,17,27-28H,6H2,1H3,(H,21,29)(H,22,24,25)/t11-,12+,13-,17+/m0/s1
#inchikey IPSYPUKKXMNCNQ
#Ion_Source LC-ESI
#Instrument qTof
#Compound_Source NIH Pharmacologically Active Library
#PI Dorrestein
#Data_Collector VP/LMS
#Scan -1
#Precursor_MZ 545.011
#ExactMass 544.012
#Charge 1
#CAS_Number N/A
#Pubmed_ID N/A
#Smiles CNC(=O)[C@H]1O[C@H]([C@H](O)[C@@H]1O)n2cnc3c(NCc4cccc(I)c4)nc(Cl)nc23
#INCHI_AUX N/A
#Library_Class 1
#SpectrumID CCMSLIB00000085336
#IonMode Positive
#UpdateWorkflowName UPDATE-SINGLE-ANNOTATED-GOLD
#LibraryQualityString Gold
#TaskID d252d724072548979f1f6f1ced849daf
##Scan# 2037
#SpectrumFile p3-H06_GH6_01_18311.mzXML
#LibraryName Pharm_Active_Library.mgf
#MQScore -1
#Organism Pharm_Active_Library
#TIC_Query 0
#RT_Query -1
#MZErrorPPM -1
#SharedPeaks 0
#MassDiff 0
#LibMZ -1
#SpecMZ 545.011
#SpecCharge 0
#internalFilename spec-00000.mgf

>collision 0
134.0456 0.47
161.0608 0.24
182.0214 1.24
216.951 100.0
222.0763 0.24
223.0812 0.75
259.0618 0.66
307.9696 0.29
349.9915 1.66
350.9926 0.2
385.9687 68.42
386.9709 9.03
387.9658 18.91
388.9669 2.12
422.9727 0.35
427.9767 1.29
428.9816 0.24
457.9859 0.29
467.9714 0.31
485.986 0.69
545.0204 0.77
