>compound 3-(3-oxo-1H-indol-2-ylidene)-1H-indol-2-one
>formula C16H10N2O2
>ionization [M+H]+
>parentmass 263.082947
#inchi InChI=1S/C16H10N2O2/c19-15-10-6-2-4-8-12(10)17-14(15)13-9-5-1-3-7-11(9)18-16(13)20/h1-8,18,20H
#inchikey JNLNPCNGMHKCKO
#Ion_Source LC-ESI
#Instrument qTof
#Compound_Source Commercial
#PI Dorrestein
#Data_Collector Garg_Neha
#Scan -1
#Precursor_MZ 263.082
#ExactMass 262.074
#Charge 1
#CAS_Number N/A
#Pubmed_ID N/A
#Smiles Oc1[nH]c2ccccc2c1C3=Nc4ccccc4C3=O
#INCHI_AUX N/A
#Library_Class 1
#SpectrumID CCMSLIB00000079110
#IonMode Positive
#UpdateWorkflowName UPDATE-SINGLE-ANNOTATED-GOLD
#LibraryQualityString Gold
#TaskID 278b19f5865741e282cec7349aa7e7a1
##Scan# 1685
#SpectrumFile NCP003512_C2_D11_BD5_01_15729.mzXML
#LibraryName NIHcollectionI_05062014.mgf
#MQScore -1
#Organism NIHcollectionI_05062014
#TIC_Query 0
#RT_Query -1
#MZErrorPPM -1
#SharedPeaks 0
#MassDiff 0
#LibMZ -1
#SpecMZ 263.082
#SpecCharge 0
#internalFilename spec-00000.mgf

>collision 0
156.0444 2.52
165.0705 3.14
180.0818 3.72
190.0647 22.2
192.0808 2.48
206.0847 16.29
208.0755 6.04
217.0763 34.6
218.0838 7.44
219.0921 100.0
220.0759 16.04
235.0866 65.94
245.072 17.57
263.0829 601.16
