>compound MLS001074162-01!61-68-7
>formula C15H15NO2
>ionization [M+H]+
>parentmass 242.11755517209053
#inchi InChI=1S/C15H15NO2/c1-10-6-5-9-13(11(10)2)16-14-8-4-3-7-12(14)15(17)18/h3-9,16H,1-2H3,(H,17,18)
#inchikey HYYBABOKPJLUIN
#Ion_Source LC-ESI
#Instrument qTof
#Compound_Source NIH Pharmacologically Active Library
#PI Dorrestein
#Data_Collector VP/LMS
#Scan -1
#Precursor_MZ 242.115
#ExactMass 241.11
#Charge 1
#CAS_Number N/A
#Pubmed_ID N/A
#Smiles Cc1cccc(Nc2ccccc2C(=O)O)c1C
#INCHI_AUX N/A
#Library_Class 1
#SpectrumID CCMSLIB00000085278
#IonMode Positive
#UpdateWorkflowName UPDATE-SINGLE-ANNOTATED-GOLD
#LibraryQualityString Gold
#TaskID d252d724072548979f1f6f1ced849daf
##Scan# 2444
#SpectrumFile p3-G09_GG9_01_18302.mzXML
#LibraryName Pharm_Active_Library.mgf
#MQScore -1
#Organism Pharm_Active_Library
#TIC_Query 0
#RT_Query -1
#MZErrorPPM -1
#SharedPeaks 0
#MassDiff 0
#LibMZ -1
#SpecMZ 242.115
#SpecCharge 0
#internalFilename spec-00000.mgf

>collision 0
154.0642 0.79
166.0649 0.6
180.0806 55.9
190.0657 0.42
194.0595 0.91
206.0955 0.82
208.0753 43.77
209.0833 100.0
224.1067 74.36
242.1176 0.0
