>compound 2-O-rhamnosyl-swertisin
>formula C28H32O14
>ionization [M+H]+
>parentmass 593.1864821560905
#inchi InChI=1S/C28H32O14/c1-10-20(32)23(35)25(37)28(39-10)42-27-24(36)21(33)17(9-29)41-26(27)19-15(38-2)8-16-18(22(19)34)13(31)7-14(40-16)11-3-5-12(30)6-4-11/h3-8,10,17,20-21,23-30,32-37H,9H2,1-2H3/t10-,17-,20-,21-,23+,24+,25+,26+,27-,28+/m1/s1
#inchikey UINZSMIFSIQGBZ
#Ion_Source DI-ESI
#Instrument qTof
#Compound_Source Isolated
#PI Norberto Lopes
#Data_Collector Denise Silva
#Scan -1
#Precursor_MZ 593.17
#ExactMass 592.179
#Charge 1
#CAS_Number 83889-78-5
#Pubmed_ID  
#Smiles OC1=CC=C(C2=CC(C3=C(O)C([C@@H]4O[C@H](CO)[C@@H](O)[C@H](O)[C@H]4O[C@@H]5O[C@H](C)[C@@H](O)[C@H](O)[C@@H]5O)=C(OC)C=C3O2)=O)C=C1
#INCHI_AUX  
#Library_Class 3
#SpectrumID CCMSLIB00000078867
#IonMode Positive
#UpdateWorkflowName UPDATE-SINGLE-ANNOTATED-BRONZE
#LibraryQualityString Bronze
#TaskID 1d57a0825b7d4f0ca8a1e99f163f02fb
##Scan# 1
#SpectrumFile gnps_2-O-rhamnosyl-swertisin_pos_MSMS_593..mgf
#LibraryName gnps_library.mgf
#MQScore -1
#Organism gnps_library
#TIC_Query 0
#RT_Query -1
#MZErrorPPM -1
#SharedPeaks 0
#MassDiff 0
#LibMZ -1
#SpecMZ 593.17
#SpecCharge 0
#internalFilename spec-00000.mgf

>collision 0
285.0694 2.45
297.0681 23.3
308.0618 0.52
309.0674 0.77
323.0843 3.2
337.0974 1.93
351.0759 48.15
363.077 2.2
365.0922 1.06
381.0896 33.62
447.1162 40.96
455.121 0.72
473.1328 2.0
593.1865 0.0
