>compound MLS001074087-01!389-08-2
>formula C15H12N2O2
>ionization [M+H]+
>parentmass 253.09715407609053
#inchi InChI=1S/C15H12N2O2/c18-13-15(17-14(19)16-13,11-7-3-1-4-8-11)12-9-5-2-6-10-12/h1-10H,(H2,16,17,18,19)
#inchikey CXOFVDLJLONNDW
#Ion_Source LC-ESI
#Instrument qTof
#Compound_Source NIH Pharmacologically Active Library
#PI Dorrestein
#Data_Collector VP/LMS
#Scan -1
#Precursor_MZ 253.1
#ExactMass 252.09
#Charge 1
#CAS_Number N/A
#Pubmed_ID N/A
#Smiles O=C1NC(=O)C(N1)(c2ccccc2)c3ccccc3
#INCHI_AUX N/A
#Library_Class 1
#SpectrumID CCMSLIB00000084814
#IonMode Positive
#UpdateWorkflowName UPDATE-SINGLE-ANNOTATED-GOLD
#LibraryQualityString Gold
#TaskID d252d724072548979f1f6f1ced849daf
##Scan# 1804
#SpectrumFile p3-B02_GB2_01_18235.mzXML
#LibraryName Pharm_Active_Library.mgf
#MQScore -1
#Organism Pharm_Active_Library
#TIC_Query 0
#RT_Query -1
#MZErrorPPM -1
#SharedPeaks 0
#MassDiff 0
#LibMZ -1
#SpecMZ 253.1
#SpecCharge 0
#internalFilename spec-00000.mgf

>collision 0
104.0505 100.0
132.0448 3.34
182.0966 80.09
253.0972 0.0
