>compound Malyngamide C
>formula C24H38ClNO5 
>ionization [M+H]+
>parentmass 456.252075
#inchi InChI=1S/C24H38ClNO5/c1-3-4-5-6-8-11-19(30-2)12-9-7-10-13-22(29)26-17-18(16-25)24-21(28)15-14-20(27)23(24)31-24/h7,9,16,19-20,23,27H,3-6,8,10-15,17H2,1-2H3,(H,26,29)/b9-7+,18-16-/t19-,20-,23-,24+/m0/s1
#inchikey WXDBUBIFYCCNLE
#Ion_Source LC-ESI
#Instrument qToF
#Compound_Source Isolated
#PI Dorrestein/Gerwick
#Data_Collector Luzzatto/Garg
#Scan -1
#Precursor_MZ 456.258
#ExactMass 455.244
#Charge 1
#CAS_Number N/A
#Pubmed_ID 20701935
#Smiles N/A
#INCHI_AUX N/A
#Library_Class 2
#SpectrumID CCMSLIB00000070262
#IonMode Positive
#UpdateWorkflowName UPDATE-SINGLE-ANNOTATED-SILVER
#LibraryQualityString Silver
#TaskID 6c7cf0ddbcd944488b3f58728dc48405
##Scan# 1952
#SpectrumFile 1B8_MalyngamideC_MH_456.mzXML
#LibraryName gnps_library.mgf
#MQScore -1
#Organism Dorrestein_TLK_Lib
#TIC_Query 0
#RT_Query -1
#MZErrorPPM -1
#SharedPeaks 0
#MassDiff 0
#LibMZ -1
#SpecMZ 456.258
#SpecCharge 0
#internalFilename spec-00000.mgf

>collision 0
107.0855 0.53
109.0277 0.87
109.0653 0.86
118.0667 0.64
119.0486 1.73
128.0258 0.92
133.1009 0.94
136.0761 3.13
137.059 3.45
145.0051 0.86
146.0603 1.31
147.0439 3.17
154.0408 1.13
155.0253 5.44
164.0706 6.6
165.0544 4.23
172.0517 1.27
182.0369 1.48
182.0817 1.14
183.021 10.16
189.1641 2.15
200.0475 7.48
201.0318 3.54
207.1744 1.33
218.0585 16.51
236.2013 1.32
314.1155 2.44
370.2369 3.46
378.2198 1.62
388.2477 1.31
406.2147 2.35
424.2278 100.0
425.2298 44.03
456.2521 29.91
