>compound MLS001141221-01!N-[(4-methoxyphenyl)methyl]-2-[(4,8,8-trimethyl-2-oxo-9,10-dihydropyrano[2,3-h]chromen-5-yl)oxy]acetamide
>formula C25H27NO6
>ionization [M+H]+
>parentmass 438.19111403609054
#inchi InChI=1S/C25H27NO6/c1-15-11-22(28)31-24-18-9-10-25(2,3)32-19(18)12-20(23(15)24)30-14-21(27)26-13-16-5-7-17(29-4)8-6-16/h5-8,11-12H,9-10,13-14H2,1-4H3,(H,26,27)
#inchikey USYRMAOMZAWXNE
#Ion_Source LC-ESI
#Instrument qTof
#Compound_Source NIH Natural Product Library
#PI Dorrestein
#Data_Collector VVP/LMS
#Scan -1
#Precursor_MZ 438.192
#ExactMass 437.184
#Charge 1
#CAS_Number N/A
#Pubmed_ID N/A
#Smiles COc1ccc(CNC(=O)COc2cc3OC(C)(C)CCc3c4oc(=O)cc(C)c24)cc1
#INCHI_AUX N/A
#Library_Class 1
#SpectrumID CCMSLIB00000079391
#IonMode Positive
#UpdateWorkflowName UPDATE-SINGLE-ANNOTATED-GOLD
#LibraryQualityString Gold
#TaskID b1d8e8f6646f4e71acdff9ca3d919d08
##Scan# 2356
#SpectrumFile p1-F05_GF5_01_17937.mzXML
#LibraryName NIH_Natural_Products_Library.mgf
#MQScore -1
#Organism NIH_Natural_Products_Library
#TIC_Query 0
#RT_Query -1
#MZErrorPPM -1
#SharedPeaks 0
#MassDiff 0
#LibMZ -1
#SpecMZ 438.192
#SpecCharge 0
#internalFilename spec-00000.mgf

>collision 0
105.0338 0.29
106.041 0.43
118.0646 0.26
121.0653 100.0
149.0615 0.63
150.0906 3.64
160.0776 0.4
176.0464 1.89
177.0544 1.59
178.0853 4.63
204.0419 0.71
205.0485 8.38
263.1156 0.3
382.1267 3.41
438.1884 6.45
