>compound 2-[4-[3-[2-(trifluoromethyl)phenothiazin-10-yl]propyl]piperazin-1-yl]ethanol
>formula C22H26F3N3OS
>ionization [M+H]+
>parentmass 438.18214456409055
#inchi InChI=1S/C22H26F3N3OS/c23-22(24,25)17-6-7-21-19(16-17)28(18-4-1-2-5-20(18)30-21)9-3-8-26-10-12-27(13-11-26)14-15-29/h1-2,4-7,16,29H,3,8-15H2
#inchikey PLDUPXSUYLZYBN
#Ion_Source LC-ESI
#Instrument qTof
#Compound_Source Commercial
#PI Dorrestein
#Data_Collector Garg_Neha
#Scan -1
#Precursor_MZ 438.182
#ExactMass 437.175
#Charge 1
#CAS_Number N/A
#Pubmed_ID N/A
#Smiles OCCN1CCN(CCCN2c3ccccc3Sc4ccc(cc24)C(F)(F)F)CC1
#INCHI_AUX N/A
#Library_Class 1
#SpectrumID CCMSLIB00000079049
#IonMode Positive
#UpdateWorkflowName UPDATE-SINGLE-ANNOTATED-GOLD
#LibraryQualityString Gold
#TaskID 278b19f5865741e282cec7349aa7e7a1
##Scan# 1224
#SpectrumFile NCP003432_A2_B11_BC8_01_15722.mzXML
#LibraryName NIHcollectionI_05062014.mgf
#MQScore -1
#Organism NIHcollectionI_05062014
#TIC_Query 0
#RT_Query -1
#MZErrorPPM -1
#SharedPeaks 0
#MassDiff 0
#LibMZ -1
#SpecMZ 438.182
#SpecCharge 0
#internalFilename spec-00000.mgf

>collision 0
96.0815 0.67
97.0762 0.71
98.0835 7.24
100.0761 12.9
112.1001 0.93
113.1074 2.68
124.0992 0.66
125.107 2.95
126.1136 1.07
128.0945 4.89
139.1224 0.71
141.102 4.91
141.1395 5.7
143.1181 100.0
169.133 0.63
171.1493 82.3
210.0358 0.54
226.0656 2.29
239.0771 1.41
248.0672 11.88
249.0735 1.09
258.0379 6.87
260.0337 2.54
262.0495 0.88
266.0234 0.57
267.0322 1.78
274.084 0.72
275.0891 2.15
276.0974 1.06
280.0402 45.46
281.0429 6.7
282.0396 2.11
308.0709 8.81
310.0697 0.78
398.1679 4.42
399.1699 1.29
438.1833 367.06
