>compound Bisoprolol
>formula C18H31NO4
>ionization [M+H]+
>parentmass 326.2325849240906
#inchi InChI=1S/C18H31NO4/c1-14(2)19-11-17(20)13-23-18-7-5-16(6-8-18)12-21-9-10-22-15(3)4/h5-8,14-15,17,19-20H,9-13H2,1-4H3
#inchikey VHYCDWMUTMEGQY
#origInchi InChI=1S/C18H31NO4.C4H4O4/c1-14(2)19-11-17(20)13-23-18-7-5-16(6-8-18)12-21-9-10-22-15(3)4;5-3(6)1-2-4(7)8/h5-8,14-15,17,19-20H,9-13H2,1-4H3;1-2H,(H,5,6)(H,7,8)/b;2-1+
#Ion_Source LC-ESI
#Instrument qTof
#Compound_Source Commercial
#PI Dorrestein
#Data_Collector Garg_Neha
#Scan -1
#Precursor_MZ 326.233
#ExactMass 325.225
#Charge 1
#CAS_Number 104344-23-2
#Pubmed_ID N/A
#Smiles C1(=C(C=CC(=C1)OCC(O)CNC(C)C)COCCOC(C)C).OC(/C=C/C(O)=O)=O
#INCHI_AUX N/A
#Library_Class 1
#SpectrumID CCMSLIB00000078046
#IonMode Positive
#UpdateWorkflowName UPDATE-SINGLE-ANNOTATED-GOLD
#LibraryQualityString Gold
#TaskID 77f51c88eb8b467eb4a01dd2d0cb90d2
##Scan# 1103
#SpectrumFile Plate1_41_60_GG3_01_16490.mzXML
#LibraryName FDALibrary_2_04302014.mgf
#MQScore -1
#Organism FDALibrary_2_04302014
#TIC_Query 0
#RT_Query -1
#MZErrorPPM -1
#SharedPeaks 0
#MassDiff 0
#LibMZ -1
#SpecMZ 326.233
#SpecCharge 0
#internalFilename spec-00000.mgf

>collision 0
91.0542 1.14
98.0964 3.49
105.0701 1.31
107.0494 13.51
115.0538 0.45
116.1076 100.0
119.049 3.68
121.0639 2.07
133.0649 11.93
137.0585 2.14
144.0804 0.54
145.0652 6.76
147.0801 7.53
162.0905 6.34
163.0749 3.1
180.1006 1.03
204.1383 4.19
222.1491 15.84
308.2218 2.01
326.2347 196.29
