>compound EthinylEstradiol
>formula C20H24O2 
>ionization [M+H]+
>parentmass 297.184
#inchi InChI=1S/C20H24O2/c1-3-20(22)11-9-18-17-6-4-13-12-14(21)5-7-15(13)16(17)8-10-19(18,20)2/h1,5,7,12,16-18,21-22H,4,6,8-11H2,2H3/t16-,17-,18+,19+,20+/m1/s1
#inchikey BFPYWIDHMRZLRN
#Ion_Source LC-ESI
#Instrument qTof
#Compound_Source Isolated
#PI Sirenas
#Data_Collector Ed Esquenazi 
#Scan -1
#Precursor_MZ 297.184
#ExactMass 0.0
#Charge 1
#CAS_Number N/A
#Pubmed_ID N/A
#Smiles N/A
#INCHI_AUX N/A
#Library_Class 3
#SpectrumID CCMSLIB00000004896
#IonMode Positive
#UpdateWorkflowName UPDATE-SINGLE-ANNOTATED-BRONZE
#LibraryQualityString Bronze
#TaskID d19310cd93df49b68e9fcbec27720eb5
##Scan# 5
#SpectrumFile EthinylEstradiol.mgf
#LibraryName fda_library.mgf
#MQScore -1
#Organism fda_library
#TIC_Query 0
#RT_Query -1
#MZErrorPPM -1
#SharedPeaks 0
#MassDiff 0
#LibMZ -1
#SpecMZ 297.184
#SpecCharge 0
#internalFilename spec-00000.mgf

>collision 0
105.0681 12.03
107.0484 100.0
117.0685 3.09
119.0483 12.18
121.0641 33.46
129.0686 3.68
131.0835 13.17
133.0655 27.09
145.0629 9.25
145.101 16.69
159.1163 34.37
171.1149 9.04
195.0801 6.97
211.1124 4.56
214.1358 7.21
240.1504 3.03
251.144 11.9
297.184 0.0
