>compound MLS002222329-01!26305-03-3
>formula C34H63N5O9
>ionization [M+H]+
>parentmass 686.4698550480905
#inchi InChI=1S/C34H63N5O9/c1-17(2)12-23(37-33(47)31(21(9)10)39-34(48)30(20(7)8)38-27(42)14-19(5)6)25(40)15-28(43)35-22(11)32(46)36-24(13-18(3)4)26(41)16-29(44)45/h17-26,30-31,40-41H,12-16H2,1-11H3,(H,35,43)(H,36,46)(H,37,47)(H,38,42)(H,39,48)(H,44,45)/t22-,23-,24-,25-,26-,30-,31-/m0/s1
#inchikey FAXGPCHRFPCXOO
#Ion_Source LC-ESI
#Instrument qTof
#Compound_Source NIH Pharmacologically Active Library
#PI Dorrestein
#Data_Collector VP/LMS
#Scan -1
#Precursor_MZ 686.483
#ExactMass 685.463
#Charge 1
#CAS_Number N/A
#Pubmed_ID N/A
#Smiles CC(C)C[C@H](NC(=O)[C@H](C)NC(=O)C[C@H](O)[C@H](CC(C)C)NC(=O)[C@@H](NC(=O)[C@@H](NC(=O)CC(C)C)C(C)C)C(C)C)[C@@H](O)CC(=O)O
#INCHI_AUX N/A
#Library_Class 1
#SpectrumID CCMSLIB00000086129
#IonMode Positive
#UpdateWorkflowName UPDATE-SINGLE-ANNOTATED-GOLD
#LibraryQualityString Gold
#TaskID d252d724072548979f1f6f1ced849daf
##Scan# 1900
#SpectrumFile p5-F03_GF3_01_18466.mzXML
#LibraryName Pharm_Active_Library.mgf
#MQScore -1
#Organism Pharm_Active_Library
#TIC_Query 0
#RT_Query -1
#MZErrorPPM -1
#SharedPeaks 0
#MassDiff 0
#LibMZ -1
#SpecMZ 686.483
#SpecCharge 0
#internalFilename spec-00000.mgf

>collision 0
123.0797 6.36
140.1071 88.31
156.1384 54.49
158.1174 30.19
166.1222 28.39
176.1282 84.67
183.1483 12.98
184.1333 74.03
186.1125 54.47
194.1172 16.9
194.1535 5.5
201.1594 13.01
211.144 63.52
212.128 13.78
222.148 11.01
229.1549 100.0
239.1748 36.49
240.1614 9.38
247.1652 42.09
257.1863 41.21
282.2169 13.85
283.2012 24.35
300.2281 20.28
310.2125 13.35
328.2215 3.78
350.2424 5.3
351.2267 19.56
368.2542 33.77
386.2648 7.59
387.2503 8.06
396.25 16.45
414.2611 13.88
439.3286 3.55
440.3122 7.43
465.3422 5.53
467.3231 10.19
485.3332 40.41
493.3376 4.03
503.344 3.67
650.4486 7.45
668.4593 41.21
686.4746 0.35
