>compound Roxatidine acetate HCl
>formula C19H28N2O4
>ionization [M+H]+
>parentmass 349.21218382809053
#inchi InChI=1S/C19H28N2O4/c1-16(22)25-15-19(23)20-9-6-12-24-18-8-5-7-17(13-18)14-21-10-3-2-4-11-21/h5,7-8,13H,2-4,6,9-12,14-15H2,1H3,(H,20,23)
#inchikey SMTZFNFIKUPEJC
#origInchi InChI=1S/C19H28N2O4.ClH/c1-16(22)25-15-19(23)20-9-6-12-24-18-8-5-7-17(13-18)14-21-10-3-2-4-11-21;/h5,7-8,13H,2-4,6,9-12,14-15H2,1H3,(H,20,23);1H
#Ion_Source LC-ESI
#Instrument qTof
#Compound_Source Commercial
#PI Dorrestein
#Data_Collector Garg_Neha
#Scan -1
#Precursor_MZ 349.212
#ExactMass 348.205
#Charge 1
#CAS_Number 93793-83-0
#Pubmed_ID N/A
#Smiles C(C1=CC(=CC=C1)OCCCNC(COC(C)=O)=O)N2(CCCCC2).Cl
#INCHI_AUX N/A
#Library_Class 1
#SpectrumID CCMSLIB00000078324
#IonMode Positive
#UpdateWorkflowName UPDATE-SINGLE-ANNOTATED-GOLD
#LibraryQualityString Gold
#TaskID 77f51c88eb8b467eb4a01dd2d0cb90d2
##Scan# 1043
#SpectrumFile Plate5_21_40_GH7_01_16509.mzXML
#LibraryName FDALibrary_2_04302014.mgf
#MQScore -1
#Organism FDALibrary_2_04302014
#TIC_Query 0
#RT_Query -1
#MZErrorPPM -1
#SharedPeaks 0
#MassDiff 0
#LibMZ -1
#SpecMZ 349.212
#SpecCharge 0
#internalFilename spec-00000.mgf

>collision 0
107.0491 34.61
109.0649 0.88
114.0548 35.59
116.0702 13.21
119.0851 5.42
121.0636 0.59
129.0701 1.24
132.0557 1.19
136.0752 0.57
146.0953 0.43
147.0802 47.83
158.0813 42.16
164.1065 10.26
176.106 3.89
186.0911 0.45
187.0753 0.46
189.0786 0.4
194.117 0.61
204.101 2.64
205.0861 0.38
222.1126 100.0
264.1224 0.66
349.2145 208.35
