>compound MLS001074199-01!4'-CHLORODIAZEPAM
>formula C16H12Cl2N2O
>ionization [M+H]+
>parentmass 319.039703
#inchi InChI=1S/C16H12Cl2N2O/c1-20-14-7-6-12(18)8-13(14)16(19-9-15(20)21)10-2-4-11(17)5-3-10/h2-8H,9H2,1H3
#inchikey PUMYFTJOWAJIKF
#Ion_Source LC-ESI
#Instrument qTof
#Compound_Source NIH Pharmacologically Active Library
#PI Dorrestein
#Data_Collector VP/LMS
#Scan -1
#Precursor_MZ 319.041
#ExactMass 318.033
#Charge 1
#CAS_Number N/A
#Pubmed_ID N/A
#Smiles CN1C(=O)CN=C(c2ccc(Cl)cc2)c3cc(Cl)ccc13
#INCHI_AUX N/A
#Library_Class 1
#SpectrumID CCMSLIB00000085039
#IonMode Positive
#UpdateWorkflowName UPDATE-SINGLE-ANNOTATED-GOLD
#LibraryQualityString Gold
#TaskID d252d724072548979f1f6f1ced849daf
##Scan# 2320
#SpectrumFile p3-E02_GE2_01_18271.mzXML
#LibraryName Pharm_Active_Library.mgf
#MQScore -1
#Organism Pharm_Active_Library
#TIC_Query 0
#RT_Query -1
#MZErrorPPM -1
#SharedPeaks 0
#MassDiff 0
#LibMZ -1
#SpecMZ 319.041
#SpecCharge 0
#internalFilename spec-00000.mgf

>collision 0
117.0573 12.9
118.0646 7.98
119.0726 6.69
125.0157 23.04
138.0102 5.94
138.9947 7.38
139.0171 2.71
143.0604 7.17
147.0671 4.14
150.0101 7.13
152.0253 3.41
154.0424 86.46
165.0695 4.66
167.0138 5.3
179.0363 9.33
182.0364 6.93
191.0736 2.45
192.0819 7.59
205.0765 3.22
206.0836 15.12
214.0423 3.33
220.0992 3.52
226.0414 4.12
227.0507 100.0
238.0416 3.18
241.053 7.64
255.0684 9.95
256.077 63.85
262.0185 20.05
263.0136 2.92
275.0145 13.74
289.0294 5.6
291.0444 24.49
319.0416 56.62
