>compound 7-chloro-3-methyl-4H-1$l^{6},2,4-benzothiadiazine 1,1-dioxide
>formula C8H7ClN2O2S
>ionization [M+H]+
>parentmass 230.9991
#inchi InChI=1S/C8H7ClN2O2S/c1-5-10-7-3-2-6(9)4-8(7)14(12,13)11-5/h2-4H,1H3,(H,10,11)
#inchikey GDLBFKVLRPITMI
#Ion_Source LC-ESI
#Instrument qTof
#Compound_Source Commercial
#PI Dorrestein
#Data_Collector Garg_Neha
#Scan -1
#Precursor_MZ 230.999
#ExactMass 229.992
#Charge 1
#CAS_Number N/A
#Pubmed_ID N/A
#Smiles CC1=NS(=O)(=O)c2cc(Cl)ccc2N1
#INCHI_AUX N/A
#Library_Class 1
#SpectrumID CCMSLIB00000079140
#IonMode Positive
#UpdateWorkflowName UPDATE-SINGLE-ANNOTATED-GOLD
#LibraryQualityString Gold
#TaskID 278b19f5865741e282cec7349aa7e7a1
##Scan# 1113
#SpectrumFile NCP003512_G2_H11_BD7_01_15731.mzXML
#LibraryName NIHcollectionI_05062014.mgf
#MQScore -1
#Organism NIHcollectionI_05062014
#TIC_Query 0
#RT_Query -1
#MZErrorPPM -1
#SharedPeaks 0
#MassDiff 0
#LibMZ -1
#SpecMZ 230.999
#SpecCharge 0
#internalFilename spec-00000.mgf

>collision 0
90.0334 2.66
99.0007 14.75
99.9937 2.92
114.0107 32.49
126.0104 100.0
142.0056 58.02
189.9714 36.06
230.9991 333.79
