>compound OLOPATADINE HYDROCHLORIDE
>formula C21H23NO3
>ionization [M+H]+
>parentmass 338.175
#inchi InChI=1S/C21H23NO3/c1-22(2)11-5-8-18-17-7-4-3-6-16(17)14-25-20-10-9-15(12-19(18)20)13-21(23)24/h3-4,6-10,12H,5,11,13-14H2,1-2H3,(H,23,24)/b18-8-
#inchikey JBIMVDZLSHOPLA
#Ion_Source LC-ESI
#Instrument qTof
#Compound_Source Commercial
#PI Dorrestein
#Data_Collector Garg_Neha
#Scan -1
#Precursor_MZ 338.175
#ExactMass 337.168
#Charge 1
#CAS_Number N/A
#Pubmed_ID N/A
#Smiles CN(C)CC/C=C\1/c2ccccc2COc3ccc(CC(=O)O)cc13
#INCHI_AUX N/A
#Library_Class 1
#SpectrumID CCMSLIB00000079092
#IonMode Positive
#UpdateWorkflowName UPDATE-SINGLE-ANNOTATED-GOLD
#LibraryQualityString Gold
#TaskID 278b19f5865741e282cec7349aa7e7a1
##Scan# 1108
#SpectrumFile NCP003432_G2_H11_BD3_01_15725.mzXML
#LibraryName NIHcollectionI_05062014.mgf
#MQScore -1
#Organism NIHcollectionI_05062014
#TIC_Query 0
#RT_Query -1
#MZErrorPPM -1
#SharedPeaks 0
#MassDiff 0
#LibMZ -1
#SpecMZ 338.175
#SpecCharge 0
#internalFilename spec-00000.mgf

>collision 0
91.0541 1.51
109.0646 2.06
115.0548 7.12
117.0699 9.91
119.0493 2.01
128.0623 1.77
131.0488 3.88
137.0603 12.63
141.0706 15.74
161.0604 1.77
165.0552 83.29
178.0781 4.49
179.085 12.57
189.055 2.13
191.0854 5.05
193.1007 4.85
202.0778 1.53
203.0856 3.78
204.0935 8.82
205.1008 8.07
206.0724 2.38
207.0811 7.85
208.0881 2.03
215.0851 4.88
216.0948 1.91
217.1005 2.2
218.0725 2.96
219.0813 10.32
219.1168 13.3
221.0965 16.21
229.1012 27.64
231.0817 7.12
232.0889 31.58
233.095 11.97
234.1038 12.46
245.0967 2.21
247.1132 100.0
252.0782 7.67
293.1185 32.1
338.175 0.0
