>compound MLS001401411-01!Ifenprodil
>formula C21H27NO2
>ionization [M+H]+
>parentmass 326.211334
#inchi InChI=1S/C21H27NO2/c1-16(21(24)19-7-9-20(23)10-8-19)22-13-11-18(12-14-22)15-17-5-3-2-4-6-17/h2-10,16,18,21,23-24H,11-15H2,1H3
#inchikey UYNVMODNBIQBMV
#origInchi InChI=1S/C21H27NO2.C4H6O6.H2O/c1-16(21(24)19-7-9-20(23)10-8-19)22-13-11-18(12-14-22)15-17-5-3-2-4-6-17;5-1(3(7)8)2(6)4(9)10;/h2-10,16,18,21,23-24H,11-15H2,1H3;1-2,5-6H,(H,7,8)(H,9,10);1H2
#Ion_Source LC-ESI
#Instrument qTof
#Compound_Source NIH Pharmacologically Active Library
#PI Dorrestein
#Data_Collector VP/LMS
#Scan -1
#Precursor_MZ 326.212
#ExactMass 325.204
#Charge 1
#CAS_Number N/A
#Pubmed_ID N/A
#Smiles CC(C(O)c1ccc(O)cc1)N2CCC(Cc3ccccc3)CC2.O.OC(C(O)C(=O)O)C(=O)O
#INCHI_AUX N/A
#Library_Class 1
#SpectrumID CCMSLIB00000084995
#IonMode Positive
#UpdateWorkflowName UPDATE-SINGLE-ANNOTATED-GOLD
#LibraryQualityString Gold
#TaskID d252d724072548979f1f6f1ced849daf
##Scan# 1629
#SpectrumFile p3-D06_GD6_01_18263.mzXML
#LibraryName Pharm_Active_Library.mgf
#MQScore -1
#Organism Pharm_Active_Library
#TIC_Query 0
#RT_Query -1
#MZErrorPPM -1
#SharedPeaks 0
#MassDiff 0
#LibMZ -1
#SpecMZ 326.212
#SpecCharge 0
#internalFilename spec-00000.mgf

>collision 0
91.0539 4.8
103.0539 2.89
105.07 28.67
107.0492 15.56
109.0644 4.42
115.0547 3.29
116.0603 0.72
117.0691 11.86
119.0483 0.86
120.0566 6.13
121.0639 3.24
129.0695 2.64
130.0777 0.69
131.0479 1.14
131.0856 5.26
132.0574 0.69
133.0645 21.24
135.0796 8.99
145.1013 0.8
146.0604 1.27
147.0679 0.68
148.0745 1.12
150.0915 1.4
159.0786 0.7
163.0973 0.59
174.1276 13.79
176.1434 73.1
187.0986 1.34
202.1211 3.96
293.1758 19.69
308.2005 100.0
326.2109 3.91
