>compound MLS001165779-01!ARIPIPRAZOLE
>formula C23H27Cl2N3O2
>ionization [M+H]+
>parentmass 448.1553089160906
#inchi InChI=1S/C23H27Cl2N3O2/c24-19-4-3-5-21(23(19)25)28-13-11-27(12-14-28)10-1-2-15-30-18-8-6-17-7-9-22(29)26-20(17)16-18/h3-6,8,16H,1-2,7,9-15H2,(H,26,29)
#inchikey CEUORZQYGODEFX
#Ion_Source LC-ESI
#Instrument qTof
#Compound_Source NIH Pharmacologically Active Library
#PI Dorrestein
#Data_Collector VP/LMS
#Scan -1
#Precursor_MZ 448.151
#ExactMass 447.148
#Charge 1
#CAS_Number N/A
#Pubmed_ID N/A
#Smiles Clc1cccc(N2CCN(CCCCOc3ccc4CCC(=O)Nc4c3)CC2)c1Cl
#INCHI_AUX N/A
#Library_Class 1
#SpectrumID CCMSLIB00000085956
#IonMode Positive
#UpdateWorkflowName UPDATE-SINGLE-ANNOTATED-GOLD
#LibraryQualityString Gold
#TaskID d252d724072548979f1f6f1ced849daf
##Scan# 1773
#SpectrumFile p4-H07_GH7_01_18415.mzXML
#LibraryName Pharm_Active_Library.mgf
#MQScore -1
#Organism Pharm_Active_Library
#TIC_Query 0
#RT_Query -1
#MZErrorPPM -1
#SharedPeaks 0
#MassDiff 0
#LibMZ -1
#SpecMZ 448.151
#SpecCharge 0
#internalFilename spec-00000.mgf

>collision 0
94.0654 0.8
98.0972 24.13
106.0665 0.84
117.0577 2.68
118.0652 7.29
120.0444 1.12
120.0808 2.22
122.0599 2.8
134.0599 2.42
146.06 15.04
148.0765 19.02
152.0269 4.77
153.0342 11.51
162.0549 1.08
163.0992 0.73
164.071 30.77
166.0417 0.94
171.9722 4.23
174.0661 4.0
176.0711 77.85
188.0035 18.54
190.0861 0.76
200.0023 6.76
216.0333 1.48
218.1176 17.16
228.0214 6.35
243.0439 13.99
285.0926 100.0
289.0868 3.69
448.1532 18.27
