>compound Metylperon
>formula C16H22FNO
>ionization [M+H]+
>parentmass 264.176
#inchi InChI=1S/C16H22FNO/c1-13-8-11-18(12-9-13)10-2-3-16(19)14-4-6-15(17)7-5-14/h4-7,13H,2-3,8-12H2,1H3
#inchikey DKMFBWQBDIGMHM
#Ion_Source LC-ESI
#Instrument qTof
#Compound_Source Commercial
#PI Dorrestein
#Data_Collector Garg_Neha
#Scan -1
#Precursor_MZ 264.176
#ExactMass 263.169
#Charge 1
#CAS_Number N/A
#Pubmed_ID N/A
#Smiles CC1CCN(CCCC(=O)c2ccc(F)cc2)CC1
#INCHI_AUX N/A
#Library_Class 1
#SpectrumID CCMSLIB00000079226
#IonMode Positive
#UpdateWorkflowName UPDATE-SINGLE-ANNOTATED-GOLD
#LibraryQualityString Gold
#TaskID 278b19f5865741e282cec7349aa7e7a1
##Scan# 1077
#SpectrumFile NCP003672_A27B27C27D27_BE4_01_15740.mzXML
#LibraryName NIHcollectionI_05062014.mgf
#MQScore -1
#Organism NIHcollectionI_05062014
#TIC_Query 0
#RT_Query -1
#MZErrorPPM -1
#SharedPeaks 0
#MassDiff 0
#LibMZ -1
#SpecMZ 264.176
#SpecCharge 0
#internalFilename spec-00000.mgf

>collision 0
95.0289 1.01
123.0256 49.72
165.0719 100.0
246.1657 0.39
264.176 0.0
