>compound MLS000516055-01!
>formula C12H17NO
>ionization [M+H]+
>parentmass 192.138733
#inchi InChI=1S/C12H17NO/c1-3-13(4-2)12(14)10-11-8-6-5-7-9-11/h5-9H,3-4,10H2,1-2H3
#inchikey UXDAWVUDZLBBAM
#Ion_Source LC-ESI
#Instrument qTof
#Compound_Source NIH Natural Product Library
#PI Dorrestein
#Data_Collector VVP/LMS
#Scan -1
#Precursor_MZ 192.139
#ExactMass 191.131
#Charge 1
#CAS_Number N/A
#Pubmed_ID N/A
#Smiles CCN(CC)C(=O)Cc1ccccc1
#INCHI_AUX N/A
#Library_Class 1
#SpectrumID CCMSLIB00000080248
#IonMode Positive
#UpdateWorkflowName UPDATE-SINGLE-ANNOTATED-GOLD
#LibraryQualityString Gold
#TaskID b1d8e8f6646f4e71acdff9ca3d919d08
##Scan# 1912
#SpectrumFile p2-A06_GA6_01_17983.mzXML
#LibraryName NIH_Natural_Products_Library.mgf
#MQScore -1
#Organism NIH_Natural_Products_Library
#TIC_Query 0
#RT_Query -1
#MZErrorPPM -1
#SharedPeaks 0
#MassDiff 0
#LibMZ -1
#SpecMZ 192.139
#SpecCharge 0
#internalFilename spec-00000.mgf

>collision 0
100.0766 100.0
102.0462 18.32
103.0535 27.72
105.0701 25.25
115.0526 19.8
118.065 93.56
119.0859 42.57
134.0599 20.79
146.0949 24.26
164.1084 55.45
192.1387 457.43
