>compound MLS002153180-01!Flupirtine maleate
>formula C15H17FN4O2
>ionization [M+H]+
>parentmass 305.139954
#inchi InChI=1S/C15H17FN4O2/c1-2-22-15(21)19-12-7-8-13(20-14(12)17)18-9-10-3-5-11(16)6-4-10/h3-8H,2,9H2,1H3,(H,19,21)(H3,17,18,20)/p-1
#inchikey JUUFBMODXQKSTD
#origInchi InChI=1S/C15H17FN4O2.C4H4O4/c1-2-22-15(21)19-12-7-8-13(20-14(12)17)18-9-10-3-5-11(16)6-4-10;5-3(6)1-2-4(7)8/h3-8H,2,9H2,1H3,(H,19,21)(H3,17,18,20);1-2H,(H,5,6)(H,7,8)/p-2/b;2-1-
#Ion_Source LC-ESI
#Instrument qTof
#Compound_Source NIH Pharmacologically Active Library
#PI Dorrestein
#Data_Collector VP/LMS
#Scan -1
#Precursor_MZ 305.145
#ExactMass 304.134
#Charge 1
#CAS_Number N/A
#Pubmed_ID N/A
#Smiles CCOC(=O)Nc1ccc(NCc2ccc(F)cc2)nc1N.[O-]C(=O)/C=C\C(=O)[O-]
#INCHI_AUX N/A
#Library_Class 1
#SpectrumID CCMSLIB00000085773
#IonMode Positive
#UpdateWorkflowName UPDATE-SINGLE-ANNOTATED-GOLD
#LibraryQualityString Gold
#TaskID d252d724072548979f1f6f1ced849daf
##Scan# 1496
#SpectrumFile p4-F04_GF4_01_18388.mzXML
#LibraryName Pharm_Active_Library.mgf
#MQScore -1
#Organism Pharm_Active_Library
#TIC_Query 0
#RT_Query -1
#MZErrorPPM -1
#SharedPeaks 0
#MassDiff 0
#LibMZ -1
#SpecMZ 305.145
#SpecCharge 0
#internalFilename spec-00000.mgf

>collision 0
95.0463 0.4
96.0555 2.99
97.0629 1.71
106.0399 2.27
107.0475 8.25
109.0451 100.0
110.048 9.36
122.0586 29.41
123.0665 35.43
124.0743 51.77
125.0756 1.98
150.0537 96.47
168.063 0.84
196.0955 30.39
197.0947 2.33
305.1405 0.15
