>compound MLS001333083-01!THIO-TEPA52-24-4
>formula C6H12N3PS
>ionization [M+H]+
>parentmass 190.057
#inchi InChI=1S/C6H12N3PS/c11-10(7-1-2-7,8-3-4-8)9-5-6-9/h1-6H2
#inchikey FOCVUCIESVLUNU
#Ion_Source LC-ESI
#Instrument qTof
#Compound_Source NIH Pharmacologically Active Library
#PI Dorrestein
#Data_Collector VP/LMS
#Scan -1
#Precursor_MZ 190.057
#ExactMass 189.049
#Charge 1
#CAS_Number N/A
#Pubmed_ID N/A
#Smiles S=P(N1CC1)(N2CC2)N3CC3
#INCHI_AUX N/A
#Library_Class 1
#SpectrumID CCMSLIB00000085177
#IonMode Positive
#UpdateWorkflowName UPDATE-SINGLE-ANNOTATED-GOLD
#LibraryQualityString Gold
#TaskID d252d724072548979f1f6f1ced849daf
##Scan# 1398
#SpectrumFile p3-F08_GF8_01_18289.mzXML
#LibraryName Pharm_Active_Library.mgf
#MQScore -1
#Organism Pharm_Active_Library
#TIC_Query 0
#RT_Query -1
#MZErrorPPM -1
#SharedPeaks 0
#MassDiff 0
#LibMZ -1
#SpecMZ 190.057
#SpecCharge 0
#internalFilename spec-00000.mgf

>collision 0
82.9816 10.02
101.0251 20.05
102.0332 6.76
103.0551 8.62
103.97 100.0
105.9838 37.3
115.0458 8.16
120.9939 11.89
147.0138 70.63
190.057 0.0
