>compound Lopinavir
>formula C37H48N4O5 
>ionization [M+H]+
>parentmass 629.371
#inchi InChI=1S/C37H48N4O5/c1-25(2)34(41-20-12-19-38-37(41)45)36(44)39-30(21-28-15-7-5-8-16-28)23-32(42)31(22-29-17-9-6-10-18-29)40-33(43)24-46-35-26(3)13-11-14-27(35)4/h5-11,13-18,25,30-32,34,42H,12,19-24H2,1-4H3,(H,38,45)(H,39,44)(H,40,43)/t30-,31-,32-,34-/m0/s1
#inchikey KJHKTHWMRKYKJE
#Ion_Source LC-ESI
#Instrument qTof
#Compound_Source Isolated
#PI Sirenas
#Data_Collector Ed Esquenazi 
#Scan -1
#Precursor_MZ 629.371
#ExactMass 0.0
#Charge 1
#CAS_Number N/A
#Pubmed_ID N/A
#Smiles N/A
#INCHI_AUX N/A
#Library_Class 3
#SpectrumID CCMSLIB00000006307
#IonMode Positive
#UpdateWorkflowName UPDATE-SINGLE-ANNOTATED-BRONZE
#LibraryQualityString Bronze
#TaskID d19310cd93df49b68e9fcbec27720eb5
##Scan# 3
#SpectrumFile Lopinavir.mgf
#LibraryName fda_library.mgf
#MQScore -1
#Organism fda_library
#TIC_Query 0
#RT_Query -1
#MZErrorPPM -1
#SharedPeaks 0
#MassDiff 0
#LibMZ -1
#SpecMZ 629.371
#SpecCharge 0
#internalFilename spec-00000.mgf

>collision 0
103.0541 0.2
105.07 0.72
117.0699 1.33
120.081 36.46
129.0697 0.53
131.0854 2.12
135.0804 1.51
146.0954 0.25
163.0743 0.26
172.1124 0.54
180.1016 2.11
233.1324 0.61
250.1588 4.08
310.18 4.87
384.2319 1.41
412.227 0.65
429.2531 2.73
629.371 0.0
