>compound Amphotericin B
>formula C47H73NO17
>ionization [M+H]+
>parentmass 924.4951263280905
#inchi InChI=1S/C47H73NO17/c1-27-17-15-13-11-9-7-5-6-8-10-12-14-16-18-34(64-46-44(58)41(48)43(57)30(4)63-46)24-38-40(45(59)60)37(54)26-47(61,65-38)25-33(51)22-36(53)35(52)20-19-31(49)21-32(50)23-39(55)62-29(3)28(2)42(27)56/h5-18,27-38,40-44,46,49-54,56-58,61H,19-26,48H2,1-4H3,(H,59,60)/b6-5+,9-7+,10-8+,13-11+,14-12+,17-15+,18-16+/t27-,28-,29-,30+,31+,32+,33-,34-,35+,36+,37-,38-,40+,41-,42+,43+,44-,46-,47+/m0/s1
#inchikey APKFDSVGJQXUKY
#Ion_Source DI-ESI
#Instrument Hybrid FT
#Compound_Source commercial
#PI Dorrestein/Moore
#Data_Collector Roland Kersten
#Scan -1
#Precursor_MZ 925.0
#ExactMass 924.488
#Charge 1
#CAS_Number N/A
#Pubmed_ID N/A
#Smiles C[C@H]1/C=C/C=C/C=C/C=C/C=C/C=C/C=C/[C@@H](C[C@H]2[C@@H]([C@H](C[C@](O2)(C[C@H](C[C@H]([C@@H](CC[C@H](C[C@H](CC(=O)O[C@H]([C@@H]([C@@H]1O)C)C)O)O)O)O)O)O)O)C(=O)O)O[C@H]3[C@H]([C@H]([C@@H]([C@H](O3)C)O)N)O
#INCHI_AUX N/A
#Library_Class 3
#SpectrumID CCMSLIB00000075332
#IonMode Positive
#UpdateWorkflowName UPDATE-SINGLE-ANNOTATED-BRONZE
#LibraryQualityString Bronze
#TaskID 216f7e25eb284d139eda10f0ea06e32c
##Scan# 38
#SpectrumFile Amphotericin_B_FT_925mz.mzXML
#LibraryName gnps_library.mgf
#MQScore -1
#Organism empty
#TIC_Query 0
#RT_Query -1
#MZErrorPPM -1
#SharedPeaks 0
#MassDiff 0
#LibMZ -1
#SpecMZ 925
#SpecCharge 0
#internalFilename spec-00000.mgf

>collision 0
322.2128 1.14
338.1928 0.81
573.1742 3.29
575.0903 1.13
580.1223 1.85
583.3798 1.3
597.0713 2.11
603.1371 0.83
604.3909 2.11
615.2629 1.03
617.3922 2.68
619.0285 2.83
629.327 7.65
630.986 4.78
641.9698 3.12
651.0407 0.84
655.0887 2.13
673.2424 3.69
682.3604 3.54
701.3166 0.85
706.1616 2.79
711.3539 0.82
722.079 1.43
725.3973 1.47
737.4062 3.8
743.4088 9.09
761.424 3.83
772.1153 1.09
802.2387 2.25
879.2292 1.77
924.4999 0.0
