>compound mirtazapine
>formula C17H19N3 
>ionization [M+H]+
>parentmass 266.166168
#inchi InChI=1S/C17H19N3/c1-19-9-10-20-16(12-19)15-7-3-2-5-13(15)11-14-6-4-8-18-17(14)20/h2-8,16H,9-12H2,1H3
#inchikey RONZAEMNMFQXRA
#Ion_Source LC-ESI
#Instrument qTof
#Compound_Source Commercial
#PI Dorrestein
#Data_Collector Garg_Neha
#Scan -1
#Precursor_MZ 266.167
#ExactMass 265.158
#Charge 1
#CAS_Number N/A
#Pubmed_ID N/A
#Smiles N/A
#INCHI_AUX N/A
#Library_Class 1
#SpectrumID CCMSLIB00000077088
#IonMode Positive
#UpdateWorkflowName UPDATE-SINGLE-ANNOTATED-GOLD
#LibraryQualityString Gold
#TaskID 48f7f52fc6d249b5abbcc6e7b3df5969
##Scan# 1070
#SpectrumFile NCP003106_A2_B11_BB2_01_15705.mzXML
#LibraryName NIH_Clinical_Collection_2.mgf
#MQScore -1
#Organism NIHcollection2_04212014_2_mgf
#TIC_Query 0
#RT_Query -1
#MZErrorPPM -1
#SharedPeaks 0
#MassDiff 0
#LibMZ -1
#SpecMZ 266.167
#SpecCharge 0
#internalFilename spec-00000.mgf

>collision 0
130.0651 0.93
167.0735 1.89
182.0961 2.52
194.0845 6.99
195.0921 100.0
207.0923 4.07
209.1077 15.74
223.1227 1.39
235.1236 4.07
266.1662 177.02
