>compound MLS000028822-01!LONIDAMINE
>formula C15H10Cl2N2O2
>ionization [M+H]+
>parentmass 321.020966
#inchi InChI=1S/C15H10Cl2N2O2/c16-10-6-5-9(12(17)7-10)8-19-13-4-2-1-3-11(13)14(18-19)15(20)21/h1-7H,8H2,(H,20,21)
#inchikey WDRYRZXSPDWGEB
#Ion_Source LC-ESI
#Instrument qTof
#Compound_Source NIH Pharmacologically Active Library
#PI Dorrestein
#Data_Collector VP/LMS
#Scan -1
#Precursor_MZ 321.019
#ExactMass 320.012
#Charge 1
#CAS_Number N/A
#Pubmed_ID N/A
#Smiles OC(=O)c1nn(Cc2ccc(Cl)cc2Cl)c3ccccc13
#INCHI_AUX N/A
#Library_Class 1
#SpectrumID CCMSLIB00000085191
#IonMode Positive
#UpdateWorkflowName UPDATE-SINGLE-ANNOTATED-GOLD
#LibraryQualityString Gold
#TaskID d252d724072548979f1f6f1ced849daf
##Scan# 2300
#SpectrumFile p3-F10_GF10_01_18291.mzXML
#LibraryName Pharm_Active_Library.mgf
#MQScore -1
#Organism Pharm_Active_Library
#TIC_Query 0
#RT_Query -1
#MZErrorPPM -1
#SharedPeaks 0
#MassDiff 0
#LibMZ -1
#SpecMZ 321.019
#SpecCharge 0
#internalFilename spec-00000.mgf

>collision 0
89.038 0.44
122.9978 7.96
158.9752 100.0
205.0747 0.62
240.0434 0.91
268.0421 0.81
303.0099 0.83
321.021 0.24
