>compound MLS001076491-01!Cortell
>formula C23H32O6
>ionization [M+H]+
>parentmass 405.227051
#inchi InChI=1S/C23H32O6/c1-13(24)29-12-19(27)23(28)9-7-17-16-5-4-14-10-15(25)6-8-21(14,2)20(16)18(26)11-22(17,23)3/h10,16-18,20,26,28H,4-9,11-12H2,1-3H3/t16-,17-,18-,20+,21-,22-,23-/m0/s1
#inchikey ALEXXDVDDISNDU
#Ion_Source LC-ESI
#Instrument qTof
#Compound_Source NIH Pharmacologically Active Library
#PI Dorrestein
#Data_Collector VP/LMS
#Scan -1
#Precursor_MZ 405.225
#ExactMass 404.22
#Charge 1
#CAS_Number N/A
#Pubmed_ID N/A
#Smiles CC(=O)OCC(=O)[C@@]1(O)CC[C@H]2[C@@H]3CC/C/4=C/C(=O)CC[C@]4(C)[C@H]3[C@@H](O)C[C@@]21C
#INCHI_AUX N/A
#Library_Class 1
#SpectrumID CCMSLIB00000085985
#IonMode Positive
#UpdateWorkflowName UPDATE-SINGLE-ANNOTATED-GOLD
#LibraryQualityString Gold
#TaskID d252d724072548979f1f6f1ced849daf
##Scan# 1904
#SpectrumFile p4-H11_GH11_01_18419.mzXML
#LibraryName Pharm_Active_Library.mgf
#MQScore -1
#Organism Pharm_Active_Library
#TIC_Query 0
#RT_Query -1
#MZErrorPPM -1
#SharedPeaks 0
#MassDiff 0
#LibMZ -1
#SpecMZ 405.225
#SpecCharge 0
#internalFilename spec-00000.mgf

>collision 0
97.0646 15.71
105.0699 29.99
107.0855 16.29
109.0644 22.93
117.0695 19.71
119.0853 41.25
121.065 100.0
123.0803 32.0
128.0613 17.55
129.0694 19.98
131.0855 35.93
133.1018 19.64
135.0809 21.36
141.0695 14.68
142.0769 12.56
143.0854 41.21
145.1014 59.57
147.0802 23.95
147.1169 18.9
155.0854 20.1
157.1011 49.2
159.0798 21.9
159.117 40.82
161.0955 24.38
163.1116 40.99
167.085 20.53
169.1016 29.85
171.0807 12.01
171.1164 29.52
173.0957 22.07
175.1119 16.17
181.0996 16.17
183.1169 31.3
185.0959 17.74
185.1325 23.66
187.112 23.74
195.116 24.26
197.0963 18.3
197.132 17.55
199.1127 12.69
199.1481 16.17
207.1178 14.12
209.1322 19.79
211.1117 14.84
213.1268 22.6
223.1475 20.06
225.1267 18.69
227.1432 13.04
239.1429 30.8
241.1592 62.62
249.1635 14.03
251.1438 15.13
253.1576 22.71
267.1732 26.33
269.1883 12.83
291.1752 13.76
309.1845 37.38
327.1962 30.95
405.2285 1.93
