>compound MLS002153330-01!SNC80156727-74-1
>formula C28H39N3O2
>ionization [M+H]+
>parentmass 450.3115039400906
#inchi InChI=1S/C28H39N3O2/c1-7-17-30-19-22(5)31(20-21(30)4)27(25-11-10-12-26(18-25)33-6)23-13-15-24(16-14-23)28(32)29(8-2)9-3/h7,10-16,18,21-22,27H,1,8-9,17,19-20H2,2-6H3/t21-,22+,27?/m0/s1
#inchikey KQWVAUSXZDRQPZ
#Ion_Source LC-ESI
#Instrument qTof
#Compound_Source NIH Pharmacologically Active Library
#PI Dorrestein
#Data_Collector VP/LMS
#Scan -1
#Precursor_MZ 450.316
#ExactMass 449.304
#Charge 1
#CAS_Number N/A
#Pubmed_ID N/A
#Smiles CCN(CC)C(=O)c1ccc(cc1)C(N2C[C@H](C)N(CC=C)C[C@H]2C)c3cccc(OC)c3
#INCHI_AUX N/A
#Library_Class 1
#SpectrumID CCMSLIB00000085438
#IonMode Positive
#UpdateWorkflowName UPDATE-SINGLE-ANNOTATED-GOLD
#LibraryQualityString Gold
#TaskID d252d724072548979f1f6f1ced849daf
##Scan# 1815
#SpectrumFile p4-A10_GA10_01_18334.mzXML
#LibraryName Pharm_Active_Library.mgf
#MQScore -1
#Organism Pharm_Active_Library
#TIC_Query 0
#RT_Query -1
#MZErrorPPM -1
#SharedPeaks 0
#MassDiff 0
#LibMZ -1
#SpecMZ 450.316
#SpecCharge 0
#internalFilename spec-00000.mgf

>collision 0
117.071 0.94
152.0624 3.07
153.0693 2.87
154.0788 3.04
159.0815 1.36
165.0707 13.59
166.0771 7.5
167.0851 4.39
169.1019 5.2
171.0806 1.15
179.0853 2.09
180.0569 1.42
180.0916 0.88
181.0647 5.65
182.0739 16.6
195.0812 18.28
196.089 20.66
197.097 44.36
199.0762 10.62
208.0519 1.39
208.0884 1.22
210.1049 2.51
213.0911 3.45
223.0769 50.18
224.0835 37.88
225.1273 5.64
251.1065 1.9
252.1383 2.68
253.1437 1.15
266.1182 0.89
268.1698 3.61
280.1328 2.29
281.1414 4.56
296.1658 100.0
450.3115 0.0
