>compound 1-(2-ethylsulfonylethyl)-2-methyl-5-nitroimidazole
>formula C8H13N3O4S
>ionization [M+H]+
>parentmass 248.07
#inchi InChI=1S/C8H13N3O4S/c1-3-16(14,15)5-4-10-7(2)9-6-8(10)11(12)13/h6H,3-5H2,1-2H3
#inchikey HJLSLZFTEKNLFI
#Ion_Source LC-ESI
#Instrument qTof
#Compound_Source Commercial
#PI Dorrestein
#Data_Collector Garg_Neha
#Scan -1
#Precursor_MZ 248.07
#ExactMass 247.063
#Charge 1
#CAS_Number N/A
#Pubmed_ID N/A
#Smiles CCS(=O)(=O)CCn1c(C)ncc1[N+](=O)[O-]
#INCHI_AUX N/A
#Library_Class 1
#SpectrumID CCMSLIB00000079051
#IonMode Positive
#UpdateWorkflowName UPDATE-SINGLE-ANNOTATED-GOLD
#LibraryQualityString Gold
#TaskID 278b19f5865741e282cec7349aa7e7a1
##Scan# 1037
#SpectrumFile NCP003432_A2_B11_BC8_01_15722.mzXML
#LibraryName NIHcollectionI_05062014.mgf
#MQScore -1
#Organism NIHcollectionI_05062014
#TIC_Query 0
#RT_Query -1
#MZErrorPPM -1
#SharedPeaks 0
#MassDiff 0
#LibMZ -1
#SpecMZ 248.07
#SpecCharge 0
#internalFilename spec-00000.mgf

>collision 0
66.0136 0.38
92.9993 0.4
95.0605 6.24
107.0603 0.72
108.0676 1.1
109.0759 2.33
110.0838 3.63
111.0425 1.05
120.056 35.1
121.0322 55.73
122.036 2.93
125.0686 0.4
128.0455 18.68
129.0487 0.95
145.0506 14.74
146.0542 2.51
154.0612 1.83
156.0757 1.1
162.0763 3.4
173.0378 0.56
202.0761 19.85
220.0386 0.97
248.0681 0.0
