>compound MLS000069716-01!SULFABENZAMIDE
>formula C13H12N2O3S
>ionization [M+H]+
>parentmass 277.0641396960905
#inchi InChI=1S/C13H12N2O3S/c14-11-6-8-12(9-7-11)19(17,18)15-13(16)10-4-2-1-3-5-10/h1-9H,14H2,(H,15,16)
#inchikey PBCZLFBEBARBBI
#Ion_Source LC-ESI
#Instrument qTof
#Compound_Source NIH Pharmacologically Active Library
#PI Dorrestein
#Data_Collector VP/LMS
#Scan -1
#Precursor_MZ 277.067
#ExactMass 276.057
#Charge 1
#CAS_Number N/A
#Pubmed_ID N/A
#Smiles Nc1ccc(cc1)S(=O)(=O)NC(=O)c2ccccc2
#INCHI_AUX N/A
#Library_Class 1
#SpectrumID CCMSLIB00000085845
#IonMode Positive
#UpdateWorkflowName UPDATE-SINGLE-ANNOTATED-GOLD
#LibraryQualityString Gold
#TaskID d252d724072548979f1f6f1ced849daf
##Scan# 1607
#SpectrumFile p4-G03_GG3_01_18399.mzXML
#LibraryName Pharm_Active_Library.mgf
#MQScore -1
#Organism Pharm_Active_Library
#TIC_Query 0
#RT_Query -1
#MZErrorPPM -1
#SharedPeaks 0
#MassDiff 0
#LibMZ -1
#SpecMZ 277.067
#SpecCharge 0
#internalFilename spec-00000.mgf

>collision 0
92.0495 16.58
108.0446 100.0
156.0105 23.21
157.014 2.31
277.0641 0.0
