>compound MLS000859974-01!LY-165,163
>formula C19H22F3N3
>ionization [M+H]+
>parentmass 350.183
#inchi InChI=1S/C19H22F3N3/c20-19(21,22)16-2-1-3-18(14-16)25-12-10-24(11-13-25)9-8-15-4-6-17(23)7-5-15/h1-7,14H,8-13,23H2
#inchikey GAAKALASJNGQKD
#Ion_Source LC-ESI
#Instrument qTof
#Compound_Source NIH Pharmacologically Active Library
#PI Dorrestein
#Data_Collector VP/LMS
#Scan -1
#Precursor_MZ 350.183
#ExactMass 349.177
#Charge 1
#CAS_Number N/A
#Pubmed_ID N/A
#Smiles Nc1ccc(CCN2CCN(CC2)c3cccc(c3)C(F)(F)F)cc1
#INCHI_AUX N/A
#Library_Class 1
#SpectrumID CCMSLIB00000085026
#IonMode Positive
#UpdateWorkflowName UPDATE-SINGLE-ANNOTATED-GOLD
#LibraryQualityString Gold
#TaskID d252d724072548979f1f6f1ced849daf
##Scan# 1454
#SpectrumFile p3-D11_GD11_01_18268.mzXML
#LibraryName Pharm_Active_Library.mgf
#MQScore -1
#Organism Pharm_Active_Library
#TIC_Query 0
#RT_Query -1
#MZErrorPPM -1
#SharedPeaks 0
#MassDiff 0
#LibMZ -1
#SpecMZ 350.183
#SpecCharge 0
#internalFilename spec-00000.mgf

>collision 0
91.0536 0.89
94.0653 1.84
103.0538 13.75
118.0646 4.92
120.0813 100.0
261.0854 0.21
350.1802 0.58
