>compound rufloxacin monohydrochloride
>formula C17H18FN3O3S
>ionization [M+H]+
>parentmass 364.111267
#inchi InChI=1S/C17H18FN3O3S/c1-19-2-4-20(5-3-19)14-12(18)8-10-13-16(14)25-7-6-21(13)9-11(15(10)22)17(23)24/h8-9H,2-7H2,1H3,(H,23,24)
#inchikey NJCJBUHJQLFDSW
#Ion_Source LC-ESI
#Instrument qTof
#Compound_Source Commercial
#PI Dorrestein
#Data_Collector Garg_Neha
#Scan -1
#Precursor_MZ 364.113
#ExactMass 363.105
#Charge 1
#CAS_Number N/A
#Pubmed_ID N/A
#Smiles CN1CCN(CC1)c2c(F)cc3c(=O)c(cn4CCSc2c43)C(=O)O
#INCHI_AUX N/A
#Library_Class 1
#SpectrumID CCMSLIB00000079024
#IonMode Positive
#UpdateWorkflowName UPDATE-SINGLE-ANNOTATED-GOLD
#LibraryQualityString Gold
#TaskID 278b19f5865741e282cec7349aa7e7a1
##Scan# 988
#SpectrumFile NCP003352_E2_F11_BC6_01_15720.mzXML
#LibraryName NIHcollectionI_05062014.mgf
#MQScore -1
#Organism NIHcollectionI_05062014
#TIC_Query 0
#RT_Query -1
#MZErrorPPM -1
#SharedPeaks 0
#MassDiff 0
#LibMZ -1
#SpecMZ 364.113
#SpecCharge 0
#internalFilename spec-00000.mgf

>collision 0
117.0731 12.54
154.0559 10.5
166.0518 12.54
184.0717 13.12
187.0359 8.75
202.0537 10.5
207.0408 10.5
215.025 13.41
216.036 7.58
234.0287 21.28
235.0336 15.45
236.0303 10.79
249.0532 8.75
256.0536 13.41
262.0697 12.24
263.0649 92.71
264.0696 7.58
265.0843 11.95
266.0608 13.12
272.0952 10.79
275.0594 8.45
285.0387 15.74
303.09 12.24
320.124 100.0
364.1154 178.43
