>compound Salmeterol
>formula C25H37NO4
>ionization [M+H]+
>parentmass 416.280731
#inchi InChI=1S/C25H37NO4/c27-20-23-18-22(13-14-24(23)28)25(29)19-26-15-7-1-2-8-16-30-17-9-6-12-21-10-4-3-5-11-21/h3-5,10-11,13-14,18,25-29H,1-2,6-9,12,15-17,19-20H2
#inchikey GIIZNNXWQWCKIB
#Ion_Source LC-ESI
#Instrument qTof
#Compound_Source Commercial
#PI Dorrestein
#Data_Collector Garg_Neha
#Scan -1
#Precursor_MZ 416.28
#ExactMass 415.272
#Charge 1
#CAS_Number N/A
#Pubmed_ID N/A
#Smiles OCc1cc(ccc1O)C(O)CNCCCCCCOCCCCc2ccccc2
#INCHI_AUX N/A
#Library_Class 1
#SpectrumID CCMSLIB00000079220
#IonMode Positive
#UpdateWorkflowName UPDATE-SINGLE-ANNOTATED-GOLD
#LibraryQualityString Gold
#TaskID 278b19f5865741e282cec7349aa7e7a1
##Scan# 1207
#SpectrumFile NCP003672_A27B27C27D27_BE4_01_15740.mzXML
#LibraryName NIHcollectionI_05062014.mgf
#MQScore -1
#Organism NIHcollectionI_05062014
#TIC_Query 0
#RT_Query -1
#MZErrorPPM -1
#SharedPeaks 0
#MassDiff 0
#LibMZ -1
#SpecMZ 416.28
#SpecCharge 0
#internalFilename spec-00000.mgf

>collision 0
91.0556 0.97
105.0703 0.44
121.0657 0.76
130.0662 0.37
131.0848 1.65
133.0649 3.34
135.0805 2.12
145.0654 0.5
148.0768 2.84
149.084 0.8
159.0795 0.48
162.0903 1.51
164.1064 1.0
218.154 0.32
230.1543 6.79
248.1649 4.09
380.2591 22.82
398.2708 100.0
416.2807 65.18
