>compound Chlorprothixene
>formula C18H18ClNS
>ionization [M+H]+
>parentmass 316.093903
#inchi InChI=1S/C18H18ClNS/c1-20(2)11-5-7-14-15-6-3-4-8-17(15)21-18-10-9-13(19)12-16(14)18/h3-4,6-10,12H,5,11H2,1-2H3/b14-7+
#inchikey WSPOMRSOLSGNFJ
#Ion_Source LC-ESI
#Instrument qTof
#Compound_Source Commercial
#PI Dorrestein
#Data_Collector Garg_Neha
#Scan -1
#Precursor_MZ 316.092
#ExactMass 315.085
#Charge 1
#CAS_Number 113-59-7
#Pubmed_ID N/A
#Smiles C1=CC=C2C(=C1)SC3=C(C/2=C/CCN(C)C)C=C(C=C3)Cl
#INCHI_AUX N/A
#Library_Class 1
#SpectrumID CCMSLIB00000078284
#IonMode Positive
#UpdateWorkflowName UPDATE-SINGLE-ANNOTATED-GOLD
#LibraryQualityString Gold
#TaskID 77f51c88eb8b467eb4a01dd2d0cb90d2
##Scan# 1253
#SpectrumFile Plate4_61_88_GH5_01_16506.mzXML
#LibraryName FDALibrary_2_04302014.mgf
#MQScore -1
#Organism FDALibrary_2_04302014
#TIC_Query 0
#RT_Query -1
#MZErrorPPM -1
#SharedPeaks 0
#MassDiff 0
#LibMZ -1
#SpecMZ 316.092
#SpecCharge 0
#internalFilename spec-00000.mgf

>collision 0
192.9873 1.27
195.0261 0.3
202.0779 1.98
203.085 7.23
209.0419 0.9
210.0492 11.37
212.0398 2.93
221.042 64.85
231.0035 100.0
235.0575 45.42
236.0649 46.75
238.0544 22.43
245.0179 12.52
256.0098 7.75
271.0342 54.97
316.0933 128.75
