>compound MLS001076852-01!
>formula C20H21N3O3S
>ionization [M+H]+
>parentmass 384.1376389840906
#inchi InChI=1S/C20H21N3O3S/c1-26-16-7-5-14(6-8-16)19(25)21-20(27)22-10-13-9-15(12-22)17-3-2-4-18(24)23(17)11-13/h2-8,13,15H,9-12H2,1H3,(H,21,25,27)/t13-,15-/m1/s1
#inchikey WDBPBHIDKXMEII
#Ion_Source LC-ESI
#Instrument qTof
#Compound_Source NIH Natural Product Library
#PI Dorrestein
#Data_Collector VVP/LMS
#Scan -1
#Precursor_MZ 384.138
#ExactMass 383.13
#Charge 1
#CAS_Number N/A
#Pubmed_ID N/A
#Smiles COc1ccc(cc1)C(=O)NC(=S)N2C[C@H]3C[C@H](C2)c4cccc(=O)n4C3
#INCHI_AUX N/A
#Library_Class 1
#SpectrumID CCMSLIB00000079610
#IonMode Positive
#UpdateWorkflowName UPDATE-SINGLE-ANNOTATED-GOLD
#LibraryQualityString Gold
#TaskID b1d8e8f6646f4e71acdff9ca3d919d08
##Scan# 1707
#SpectrumFile p1-G08_GG8_01_17952.mzXML
#LibraryName NIH_Natural_Products_Library.mgf
#MQScore -1
#Organism NIH_Natural_Products_Library
#TIC_Query 0
#RT_Query -1
#MZErrorPPM -1
#SharedPeaks 0
#MassDiff 0
#LibMZ -1
#SpecMZ 384.138
#SpecCharge 0
#internalFilename spec-00000.mgf

>collision 0
107.0496 2.08
108.0206 0.36
118.0782 0.37
133.0506 0.89
135.0439 100.0
146.0606 1.1
148.0753 20.45
150.0663 0.42
158.0609 0.86
159.0697 0.39
160.0745 4.28
161.0835 1.33
174.0898 3.43
176.0945 0.39
191.1173 45.98
367.1128 0.85
384.1404 0.39
