>compound Biotin (Vitamin B7)
>formula C10H16N2O3S
>ionization [M+H]+
>parentmass 245.095703
#inchi InChI=1S/C10H16N2O3S/c13-8(14)4-2-1-3-7-9-6(5-16-7)11-10(15)12-9/h6-7,9H,1-5H2,(H,13,14)(H2,11,12,15)/t6-,7+,9-/m0/s1
#inchikey YBJHBAHKTGYVGT
#Ion_Source LC-ESI
#Instrument qTof
#Compound_Source Commercial
#PI Dorrestein
#Data_Collector Garg_Neha
#Scan -1
#Precursor_MZ 245.095
#ExactMass 244.088
#Charge 1
#CAS_Number 58-85-5, 3672-05-7, 15720-24-8, 56085-82-6 (sodium salt)
#Pubmed_ID N/A
#Smiles C1(N[C@@]2([C@](N1)([C@H](SC2)CCCCC(=O)O)[H])[H])=O
#INCHI_AUX N/A
#Library_Class 1
#SpectrumID CCMSLIB00000078581
#IonMode Positive
#UpdateWorkflowName UPDATE-SINGLE-ANNOTATED-GOLD
#LibraryQualityString Gold
#TaskID 77f51c88eb8b467eb4a01dd2d0cb90d2
##Scan# 1015
#SpectrumFile Plate9_41_60_GC6_01_15755.mzXML
#LibraryName FDALibrary_2_04302014.mgf
#MQScore -1
#Organism FDALibrary_2_04302014
#TIC_Query 0
#RT_Query -1
#MZErrorPPM -1
#SharedPeaks 0
#MassDiff 0
#LibMZ -1
#SpecMZ 245.095
#SpecCharge 0
#internalFilename spec-00000.mgf

>collision 0
98.0968 100.0
105.0703 0.61
108.0801 0.57
123.0259 1.39
139.0578 1.74
150.0912 2.76
156.0851 0.33
166.0674 1.22
167.0514 0.69
184.0797 1.13
199.0898 1.77
209.0728 1.07
227.0853 48.68
245.0957 13.31
