>compound MLS001146934-01!
>formula C26H28Cl2N4O4
>ionization [M+H]+
>parentmass 531.155334
#inchi InChI=1S/C26H28Cl2N4O4/c1-19(33)31-10-12-32(13-11-31)21-3-5-22(6-4-21)34-15-23-16-35-26(36-23,17-30-9-8-29-18-30)24-7-2-20(27)14-25(24)28/h2-9,14,18,23H,10-13,15-17H2,1H3/t23-,26-/m0/s1
#inchikey XMAYWYJOQHXEEK
#Ion_Source LC-ESI
#Instrument qTof
#Compound_Source NIH Pharmacologically Active Library
#PI Dorrestein
#Data_Collector VP/LMS
#Scan -1
#Precursor_MZ 531.159
#ExactMass 530.149
#Charge 1
#CAS_Number N/A
#Pubmed_ID N/A
#Smiles CC(=O)N1CCN(CC1)c2ccc(OC[C@H]3CO[C@@](Cn4ccnc4)(O3)c5ccc(Cl)cc5Cl)cc2
#INCHI_AUX N/A
#Library_Class 1
#SpectrumID CCMSLIB00000085416
#IonMode Positive
#UpdateWorkflowName UPDATE-SINGLE-ANNOTATED-GOLD
#LibraryQualityString Gold
#TaskID d252d724072548979f1f6f1ced849daf
##Scan# 1762
#SpectrumFile p4-A07_GA7_01_18324.mzXML
#LibraryName Pharm_Active_Library.mgf
#MQScore -1
#Organism Pharm_Active_Library
#TIC_Query 0
#RT_Query -1
#MZErrorPPM -1
#SharedPeaks 0
#MassDiff 0
#LibMZ -1
#SpecMZ 531.159
#SpecCharge 0
#internalFilename spec-00000.mgf

>collision 0
112.0757 40.07
120.0431 8.05
122.0597 17.15
130.0654 6.97
134.0586 15.69
135.0675 47.18
136.0751 19.54
144.0798 20.09
145.0871 11.56
146.0592 8.89
146.0953 13.14
148.0757 60.18
158.0959 11.85
158.9761 11.93
167.0817 70.05
169.9689 10.01
172.075 7.97
172.9556 15.89
173.0815 8.2
174.0916 56.68
177.1023 100.0
184.9918 16.04
185.9624 34.56
189.1377 8.78
192.101 12.54
203.0374 9.8
216.102 19.44
217.1332 45.58
219.1128 98.79
220.1191 47.85
235.1429 20.67
238.0064 21.4
244.0048 40.15
247.0641 8.45
255.0083 53.02
259.142 9.24
267.0092 25.32
282.0306 6.88
297.021 7.3
311.0339 7.22
378.0651 7.68
421.1086 7.65
446.1026 7.11
489.1453 59.26
492.1451 11.66
531.1574 328.28
