>compound MLS001158285-01!(2R)-2-[[(2S)-2-(1,2-dihydroimidazo[1,2-a]benzimidazole-3-carbonylamino)-4-methylpentanoyl]amino]-2-phenylacetic acid
>formula C24H27N5O4
>ionization [M+H]+
>parentmass 450.214
#inchi InChI=1S/C24H27N5O4/c1-15(2)14-18(21(30)27-20(22(31)32)16-8-4-3-5-9-16)26-24(33)29-13-12-28-19-11-7-6-10-17(19)25-23(28)29/h3-11,15,18,20H,12-14H2,1-2H3,(H,26,33)(H,27,30)(H,31,32)/t18-,20+/m0/s1
#inchikey XBPWLKPUHTUZBZ
#Ion_Source LC-ESI
#Instrument qTof
#Compound_Source NIH Natural Product Library
#PI Dorrestein
#Data_Collector VVP/LMS
#Scan -1
#Precursor_MZ 450.214
#ExactMass 449.206
#Charge 1
#CAS_Number N/A
#Pubmed_ID N/A
#Smiles CC(C)C[C@H](NC(=O)N1CCn2c1nc3ccccc23)C(=O)N[C@@H](C(=O)O)c4ccccc4
#INCHI_AUX N/A
#Library_Class 1
#SpectrumID CCMSLIB00000079892
#IonMode Positive
#UpdateWorkflowName UPDATE-SINGLE-ANNOTATED-GOLD
#LibraryQualityString Gold
#TaskID b1d8e8f6646f4e71acdff9ca3d919d08
##Scan# 2023
#SpectrumFile p1-E12_GE12_01_17932.mzXML
#LibraryName NIH_Natural_Products_Library.mgf
#MQScore -1
#Organism NIH_Natural_Products_Library
#TIC_Query 0
#RT_Query -1
#MZErrorPPM -1
#SharedPeaks 0
#MassDiff 0
#LibMZ -1
#SpecMZ 450.214
#SpecCharge 0
#internalFilename spec-00000.mgf

>collision 0
105.0766 0.41
106.0998 3.01
107.0848 2.26
120.1029 1.02
132.0885 7.42
134.1157 0.67
143.1077 0.5
172.143 1.01
174.1839 0.54
185.1538 0.28
215.1632 1.11
217.2049 1.42
229.2259 0.74
245.2086 2.77
450.214 0.0
