>compound MLS001306413-01!Meloxicam71125-38-7
>formula C14H13N3O4S2
>ionization [M+H]+
>parentmass 352.044
#inchi InChI=1S/C14H13N3O4S2/c1-8-7-15-14(22-8)16-13(19)11-12(18)9-5-3-4-6-10(9)23(20,21)17(11)2/h3-7,18H,1-2H3,(H,15,16,19)
#inchikey ZRVUJXDFFKFLMG
#Ion_Source LC-ESI
#Instrument qTof
#Compound_Source NIH Pharmacologically Active Library
#PI Dorrestein
#Data_Collector VP/LMS
#Scan -1
#Precursor_MZ 352.044
#ExactMass 351.035
#Charge 1
#CAS_Number N/A
#Pubmed_ID N/A
#Smiles CN1/C(=C(/O)\c2ccccc2S1(=O)=O)/C(=O)Nc3ncc(C)s3
#INCHI_AUX N/A
#Library_Class 1
#SpectrumID CCMSLIB00000085195
#IonMode Positive
#UpdateWorkflowName UPDATE-SINGLE-ANNOTATED-GOLD
#LibraryQualityString Gold
#TaskID d252d724072548979f1f6f1ced849daf
##Scan# 2069
#SpectrumFile p3-F10_GF10_01_18291.mzXML
#LibraryName Pharm_Active_Library.mgf
#MQScore -1
#Organism Pharm_Active_Library
#TIC_Query 0
#RT_Query -1
#MZErrorPPM -1
#SharedPeaks 0
#MassDiff 0
#LibMZ -1
#SpecMZ 352.044
#SpecCharge 0
#internalFilename spec-00000.mgf

>collision 0
88.0228 0.52
97.0108 0.32
104.0494 0.32
105.033 1.01
109.0106 1.83
113.0158 1.58
114.0007 1.36
115.0324 100.0
118.0649 0.35
121.0289 0.42
127.0328 0.32
137.0054 1.71
141.0117 80.72
146.0601 0.96
152.9999 7.36
164.0161 1.08
184.0539 0.78
210.021 2.94
352.0473 0.0
