>compound MLS001140329-01!
>formula C30H34N4O4
>ionization [M+H]+
>parentmass 515.266
#inchi InChI=1S/C30H34N4O4/c1-17(2)14-24(28(35)31-16-18-8-7-13-38-18)33-29(36)25-15-22-19-9-5-6-12-23(19)32-26(22)27-20-10-3-4-11-21(20)30(37)34(25)27/h3-6,9-12,17-18,24-25,27,32H,7-8,13-16H2,1-2H3,(H,31,35)(H,33,36)/t18?,24-,25-,27?/m0/s1
#inchikey KRFNIBVBZRNIBR
#Ion_Source LC-ESI
#Instrument qTof
#Compound_Source NIH Natural Product Library
#PI Dorrestein
#Data_Collector VVP/LMS
#Scan -1
#Precursor_MZ 515.266
#ExactMass 514.258
#Charge 1
#CAS_Number N/A
#Pubmed_ID N/A
#Smiles CC(C)C[C@H](NC(=O)[C@@H]1Cc2c([nH]c3ccccc23)C4N1C(=O)c5ccccc45)C(=O)NCC6CCCO6
#INCHI_AUX N/A
#Library_Class 1
#SpectrumID CCMSLIB00000079660
#IonMode Positive
#UpdateWorkflowName UPDATE-SINGLE-ANNOTATED-GOLD
#LibraryQualityString Gold
#TaskID b1d8e8f6646f4e71acdff9ca3d919d08
##Scan# 2181
#SpectrumFile p1-E09_GE9_01_17929.mzXML
#LibraryName NIH_Natural_Products_Library.mgf
#MQScore -1
#Organism NIH_Natural_Products_Library
#TIC_Query 0
#RT_Query -1
#MZErrorPPM -1
#SharedPeaks 0
#MassDiff 0
#LibMZ -1
#SpecMZ 515.266
#SpecCharge 0
#internalFilename spec-00000.mgf

>collision 0
232.0719 0.25
244.0748 0.2
245.1073 2.29
247.0962 0.22
255.093 1.68
256.0966 1.63
271.0865 6.38
272.0904 2.66
273.1028 100.0
274.1051 19.53
275.1057 3.74
301.0969 2.39
302.1009 0.92
358.1945 0.24
368.1725 0.3
386.1835 3.2
515.2658 0.0
