>compound MLS001140980-01!4-[[2-(2-oxo-4-propylchromen-7-yl)oxypropanoylamino]methyl]cyclohexane-1-carboxylic acid
>formula C23H29NO6
>ionization [M+H]+
>parentmass 416.207
#inchi InChI=1S/C23H29NO6/c1-3-4-17-11-21(25)30-20-12-18(9-10-19(17)20)29-14(2)22(26)24-13-15-5-7-16(8-6-15)23(27)28/h9-12,14-16H,3-8,13H2,1-2H3,(H,24,26)(H,27,28)/t14?,15-,16-
#inchikey CKVHTTDFJBGBCN
#Ion_Source LC-ESI
#Instrument qTof
#Compound_Source NIH Natural Product Library
#PI Dorrestein
#Data_Collector VVP/LMS
#Scan -1
#Precursor_MZ 416.207
#ExactMass 415.199
#Charge 1
#CAS_Number N/A
#Pubmed_ID N/A
#Smiles CCCc1cc(=O)oc2cc(OC(C)C(=O)NC[C@H]3CC[C@@H](CC3)C(=O)O)ccc12
#INCHI_AUX N/A
#Library_Class 1
#SpectrumID CCMSLIB00000080496
#IonMode Positive
#UpdateWorkflowName UPDATE-SINGLE-ANNOTATED-GOLD
#LibraryQualityString Gold
#TaskID b1d8e8f6646f4e71acdff9ca3d919d08
##Scan# 1960
#SpectrumFile p2-G09_GG9_01_18057.mzXML
#LibraryName NIH_Natural_Products_Library.mgf
#MQScore -1
#Organism NIH_Natural_Products_Library
#TIC_Query 0
#RT_Query -1
#MZErrorPPM -1
#SharedPeaks 0
#MassDiff 0
#LibMZ -1
#SpecMZ 416.207
#SpecCharge 0
#internalFilename spec-00000.mgf

>collision 0
95.0855 7.97
105.0682 0.89
107.0495 1.31
110.0963 0.75
112.1117 3.02
119.0501 1.28
122.0981 1.27
123.0447 0.65
129.0697 0.7
131.0844 2.25
133.0649 2.23
135.0814 1.8
138.0895 1.91
138.1271 5.95
140.1074 19.08
145.063 0.86
147.0805 0.69
147.1153 1.02
148.051 1.46
152.1067 0.85
159.0792 0.96
160.0872 0.84
161.0591 2.1
163.0395 6.04
166.1229 1.45
167.1305 9.39
175.0396 1.88
175.0751 1.07
175.1113 2.65
176.0465 6.38
184.1327 2.87
187.0756 2.09
189.0558 16.72
203.1063 8.25
205.0869 100.0
231.1025 45.62
259.0963 1.9
276.1229 12.03
370.2019 9.75
416.2069 0.0
