>compound MLS001076472-01!57-66-9
>formula C13H19NO4S
>ionization [M+H]+
>parentmass 286.11
#inchi InChI=1S/C13H19NO4S/c1-3-9-14(10-4-2)19(17,18)12-7-5-11(6-8-12)13(15)16/h5-8H,3-4,9-10H2,1-2H3,(H,15,16)
#inchikey DBABZHXKTCFAPX
#Ion_Source LC-ESI
#Instrument qTof
#Compound_Source NIH Pharmacologically Active Library
#PI Dorrestein
#Data_Collector VP/LMS
#Scan -1
#Precursor_MZ 286.11
#ExactMass 285.103
#Charge 1
#CAS_Number N/A
#Pubmed_ID N/A
#Smiles CCCN(CCC)S(=O)(=O)c1ccc(cc1)C(=O)O
#INCHI_AUX N/A
#Library_Class 1
#SpectrumID CCMSLIB00000085057
#IonMode Positive
#UpdateWorkflowName UPDATE-SINGLE-ANNOTATED-GOLD
#LibraryQualityString Gold
#TaskID d252d724072548979f1f6f1ced849daf
##Scan# 2136
#SpectrumFile p3-E04_GE4_01_18273.mzXML
#LibraryName Pharm_Active_Library.mgf
#MQScore -1
#Organism Pharm_Active_Library
#TIC_Query 0
#RT_Query -1
#MZErrorPPM -1
#SharedPeaks 0
#MassDiff 0
#LibMZ -1
#SpecMZ 286.11
#SpecCharge 0
#internalFilename spec-00000.mgf

>collision 0
77.0594 15.61
93.0379 15.9
103.0192 25.43
105.0694 11.56
107.0165 15.32
108.0216 16.76
121.0276 83.53
128.0335 12.43
139.0399 24.57
160.1164 13.87
184.1172 13.29
184.9888 92.2
186.9914 22.83
202.0175 41.33
204.0317 12.14
286.11 0.0
