>compound MLS001165780-01!Fluconazole86386-73-4
>formula C13H12F2N6O
>ionization [M+H]+
>parentmass 307.111
#inchi InChI=1S/C13H12F2N6O/c14-10-1-2-11(12(15)3-10)13(22,4-20-8-16-6-18-20)5-21-9-17-7-19-21/h1-3,6-9,22H,4-5H2
#inchikey RFHAOTPXVQNOHP
#Ion_Source LC-ESI
#Instrument qTof
#Compound_Source NIH Pharmacologically Active Library
#PI Dorrestein
#Data_Collector VP/LMS
#Scan -1
#Precursor_MZ 307.111
#ExactMass 306.104
#Charge 1
#CAS_Number N/A
#Pubmed_ID N/A
#Smiles OC(Cn1cncn1)(Cn2cncn2)c3ccc(F)cc3F
#INCHI_AUX N/A
#Library_Class 1
#SpectrumID CCMSLIB00000085015
#IonMode Positive
#UpdateWorkflowName UPDATE-SINGLE-ANNOTATED-GOLD
#LibraryQualityString Gold
#TaskID d252d724072548979f1f6f1ced849daf
##Scan# 1399
#SpectrumFile p3-D09_GD9_01_18266.mzXML
#LibraryName Pharm_Active_Library.mgf
#MQScore -1
#Organism Pharm_Active_Library
#TIC_Query 0
#RT_Query -1
#MZErrorPPM -1
#SharedPeaks 0
#MassDiff 0
#LibMZ -1
#SpecMZ 307.111
#SpecCharge 0
#internalFilename spec-00000.mgf

>collision 0
91.0542 1.82
101.0383 10.08
107.0279 3.71
119.0282 6.49
119.0474 2.61
121.0448 36.84
127.0354 78.6
128.0373 5.82
139.0353 77.01
141.0146 19.32
141.05 37.62
142.0538 4.49
146.0384 2.32
147.0355 6.46
148.0414 2.32
151.035 80.45
152.0372 12.16
166.0446 5.85
169.0448 73.85
170.0474 6.95
173.0494 9.24
174.0579 2.61
193.0554 8.46
200.0615 13.32
220.0664 100.0
238.0763 38.29
307.1087 0.0
