>compound Ketoconazole
>formula C26H28Cl2N4O4
>ionization [M+H]+
>parentmass 531.156982
#inchi InChI=1S/C26H28Cl2N4O4/c1-19(33)31-10-12-32(13-11-31)21-3-5-22(6-4-21)34-15-23-16-35-26(36-23,17-30-9-8-29-18-30)24-7-2-20(27)14-25(24)28/h2-9,14,18,23H,10-13,15-17H2,1H3/t23-,26-/m0/s1
#inchikey XMAYWYJOQHXEEK
#Ion_Source LC-ESI
#Instrument qTof
#Compound_Source Commercial
#PI Dorrestein
#Data_Collector Garg_Neha
#Scan -1
#Precursor_MZ 531.156
#ExactMass 530.149
#Charge 1
#CAS_Number 65277-42-1, 142128-59-4
#Pubmed_ID N/A
#Smiles C1(=CC=C(C=C1)OC[C@@H]2O[C@@](OC2)(CN3C=CN=C3)C4=CC=C(C=C4Cl)Cl)N5CCN(CC5)C(=O)C
#INCHI_AUX N/A
#Library_Class 1
#SpectrumID CCMSLIB00000078111
#IonMode Positive
#UpdateWorkflowName UPDATE-SINGLE-ANNOTATED-GOLD
#LibraryQualityString Gold
#TaskID 77f51c88eb8b467eb4a01dd2d0cb90d2
##Scan# 1169
#SpectrumFile Plate2_21_40_GG6_01_16494.mzXML
#LibraryName FDALibrary_2_04302014.mgf
#MQScore -1
#Organism FDALibrary_2_04302014
#TIC_Query 0
#RT_Query -1
#MZErrorPPM -1
#SharedPeaks 0
#MassDiff 0
#LibMZ -1
#SpecMZ 531.156
#SpecCharge 0
#internalFilename spec-00000.mgf

>collision 0
112.0753 17.67
135.0683 23.99
136.0753 7.63
144.0784 6.32
145.0865 7.59
146.0952 8.58
148.0757 39.14
158.0951 7.56
158.976 8.98
163.1245 10.41
167.0816 24.28
172.0771 7.81
172.957 7.19
174.0908 35.41
177.1022 56.7
178.1095 23.29
184.9904 14.09
185.9624 19.79
189.1406 8.98
200.1062 10.99
209.035 7.67
216.102 29.1
217.1336 57.32
219.1128 83.94
220.1199 66.89
234.1106 14.75
235.1436 17.93
238.0067 21.1
244.0053 45.75
246.0018 33.81
255.0078 55.31
256.0133 7.08
259.1438 9.71
267.0081 19.5
268.0157 6.13
277.1544 5.95
282.0308 7.63
311.036 8.21
378.0634 7.63
420.0768 8.87
421.1054 11.35
446.1043 10.95
489.1448 100.0
490.146 29.35
492.1452 12.49
531.1568 1278.42
