>compound Nimesulide
>formula C13H12N2O5S
>ionization [M+H]+
>parentmass 309.054169
#inchi InChI=1S/C13H12N2O5S/c1-21(18,19)14-12-8-7-10(15(16)17)9-13(12)20-11-5-3-2-4-6-11/h2-9,14H,1H3
#inchikey HYWYRSMBCFDLJT
#Ion_Source LC-ESI
#Instrument qTof
#Compound_Source Commercial
#PI Dorrestein
#Data_Collector Garg_Neha
#Scan -1
#Precursor_MZ 309.054
#ExactMass 308.047
#Charge 1
#CAS_Number 51803-78-2
#Pubmed_ID N/A
#Smiles C1=CC(=CC(=C1NS(=O)(=O)C)OC2=CC=CC=C2)[N+](=O)[O-]
#INCHI_AUX N/A
#Library_Class 1
#SpectrumID CCMSLIB00000078405
#IonMode Positive
#UpdateWorkflowName UPDATE-SINGLE-ANNOTATED-GOLD
#LibraryQualityString Gold
#TaskID 77f51c88eb8b467eb4a01dd2d0cb90d2
##Scan# 1614
#SpectrumFile Plate6_41_60_GD9_01_15776.mzXML
#LibraryName FDALibrary_2_04302014.mgf
#MQScore -1
#Organism FDALibrary_2_04302014
#TIC_Query 0
#RT_Query -1
#MZErrorPPM -1
#SharedPeaks 0
#MassDiff 0
#LibMZ -1
#SpecMZ 309.054
#SpecCharge 0
#internalFilename spec-00000.mgf

>collision 0
128.0467 2.76
144.0449 2.7
144.0777 8.1
154.0644 37.7
155.0686 14.35
156.0766 15.43
166.064 2.88
182.058 11.34
183.0673 54.62
184.0735 16.03
186.0753 3.06
198.0551 3.9
200.0683 17.17
212.0562 3.72
213.0669 16.33
214.0718 9.78
215.0581 21.01
230.068 55.1
292.0508 100.0
309.0542 455.82
