>compound Dronedarone HCl (Multaq)
>formula C31H44N2O5S
>ionization [M+H]+
>parentmass 557.303894
#inchi InChI=1S/C31H44N2O5S/c1-5-8-12-29-30(27-23-25(32-39(4,35)36)15-18-28(27)38-29)31(34)24-13-16-26(17-14-24)37-22-11-21-33(19-9-6-2)20-10-7-3/h13-18,23,32H,5-12,19-22H2,1-4H3
#inchikey ZQTNQVWKHCQYLQ
#origInchi InChI=1S/C31H44N2O5S.ClH/c1-5-8-12-29-30(27-23-25(32-39(4,35)36)15-18-28(27)38-29)31(34)24-13-16-26(17-14-24)37-22-11-21-33(19-9-6-2)20-10-7-3;/h13-18,23,32H,5-12,19-22H2,1-4H3;1H
#Ion_Source LC-ESI
#Instrument qTof
#Compound_Source Commercial
#PI Dorrestein
#Data_Collector Garg_Neha
#Scan -1
#Precursor_MZ 557.304
#ExactMass 556.297
#Charge 1
#CAS_Number 141625-93-6
#Pubmed_ID N/A
#Smiles C1(=CC=C2C(=C1)C(=C(O2)CCCC)C(=O)C3=CC=C(C=C3)OCCCN(CCCC)CCCC)NS(=O)(C)=O.Cl
#INCHI_AUX N/A
#Library_Class 1
#SpectrumID CCMSLIB00000078444
#IonMode Positive
#UpdateWorkflowName UPDATE-SINGLE-ANNOTATED-GOLD
#LibraryQualityString Gold
#TaskID 77f51c88eb8b467eb4a01dd2d0cb90d2
##Scan# 1760
#SpectrumFile Plate7_1_20_GD2_01_15767.mzXML
#LibraryName FDALibrary_2_04302014.mgf
#MQScore -1
#Organism FDALibrary_2_04302014
#TIC_Query 0
#RT_Query -1
#MZErrorPPM -1
#SharedPeaks 0
#MassDiff 0
#LibMZ -1
#SpecMZ 557.304
#SpecCharge 0
#internalFilename spec-00000.mgf

>collision 0
100.1125 36.01
112.112 4.16
128.1418 12.74
142.061 4.52
142.1577 69.34
161.0587 3.97
166.0682 4.16
170.1892 32.69
190.0891 6.74
215.0935 6.37
238.0811 3.97
294.0818 24.01
295.0798 7.2
296.0903 4.16
309.138 4.89
321.1335 5.36
324.1549 4.16
325.1608 5.54
336.1591 8.86
338.1579 4.06
379.2034 8.22
380.2101 4.99
388.1192 4.8
393.2101 6.09
393.2408 5.91
394.2188 5.72
422.2516 6.37
435.2641 100.0
436.2689 39.24
437.2621 5.54
485.2426 4.34
501.2416 21.7
557.3072 1499.54
