>compound MLS001032120-01!
>formula C21H21N2S2
>ionization [M+H]+
>parentmass 366.12189212409055
#inchi InChI=1S/C21H21N2S2/c1-3-22-16-10-5-7-12-18(16)24-20(22)14-9-15-21-23(4-2)17-11-6-8-13-19(17)25-21/h5-15H,3-4H2,1-2H3/q+1
#inchikey JGLWGLKNDHZFAP
#origInchi InChI=1S/C21H21N2S2.HI/c1-3-22-16-10-5-7-12-18(16)24-20(22)14-9-15-21-23(4-2)17-11-6-8-13-19(17)25-21;/h5-15H,3-4H2,1-2H3;1H/q+1;/p-1
#Ion_Source LC-ESI
#Instrument qTof
#Compound_Source NIH Pharmacologically Active Library
#PI Dorrestein
#Data_Collector VP/LMS
#Scan -1
#Precursor_MZ 365.115
#ExactMass 365.115
#Charge 1
#CAS_Number N/A
#Pubmed_ID N/A
#Smiles CCN1/C(=C\C=C\c2sc3ccccc3[n+]2CC)/Sc4ccccc14.[I-]
#INCHI_AUX N/A
#Library_Class 1
#SpectrumID CCMSLIB00000085759
#IonMode Positive
#UpdateWorkflowName UPDATE-SINGLE-ANNOTATED-GOLD
#LibraryQualityString Gold
#TaskID d252d724072548979f1f6f1ced849daf
##Scan# 2057
#SpectrumFile p4-F02_GF2_01_18386.mzXML
#LibraryName Pharm_Active_Library.mgf
#MQScore -1
#Organism Pharm_Active_Library
#TIC_Query 0
#RT_Query -1
#MZErrorPPM -1
#SharedPeaks 0
#MassDiff 0
#LibMZ -1
#SpecMZ 365.115
#SpecCharge 0
#internalFilename spec-00000.mgf

>collision 0
109.0109 0.83
136.0214 2.43
148.0215 6.08
149.0297 13.17
150.0331 1.11
154.0646 0.78
160.0214 3.8
162.037 6.63
173.031 100.0
174.0349 30.18
175.0444 20.87
176.0489 2.38
185.0288 1.81
186.0383 70.21
187.0419 15.84
188.0541 93.18
198.0244 1.4
200.0522 4.76
201.0599 6.9
202.067 3.88
275.0629 1.09
281.02 0.69
295.0359 0.46
303.0941 1.0
306.0278 0.86
307.0365 39.14
321.0507 5.38
335.067 4.03
336.0763 57.81
337.0816 37.11
365.1158 52.17
366.1235 0.0
