>compound MLS000860077-01!R(+)-SCH-23390 hydrochloride
>formula C17H18ClNO
>ionization [M+H]+
>parentmass 288.114746
#inchi InChI=1S/C17H18ClNO/c1-19-8-7-13-9-16(18)17(20)10-14(13)15(11-19)12-5-3-2-4-6-12/h2-6,9-10,15,20H,7-8,11H2,1H3/t15-/m1/s1
#inchikey GOTMKOSCLKVOGG
#origInchi InChI=1S/C17H18ClNO.ClH/c1-19-8-7-13-9-16(18)17(20)10-14(13)15(11-19)12-5-3-2-4-6-12;/h2-6,9-10,15,20H,7-8,11H2,1H3;1H/t15-;/m1./s1
#Ion_Source LC-ESI
#Instrument qTof
#Compound_Source NIH Pharmacologically Active Library
#PI Dorrestein
#Data_Collector VP/LMS
#Scan -1
#Precursor_MZ 288.117
#ExactMass 287.108
#Charge 1
#CAS_Number N/A
#Pubmed_ID N/A
#Smiles CN1CCc2cc(Cl)c(O)cc2[C@H](C1)c3ccccc3.Cl
#INCHI_AUX N/A
#Library_Class 1
#SpectrumID CCMSLIB00000085887
#IonMode Positive
#UpdateWorkflowName UPDATE-SINGLE-ANNOTATED-GOLD
#LibraryQualityString Gold
#TaskID d252d724072548979f1f6f1ced849daf
##Scan# 1432
#SpectrumFile p4-G07_GG7_01_18403.mzXML
#LibraryName Pharm_Active_Library.mgf
#MQScore -1
#Organism Pharm_Active_Library
#TIC_Query 0
#RT_Query -1
#MZErrorPPM -1
#SharedPeaks 0
#MassDiff 0
#LibMZ -1
#SpecMZ 288.117
#SpecCharge 0
#internalFilename spec-00000.mgf

>collision 0
91.0545 48.17
103.0535 11.89
105.0699 36.61
115.0542 35.6
116.0614 10.86
120.0568 14.86
127.0305 5.28
129.0695 29.0
131.0492 24.69
132.0559 22.67
141.0099 50.04
143.0486 12.91
144.0569 98.65
147.0689 6.01
155.0253 52.53
160.0757 23.34
161.082 11.35
165.0698 12.05
167.0259 7.28
178.0766 31.31
179.0255 50.38
179.0847 10.34
181.0656 8.69
183.0434 7.82
193.0997 16.16
194.0729 8.69
195.0805 13.49
196.0521 27.18
203.0846 10.81
207.081 100.0
221.0969 29.41
222.1039 68.52
242.0489 5.66
257.0715 16.16
288.1155 95.4
