>compound MLS001076157-01!426-13-1
>formula C22H29FO4
>ionization [M+H]+
>parentmass 377.212
#inchi InChI=1S/C22H29FO4/c1-12-9-17-15-6-8-21(27,13(2)24)20(15,4)11-18(26)22(17,23)19(3)7-5-14(25)10-16(12)19/h5,7,10,12,15,17-18,26-27H,6,8-9,11H2,1-4H3/t12-,15-,17-,18-,19-,20-,21-,22-/m0/s1
#inchikey FAOZLTXFLGPHNG
#Ion_Source LC-ESI
#Instrument qTof
#Compound_Source NIH Pharmacologically Active Library
#PI Dorrestein
#Data_Collector VP/LMS
#Scan -1
#Precursor_MZ 377.212
#ExactMass 376.205
#Charge 1
#CAS_Number N/A
#Pubmed_ID N/A
#Smiles C[C@H]1C[C@H]2[C@@H]3CC[C@](O)(C(=O)C)[C@@]3(C)C[C@H](O)[C@]2(F)[C@@]4(C)C=CC(=O)C=C14
#INCHI_AUX N/A
#Library_Class 1
#SpectrumID CCMSLIB00000085002
#IonMode Positive
#UpdateWorkflowName UPDATE-SINGLE-ANNOTATED-GOLD
#LibraryQualityString Gold
#TaskID d252d724072548979f1f6f1ced849daf
##Scan# 1949
#SpectrumFile p3-D08_GD8_01_18265.mzXML
#LibraryName Pharm_Active_Library.mgf
#MQScore -1
#Organism Pharm_Active_Library
#TIC_Query 0
#RT_Query -1
#MZErrorPPM -1
#SharedPeaks 0
#MassDiff 0
#LibMZ -1
#SpecMZ 377.212
#SpecCharge 0
#internalFilename spec-00000.mgf

>collision 0
105.0709 29.2
107.0854 22.4
115.0543 13.06
119.0864 13.55
121.0646 48.73
128.0617 10.07
129.0708 8.97
131.0873 11.02
133.1007 12.24
135.0807 100.0
145.1016 13.23
146.0711 14.13
147.0802 22.07
157.1013 11.63
159.0814 24.0
161.0963 58.93
172.0882 8.64
173.0961 28.17
175.1117 8.39
179.0861 15.15
185.0964 32.8
195.0819 8.39
196.0883 9.87
197.0972 11.92
199.1121 16.38
209.0961 21.99
211.1137 13.47
213.1266 15.81
221.0969 10.73
222.1058 19.33
223.1108 28.01
227.1068 8.39
235.1137 15.97
236.1206 17.04
237.1281 41.28
249.1283 15.03
251.1452 20.97
263.1427 25.35
274.1369 9.3
277.1597 8.23
278.1671 11.06
377.2155 0.0
