>compound MLS001141251-01!(2S)-2-[[2-(6-oxobenzo[c]chromen-3-yl)oxyacetyl]amino]-3-phenylpropanoic acid
>formula C24H19NO6
>ionization [M+H]+
>parentmass 418.129
#inchi InChI=1S/C24H19NO6/c26-22(25-20(23(27)28)12-15-6-2-1-3-7-15)14-30-16-10-11-18-17-8-4-5-9-19(17)24(29)31-21(18)13-16/h1-11,13,20H,12,14H2,(H,25,26)(H,27,28)/t20-/m0/s1
#inchikey LSQXUGCOFZFINB
#Ion_Source LC-ESI
#Instrument qTof
#Compound_Source NIH Natural Product Library
#PI Dorrestein
#Data_Collector VVP/LMS
#Scan -1
#Precursor_MZ 418.129
#ExactMass 417.121
#Charge 1
#CAS_Number N/A
#Pubmed_ID N/A
#Smiles OC(=O)[C@H](Cc1ccccc1)NC(=O)COc2ccc3c(c2)oc(=O)c4ccccc43
#INCHI_AUX N/A
#Library_Class 1
#SpectrumID CCMSLIB00000079624
#IonMode Positive
#UpdateWorkflowName UPDATE-SINGLE-ANNOTATED-GOLD
#LibraryQualityString Gold
#TaskID b1d8e8f6646f4e71acdff9ca3d919d08
##Scan# 2105
#SpectrumFile p1-H08_GH8_01_17964.mzXML
#LibraryName NIH_Natural_Products_Library.mgf
#MQScore -1
#Organism NIH_Natural_Products_Library
#TIC_Query 0
#RT_Query -1
#MZErrorPPM -1
#SharedPeaks 0
#MassDiff 0
#LibMZ -1
#SpecMZ 418.129
#SpecCharge 0
#internalFilename spec-00000.mgf

>collision 0
103.0545 5.77
104.0494 1.38
105.0697 30.23
115.0543 9.07
117.0586 17.71
119.0732 1.22
120.0808 27.78
131.0487 1.23
132.0803 84.29
139.054 28.06
141.0697 9.07
150.09 1.23
152.0618 4.89
153.0686 21.49
157.0663 3.74
167.0495 100.0
169.0648 12.01
171.044 2.55
178.0852 1.06
184.0524 1.42
195.0441 32.85
197.0595 37.22
199.0406 1.88
212.0472 3.99
213.0536 4.73
225.0551 49.69
252.0662 1.28
280.0601 0.99
372.1216 1.36
418.1314 0.0
