>compound MLS000860041-01!2-Phenylaminoadenosine
>formula C16H18N6O4
>ionization [M+H]+
>parentmass 359.1462295080905
#inchi InChI=1S/C16H18N6O4/c17-13-10-14(21-16(20-13)19-8-4-2-1-3-5-8)22(7-18-10)15-12(25)11(24)9(6-23)26-15/h1-5,7,9,11-12,15,23-25H,6H2,(H3,17,19,20,21)/t9-,11-,12-,15-/m1/s1
#inchikey SCNILGOVBBRMBK
#Ion_Source LC-ESI
#Instrument qTof
#Compound_Source NIH Pharmacologically Active Library
#PI Dorrestein
#Data_Collector VP/LMS
#Scan -1
#Precursor_MZ 359.151
#ExactMass 358.139
#Charge 1
#CAS_Number N/A
#Pubmed_ID N/A
#Smiles Nc1nc(Nc2ccccc2)nc3n(cnc13)[C@@H]4O[C@H](CO)[C@@H](O)[C@H]4O
#INCHI_AUX N/A
#Library_Class 1
#SpectrumID CCMSLIB00000085643
#IonMode Positive
#UpdateWorkflowName UPDATE-SINGLE-ANNOTATED-GOLD
#LibraryQualityString Gold
#TaskID d252d724072548979f1f6f1ced849daf
##Scan# 1245
#SpectrumFile p4-D09_GD9_01_18369.mzXML
#LibraryName Pharm_Active_Library.mgf
#MQScore -1
#Organism Pharm_Active_Library
#TIC_Query 0
#RT_Query -1
#MZErrorPPM -1
#SharedPeaks 0
#MassDiff 0
#LibMZ -1
#SpecMZ 359.151
#SpecCharge 0
#internalFilename spec-00000.mgf

>collision 0
104.0496 2.27
107.035 1.24
129.0443 0.55
134.0464 0.51
183.0671 0.72
197.091 0.49
210.0773 70.15
212.0804 0.94
225.0854 0.53
227.1043 100.0
359.1455 1.54
