>compound MLS002153863-01!Atovaquone95233-18-4
>formula C22H19ClO3
>ionization [M+H]+
>parentmass 367.10954860009053
#inchi InChI=1S/C22H19ClO3/c23-16-11-9-14(10-12-16)13-5-7-15(8-6-13)19-20(24)17-3-1-2-4-18(17)21(25)22(19)26/h1-4,9-13,15,24H,5-8H2
#inchikey BSJMWHQBCZFXBR
#Ion_Source LC-ESI
#Instrument qTof
#Compound_Source NIH Pharmacologically Active Library
#PI Dorrestein
#Data_Collector VP/LMS
#Scan -1
#Precursor_MZ 367.115
#ExactMass 366.102
#Charge 1
#CAS_Number N/A
#Pubmed_ID N/A
#Smiles OC1=C(C2CCC(CC2)c3ccc(Cl)cc3)C(=O)C(=O)c4ccccc14
#INCHI_AUX N/A
#Library_Class 1
#SpectrumID CCMSLIB00000086056
#IonMode Positive
#UpdateWorkflowName UPDATE-SINGLE-ANNOTATED-GOLD
#LibraryQualityString Gold
#TaskID d252d724072548979f1f6f1ced849daf
##Scan# 2891
#SpectrumFile p5-C04_GC4_01_18449.mzXML
#LibraryName Pharm_Active_Library.mgf
#MQScore -1
#Organism Pharm_Active_Library
#TIC_Query 0
#RT_Query -1
#MZErrorPPM -1
#SharedPeaks 0
#MassDiff 0
#LibMZ -1
#SpecMZ 367.115
#SpecCharge 0
#internalFilename spec-00000.mgf

>collision 0
103.055 14.52
105.0351 12.81
115.0553 44.32
116.0621 8.37
117.0681 7.51
125.0152 100.0
128.0632 10.76
129.0703 11.36
130.0775 8.37
131.0489 16.99
143.0507 38.34
145.0663 9.74
151.0329 18.96
152.062 9.48
157.0641 9.56
158.0724 8.2
159.045 86.93
165.0718 14.69
166.0797 10.33
167.0875 7.86
171.0446 38.51
173.061 21.26
181.065 11.27
183.0421 17.93
187.0387 46.63
189.0534 59.86
191.0871 11.61
194.0732 11.19
195.0819 7.94
197.0594 26.81
214.0628 8.71
219.0794 13.07
227.0684 10.67
255.1016 15.88
307.0528 7.34
367.1092 0.0
