>compound Avobenzone
>formula C20H22O3
>ionization [M+H]+
>parentmass 311.1641710160905
#inchi InChI=1S/C20H22O3/c1-20(2,3)16-9-5-14(6-10-16)18(21)13-19(22)15-7-11-17(23-4)12-8-15/h5-12H,13H2,1-4H3
#inchikey XNEFYCZVKIDDMS
#Ion_Source ESI
#Instrument Q-TOF
#Compound_Source Cosmetic _raw meterial
#PI Dorrestein
#Data_Collector Amina
#Scan -1
#Precursor_MZ 311.165
#ExactMass 310.157
#Charge 1
#CAS_Number N/A
#Pubmed_ID N/A
#Smiles CC(C)(C)C1=CC=C(C=C1)C(=O)CC(=O)C2=CC=C(C=C2)OC
#INCHI_AUX N/A
#Library_Class 2
#SpectrumID CCMSLIB00000077204
#IonMode Positive
#UpdateWorkflowName UPDATE-SINGLE-ANNOTATED-SILVER
#LibraryQualityString Silver
#TaskID 9bb88c04c6204bd4ae13def29ea30c87
##Scan# 2401
#SpectrumFile Avobenzone.mzXML
#LibraryName gnps_library.mgf
#MQScore -1
#Organism Standards_Silver
#TIC_Query 0
#RT_Query -1
#MZErrorPPM -1
#SharedPeaks 0
#MassDiff 0
#LibMZ -1
#SpecMZ 311.165
#SpecCharge 0
#internalFilename spec-00000.mgf

>collision 0
91.0537 5.37
92.0261 9.29
103.055 3.01
105.0688 6.09
117.0685 3.34
118.0766 8.7
125.0602 3.47
129.0689 3.4
130.0787 3.21
131.0482 2.95
131.0856 2.42
135.0447 100.0
146.0715 8.84
161.0968 71.14
203.1068 2.68
311.1666 16.36
