>compound MLS000860076-01!L-701,324
>formula C21H14ClNO3
>ionization [M+H]+
>parentmass 364.075165
#inchi InChI=1S/C21H14ClNO3/c22-14-9-10-17-18(12-14)23-21(25)19(20(17)24)13-5-4-8-16(11-13)26-15-6-2-1-3-7-15/h1-12H,(H2,23,24,25)
#inchikey FLVRDMUHUXVRET
#Ion_Source LC-ESI
#Instrument qTof
#Compound_Source NIH Pharmacologically Active Library
#PI Dorrestein
#Data_Collector VP/LMS
#Scan -1
#Precursor_MZ 364.076
#ExactMass 363.066
#Charge 1
#CAS_Number N/A
#Pubmed_ID N/A
#Smiles Oc1nc2cc(Cl)ccc2c(O)c1c3cccc(Oc4ccccc4)c3
#INCHI_AUX N/A
#Library_Class 1
#SpectrumID CCMSLIB00000085993
#IonMode Positive
#UpdateWorkflowName UPDATE-SINGLE-ANNOTATED-GOLD
#LibraryQualityString Gold
#TaskID d252d724072548979f1f6f1ced849daf
##Scan# 2238
#SpectrumFile p5-A03_GA3_01_18432.mzXML
#LibraryName Pharm_Active_Library.mgf
#MQScore -1
#Organism Pharm_Active_Library
#TIC_Query 0
#RT_Query -1
#MZErrorPPM -1
#SharedPeaks 0
#MassDiff 0
#LibMZ -1
#SpecMZ 364.076
#SpecCharge 0
#internalFilename spec-00000.mgf

>collision 0
126.0115 5.53
141.0697 2.95
154.0069 58.04
155.087 3.52
165.0696 3.26
179.074 2.87
180.0819 2.0
181.0659 11.01
183.0805 5.63
190.066 11.76
197.0615 3.76
206.0614 2.17
207.0681 8.26
208.0747 1.99
214.043 5.48
224.0271 8.0
225.0342 5.89
230.0374 3.29
235.064 6.17
240.0216 7.36
241.0274 2.74
242.0356 7.43
252.0219 7.51
253.0306 100.0
254.0974 5.1
255.1022 2.95
258.0303 2.87
269.0253 3.12
270.0336 75.11
271.0383 20.85
282.0923 7.98
283.0991 12.55
293.0854 3.06
310.0851 5.8
311.0941 12.71
318.0671 7.05
328.0533 2.68
346.0633 17.38
364.0752 99.08
