>compound MLS001076684-01!
>formula C27H36N2O4
>ionization [M+H]+
>parentmass 453.273041
#inchi InChI=1S/C27H36N2O4/c1-4-33-25-17-20(12-13-22(25)27(31)32)18-26(30)28-23(16-19(2)3)21-10-6-7-11-24(21)29-14-8-5-9-15-29/h6-7,10-13,17,19,23H,4-5,8-9,14-16,18H2,1-3H3,(H,28,30)(H,31,32)/t23-/m0/s1
#inchikey FAEKWTJYAYMJKF
#Ion_Source LC-ESI
#Instrument qTof
#Compound_Source NIH Pharmacologically Active Library
#PI Dorrestein
#Data_Collector VP/LMS
#Scan -1
#Precursor_MZ 453.286
#ExactMass 452.268
#Charge 1
#CAS_Number N/A
#Pubmed_ID N/A
#Smiles CCOc1cc(CC(=O)N[C@@H](CC(C)C)c2ccccc2N3CCCCC3)ccc1C(=O)O
#INCHI_AUX N/A
#Library_Class 1
#SpectrumID CCMSLIB00000085518
#IonMode Positive
#UpdateWorkflowName UPDATE-SINGLE-ANNOTATED-GOLD
#LibraryQualityString Gold
#TaskID d252d724072548979f1f6f1ced849daf
##Scan# 1892
#SpectrumFile p4-C02_GC2_01_18350.mzXML
#LibraryName Pharm_Active_Library.mgf
#MQScore -1
#Organism Pharm_Active_Library
#TIC_Query 0
#RT_Query -1
#MZErrorPPM -1
#SharedPeaks 0
#MassDiff 0
#LibMZ -1
#SpecMZ 453.286
#SpecCharge 0
#internalFilename spec-00000.mgf

>collision 0
105.0333 0.44
106.0653 3.36
117.0576 1.16
118.0652 5.35
119.0683 0.54
120.0805 1.8
130.0652 4.6
131.0727 2.87
132.0805 4.66
133.0857 0.63
134.0943 0.24
143.0749 0.27
144.0807 3.94
145.0875 2.45
146.0968 19.02
147.0999 2.33
151.0392 0.39
158.0961 3.99
159.1035 3.15
160.112 2.69
161.0234 0.34
161.0591 0.33
161.1176 0.43
162.1284 34.28
172.1126 11.26
173.1187 4.7
174.1289 52.28
175.1311 10.24
179.0703 3.53
186.1281 1.94
187.1338 1.03
188.1433 1.54
189.0545 1.87
202.1589 4.4
203.1629 0.54
207.0651 0.57
228.1747 0.92
231.195 64.96
292.1544 1.28
453.2746 1.08
