>compound MLS001146928-01!HYDROCORTISONE HEMISUCCINATE
>formula C25H34O8
>ionization [M+H]+
>parentmass 463.23349
#inchi InChI=1S/C25H34O8/c1-23-9-7-15(26)11-14(23)3-4-16-17-8-10-25(32,24(17,2)12-18(27)22(16)23)19(28)13-33-21(31)6-5-20(29)30/h11,16-18,22,27,32H,3-10,12-13H2,1-2H3,(H,29,30)/t16-,17-,18-,22+,23-,24-,25-/m0/s1
#inchikey VWQWXZAWFPZJDA
#Ion_Source LC-ESI
#Instrument qTof
#Compound_Source NIH Pharmacologically Active Library
#PI Dorrestein
#Data_Collector VP/LMS
#Scan -1
#Precursor_MZ 463.231
#ExactMass 462.225
#Charge 1
#CAS_Number N/A
#Pubmed_ID N/A
#Smiles C[C@@]12C[C@H](O)[C@H]3[C@@H](CCC4=CC(=O)CC[C@]34C)[C@@H]2CC[C@]1(O)C(=O)COC(=O)CCC(=O)O
#INCHI_AUX N/A
#Library_Class 1
#SpectrumID CCMSLIB00000085212
#IonMode Positive
#UpdateWorkflowName UPDATE-SINGLE-ANNOTATED-GOLD
#LibraryQualityString Gold
#TaskID d252d724072548979f1f6f1ced849daf
##Scan# 1862
#SpectrumFile p3-G02_GG2_01_18295.mzXML
#LibraryName Pharm_Active_Library.mgf
#MQScore -1
#Organism Pharm_Active_Library
#TIC_Query 0
#RT_Query -1
#MZErrorPPM -1
#SharedPeaks 0
#MassDiff 0
#LibMZ -1
#SpecMZ 463.231
#SpecCharge 0
#internalFilename spec-00000.mgf

>collision 0
105.0691 21.34
107.0837 26.99
109.0638 44.34
119.0842 59.13
121.0643 100.0
123.08 29.31
129.0699 32.13
131.0856 39.2
133.1013 30.98
135.0806 29.82
143.0841 71.59
145.0998 41.39
147.0797 32.01
155.0853 36.5
157.0997 62.72
159.1167 44.86
163.1102 54.88
171.1164 38.95
181.1012 22.11
183.1168 24.81
185.1326 46.02
193.1009 31.88
209.1338 27.89
221.1328 30.33
223.1464 22.37
225.1258 34.19
225.1632 28.79
227.1408 30.21
241.1566 95.5
251.1415 26.09
253.1567 29.05
281.1878 40.62
291.1737 21.85
309.183 64.27
463.2322 4.11
