>compound MLS001142738-01!
>formula C25H26N4O3
>ionization [M+H]+
>parentmass 431.208
#inchi InChI=1S/C25H26N4O3/c1-15-8-10-17(11-9-15)14-26-22(30)16(2)29-23(31)25(3)21-19(12-13-28(25)24(29)32)18-6-4-5-7-20(18)27-21/h4-11,16,27H,12-14H2,1-3H3,(H,26,30)/t16-,25-/m0/s1
#inchikey QFKOZHNKLSMVDN
#Ion_Source LC-ESI
#Instrument qTof
#Compound_Source NIH Natural Product Library
#PI Dorrestein
#Data_Collector VVP/LMS
#Scan -1
#Precursor_MZ 431.208
#ExactMass 430.201
#Charge 1
#CAS_Number N/A
#Pubmed_ID N/A
#Smiles C[C@H](N1C(=O)N2CCc3c([nH]c4ccccc34)[C@@]2(C)C1=O)C(=O)NCc5ccc(C)cc5
#INCHI_AUX N/A
#Library_Class 1
#SpectrumID CCMSLIB00000080057
#IonMode Positive
#UpdateWorkflowName UPDATE-SINGLE-ANNOTATED-GOLD
#LibraryQualityString Gold
#TaskID b1d8e8f6646f4e71acdff9ca3d919d08
##Scan# 2339
#SpectrumFile p2-E03_GE3_01_18027.mzXML
#LibraryName NIH_Natural_Products_Library.mgf
#MQScore -1
#Organism NIH_Natural_Products_Library
#TIC_Query 0
#RT_Query -1
#MZErrorPPM -1
#SharedPeaks 0
#MassDiff 0
#LibMZ -1
#SpecMZ 431.208
#SpecCharge 0
#internalFilename spec-00000.mgf

>collision 0
103.0548 7.99
105.0708 100.0
131.0867 1.46
144.0812 5.57
156.0803 1.64
168.0803 2.87
169.075 0.74
170.0967 0.5
183.0917 6.36
184.0994 1.53
185.1085 11.08
197.1073 0.82
211.0873 13.94
213.1003 1.63
239.0828 2.22
254.1301 55.5
256.1089 6.25
282.1252 8.78
289.1711 1.63
317.1642 0.5
358.1932 4.37
386.1857 2.52
431.208 0.0
