>compound NCGC00160283-01!1-(8-Quinolinyl)-beta-carboline
>formula C20H13N3
>ionization [M+H]+
>parentmass 296.118866
#inchi InChI=1S/C20H13N3/c1-2-9-17-14(7-1)15-10-12-22-19(20(15)23-17)16-8-3-5-13-6-4-11-21-18(13)16/h1-12,23H
#inchikey JDCUZDZHEYRJMU
#Ion_Source LC-ESI
#Instrument qTOF
#Compound_Source Prestwick Phytochem Lib
#PI Dorrestein
#Data_Collector VVP/LMS
#Scan -1
#Precursor_MZ 296.119
#ExactMass 295.111
#Charge 1
#CAS_Number N/A
#Pubmed_ID N/A
#Smiles N1C2=CC=CC=C2C3=C1C(=NC=C3)C4=CC=CC5=CC=CN=C45
#INCHI_AUX N/A
#Library_Class 1
#SpectrumID CCMSLIB00000078705
#IonMode Positive
#UpdateWorkflowName UPDATE-SINGLE-ANNOTATED-GOLD
#LibraryQualityString Gold
#TaskID 67c915c6594c435cadc1fe2b5358144d
##Scan# 1632
#SpectrumFile p1-E02_GE2_01_17922.mzXML
#LibraryName phytochem_lib.mgf
#MQScore -1
#Organism phytochem_lib
#TIC_Query 0
#RT_Query -1
#MZErrorPPM -1
#SharedPeaks 0
#MassDiff 0
#LibMZ -1
#SpecMZ 296.119
#SpecCharge 0
#internalFilename spec-00000.mgf

>collision 0
113.0387 0.99
115.055 86.92
130.0648 6.31
140.0497 51.61
142.0648 21.57
167.0608 100.0
169.0747 1.3
241.0887 1.7
268.0995 12.81
269.107 14.69
279.0916 3.62
281.0958 3.99
295.1091 16.63
296.1194 603.96
