>compound Niflumic acid
>formula C13H9F3N2O2
>ionization [M+H]+
>parentmass 283.06888864009056
#inchi InChI=1S/C13H9F3N2O2/c14-13(15,16)8-3-1-4-9(7-8)18-11-10(12(19)20)5-2-6-17-11/h1-7H,(H,17,18)(H,19,20)
#inchikey JZFPYUNJRRFVQU
#Ion_Source LC-ESI
#Instrument qTof
#Compound_Source Commercial
#PI Dorrestein
#Data_Collector Garg_Neha
#Scan -1
#Precursor_MZ 283.069
#ExactMass 282.062
#Charge 1
#CAS_Number 4394-00-7, 54821-89-5 (sodium salt)
#Pubmed_ID N/A
#Smiles C1(C(=CC=CN=1)C(=O)O)NC2C=C(C=CC=2)C(F)(F)F
#INCHI_AUX N/A
#Library_Class 1
#SpectrumID CCMSLIB00000078537
#IonMode Positive
#UpdateWorkflowName UPDATE-SINGLE-ANNOTATED-GOLD
#LibraryQualityString Gold
#TaskID 77f51c88eb8b467eb4a01dd2d0cb90d2
##Scan# 1821
#SpectrumFile Plate9_81_88_Plate8_81_88_GC8_01_15759.mzXML
#LibraryName FDALibrary_2_04302014.mgf
#MQScore -1
#Organism FDALibrary_2_04302014
#TIC_Query 0
#RT_Query -1
#MZErrorPPM -1
#SharedPeaks 0
#MassDiff 0
#LibMZ -1
#SpecMZ 283.069
#SpecCharge 0
#internalFilename spec-00000.mgf

>collision 0
168.0674 1.91
196.0627 3.18
217.0571 3.28
237.0629 1.75
245.0523 22.38
263.0622 1.29
265.0596 100.0
283.0711 77.82
