>compound Nicorandil (Ikorel)
>formula C8H9N3O4
>ionization [M+H]+
>parentmass 212.067
#inchi InChI=1S/C8H9N3O4/c12-8(7-2-1-3-9-6-7)10-4-5-15-11(13)14/h1-3,6H,4-5H2,(H,10,12)
#inchikey LBHIOVVIQHSOQN
#Ion_Source LC-ESI
#Instrument qTof
#Compound_Source Commercial
#PI Dorrestein
#Data_Collector Garg_Neha
#Scan -1
#Precursor_MZ 212.067
#ExactMass 211.059
#Charge 1
#CAS_Number 65141-46-0
#Pubmed_ID N/A
#Smiles C1=CN=CC(=C1)C(=O)NCCO[N+]([O-])=O
#INCHI_AUX N/A
#Library_Class 1
#SpectrumID CCMSLIB00000078364
#IonMode Positive
#UpdateWorkflowName UPDATE-SINGLE-ANNOTATED-GOLD
#LibraryQualityString Gold
#TaskID 77f51c88eb8b467eb4a01dd2d0cb90d2
##Scan# 602
#SpectrumFile Plate6_1_20_GD7_01_15774.mzXML
#LibraryName FDALibrary_2_04302014.mgf
#MQScore -1
#Organism FDALibrary_2_04302014
#TIC_Query 0
#RT_Query -1
#MZErrorPPM -1
#SharedPeaks 0
#MassDiff 0
#LibMZ -1
#SpecMZ 212.067
#SpecCharge 0
#internalFilename spec-00000.mgf

>collision 0
93.0556 7.05
107.0363 37.07
135.0526 25.32
136.0629 100.0
168.0522 39.78
212.067 0.0
