>compound MLS001165781-01!OLANZAPINE
>formula C17H20N4S
>ionization [M+H]+
>parentmass 313.14814409209055
#inchi InChI=1S/C17H20N4S/c1-12-11-13-16(21-9-7-20(2)8-10-21)18-14-5-3-4-6-15(14)19-17(13)22-12/h3-6,11,19H,7-10H2,1-2H3
#inchikey KVWDHTXUZHCGIO
#Ion_Source LC-ESI
#Instrument qTof
#Compound_Source NIH Pharmacologically Active Library
#PI Dorrestein
#Data_Collector VP/LMS
#Scan -1
#Precursor_MZ 313.151
#ExactMass 312.141
#Charge 1
#CAS_Number N/A
#Pubmed_ID N/A
#Smiles CN1CCN(CC1)C2=Nc3ccccc3Nc4sc(C)cc24
#INCHI_AUX N/A
#Library_Class 1
#SpectrumID CCMSLIB00000085795
#IonMode Positive
#UpdateWorkflowName UPDATE-SINGLE-ANNOTATED-GOLD
#LibraryQualityString Gold
#TaskID d252d724072548979f1f6f1ced849daf
##Scan# 1163
#SpectrumFile p4-F07_GF7_01_18391.mzXML
#LibraryName Pharm_Active_Library.mgf
#MQScore -1
#Organism Pharm_Active_Library
#TIC_Query 0
#RT_Query -1
#MZErrorPPM -1
#SharedPeaks 0
#MassDiff 0
#LibMZ -1
#SpecMZ 313.151
#SpecCharge 0
#internalFilename spec-00000.mgf

>collision 0
148.0187 0.81
185.0259 1.18
186.0347 6.83
198.0222 34.24
200.0494 2.21
201.0435 0.94
211.0324 2.1
212.0377 7.53
213.0461 30.94
215.0607 2.77
222.1012 4.65
227.0616 3.91
240.0594 1.57
241.0636 2.86
242.0725 0.95
248.1199 0.81
254.0759 1.72
255.0825 1.46
256.0902 100.0
257.0926 12.63
282.1049 16.73
313.1476 8.4
