>compound Felbamate
>formula C11H14N2O4
>ionization [M+H]+
>parentmass 239.103
#inchi InChI=1S/C11H14N2O4/c12-10(14)16-6-9(7-17-11(13)15)8-4-2-1-3-5-8/h1-5,9H,6-7H2,(H2,12,14)(H2,13,15)
#inchikey WKGXYQFOCVYPAC
#Ion_Source LC-ESI
#Instrument qTof
#Compound_Source Commercial
#PI Dorrestein
#Data_Collector Garg_Neha
#Scan -1
#Precursor_MZ 239.103
#ExactMass 238.095
#Charge 1
#CAS_Number 25451-15-4, 1177501-39-1 (H2O)
#Pubmed_ID N/A
#Smiles C1=CC=CC=C1C(COC(N)=O)COC(N)=O
#INCHI_AUX N/A
#Library_Class 1
#SpectrumID CCMSLIB00000078100
#IonMode Positive
#UpdateWorkflowName UPDATE-SINGLE-ANNOTATED-GOLD
#LibraryQualityString Gold
#TaskID 77f51c88eb8b467eb4a01dd2d0cb90d2
##Scan# 1096
#SpectrumFile Plate2_21_40_GG6_01_16494.mzXML
#LibraryName FDALibrary_2_04302014.mgf
#MQScore -1
#Organism FDALibrary_2_04302014
#TIC_Query 0
#RT_Query -1
#MZErrorPPM -1
#SharedPeaks 0
#MassDiff 0
#LibMZ -1
#SpecMZ 239.103
#SpecCharge 0
#internalFilename spec-00000.mgf

>collision 0
115.0544 17.04
117.0699 100.0
118.0737 4.86
132.9911 2.43
163.9984 2.12
178.0867 55.36
239.103 0.0
