>compound Napsamycin C
>formula C39H50N8O12S 
>ionization [M+H]+
>parentmass 855.3341664920905
#inchi InChI=1S/C39H50N8O12S/c1-20(46(2)35(54)28-16-23-15-25(49)8-7-22(23)18-40-28)32(34(53)41-19-26-17-30(50)36(59-26)47-11-9-31(51)44-39(47)58)45-33(52)27(10-12-60-3)42-38(57)43-29(37(55)56)14-21-5-4-6-24(48)13-21/h4-8,13,15,19-20,27-30,32,36,40,48-50H,9-12,14,16-18H2,1-3H3,(H,41,53)(H,45,52)(H,55,56)(H2,42,43,57)(H,44,51,58)/b26-19-
#inchikey MFEPAAMYDYMBSN
#Ion_Source LC-ESI
#Instrument LTQ-FTICR
#Compound_Source Isolated
#PI Dorrestein
#Data_Collector Peng
#Scan -1
#Precursor_MZ 855.0
#ExactMass 854.327
#Charge 1
#CAS_Number N/A
#Pubmed_ID ChemSpider ID:?2301529
#Smiles N/A
#INCHI_AUX N/A
#Library_Class 2
#SpectrumID CCMSLIB00000075016
#IonMode Positive
#UpdateWorkflowName UPDATE-SINGLE-ANNOTATED-SILVER
#LibraryQualityString Silver
#TaskID 57d156df513b468a82f4fc631178998b
##Scan# 1
#SpectrumFile 1303_855.mzXML
#LibraryName gnps_library.mgf
#MQScore -1
#Organism compounds from Streptomyces roseosporus
#TIC_Query 0
#RT_Query -1
#MZErrorPPM -1
#SharedPeaks 0
#MassDiff 0
#LibMZ -1
#SpecMZ 855
#SpecCharge 0
#internalFilename spec-00000.mgf

>collision 0
300.1381 0.99
392.1897 0.93
422.2273 2.22
442.2349 0.97
447.0233 0.91
455.2119 0.89
473.276 1.61
480.1226 0.77
481.197 1.11
497.1796 2.88
498.2694 1.14
499.1902 8.97
515.2934 0.82
516.2591 0.78
517.2464 1.59
534.2717 3.52
560.2299 14.53
587.3336 4.17
610.2259 1.24
628.2466 4.3
629.1972 0.97
646.3419 6.22
647.2335 3.73
648.2225 18.21
649.2607 1.16
654.1183 1.84
655.2006 0.97
672.207 36.08
673.2103 20.09
674.2059 100.0
675.2067 3.59
680.1979 8.66
688.1582 4.03
689.2357 2.01
690.1997 3.53
713.1652 3.42
723.2532 3.65
735.227 0.81
739.2781 0.8
741.1593 33.63
855.3341 0.0
