>compound Tebipenem pivoxil (L-084)
>formula C22H31N3O6S2
>ionization [M+H]+
>parentmass 498.172791
#inchi InChI=1S/C22H31N3O6S2/c1-11-15-14(12(2)26)18(27)25(15)16(19(28)30-10-31-20(29)22(3,4)5)17(11)33-13-8-24(9-13)21-23-6-7-32-21/h11-15,26H,6-10H2,1-5H3/t11-,12+,14+,15-/m0/s1
#inchikey SNUDIPVBUUXCDG
#Ion_Source LC-ESI
#Instrument qTof
#Compound_Source Commercial
#PI Dorrestein
#Data_Collector Garg_Neha
#Scan -1
#Precursor_MZ 498.173
#ExactMass 497.165
#Charge 1
#CAS_Number 161715-24-8, 211558-19-9 (HCL)
#Pubmed_ID N/A
#Smiles [C@]1(C(N2[C@]1([C@@H](C(=C2C(OCOC(C(C)(C)C)=O)=O)SC3CN(C3)C4SCCN=4)C)[H])=O)([C@@H](C)O)[H]
#INCHI_AUX N/A
#Library_Class 1
#SpectrumID CCMSLIB00000078456
#IonMode Positive
#UpdateWorkflowName UPDATE-SINGLE-ANNOTATED-GOLD
#LibraryQualityString Gold
#TaskID 77f51c88eb8b467eb4a01dd2d0cb90d2
##Scan# 1105
#SpectrumFile Plate7_21_40_GD3_01_15768.mzXML
#LibraryName FDALibrary_2_04302014.mgf
#MQScore -1
#Organism FDALibrary_2_04302014
#TIC_Query 0
#RT_Query -1
#MZErrorPPM -1
#SharedPeaks 0
#MassDiff 0
#LibMZ -1
#SpecMZ 498.173
#SpecCharge 0
#internalFilename spec-00000.mgf

>collision 0
115.0326 4.21
119.0695 2.81
139.0339 6.05
140.0165 10.48
141.0482 48.81
142.0572 23.81
143.0631 7.56
144.0682 3.89
150.0383 5.51
152.0536 19.22
153.0563 5.62
155.0448 3.56
168.0469 3.62
169.0441 4.1
170.0244 4.75
173.0202 9.61
174.047 4.27
175.0326 2.97
192.0552 2.92
196.0434 17.93
198.0609 4.05
207.0745 3.19
254.0778 26.57
255.0841 3.19
256.0696 3.24
272.07 3.19
280.0569 94.87
281.0599 15.93
282.0595 8.15
298.0668 100.0
299.0697 16.74
300.0594 13.07
366.094 10.1
382.1272 15.82
384.1058 41.79
385.1122 10.1
413.1334 4.27
424.1696 11.07
425.1835 3.56
440.1698 5.62
450.1683 2.97
468.1625 16.31
469.1704 3.89
470.1569 3.67
471.1609 2.92
498.1711 316.04
