>compound CefditorenPivoxil
>formula C25H28N6O7S3 
>ionization [M+H]+
>parentmass 621.1254366880905
#inchi InChI=1S/C25H28N6O7S3/c1-12-15(41-10-27-12)7-6-13-8-39-21-17(29-19(32)16(30-36-5)14-9-40-24(26)28-14)20(33)31(21)18(13)22(34)37-11-38-23(35)25(2,3)4/h6-7,9-10,17,21H,8,11H2,1-5H3,(H2,26,28)(H,29,32)/b7-6-,30-16-/t17-,21-/m1/s1
#inchikey AFZFFLVORLEPPO
#Ion_Source LC-ESI
#Instrument qTof
#Compound_Source Isolated
#PI Sirenas
#Data_Collector Ed Esquenazi 
#Scan -1
#Precursor_MZ 621.125
#ExactMass 0.0
#Charge 1
#CAS_Number N/A
#Pubmed_ID N/A
#Smiles N/A
#INCHI_AUX N/A
#Library_Class 3
#SpectrumID CCMSLIB00000004868
#IonMode Positive
#UpdateWorkflowName UPDATE-SINGLE-ANNOTATED-BRONZE
#LibraryQualityString Bronze
#TaskID d19310cd93df49b68e9fcbec27720eb5
##Scan# 13
#SpectrumFile CefditorenPivoxil.mgf
#LibraryName fda_library.mgf
#MQScore -1
#Organism fda_library
#TIC_Query 0
#RT_Query -1
#MZErrorPPM -1
#SharedPeaks 0
#MassDiff 0
#LibMZ -1
#SpecMZ 621.125
#SpecCharge 0
#internalFilename spec-00000.mgf

>collision 0
201.0423 29.51
241.041 100.0
249.0116 77.53
381.0923 40.48
419.994 12.88
448.0187 8.79
461.0441 20.32
507.0525 9.63
541.1265 5.22
564.0848 11.52
592.1153 3.61
593.1252 3.35
621.1227 596.9
