>compound 5,6-dihydro-5-hydroxy-1-[(2E)-1-oxo-3-(3,4,5-trimethoxyphenyl)-2-propen-1-yl]-2(1H)-Pyridinone
>formula C17H19NO6
>ionization [M+Na]+
>parentmass 356.11045802809053
#inchi InChI=1S/C17H19NO6/c1-22-13-8-11(9-14(23-2)17(13)24-3)4-6-15(20)18-10-12(19)5-7-16(18)21/h4-9,12,19H,10H2,1-3H3/b6-4+
#inchikey OJRCBJBIGZHIRA
#Ion_Source DI-ESI
#Instrument qTof
#Compound_Source Isolated
#PI Norberto Lopes
#Data_Collector Monica Pupo
#Scan -1
#Precursor_MZ 356.09
#ExactMass 333.121
#Charge 1
#CAS_Number 1603829-47-5
#Pubmed_ID N/A
#Smiles O=C(N1CC(O)C=CC1=O)/C=C/C2=CC(OC)=C(OC)C(OC)=C2
#INCHI_AUX N/A
#Library_Class 3
#SpectrumID CCMSLIB00000081551
#IonMode Positive
#UpdateWorkflowName UPDATE-SINGLE-ANNOTATED-BRONZE
#LibraryQualityString Bronze
#TaskID 4a07f16a650f4095b43fe6b0b09ff8bb
##Scan# 1
#SpectrumFile gnps_5_6_dihydro_5_pos_MplusH.mgf
#LibraryName gnps_library.mgf
#MQScore -1
#Organism batch_27_05
#TIC_Query 0
#RT_Query -1
#MZErrorPPM -1
#SharedPeaks 0
#MassDiff 0
#LibMZ -1
#SpecMZ 356.09
#SpecCharge 0
#internalFilename spec-00000.mgf

>collision 0
191.0344 9.09
202.0958 8.16
217.0862 10.2
218.0918 5.59
222.0726 13.8
245.077 3.27
356.1105 0.0
