>compound MLS000563067-01!
>formula C30H22O12
>ionization [M+H]+
>parentmass 575.119
#inchi InChI=1S/C30H22O12/c1-5-3-7(31)9-11(19(5)33)27(41)29-13-14-24(38)17(29)26(40)16-22(36)10-8(32)4-6(2)20(34)12(10)28(42)30(14,16)18(23(13)37)25(39)15(29)21(9)35/h3-4,13-14,17-18,23-24,31-38H,1-2H3/t13-,14-,17+,18+,23+,24+,29+,30+/m1/s1
#inchikey FAZDYVMEXQHRLI
#Ion_Source LC-ESI
#Instrument qTof
#Compound_Source NIH Natural Product Library
#PI Dorrestein
#Data_Collector VVP/LMS
#Scan -1
#Precursor_MZ 575.119
#ExactMass 574.111
#Charge 1
#CAS_Number N/A
#Pubmed_ID N/A
#Smiles Cc1cc(O)c2C(=C3C(=O)[C@@H]4[C@@H](O)[C@H]5[C@@H]6[C@H](O)[C@@H](C(=O)C7=C(O)c8c(O)cc(C)c(O)c8C(=O)[C@]647)[C@]53C(=O)c2c1O)O
#INCHI_AUX N/A
#Library_Class 1
#SpectrumID CCMSLIB00000079527
#IonMode Positive
#UpdateWorkflowName UPDATE-SINGLE-ANNOTATED-GOLD
#LibraryQualityString Gold
#TaskID b1d8e8f6646f4e71acdff9ca3d919d08
##Scan# 2430
#SpectrumFile p1-F07_GF7_01_17939.mzXML
#LibraryName NIH_Natural_Products_Library.mgf
#MQScore -1
#Organism NIH_Natural_Products_Library
#TIC_Query 0
#RT_Query -1
#MZErrorPPM -1
#SharedPeaks 0
#MassDiff 0
#LibMZ -1
#SpecMZ 575.119
#SpecCharge 0
#internalFilename spec-00000.mgf

>collision 0
197.0584 1.65
215.0703 1.85
217.0495 1.88
243.0646 9.04
245.0453 2.68
253.0506 2.98
254.0573 5.59
271.0602 100.0
287.0546 21.92
289.068 12.25
391.0992 2.63
419.0957 1.28
437.0716 1.62
437.107 1.81
447.0842 1.79
451.0784 1.88
465.0999 4.1
475.0804 2.7
479.0768 1.69
493.0934 10.44
494.098 2.92
503.079 5.05
504.0834 2.45
511.1013 4.26
512.1083 1.36
521.0885 24.3
522.0946 8.08
524.0738 1.81
539.0991 38.91
540.1013 12.4
575.1219 0.0
