>compound Azathioprine (Azasan, Imuran)
>formula C9H7N7O2S
>ionization [M+H]+
>parentmass 278.045746
#inchi InChI=1S/C9H7N7O2S/c1-15-4-14-7(16(17)18)9(15)19-8-5-6(11-2-10-5)12-3-13-8/h2-4H,1H3,(H,10,11,12,13)
#inchikey LMEKQMALGUDUQG
#Ion_Source LC-ESI
#Instrument qTof
#Compound_Source Commercial
#PI Dorrestein
#Data_Collector Garg_Neha
#Scan -1
#Precursor_MZ 278.046
#ExactMass 277.038
#Charge 1
#CAS_Number 446-86-6
#Pubmed_ID N/A
#Smiles N1=CN=C2C(=C1SC3=C(N=CN3C)[N+](=O)[O-])NC=N2
#INCHI_AUX N/A
#Library_Class 1
#SpectrumID CCMSLIB00000078255
#IonMode Positive
#UpdateWorkflowName UPDATE-SINGLE-ANNOTATED-GOLD
#LibraryQualityString Gold
#TaskID 77f51c88eb8b467eb4a01dd2d0cb90d2
##Scan# 1035
#SpectrumFile Plate4_21_40_GH3_01_16504.mzXML
#LibraryName FDALibrary_2_04302014.mgf
#MQScore -1
#Organism FDALibrary_2_04302014
#TIC_Query 0
#RT_Query -1
#MZErrorPPM -1
#SharedPeaks 0
#MassDiff 0
#LibMZ -1
#SpecMZ 278.046
#SpecCharge 0
#internalFilename spec-00000.mgf

>collision 0
119.0349 2.66
146.0465 1.7
172.0615 7.08
177.0217 8.8
199.0717 23.77
204.0335 12.29
205.0406 19.02
231.0435 16.04
232.0517 99.4
248.0486 2.5
278.0457 19.42
