>compound MLS002154084-01!Proscillaridin A466-06-8
>formula C30H42O8
>ionization [M+H]+
>parentmass 531.29425
#inchi InChI=1S/C30H42O8/c1-16-24(32)25(33)26(34)27(37-16)38-19-8-11-28(2)18(14-19)5-6-22-21(28)9-12-29(3)20(10-13-30(22,29)35)17-4-7-23(31)36-15-17/h4,7,14-16,19-22,24-27,32-35H,5-6,8-13H2,1-3H3/t16-,19-,20+,21?,22?,24-,25+,26+,27-,28-,29+,30-/m0/s1
#inchikey MYEJFUXQJGHEQK
#Ion_Source LC-ESI
#Instrument qTof
#Compound_Source NIH Pharmacologically Active Library
#PI Dorrestein
#Data_Collector VP/LMS
#Scan -1
#Precursor_MZ 531.299
#ExactMass 530.288
#Charge 1
#CAS_Number N/A
#Pubmed_ID N/A
#Smiles C[C@@H]1O[C@@H](O[C@H]2CC[C@]3(C)C4CC[C@]5(C)[C@H](CC[C@]5(O)C4CCC3=C2)c6ccc(=O)oc6)[C@H](O)[C@H](O)[C@H]1O
#INCHI_AUX N/A
#Library_Class 1
#SpectrumID CCMSLIB00000085163
#IonMode Positive
#UpdateWorkflowName UPDATE-SINGLE-ANNOTATED-GOLD
#LibraryQualityString Gold
#TaskID d252d724072548979f1f6f1ced849daf
##Scan# 1861
#SpectrumFile p3-F06_GF6_01_18287.mzXML
#LibraryName Pharm_Active_Library.mgf
#MQScore -1
#Organism Pharm_Active_Library
#TIC_Query 0
#RT_Query -1
#MZErrorPPM -1
#SharedPeaks 0
#MassDiff 0
#LibMZ -1
#SpecMZ 531.299
#SpecCharge 0
#internalFilename spec-00000.mgf

>collision 0
105.0697 40.42
107.084 26.93
117.0703 12.73
119.085 34.18
131.084 59.69
133.0998 17.86
135.1151 15.09
143.0856 22.1
145.101 32.35
147.1161 35.0
155.0862 26.46
157.1017 41.43
159.1166 43.08
161.0961 27.05
161.1316 31.05
169.102 14.97
171.1169 24.57
173.1327 22.69
181.1015 14.79
183.1155 13.79
185.1307 23.81
187.148 18.15
195.117 12.91
197.1342 24.75
199.1479 15.85
209.1319 26.93
211.147 14.2
213.1636 30.94
223.147 14.85
227.1422 11.55
227.1784 15.26
253.1949 28.93
255.1378 12.96
269.1554 18.15
283.1708 18.8
331.2058 13.97
339.2318 12.43
349.2196 100.0
350.2246 37.89
367.2291 68.0
513.2883 39.78
514.2917 21.27
531.3008 112.43
