>compound RALTITREXED
>formula C21H22N4O6S
>ionization [M+H]+
>parentmass 459.13501
#inchi InChI=1S/C21H22N4O6S/c1-11-22-14-4-3-12(9-13(14)19(28)23-11)10-25(2)17-7-6-16(32-17)20(29)24-15(21(30)31)5-8-18(26)27/h3-4,6-7,9,15H,5,8,10H2,1-2H3,(H,24,29)(H,26,27)(H,30,31)(H,22,23,28)/t15-/m0/s1
#inchikey IVTVGDXNLFLDRM
#Ion_Source LC-ESI
#Instrument qTof
#Compound_Source Commercial
#PI Dorrestein
#Data_Collector Garg_Neha
#Scan -1
#Precursor_MZ 459.133
#ExactMass 458.126
#Charge 1
#CAS_Number N/A
#Pubmed_ID N/A
#Smiles CN(Cc1ccc2nc(C)nc(O)c2c1)c3ccc(s3)C(=O)N[C@@H](CCC(=O)O)C(=O)O
#INCHI_AUX N/A
#Library_Class 1
#SpectrumID CCMSLIB00000079073
#IonMode Positive
#UpdateWorkflowName UPDATE-SINGLE-ANNOTATED-GOLD
#LibraryQualityString Gold
#TaskID 278b19f5865741e282cec7349aa7e7a1
##Scan# 1057
#SpectrumFile NCP003432_E2_F11_BD2_01_15724.mzXML
#LibraryName NIHcollectionI_05062014.mgf
#MQScore -1
#Organism NIHcollectionI_05062014
#TIC_Query 0
#RT_Query -1
#MZErrorPPM -1
#SharedPeaks 0
#MassDiff 0
#LibMZ -1
#SpecMZ 459.133
#SpecCharge 0
#internalFilename spec-00000.mgf

>collision 0
132.0451 1.59
140.0164 6.79
173.0723 81.46
285.0912 0.21
286.101 1.41
312.0821 100.0
313.0844 20.44
330.0922 0.56
459.135 1.37
