>compound MLS001148590-01!
>formula C25H35NO5
>ionization [M+H]+
>parentmass 430.258911
#inchi InChI=1S/C25H35NO5/c1-6-26(19(2)17-20-9-12-22(28-3)13-10-20)15-7-8-16-31-25(27)21-11-14-23(29-4)24(18-21)30-5/h9-14,18-19H,6-8,15-17H2,1-5H3
#inchikey VYVKHNNGDFVQGA
#origInchi InChI=1S/C25H35NO5.ClH/c1-6-26(19(2)17-20-9-12-22(28-3)13-10-20)15-7-8-16-31-25(27)21-11-14-23(29-4)24(18-21)30-5;/h9-14,18-19H,6-8,15-17H2,1-5H3;1H
#Ion_Source LC-ESI
#Instrument qTof
#Compound_Source NIH Pharmacologically Active Library
#PI Dorrestein
#Data_Collector VP/LMS
#Scan -1
#Precursor_MZ 430.267
#ExactMass 429.252
#Charge 1
#CAS_Number N/A
#Pubmed_ID N/A
#Smiles CCN(CCCCOC(=O)c1ccc(OC)c(OC)c1)C(C)Cc2ccc(OC)cc2.Cl
#INCHI_AUX N/A
#Library_Class 1
#SpectrumID CCMSLIB00000085502
#IonMode Positive
#UpdateWorkflowName UPDATE-SINGLE-ANNOTATED-GOLD
#LibraryQualityString Gold
#TaskID d252d724072548979f1f6f1ced849daf
##Scan# 1773
#SpectrumFile p4-B09_GB9_01_18345.mzXML
#LibraryName Pharm_Active_Library.mgf
#MQScore -1
#Organism Pharm_Active_Library
#TIC_Query 0
#RT_Query -1
#MZErrorPPM -1
#SharedPeaks 0
#MassDiff 0
#LibMZ -1
#SpecMZ 430.267
#SpecCharge 0
#internalFilename spec-00000.mgf

>collision 0
80.0261 0.22
91.0545 6.7
93.0692 1.29
94.041 0.56
103.0529 0.3
105.0711 0.23
106.0415 0.67
108.0571 1.66
109.0647 3.5
115.0542 1.41
116.0625 0.3
117.0698 2.1
119.0491 0.94
121.0664 94.33
133.0644 0.44
134.0719 4.28
149.097 100.0
430.2589 1.88
