>compound Anastrozole
>formula C17H19N5 
>ionization [M+H]+
>parentmass 294.172
#inchi InChI=1S/C17H19N5/c1-16(2,9-18)14-5-13(8-22-12-20-11-21-22)6-15(7-14)17(3,4)10-19/h5-7,11-12H,8H2,1-4H3
#inchikey YBBLVLTVTVSKRW
#Ion_Source LC-ESI
#Instrument qTof
#Compound_Source Isolated
#PI Sirenas
#Data_Collector Ed Esquenazi 
#Scan -1
#Precursor_MZ 294.172
#ExactMass 0.0
#Charge 1
#CAS_Number N/A
#Pubmed_ID N/A
#Smiles N/A
#INCHI_AUX N/A
#Library_Class 3
#SpectrumID CCMSLIB00000004760
#IonMode Positive
#UpdateWorkflowName UPDATE-SINGLE-ANNOTATED-BRONZE
#LibraryQualityString Bronze
#TaskID d19310cd93df49b68e9fcbec27720eb5
##Scan# 3
#SpectrumFile Anastrozole.mgf
#LibraryName fda_library.mgf
#MQScore -1
#Organism fda_library
#TIC_Query 0
#RT_Query -1
#MZErrorPPM -1
#SharedPeaks 0
#MassDiff 0
#LibMZ -1
#SpecMZ 294.172
#SpecCharge 0
#internalFilename spec-00000.mgf

>collision 0
103.0549 1.4
105.0705 0.84
115.0543 12.95
117.057 1.48
117.069 2.34
126.0463 0.8
129.0708 17.62
130.0776 24.41
131.0861 11.67
140.0492 1.99
140.0614 0.65
141.0706 2.8
142.0654 34.99
145.1002 1.27
153.0583 1.41
155.0721 2.84
157.0881 15.1
158.0977 3.5
167.0731 1.99
168.0805 15.71
170.0969 5.44
171.1154 2.59
183.1033 6.68
194.0836 0.67
195.0914 23.64
197.1073 0.5
198.1265 7.76
209.1075 17.09
210.1146 55.02
225.1385 100.0
294.172 0.0
