>compound (E)-4-(3,5-dimethoxystyryl)phenol
>formula C16H16O3
>ionization [M+H]+
>parentmass 257.118225
#inchi InChI=1S/C16H16O3/c1-18-15-9-13(10-16(11-15)19-2)4-3-12-5-7-14(17)8-6-12/h3-11,17H,1-2H3/b4-3+
#inchikey VLEUZFDZJKSGMX
#Ion_Source LC-ESI
#Instrument qTof
#Compound_Source Commercial
#PI Dorrestein
#Data_Collector Garg_Neha
#Scan -1
#Precursor_MZ 257.118
#ExactMass 256.11
#Charge 1
#CAS_Number N/A
#Pubmed_ID N/A
#Smiles COc1cc(OC)cc(/C=C/c2ccc(O)cc2)c1
#INCHI_AUX N/A
#Library_Class 1
#SpectrumID CCMSLIB00000079261
#IonMode Positive
#UpdateWorkflowName UPDATE-SINGLE-ANNOTATED-GOLD
#LibraryQualityString Gold
#TaskID 278b19f5865741e282cec7349aa7e7a1
##Scan# 1738
#SpectrumFile NCP003512_A2_B11_BD4_01_15728.mzXML
#LibraryName NIHcollectionI_05062014.mgf
#MQScore -1
#Organism NIHcollectionI_05062014
#TIC_Query 0
#RT_Query -1
#MZErrorPPM -1
#SharedPeaks 0
#MassDiff 0
#LibMZ -1
#SpecMZ 257.118
#SpecCharge 0
#internalFilename spec-00000.mgf

>collision 0
105.0699 53.46
121.0636 14.88
131.0506 12.46
133.0647 100.0
135.0452 22.84
135.0823 14.71
137.0592 28.37
145.0663 28.55
148.0515 26.12
149.0612 16.96
151.0752 20.42
154.076 20.76
155.0864 12.46
159.0807 14.71
163.0752 27.51
165.0701 30.1
171.0817 19.03
179.0844 18.69
181.0658 76.47
182.0721 38.75
183.0795 25.78
194.0708 18.51
197.097 29.41
199.075 49.31
209.0601 17.65
210.0676 39.62
211.0768 52.42
212.0832 13.32
213.092 33.56
214.0968 10.73
224.0827 26.47
226.0992 41.35
227.0713 53.46
229.1223 26.3
241.0855 19.55
242.0941 90.83
257.1197 1657.09
