>compound Isovitexin
>formula C21H20O10
>ionization [M+H]+
>parentmass 433.1129232920905
#inchi InChI=1S/C21H20O10/c22-7-14-17(26)19(28)20(29)21(31-14)16-11(25)6-13-15(18(16)27)10(24)5-12(30-13)8-1-3-9(23)4-2-8/h1-6,14,17,19-23,25-29H,7H2/t14-,17-,19+,20-,21+/m1/s1
#inchikey MYXNWGACZJSMBT
#Ion_Source DI-ESI
#Instrument qTof
#Compound_Source Isolated
#PI Norberto Lopes
#Data_Collector Denise Silva
#Scan -1
#Precursor_MZ 433.074
#ExactMass 432.106
#Charge 1
#CAS_Number 38953-85-4
#Pubmed_ID N/A
#Smiles O=C1C2=C(O)C([C@H]3[C@H](O)[C@@H](O)[C@H](O)[C@@H](CO)O3)=C(O)C=C2OC(C4=CC=C(O)C=C4)=C1
#INCHI_AUX N/A
#Library_Class 3
#SpectrumID CCMSLIB00000081702
#IonMode Positive
#UpdateWorkflowName UPDATE-SINGLE-ANNOTATED-BRONZE
#LibraryQualityString Bronze
#TaskID 52bd5f0db6314c93924d5ce5c86348eb
##Scan# 1
#SpectrumFile gnps_Isovitexin_pos_MplusH.mgf
#LibraryName gnps_library.mgf
#MQScore -1
#Organism batch_27_05_V02
#TIC_Query 0
#RT_Query -1
#MZErrorPPM -1
#SharedPeaks 0
#MassDiff 0
#LibMZ -1
#SpecMZ 433.074
#SpecCharge 0
#internalFilename spec-00000.mgf

>collision 0
243.0061 0.36
261.0186 0.59
343.047 2.44
351.0531 7.13
361.0359 11.73
379.0479 20.28
397.0564 15.02
415.0669 4.82
433.1129 0.0
