>compound MLS000028431-01!
>formula C21H29N3O
>ionization [M+H]+
>parentmass 340.23833900009055
#inchi InChI=1S/C21H29N3O/c1-16(2)24(17(3)4)15-13-21(20(22)25,18-10-6-5-7-11-18)19-12-8-9-14-23-19/h5-12,14,16-17H,13,15H2,1-4H3,(H2,22,25)
#inchikey UVTNFZQICZKOEM
#origInchi InChI=1S/C21H29N3O.H3O4P/c1-16(2)24(17(3)4)15-13-21(20(22)25,18-10-6-5-7-11-18)19-12-8-9-14-23-19;1-5(2,3)4/h5-12,14,16-17H,13,15H2,1-4H3,(H2,22,25);(H3,1,2,3,4)
#Ion_Source LC-ESI
#Instrument qTof
#Compound_Source NIH Pharmacologically Active Library
#PI Dorrestein
#Data_Collector VP/LMS
#Scan -1
#Precursor_MZ 340.241
#ExactMass 339.231
#Charge 1
#CAS_Number N/A
#Pubmed_ID N/A
#Smiles CC(C)N(CCC(C(=O)N)(c1ccccc1)c2ccccn2)C(C)C.OP(=O)(O)O
#INCHI_AUX N/A
#Library_Class 1
#SpectrumID CCMSLIB00000085170
#IonMode Positive
#UpdateWorkflowName UPDATE-SINGLE-ANNOTATED-GOLD
#LibraryQualityString Gold
#TaskID d252d724072548979f1f6f1ced849daf
##Scan# 1431
#SpectrumFile p3-F08_GF8_01_18289.mzXML
#LibraryName Pharm_Active_Library.mgf
#MQScore -1
#Organism Pharm_Active_Library
#TIC_Query 0
#RT_Query -1
#MZErrorPPM -1
#SharedPeaks 0
#MassDiff 0
#LibMZ -1
#SpecMZ 340.241
#SpecCharge 0
#internalFilename spec-00000.mgf

>collision 0
118.0642 7.46
167.0721 3.82
194.0963 86.82
195.1037 100.0
221.1057 8.14
239.1177 43.12
340.2383 0.0
