>compound Repaglinide
>formula C27H36N2O4
>ionization [M+H]+
>parentmass 453.276703
#inchi InChI=1S/C27H36N2O4/c1-4-33-25-17-20(12-13-22(25)27(31)32)18-26(30)28-23(16-19(2)3)21-10-6-7-11-24(21)29-14-8-5-9-15-29/h6-7,10-13,17,19,23H,4-5,8-9,14-16,18H2,1-3H3,(H,28,30)(H,31,32)/t23-/m0/s1
#inchikey FAEKWTJYAYMJKF
#Ion_Source LC-ESI
#Instrument qTof
#Compound_Source Commercial
#PI Dorrestein
#Data_Collector Garg_Neha
#Scan -1
#Precursor_MZ 453.275
#ExactMass 452.268
#Charge 1
#CAS_Number 135062-02-1, 847829-40-7 (sodium salt), 172041-25-7 (calcium salt)
#Pubmed_ID N/A
#Smiles C1(=C(C=CC(=C1)CC(N[C@H](C2=CC=CC=C2N3CCCCC3)CC(C)C)=O)C(O)=O)OCC
#INCHI_AUX N/A
#Library_Class 1
#SpectrumID CCMSLIB00000078141
#IonMode Positive
#UpdateWorkflowName UPDATE-SINGLE-ANNOTATED-GOLD
#LibraryQualityString Gold
#TaskID 77f51c88eb8b467eb4a01dd2d0cb90d2
##Scan# 1301
#SpectrumFile Plate2_61_88_GG8_01_16496.mzXML
#LibraryName FDALibrary_2_04302014.mgf
#MQScore -1
#Organism FDALibrary_2_04302014
#TIC_Query 0
#RT_Query -1
#MZErrorPPM -1
#SharedPeaks 0
#MassDiff 0
#LibMZ -1
#SpecMZ 453.275
#SpecCharge 0
#internalFilename spec-00000.mgf

>collision 0
106.0659 0.49
118.0656 0.55
130.0658 0.68
131.0728 0.58
132.0815 0.8
144.0806 0.87
145.0888 0.4
146.0967 4.18
158.0964 0.83
159.1041 0.52
160.1118 0.67
161.1157 0.22
162.129 48.66
172.112 2.6
173.1196 0.75
174.1284 23.13
175.1312 3.51
179.0706 2.15
186.1283 0.65
187.1328 0.34
188.1425 0.53
189.0546 1.41
202.1594 1.41
203.1644 0.22
207.0647 0.43
228.175 0.37
231.1948 48.99
292.1547 13.55
453.2767 65.66
