>compound MLS000859957-01!N6-Cyclopentyladenosine
>formula C15H21N5O4
>ionization [M+H]+
>parentmass 336.166901
#inchi InChI=1S/C15H21N5O4/c21-5-9-11(22)12(23)15(24-9)20-7-18-10-13(16-6-17-14(10)20)19-8-3-1-2-4-8/h6-9,11-12,15,21-23H,1-5H2,(H,16,17,19)
#inchikey SQMWSBKSHWARHU
#Ion_Source LC-ESI
#Instrument qTof
#Compound_Source NIH Pharmacologically Active Library
#PI Dorrestein
#Data_Collector VP/LMS
#Scan -1
#Precursor_MZ 336.164
#ExactMass 335.159
#Charge 1
#CAS_Number N/A
#Pubmed_ID N/A
#Smiles OCC1OC(C(O)C1O)n2cnc3c(NC4CCCC4)ncnc23
#INCHI_AUX N/A
#Library_Class 1
#SpectrumID CCMSLIB00000085939
#IonMode Positive
#UpdateWorkflowName UPDATE-SINGLE-ANNOTATED-GOLD
#LibraryQualityString Gold
#TaskID d252d724072548979f1f6f1ced849daf
##Scan# 1255
#SpectrumFile p4-H05_GH5_01_18413.mzXML
#LibraryName Pharm_Active_Library.mgf
#MQScore -1
#Organism Pharm_Active_Library
#TIC_Query 0
#RT_Query -1
#MZErrorPPM -1
#SharedPeaks 0
#MassDiff 0
#LibMZ -1
#SpecMZ 336.164
#SpecCharge 0
#internalFilename spec-00000.mgf

>collision 0
94.0394 0.95
109.0501 0.59
119.0355 9.37
136.0628 100.0
204.1251 74.65
336.1669 0.38
