>compound Famciclovir (Famvir)
>formula C14H19N5O4
>ionization [M+H]+
>parentmass 322.15098054009053
#inchi InChI=1S/C14H19N5O4/c1-9(20)22-6-11(7-23-10(2)21)3-4-19-8-17-12-5-16-14(15)18-13(12)19/h5,8,11H,3-4,6-7H2,1-2H3,(H2,15,16,18)
#inchikey GGXKWVWZWMLJEH
#Ion_Source LC-ESI
#Instrument qTof
#Compound_Source Commercial
#PI Dorrestein
#Data_Collector Garg_Neha
#Scan -1
#Precursor_MZ 322.151
#ExactMass 321.144
#Charge 1
#CAS_Number 104227-87-4
#Pubmed_ID N/A
#Smiles N1=C(N=C2C(=C1)N=CN2CCC(COC(=O)C)COC(C)=O)N
#INCHI_AUX N/A
#Library_Class 1
#SpectrumID CCMSLIB00000078477
#IonMode Positive
#UpdateWorkflowName UPDATE-SINGLE-ANNOTATED-GOLD
#LibraryQualityString Gold
#TaskID 77f51c88eb8b467eb4a01dd2d0cb90d2
##Scan# 1023
#SpectrumFile Plate7_61_80_GD5_01_15771.mzXML
#LibraryName FDALibrary_2_04302014.mgf
#MQScore -1
#Organism FDALibrary_2_04302014
#TIC_Query 0
#RT_Query -1
#MZErrorPPM -1
#SharedPeaks 0
#MassDiff 0
#LibMZ -1
#SpecMZ 322.151
#SpecCharge 0
#internalFilename spec-00000.mgf

>collision 0
94.0409 0.21
109.0495 1.28
119.0339 0.35
121.051 0.69
127.0742 0.56
136.0618 100.0
145.0843 3.81
148.0613 11.81
158.0717 0.71
162.0761 0.65
173.0678 0.8
174.0773 1.36
175.0972 2.08
187.0856 5.0
188.0928 0.44
193.1084 0.68
202.1085 38.12
220.119 11.64
238.1299 3.76
262.1306 24.26
280.141 24.31
322.1547 126.29
