>compound MLS001048976-01!2-(4-hydroxyphenyl)ethyl-trimethylazanium
>formula C11H17NO
>ionization [M+H]+
>parentmass 180.13829061609053
#inchi InChI=1S/C11H17NO/c1-12(2,3)9-8-10-4-6-11(13)7-5-10/h4-7H,8-9H2,1-3H3
#inchikey PTOJXIKSKSASRB
#origInchi InChI=1S/C11H17NO.HI/c1-12(2,3)9-8-10-4-6-11(13)7-5-10;/h4-7H,8-9H2,1-3H3;1H
#Ion_Source LC-ESI
#Instrument qTof
#Compound_Source NIH Natural Product Library
#PI Dorrestein
#Data_Collector VVP/LMS
#Scan -1
#Precursor_MZ 180.139
#ExactMass 180.139
#Charge 1
#CAS_Number N/A
#Pubmed_ID N/A
#Smiles C[N+](C)(C)CCc1ccc(O)cc1.[I-]
#INCHI_AUX N/A
#Library_Class 1
#SpectrumID CCMSLIB00000079952
#IonMode Positive
#UpdateWorkflowName UPDATE-SINGLE-ANNOTATED-GOLD
#LibraryQualityString Gold
#TaskID b1d8e8f6646f4e71acdff9ca3d919d08
##Scan# 133
#SpectrumFile p2-B02_GB2_01_17990.mzXML
#LibraryName NIH_Natural_Products_Library.mgf
#MQScore -1
#Organism NIH_Natural_Products_Library
#TIC_Query 0
#RT_Query -1
#MZErrorPPM -1
#SharedPeaks 0
#MassDiff 0
#LibMZ -1
#SpecMZ 180.139
#SpecCharge 0
#internalFilename spec-00000.mgf

>collision 0
101.0011 23.23
103.0547 100.0
121.066 67.93
180.1383 0.0
