>compound Posaconazole
>formula C37H42F2N8O4
>ionization [M+H]+
>parentmass 701.33667
#inchi InChI=1S/C37H42F2N8O4/c1-3-35(26(2)48)47-36(49)46(25-42-47)31-7-5-29(6-8-31)43-14-16-44(17-15-43)30-9-11-32(12-10-30)50-20-27-19-37(51-21-27,22-45-24-40-23-41-45)33-13-4-28(38)18-34(33)39/h4-13,18,23-27,35,48H,3,14-17,19-22H2,1-2H3/t26-,27+,35-,37-/m0/s1
#inchikey RAGOYPUPXAKGKH
#Ion_Source LC-ESI
#Instrument qTof
#Compound_Source Commercial
#PI Dorrestein
#Data_Collector Garg_Neha
#Scan -1
#Precursor_MZ 701.337
#ExactMass 700.33
#Charge 1
#CAS_Number 171228-49-2, 177571-33-4, 1198769-38-8 (H2O)
#Pubmed_ID N/A
#Smiles C1(=CC=C(C=C1)N2CCN(CC2)C3=CC=C(C=C3)OC[C@@H]4CO[C@](C4)(C5=CC=C(C=C5F)F)CN6N=CN=C6)N7C(N(N=C7)[C@H]([C@H](C)O)CC)=O
#INCHI_AUX N/A
#Library_Class 1
#SpectrumID CCMSLIB00000078072
#IonMode Positive
#UpdateWorkflowName UPDATE-SINGLE-ANNOTATED-GOLD
#LibraryQualityString Gold
#TaskID 77f51c88eb8b467eb4a01dd2d0cb90d2
##Scan# 1472
#SpectrumFile Plate1_61_88_GG4_01_16491.mzXML
#LibraryName FDALibrary_2_04302014.mgf
#MQScore -1
#Organism FDALibrary_2_04302014
#TIC_Query 0
#RT_Query -1
#MZErrorPPM -1
#SharedPeaks 0
#MassDiff 0
#LibMZ -1
#SpecMZ 701.337
#SpecCharge 0
#internalFilename spec-00000.mgf

>collision 0
127.035 8.05
146.0608 5.54
148.0762 6.35
172.0745 6.14
174.0923 6.14
179.0666 7.33
181.0836 4.31
203.0913 10.84
209.0764 11.34
229.1095 4.97
248.0995 3.71
271.1561 11.13
278.1096 23.91
297.172 6.67
322.1667 4.79
326.133 4.76
344.1455 31.76
345.1466 7.9
350.1641 5.78
370.1601 26.28
371.1621 10.81
399.1559 3.92
405.2132 21.4
423.227 5.72
425.1745 6.17
545.2226 4.25
546.2291 48.76
547.2325 21.34
572.2507 5.93
584.2845 8.02
596.2734 12.66
597.2703 6.2
599.2307 10.18
614.2913 76.38
615.2863 40.11
616.2844 13.38
632.3021 15.12
633.3047 7.09
665.3185 14.4
683.3235 100.0
684.3279 44.3
701.3367 682.55
