>compound Pizotifen malate
>formula C19H21NS
>ionization [M+H]+
>parentmass 296.14674712409055
#inchi InChI=1S/C19H21NS/c1-20-11-8-15(9-12-20)19-16-5-3-2-4-14(16)6-7-18-17(19)10-13-21-18/h2-5,10,13H,6-9,11-12H2,1H3
#inchikey FIADGNVRKBPQEU
#origInchi InChI=1S/C19H21NS.C4H6O5/c1-20-11-8-15(9-12-20)19-16-5-3-2-4-14(16)6-7-18-17(19)10-13-21-18;5-2(4(8)9)1-3(6)7/h2-5,10,13H,6-9,11-12H2,1H3;2,5H,1H2,(H,6,7)(H,8,9)
#Ion_Source LC-ESI
#Instrument qTof
#Compound_Source Commercial
#PI Dorrestein
#Data_Collector Garg_Neha
#Scan -1
#Precursor_MZ 296.147
#ExactMass 295.139
#Charge 1
#CAS_Number 5189-11-7, 15574-96-6 (free base)
#Pubmed_ID N/A
#Smiles C1(C2=C(CCC3=C1C=CC=C3)SC=C2)=C4(CCN(CC4)C).C(C(CC(=O)O)O)(=O)O
#INCHI_AUX N/A
#Library_Class 1
#SpectrumID CCMSLIB00000078134
#IonMode Positive
#UpdateWorkflowName UPDATE-SINGLE-ANNOTATED-GOLD
#LibraryQualityString Gold
#TaskID 77f51c88eb8b467eb4a01dd2d0cb90d2
##Scan# 1190
#SpectrumFile Plate2_41_60_GG7_01_16495.mzXML
#LibraryName FDALibrary_2_04302014.mgf
#MQScore -1
#Organism FDALibrary_2_04302014
#TIC_Query 0
#RT_Query -1
#MZErrorPPM -1
#SharedPeaks 0
#MassDiff 0
#LibMZ -1
#SpecMZ 296.147
#SpecCharge 0
#internalFilename spec-00000.mgf

>collision 0
96.0816 100.0
97.0114 5.39
98.0966 4.13
111.0261 2.58
115.0543 5.1
117.0691 5.12
123.026 7.03
128.0627 5.85
129.0693 6.84
131.0846 2.38
137.0415 5.68
141.0699 7.85
143.0846 11.04
153.0691 2.45
154.0787 2.99
155.085 12.93
161.0404 2.42
162.0508 2.33
165.0699 12.27
166.0774 8.42
167.0842 6.23
169.1011 4.37
178.0778 5.59
179.0848 5.29
184.0351 5.21
184.1112 2.45
185.0426 8.84
185.1195 2.97
190.0776 3.51
191.0855 15.23
192.0914 5.83
193.1007 4.57
197.042 8.44
198.0479 3.24
199.0584 68.13
203.0852 5.94
204.094 16.17
205.1008 13.83
207.1148 3.25
210.0481 2.91
211.058 8.27
217.1004 3.19
219.117 17.05
220.1243 7.89
223.0575 3.49
224.0653 6.27
225.0732 11.47
251.0893 8.84
253.1045 5.71
265.1047 2.5
296.1498 389.09
