>compound (2E,4E,6E,8E)-9-(4-methoxy-2,3,6-trimethylphenyl)-3,7-dimethylnona-2,4,6,8-tetraenoic acid
>formula C21H26O3 
>ionization [M+H]+
>parentmass 327.194519
#inchi InChI=1S/C21H26O3/c1-14(8-7-9-15(2)12-21(22)23)10-11-19-16(3)13-20(24-6)18(5)17(19)4/h7-13H,1-6H3,(H,22,23)/b9-7+,11-10+,14-8+,15-12+
#inchikey IHUNBGSDBOWDMA
#Ion_Source LC-ESI
#Instrument qTof
#Compound_Source Commercial
#PI Dorrestein
#Data_Collector Garg_Neha
#Scan -1
#Precursor_MZ 327.197
#ExactMass 326.188
#Charge 1
#CAS_Number N/A
#Pubmed_ID N/A
#Smiles N/A
#INCHI_AUX N/A
#Library_Class 1
#SpectrumID CCMSLIB00000077146
#IonMode Positive
#UpdateWorkflowName UPDATE-SINGLE-ANNOTATED-GOLD
#LibraryQualityString Gold
#TaskID 48f7f52fc6d249b5abbcc6e7b3df5969
##Scan# 3134
#SpectrumFile NCP003195_E2E6F2F6G2G6H2H6_BB7_01_15711.mzXML
#LibraryName NIH_Clinical_Collection_2.mgf
#MQScore -1
#Organism NIHcollection2_04212014_2_mgf
#TIC_Query 0
#RT_Query -1
#MZErrorPPM -1
#SharedPeaks 0
#MassDiff 0
#LibMZ -1
#SpecMZ 327.197
#SpecCharge 0
#internalFilename spec-00000.mgf

>collision 0
131.0855 21.08
133.1013 9.57
135.0798 11.84
149.096 6.43
150.1029 4.93
151.112 13.34
159.0809 36.61
163.1113 6.54
171.0814 4.35
173.0968 4.27
177.0909 100.0
186.1023 7.27
187.1117 5.37
189.1264 2.34
201.1272 11.11
203.145 8.18
213.1283 9.68
227.143 3.43
237.1267 4.6
239.1416 3.14
252.1522 2.56
253.1568 3.47
267.1742 13.48
281.1918 14.29
309.1862 61.16
327.1956 52.54
