>compound MLS000728645-01!
>formula C22H26N4
>ionization [M+H]+
>parentmass 347.224
#inchi InChI=1S/C22H26N4/c1-25-13-11-21(15-7-3-5-9-17(15)23-19(21)25)22-12-14-26(2)20(22)24-18-10-6-4-8-16(18)22/h3-10,19-20,23-24H,11-14H2,1-2H3/t19?,20?,21-,22-/m1/s1
#inchikey HOYXPMHLHJOGHD
#Ion_Source LC-ESI
#Instrument qTof
#Compound_Source NIH Natural Product Library
#PI Dorrestein
#Data_Collector VVP/LMS
#Scan -1
#Precursor_MZ 347.224
#ExactMass 346.216
#Charge 1
#CAS_Number N/A
#Pubmed_ID N/A
#Smiles CN1CC[C@@]2(C1Nc3ccccc32)[C@]45CCN(C)C5Nc6ccccc64
#INCHI_AUX N/A
#Library_Class 3
#SpectrumID CCMSLIB00000079683
#IonMode Positive
#UpdateWorkflowName UPDATE-SINGLE-ANNOTATED-BRONZE
#LibraryQualityString Bronze
#TaskID b1d8e8f6646f4e71acdff9ca3d919d08
##Scan# 1352
#SpectrumFile p1-G09-2_GG9_01_17969.mzXML
#LibraryName NIH_Natural_Products_Library.mgf
#MQScore -1
#Organism NIH_Natural_Products_Library
#TIC_Query 0
#RT_Query -1
#MZErrorPPM -1
#SharedPeaks 0
#MassDiff 0
#LibMZ -1
#SpecMZ 347.224
#SpecCharge 0
#internalFilename spec-00000.mgf

>collision 0
106.0669 5.5
117.0568 10.09
119.0717 6.42
128.0514 11.01
130.0649 49.08
131.0623 6.42
132.0818 22.48
143.0728 3.9
144.0816 11.81
156.0817 5.39
158.0846 15.37
171.0907 7.8
173.1065 100.0
180.0808 5.85
247.1247 6.77
347.224 0.0
