>compound Iloperidone (Fanapt)
>formula C24H27FN2O4
>ionization [M+H]+
>parentmass 427.203613
#inchi InChI=1S/C24H27FN2O4/c1-16(28)18-4-7-21(23(14-18)29-2)30-13-3-10-27-11-8-17(9-12-27)24-20-6-5-19(25)15-22(20)31-26-24/h4-7,14-15,17H,3,8-13H2,1-2H3
#inchikey XMXHEBAFVSFQEX
#Ion_Source LC-ESI
#Instrument qTof
#Compound_Source Commercial
#PI Dorrestein
#Data_Collector Garg_Neha
#Scan -1
#Precursor_MZ 427.203
#ExactMass 426.195
#Charge 1
#CAS_Number 133454-47-4, 1299470-39-5 (HCl)
#Pubmed_ID N/A
#Smiles C1(=C(C=CC(=C1)C(C)=O)OCCCN2CCC(CC2)C3=NOC4=C3C=CC(=C4)F)OC
#INCHI_AUX N/A
#Library_Class 1
#SpectrumID CCMSLIB00000078160
#IonMode Positive
#UpdateWorkflowName UPDATE-SINGLE-ANNOTATED-GOLD
#LibraryQualityString Gold
#TaskID 77f51c88eb8b467eb4a01dd2d0cb90d2
##Scan# 1155
#SpectrumFile Plate3_1_20_GG9_01_16498.mzXML
#LibraryName FDALibrary_2_04302014.mgf
#MQScore -1
#Organism FDALibrary_2_04302014
#TIC_Query 0
#RT_Query -1
#MZErrorPPM -1
#SharedPeaks 0
#MassDiff 0
#LibMZ -1
#SpecMZ 427.203
#SpecCharge 0
#internalFilename spec-00000.mgf

>collision 0
96.0817 6.76
98.0971 1.42
108.0813 3.18
109.0879 0.65
110.0958 0.63
122.0968 0.67
124.1132 9.61
136.1124 0.51
138.0351 1.39
151.075 0.69
163.0547 1.01
164.0511 2.9
176.0507 0.67
177.059 3.71
178.066 3.55
179.0699 1.6
190.0672 52.31
202.0664 0.57
203.0741 0.77
204.082 3.86
216.0829 0.75
218.0974 0.79
219.093 5.32
220.1002 2.09
221.1084 0.93
233.1101 100.0
234.1121 16.52
244.1147 0.96
246.1473 0.47
247.1242 1.16
261.1409 85.64
262.1443 14.77
274.1431 0.99
290.1743 1.04
412.1795 0.6
427.2036 112.73
