>compound MLS000028447-01!
>formula C18H20O2
>ionization [M+H]+
>parentmass 269.152
#inchi InChI=1S/C18H20O2/c1-3-17(13-5-9-15(19)10-6-13)18(4-2)14-7-11-16(20)12-8-14/h5-12,19-20H,3-4H2,1-2H3/b18-17+
#inchikey RGLYKWWBQGJZGM
#Ion_Source LC-ESI
#Instrument qTof
#Compound_Source NIH Pharmacologically Active Library
#PI Dorrestein
#Data_Collector VP/LMS
#Scan -1
#Precursor_MZ 269.152
#ExactMass 268.146
#Charge 1
#CAS_Number N/A
#Pubmed_ID N/A
#Smiles CC/C(=C(/CC)\c1ccc(O)cc1)/c2ccc(O)cc2
#INCHI_AUX N/A
#Library_Class 1
#SpectrumID CCMSLIB00000085010
#IonMode Positive
#UpdateWorkflowName UPDATE-SINGLE-ANNOTATED-GOLD
#LibraryQualityString Gold
#TaskID d252d724072548979f1f6f1ced849daf
##Scan# 2235
#SpectrumFile p3-D09_GD9_01_18266.mzXML
#LibraryName Pharm_Active_Library.mgf
#MQScore -1
#Organism Pharm_Active_Library
#TIC_Query 0
#RT_Query -1
#MZErrorPPM -1
#SharedPeaks 0
#MassDiff 0
#LibMZ -1
#SpecMZ 269.152
#SpecCharge 0
#internalFilename spec-00000.mgf

>collision 0
91.0542 4.53
93.0699 4.16
103.0524 4.69
107.0486 100.0
115.053 6.82
121.0644 10.36
128.0613 6.25
133.0636 4.16
141.0702 4.58
143.0863 4.37
151.0536 2.55
153.0686 5.0
169.0651 2.45
199.0742 14.99
269.152 0.0
