>compound Ammonium Glycyrrhizinate (AMGZ)
>formula C42H62O16
>ionization [M+H]+
>parentmass 823.409119
#inchi InChI=1S/C42H62O16/c1-37(2)21-8-11-42(7)31(20(43)16-18-19-17-39(4,36(53)54)13-12-38(19,3)14-15-41(18,42)6)40(21,5)10-9-22(37)55-35-30(26(47)25(46)29(57-35)33(51)52)58-34-27(48)23(44)24(45)28(56-34)32(49)50/h16,19,21-31,34-35,44-48H,8-15,17H2,1-7H3,(H,49,50)(H,51,52)(H,53,54)/t19-,21-,22-,23-,24-,25-,26-,27+,28-,29-,30-,31+,34-,35-,38+,39-,40+,41+,42+/m0/s1
#inchikey LPLVUJXQOOQHMX
#origInchi InChI=1S/C42H62O16.H3N/c1-37(2)21-8-11-42(7)31(20(43)16-18-19-17-39(4,36(53)54)13-12-38(19,3)14-15-41(18,42)6)40(21,5)10-9-22(37)55-35-30(26(47)25(46)29(57-35)33(51)52)58-34-27(48)23(44)24(45)28(56-34)32(49)50;/h16,19,21-31,34-35,44-48H,8-15,17H2,1-7H3,(H,49,50)(H,51,52)(H,53,54);1H3/t19-,21-,22-,23-,24-,25-,26-,27+,28-,29-,30-,31+,34-,35-,38+,39-,40+,41+,42+;/m0./s1
#Ion_Source LC-ESI
#Instrument qTof
#Compound_Source Commercial
#PI Dorrestein
#Data_Collector Garg_Neha
#Scan -1
#Precursor_MZ 823.411
#ExactMass 822.404
#Charge 1
#CAS_Number 1407-03-0
#Pubmed_ID N/A
#Smiles [C@@]1(CC[C@]2([C@@](C1)(C3[C@@](CC2)([C@]4([C@](C(C=3)=O)([C@]5([C@@](CC4)(C([C@H](CC5)O[C@]6(O[C@@H]([C@H]([C@@H]([C@@H]6O[C@]7([C@@H]([C@H]([C@@H]([C@H](O7)C(=O)O)O)O)O)[H])O)O)C(O)=O)[H])(C)C)[H])C)[H])C)C)[H])C)(C)C(O)=O.N
#INCHI_AUX N/A
#Library_Class 1
#SpectrumID CCMSLIB00000078463
#IonMode Positive
#UpdateWorkflowName UPDATE-SINGLE-ANNOTATED-GOLD
#LibraryQualityString Gold
#TaskID 77f51c88eb8b467eb4a01dd2d0cb90d2
##Scan# 1202
#SpectrumFile Plate7_21_40_GD3_01_15768.mzXML
#LibraryName FDALibrary_2_04302014.mgf
#MQScore -1
#Organism FDALibrary_2_04302014
#TIC_Query 0
#RT_Query -1
#MZErrorPPM -1
#SharedPeaks 0
#MassDiff 0
#LibMZ -1
#SpecMZ 823.411
#SpecCharge 0
#internalFilename spec-00000.mgf

>collision 0
135.1169 0.3
145.1018 0.27
161.1337 0.31
189.1645 0.59
199.1494 0.38
203.1427 0.33
217.1583 0.75
218.1661 0.34
235.1674 0.44
263.1619 0.4
271.2051 0.27
317.2111 0.59
331.2281 0.26
341.248 0.27
343.2257 0.73
357.2415 1.24
369.241 0.29
383.2581 0.38
389.3192 0.82
407.329 2.32
435.3253 2.44
453.3377 100.0
454.3403 27.92
471.3469 6.72
647.3807 19.58
823.4109 4.43
