>compound Quinapril hydrochloride (Accupril)
>formula C25H30N2O5
>ionization [M+H]+
>parentmass 439.223785
#inchi InChI=1S/C25H30N2O5/c1-3-32-25(31)21(14-13-18-9-5-4-6-10-18)26-17(2)23(28)27-16-20-12-8-7-11-19(20)15-22(27)24(29)30/h4-12,17,21-22,26H,3,13-16H2,1-2H3,(H,29,30)/t17-,21-,22-/m0/s1
#inchikey JSDRRTOADPPCHY
#origInchi InChI=1S/C25H30N2O5.ClH/c1-3-32-25(31)21(14-13-18-9-5-4-6-10-18)26-17(2)23(28)27-16-20-12-8-7-11-19(20)15-22(27)24(29)30;/h4-12,17,21-22,26H,3,13-16H2,1-2H3,(H,29,30);1H/t17-,21-,22-;/m0./s1
#Ion_Source LC-ESI
#Instrument qTof
#Compound_Source Commercial
#PI Dorrestein
#Data_Collector Garg_Neha
#Scan -1
#Precursor_MZ 439.223
#ExactMass 438.215
#Charge 1
#CAS_Number 82586-55-8
#Pubmed_ID N/A
#Smiles C1(=CC=CC(=C1)CC[C@H](N[C@H](C(N2[C@@H](CC3=C(C2)C=CC=C3)C(O)=O)=O)C)C(OCC)=O).Cl
#INCHI_AUX N/A
#Library_Class 1
#SpectrumID CCMSLIB00000078518
#IonMode Positive
#UpdateWorkflowName UPDATE-SINGLE-ANNOTATED-GOLD
#LibraryQualityString Gold
#TaskID 77f51c88eb8b467eb4a01dd2d0cb90d2
##Scan# 1175
#SpectrumFile Plate8_41_60_GC11_01_15764.mzXML
#LibraryName FDALibrary_2_04302014.mgf
#MQScore -1
#Organism FDALibrary_2_04302014
#TIC_Query 0
#RT_Query -1
#MZErrorPPM -1
#SharedPeaks 0
#MassDiff 0
#LibMZ -1
#SpecMZ 439.223
#SpecCharge 0
#internalFilename spec-00000.mgf

>collision 0
91.055 1.06
102.0545 1.29
115.0551 0.39
117.0699 9.47
130.0851 6.21
132.0794 1.19
134.0959 5.35
143.0845 0.33
160.111 12.88
178.0866 1.12
188.1061 0.3
206.1157 1.4
234.1492 100.0
365.1843 10.29
439.2238 133.08
