>compound MLS001076155-01!6ALPHA-METHYL-11BETA-HYDROXYPROGESTERONE
>formula C22H32O3
>ionization [M+H]+
>parentmass 345.242523
#inchi InChI=1S/C22H32O3/c1-12-9-15-17-6-5-16(13(2)23)22(17,4)11-19(25)20(15)21(3)8-7-14(24)10-18(12)21/h10,12,15-17,19-20,25H,5-9,11H2,1-4H3/t12-,15-,16+,17-,19-,20+,21-,22+/m0/s1
#inchikey GZENKSODFLBBHQ
#Ion_Source LC-ESI
#Instrument qTof
#Compound_Source NIH Pharmacologically Active Library
#PI Dorrestein
#Data_Collector VP/LMS
#Scan -1
#Precursor_MZ 345.249
#ExactMass 344.235
#Charge 1
#CAS_Number N/A
#Pubmed_ID N/A
#Smiles C[C@H]1C[C@H]2[C@@H]3CC[C@H](C(=O)C)[C@@]3(C)C[C@H](O)[C@@H]2[C@@]4(C)CCC(=O)C=C14
#INCHI_AUX N/A
#Library_Class 3
#SpectrumID CCMSLIB00000085491
#IonMode Positive
#UpdateWorkflowName UPDATE-SINGLE-ANNOTATED-BRONZE
#LibraryQualityString Bronze
#TaskID d252d724072548979f1f6f1ced849daf
##Scan# 2202
#SpectrumFile p4-B07_GB7_01_18343.mzXML
#LibraryName Pharm_Active_Library.mgf
#MQScore -1
#Organism Pharm_Active_Library
#TIC_Query 0
#RT_Query -1
#MZErrorPPM -1
#SharedPeaks 0
#MassDiff 0
#LibMZ -1
#SpecMZ 345.249
#SpecCharge 0
#internalFilename spec-00000.mgf

>collision 0
97.0648 79.36
105.0698 64.59
107.0851 21.09
109.0653 11.81
109.101 9.75
115.054 16.17
116.0607 9.25
117.0702 22.05
119.0855 47.64
121.0647 20.83
121.1012 13.35
123.0805 35.98
131.0856 49.93
133.1007 40.34
135.0804 68.64
135.1172 14.55
137.0964 100.0
141.071 12.65
142.0766 14.32
143.0861 30.7
145.1013 46.15
147.0796 12.49
147.1169 30.36
149.0966 17.61
157.1012 26.57
159.1166 36.56
161.0971 12.93
161.1324 17.48
163.1111 9.9
169.1004 11.55
171.1181 34.73
173.0961 10.43
173.1333 25.53
175.1111 18.42
177.1264 21.3
181.1015 10.48
183.1174 22.47
185.1321 13.8
187.1118 10.35
188.119 9.49
189.127 26.97
197.132 14.74
199.1467 9.43
203.1422 12.33
209.1316 11.31
211.1474 14.48
225.1635 11.89
257.1547 11.99
267.2112 10.11
269.1899 13.33
285.2199 10.53
309.2217 15.47
327.2315 16.67
345.2441 5.12
