>compound MLS002154073-01!Denatonium benzoate3734-33-6
>formula C21H28N2O
>ionization [M+H]+
>parentmass 325.226837
#inchi InChI=1S/C21H28N2O/c1-5-23(6-2,15-19-13-8-7-9-14-19)16-20(24)22-21-17(3)11-10-12-18(21)4/h7-14H,5-6,15-16H2,1-4H3
#inchikey ZFQMTVNLDNXRNQ
#origInchi InChI=1S/C21H28N2O.C7H6O2/c1-5-23(6-2,15-19-13-8-7-9-14-19)16-20(24)22-21-17(3)11-10-12-18(21)4;8-7(9)6-4-2-1-3-5-6/h7-14H,5-6,15-16H2,1-4H3;1-5H,(H,8,9)
#Ion_Source LC-ESI
#Instrument qTof
#Compound_Source NIH Pharmacologically Active Library
#PI Dorrestein
#Data_Collector VP/LMS
#Scan -1
#Precursor_MZ 325.228
#ExactMass 325.228
#Charge 1
#CAS_Number N/A
#Pubmed_ID N/A
#Smiles CC[N+](CC)(CC(=O)Nc1c(C)cccc1C)Cc2ccccc2.[O-]C(c1ccccc1)=O
#INCHI_AUX N/A
#Library_Class 1
#SpectrumID CCMSLIB00000086166
#IonMode Positive
#UpdateWorkflowName UPDATE-SINGLE-ANNOTATED-GOLD
#LibraryQualityString Gold
#TaskID d252d724072548979f1f6f1ced849daf
##Scan# 1639
#SpectrumFile p5-G04_GG4_01_18473.mzXML
#LibraryName Pharm_Active_Library.mgf
#MQScore -1
#Organism Pharm_Active_Library
#TIC_Query 0
#RT_Query -1
#MZErrorPPM -1
#SharedPeaks 0
#MassDiff 0
#LibMZ -1
#SpecMZ 325.228
#SpecCharge 0
#internalFilename spec-00000.mgf

>collision 0
91.0544 82.04
105.0707 3.45
106.0758 1.02
107.0855 0.99
117.0586 2.13
119.0736 1.02
120.0805 2.98
122.0961 4.87
132.0808 5.29
133.0885 1.13
134.0962 8.11
144.0799 1.85
147.068 6.83
148.0757 4.34
148.1116 15.74
162.0925 2.92
205.1337 3.53
233.1665 100.0
325.2304 1.64
