>compound MLS001076681-01!Paroxetine  maleate
>formula C19H20FNO3
>ionization [M+H]+
>parentmass 330.150055
#inchi InChI=1S/C19H20FNO3/c20-15-3-1-13(2-4-15)17-7-8-21-10-14(17)11-22-16-5-6-18-19(9-16)24-12-23-18/h1-6,9,14,17,21H,7-8,10-12H2/t14-,17-/m0/s1
#inchikey AHOUBRCZNHFOSL
#origInchi InChI=1S/C19H20FNO3.C4H4O4/c20-15-3-1-13(2-4-15)17-7-8-21-10-14(17)11-22-16-5-6-18-19(9-16)24-12-23-18;5-3(6)1-2-4(7)8/h1-6,9,14,17,21H,7-8,10-12H2;1-2H,(H,5,6)(H,7,8)/b;2-1-/t14-,17-;/m0./s1
#Ion_Source LC-ESI
#Instrument qTof
#Compound_Source NIH Pharmacologically Active Library
#PI Dorrestein
#Data_Collector VP/LMS
#Scan -1
#Precursor_MZ 330.159
#ExactMass 329.143
#Charge 1
#CAS_Number N/A
#Pubmed_ID N/A
#Smiles Fc1ccc(cc1)[C@@H]2CCNC[C@H]2COc3ccc4OCOc4c3.OC(=O)/C=C\C(=O)O
#INCHI_AUX N/A
#Library_Class 1
#SpectrumID CCMSLIB00000085582
#IonMode Positive
#UpdateWorkflowName UPDATE-SINGLE-ANNOTATED-GOLD
#LibraryQualityString Gold
#TaskID d252d724072548979f1f6f1ced849daf
##Scan# 1729
#SpectrumFile p4-C10_GC10_01_18358.mzXML
#LibraryName Pharm_Active_Library.mgf
#MQScore -1
#Organism Pharm_Active_Library
#TIC_Query 0
#RT_Query -1
#MZErrorPPM -1
#SharedPeaks 0
#MassDiff 0
#LibMZ -1
#SpecMZ 330.159
#SpecCharge 0
#internalFilename spec-00000.mgf

>collision 0
93.033 1.08
103.055 6.71
109.0451 36.36
115.0551 7.88
116.061 1.88
121.0289 3.13
121.0453 2.26
123.0609 34.0
128.0616 0.86
130.0639 0.9
133.0446 6.37
134.0513 3.93
135.0611 67.73
136.0669 15.69
137.0741 2.86
138.0725 2.83
139.0393 2.55
141.0699 1.18
143.0846 1.62
146.052 3.79
147.0601 14.86
148.0677 15.29
149.0753 8.42
150.0722 10.07
161.0765 19.87
163.0921 44.21
175.0913 2.32
176.0979 4.9
178.1024 14.62
190.102 2.54
192.119 100.0
208.113 0.99
313.1219 1.04
330.1501 47.93
