>compound MLS001140920-01!4-[[2-(4-methyl-2-oxochromen-7-yl)oxypropanoylamino]methyl]cyclohexane-1-carboxylic acid
>formula C21H25NO6
>ionization [M+H]+
>parentmass 388.176
#inchi InChI=1S/C21H25NO6/c1-12-9-19(23)28-18-10-16(7-8-17(12)18)27-13(2)20(24)22-11-14-3-5-15(6-4-14)21(25)26/h7-10,13-15H,3-6,11H2,1-2H3,(H,22,24)(H,25,26)/t13?,14-,15-
#inchikey GCWSGQPKIODBTC
#Ion_Source LC-ESI
#Instrument qTof
#Compound_Source NIH Natural Product Library
#PI Dorrestein
#Data_Collector VVP/LMS
#Scan -1
#Precursor_MZ 388.176
#ExactMass 387.168
#Charge 1
#CAS_Number N/A
#Pubmed_ID N/A
#Smiles CC(Oc1ccc2c(C)cc(=O)oc2c1)C(=O)NC[C@H]3CC[C@@H](CC3)C(=O)O
#INCHI_AUX N/A
#Library_Class 1
#SpectrumID CCMSLIB00000080184
#IonMode Positive
#UpdateWorkflowName UPDATE-SINGLE-ANNOTATED-GOLD
#LibraryQualityString Gold
#TaskID b1d8e8f6646f4e71acdff9ca3d919d08
##Scan# 1798
#SpectrumFile p2-C05_GC5_01_18005.mzXML
#LibraryName NIH_Natural_Products_Library.mgf
#MQScore -1
#Organism NIH_Natural_Products_Library
#TIC_Query 0
#RT_Query -1
#MZErrorPPM -1
#SharedPeaks 0
#MassDiff 0
#LibMZ -1
#SpecMZ 388.176
#SpecCharge 0
#internalFilename spec-00000.mgf

>collision 0
95.0858 6.9
105.0695 2.92
107.0501 0.77
107.086 1.0
112.1122 3.9
119.0854 0.97
122.0948 1.01
131.0493 3.32
133.0652 1.66
135.0816 1.17
138.0913 2.62
138.1273 3.95
140.1077 17.49
147.0811 3.85
149.0601 1.9
152.1078 1.38
159.0441 2.55
159.0803 1.53
166.0859 1.02
166.1222 1.1
167.1304 6.27
175.0769 8.51
177.0557 100.0
194.1181 4.51
195.1252 0.96
203.0717 45.42
231.0654 1.97
248.0926 9.28
342.1717 7.15
388.1756 0.0
