>compound MLS002153307-01!8-(Diethylamino)octyl-3,4,5-trimethoxybenzoate hydrochloride53464-72-5
>formula C22H37NO5
>ionization [M+H]+
>parentmass 396.275055
#inchi InChI=1S/C22H37NO5/c1-6-23(7-2)14-12-10-8-9-11-13-15-28-22(24)18-16-19(25-3)21(27-5)20(17-18)26-4/h16-17H,6-15H2,1-5H3
#inchikey IBQMHBGFMLHHLE
#origInchi InChI=1S/C22H37NO5.ClH/c1-6-23(7-2)14-12-10-8-9-11-13-15-28-22(24)18-16-19(25-3)21(27-5)20(17-18)26-4;/h16-17H,6-15H2,1-5H3;1H
#Ion_Source LC-ESI
#Instrument qTof
#Compound_Source NIH Pharmacologically Active Library
#PI Dorrestein
#Data_Collector VP/LMS
#Scan -1
#Precursor_MZ 396.27
#ExactMass 395.267
#Charge 1
#CAS_Number N/A
#Pubmed_ID N/A
#Smiles CCN(CC)CCCCCCCCOC(=O)c1cc(OC)c(OC)c(OC)c1.Cl
#INCHI_AUX N/A
#Library_Class 1
#SpectrumID CCMSLIB00000085296
#IonMode Positive
#UpdateWorkflowName UPDATE-SINGLE-ANNOTATED-GOLD
#LibraryQualityString Gold
#TaskID d252d724072548979f1f6f1ced849daf
##Scan# 1838
#SpectrumFile p3-G11_GG11_01_18304.mzXML
#LibraryName Pharm_Active_Library.mgf
#MQScore -1
#Organism Pharm_Active_Library
#TIC_Query 0
#RT_Query -1
#MZErrorPPM -1
#SharedPeaks 0
#MassDiff 0
#LibMZ -1
#SpecMZ 396.27
#SpecCharge 0
#internalFilename spec-00000.mgf

>collision 0
98.0964 1.02
109.0652 3.76
111.0449 0.96
122.036 1.89
123.0428 1.9
124.0519 4.31
125.0588 1.79
135.0439 1.19
137.0224 1.46
137.0603 1.59
138.0676 14.08
139.0397 8.71
139.0748 9.22
142.158 1.18
151.0388 3.27
152.0468 9.0
153.0542 2.85
154.0632 84.23
156.1761 4.34
165.0173 2.15
167.0694 3.84
169.0858 19.54
179.0349 4.03
182.1901 2.69
183.0285 1.38
184.2069 100.0
195.0658 96.13
197.0455 1.26
198.0525 13.06
200.1995 1.03
213.0758 7.74
310.2364 2.88
338.2319 15.52
348.217 1.6
350.2315 1.76
352.2462 4.33
362.2326 15.04
366.227 22.23
380.2433 17.94
396.2757 205.74
