>compound MLS001304731-01!raloxifene
>formula C28H27NO4S
>ionization [M+H]+
>parentmass 474.17337
#inchi InChI=1S/C28H27NO4S/c30-21-8-4-20(5-9-21)28-26(24-13-10-22(31)18-25(24)34-28)27(32)19-6-11-23(12-7-19)33-17-16-29-14-2-1-3-15-29/h4-13,18,30-31H,1-3,14-17H2
#inchikey GZUITABIAKMVPG
#origInchi InChI=1S/C28H27NO4S.ClH/c30-21-8-4-20(5-9-21)28-26(24-13-10-22(31)18-25(24)34-28)27(32)19-6-11-23(12-7-19)33-17-16-29-14-2-1-3-15-29;/h4-13,18,30-31H,1-3,14-17H2;1H
#Ion_Source LC-ESI
#Instrument qTof
#Compound_Source NIH Pharmacologically Active Library
#PI Dorrestein
#Data_Collector VP/LMS
#Scan -1
#Precursor_MZ 474.175
#ExactMass 474.174
#Charge 1
#CAS_Number N/A
#Pubmed_ID N/A
#Smiles Oc1ccc(cc1)c2sc3cc(O)ccc3c2C(=O)c4ccc(OCC[NH+]5CCCCC5)cc4.[Cl-]
#INCHI_AUX N/A
#Library_Class 1
#SpectrumID CCMSLIB00000085705
#IonMode Positive
#UpdateWorkflowName UPDATE-SINGLE-ANNOTATED-GOLD
#LibraryQualityString Gold
#TaskID d252d724072548979f1f6f1ced849daf
##Scan# 1671
#SpectrumFile p4-E05_GE5_01_18377.mzXML
#LibraryName Pharm_Active_Library.mgf
#MQScore -1
#Organism Pharm_Active_Library
#TIC_Query 0
#RT_Query -1
#MZErrorPPM -1
#SharedPeaks 0
#MassDiff 0
#LibMZ -1
#SpecMZ 474.175
#SpecCharge 0
#internalFilename spec-00000.mgf

>collision 0
84.0802 0.51
97.0881 0.74
98.0966 1.03
103.0174 1.63
110.0964 2.27
112.1128 100.0
121.0281 1.89
147.0441 11.21
197.0595 6.2
206.1544 0.47
213.0362 3.41
214.0398 0.95
224.028 0.65
241.0318 2.12
242.0371 0.67
251.0181 0.44
252.0233 0.45
253.0283 0.62
269.0272 51.69
270.0306 9.21
272.027 0.68
287.0514 1.17
288.0553 0.43
289.0657 0.96
291.046 0.5
298.0408 0.62
299.0546 0.8
303.0434 0.52
304.0518 0.59
305.0629 2.38
306.0673 0.85
316.0505 0.86
317.0636 0.82
319.0432 1.18
333.058 2.16
334.065 1.25
343.0417 0.47
345.0561 2.54
361.0537 5.19
362.0591 6.85
374.0592 0.95
389.0841 0.97
474.1754 179.28
