>compound MLS002154208-01!Methotrexate59-05-2
>formula C20H22N8O5
>ionization [M+H]+
>parentmass 455.1785922560905
#inchi InChI=1S/C20H22N8O5/c1-28(9-11-8-23-17-15(24-11)16(21)26-20(22)27-17)12-4-2-10(3-5-12)18(31)25-13(19(32)33)6-7-14(29)30/h2-5,8,13H,6-7,9H2,1H3,(H,25,31)(H,29,30)(H,32,33)(H4,21,22,23,26,27)/t13-/m0/s1
#inchikey FBOZXECLQNJBKD
#Ion_Source LC-ESI
#Instrument qTof
#Compound_Source NIH Pharmacologically Active Library
#PI Dorrestein
#Data_Collector VP/LMS
#Scan -1
#Precursor_MZ 455.182
#ExactMass 454.171
#Charge 1
#CAS_Number N/A
#Pubmed_ID N/A
#Smiles CN(Cc1cnc2nc(N)nc(N)c2n1)c3ccc(cc3)C(=O)N[C@@H](CCC(=O)O)C(=O)O
#INCHI_AUX N/A
#Library_Class 1
#SpectrumID CCMSLIB00000085727
#IonMode Positive
#UpdateWorkflowName UPDATE-SINGLE-ANNOTATED-GOLD
#LibraryQualityString Gold
#TaskID d252d724072548979f1f6f1ced849daf
##Scan# 1212
#SpectrumFile p4-E08_GE8_01_18380.mzXML
#LibraryName Pharm_Active_Library.mgf
#MQScore -1
#Organism Pharm_Active_Library
#TIC_Query 0
#RT_Query -1
#MZErrorPPM -1
#SharedPeaks 0
#MassDiff 0
#LibMZ -1
#SpecMZ 455.182
#SpecCharge 0
#internalFilename spec-00000.mgf

>collision 0
106.0641 1.22
107.0481 0.44
121.0496 0.37
132.0418 0.48
133.0502 5.68
134.06 52.27
148.0616 1.95
159.0513 0.69
160.0605 3.18
175.0729 100.0
176.0782 25.42
308.125 44.52
455.1786 0.0
