>compound MLS002695240-01!
>formula C15H19NO3
>ionization [M+H]+
>parentmass 262.1437699200905
#inchi InChI=1S/C15H19NO3/c1-16-11-5-6-12(16)9-14(8-11)19-15(18)10-3-2-4-13(17)7-10/h2-4,7,11-12,14,17H,5-6,8-9H2,1H3
#inchikey OJADCNKLFKWRHJ
#Ion_Source LC-ESI
#Instrument qTof
#Compound_Source NIH Natural Product Library
#PI Dorrestein
#Data_Collector VVP/LMS
#Scan -1
#Precursor_MZ 262.144
#ExactMass 261.137
#Charge 1
#CAS_Number N/A
#Pubmed_ID N/A
#Smiles CN1C2CCC1CC(C2)OC(=O)c3cccc(O)c3
#INCHI_AUX N/A
#Library_Class 1
#SpectrumID CCMSLIB00000080047
#IonMode Positive
#UpdateWorkflowName UPDATE-SINGLE-ANNOTATED-GOLD
#LibraryQualityString Gold
#TaskID b1d8e8f6646f4e71acdff9ca3d919d08
##Scan# 1349
#SpectrumFile p2-D03_GD3_01_18015.mzXML
#LibraryName NIH_Natural_Products_Library.mgf
#MQScore -1
#Organism NIH_Natural_Products_Library
#TIC_Query 0
#RT_Query -1
#MZErrorPPM -1
#SharedPeaks 0
#MassDiff 0
#LibMZ -1
#SpecMZ 262.144
#SpecCharge 0
#internalFilename spec-00000.mgf

>collision 0
95.0847 3.23
107.0867 0.79
108.0828 3.06
109.089 2.7
124.1132 100.0
262.1459 31.21
