>compound DOCETAXEL
>formula C43H53NO14
>ionization [M+Na]+
>parentmass 830.335449
#inchi InChI=1S/C43H53NO14/c1-22-26(55-37(51)32(48)30(24-15-11-9-12-16-24)44-38(52)58-39(3,4)5)20-43(53)35(56-36(50)25-17-13-10-14-18-25)33-41(8,34(49)31(47)29(22)40(43,6)7)27(46)19-28-42(33,21-54-28)57-23(2)45/h9-18,26-28,30-33,35,46-48,53H,19-21H2,1-8H3,(H,44,52)/t26-,27-,28+,30-,31+,32+,33-,35-,41+,42-,43-/m0/s1
#inchikey ZDZOTLJHXYCWBA
#Ion_Source LC-ESI
#Instrument qTof
#Compound_Source Commercial
#PI Dorrestein
#Data_Collector Garg_Neha
#Scan -1
#Precursor_MZ 830.336
#ExactMass 807.347
#Charge 1
#CAS_Number N/A
#Pubmed_ID N/A
#Smiles CC(=O)O[C@]12CO[C@@H]2C[C@H](O)[C@]3(C)[C@@H]1[C@H](OC(=O)c4ccccc4)[C@@]5(O)C[C@H](OC(=O)[C@H](O)[C@@H](NC(=O)OC(C)(C)C)c6ccccc6)C(=C([C@@H](O)C3=O)C5(C)C)C
#INCHI_AUX N/A
#Library_Class 1
#SpectrumID CCMSLIB00000078971
#IonMode Positive
#UpdateWorkflowName UPDATE-SINGLE-ANNOTATED-GOLD
#LibraryQualityString Gold
#TaskID 278b19f5865741e282cec7349aa7e7a1
##Scan# 1806
#SpectrumFile NCP003352_A2_B11_BC4_01_15718.mzXML
#LibraryName NIHcollectionI_05062014.mgf
#MQScore -1
#Organism NIHcollectionI_05062014
#TIC_Query 0
#RT_Query -1
#MZErrorPPM -1
#SharedPeaks 0
#MassDiff 0
#LibMZ -1
#SpecMZ 830.336
#SpecCharge 0
#internalFilename spec-00000.mgf

>collision 0
149.0573 2.26
149.0937 1.66
195.1157 1.96
199.1113 1.16
204.0622 13.86
211.1453 1.32
213.0905 1.1
213.1234 1.83
220.1236 1.11
225.125 1.87
229.1211 1.1
237.1232 1.41
248.053 64.25
259.133 1.71
299.1607 1.35
304.1152 82.65
305.1185 16.68
306.1214 2.01
327.1591 1.98
349.135 1.62
367.1476 3.04
368.1569 1.67
369.1295 1.16
383.1856 1.13
409.1615 1.74
427.1731 10.65
428.176 4.07
489.1886 3.75
490.192 1.44
509.2199 2.02
527.223 2.69
549.2083 100.0
550.2109 34.21
551.2152 7.76
552.2207 2.08
601.2127 1.28
603.2001 1.13
732.2555 1.34
774.2579 1.83
830.3336 141.94
