>compound MLS001331725-01!(9-oxo-10(9H)-acridinyl)acetic acid
>formula C15H11NO3
>ionization [M+H]+
>parentmass 254.079559
#inchi InChI=1S/C15H11NO3/c17-14(18)9-16-12-7-3-1-5-10(12)15(19)11-6-2-4-8-13(11)16/h1-8H,9H2,(H,17,18)
#inchikey UOMKBIIXHQIERR
#Ion_Source LC-ESI
#Instrument qTof
#Compound_Source NIH Pharmacologically Active Library
#PI Dorrestein
#Data_Collector VP/LMS
#Scan -1
#Precursor_MZ 254.083
#ExactMass 253.074
#Charge 1
#CAS_Number N/A
#Pubmed_ID N/A
#Smiles OC(=O)Cn1c2ccccc2c(=O)c3ccccc13
#INCHI_AUX N/A
#Library_Class 1
#SpectrumID CCMSLIB00000085099
#IonMode Positive
#UpdateWorkflowName UPDATE-SINGLE-ANNOTATED-GOLD
#LibraryQualityString Gold
#TaskID d252d724072548979f1f6f1ced849daf
##Scan# 1619
#SpectrumFile p3-E10_GE10_01_18279.mzXML
#LibraryName Pharm_Active_Library.mgf
#MQScore -1
#Organism Pharm_Active_Library
#TIC_Query 0
#RT_Query -1
#MZErrorPPM -1
#SharedPeaks 0
#MassDiff 0
#LibMZ -1
#SpecMZ 254.083
#SpecCharge 0
#internalFilename spec-00000.mgf

>collision 0
166.0643 4.83
167.072 33.61
180.0798 21.98
194.0585 1.55
195.0672 100.0
208.0744 14.43
209.0824 11.0
254.0796 18.59
