>compound CORTISONE ACETATE
>formula C23H30O6 
>ionization [M+H]+
>parentmass 403.211975
#inchi InChI=1S/C23H30O6/c1-13(24)29-12-19(27)23(28)9-7-17-16-5-4-14-10-15(25)6-8-21(14,2)20(16)18(26)11-22(17,23)3/h10,16-17,20,28H,4-9,11-12H2,1-3H3/t16-,17-,20+,21-,22-,23-/m0/s1
#inchikey ITRJWOMZKQRYTA
#Ion_Source LC-ESI
#Instrument qTof
#Compound_Source Commercial
#PI Dorrestein
#Data_Collector Garg_Neha
#Scan -1
#Precursor_MZ 403.213
#ExactMass 402.204
#Charge 1
#CAS_Number N/A
#Pubmed_ID N/A
#Smiles N/A
#INCHI_AUX N/A
#Library_Class 1
#SpectrumID CCMSLIB00000077116
#IonMode Positive
#UpdateWorkflowName UPDATE-SINGLE-ANNOTATED-GOLD
#LibraryQualityString Gold
#TaskID 48f7f52fc6d249b5abbcc6e7b3df5969
##Scan# 1389
#SpectrumFile NCP003106_G2_H11_BB5_01_15708.mzXML
#LibraryName NIH_Clinical_Collection_2.mgf
#MQScore -1
#Organism NIHcollection2_04212014_2_mgf
#TIC_Query 0
#RT_Query -1
#MZErrorPPM -1
#SharedPeaks 0
#MassDiff 0
#LibMZ -1
#SpecMZ 403.213
#SpecCharge 0
#internalFilename spec-00000.mgf

>collision 0
93.0707 8.33
107.0875 15.03
119.0853 8.66
121.0651 21.9
121.0992 12.91
145.103 18.79
149.0971 13.73
163.1117 100.0
164.1192 12.25
173.0968 16.67
183.1161 12.91
243.1744 11.44
265.1576 11.44
267.1743 13.07
298.1926 10.13
301.18 19.12
313.1813 11.27
325.1784 17.32
343.1928 66.34
344.1957 32.03
385.1994 18.46
403.2145 593.3
