>compound MLS000069797-01!1,10-PHENANTHROLINE66-71-7
>formula C12H8N2
>ionization [M+H]+
>parentmass 181.075378
#inchi InChI=1S/C12H8N2/c1-3-9-5-6-10-4-2-8-14-12(10)11(9)13-7-1/h1-8H
#inchikey DGEZNRSVGBDHLK
#Ion_Source LC-ESI
#Instrument qTof
#Compound_Source NIH Pharmacologically Active Library
#PI Dorrestein
#Data_Collector VP/LMS
#Scan -1
#Precursor_MZ 181.078
#ExactMass 180.069
#Charge 1
#CAS_Number N/A
#Pubmed_ID N/A
#Smiles c1cnc2c(c1)ccc3cccnc32
#INCHI_AUX N/A
#Library_Class 1
#SpectrumID CCMSLIB00000085792
#IonMode Positive
#UpdateWorkflowName UPDATE-SINGLE-ANNOTATED-GOLD
#LibraryQualityString Gold
#TaskID d252d724072548979f1f6f1ced849daf
##Scan# 1151
#SpectrumFile p4-F07_GF7_01_18391.mzXML
#LibraryName Pharm_Active_Library.mgf
#MQScore -1
#Organism Pharm_Active_Library
#TIC_Query 0
#RT_Query -1
#MZErrorPPM -1
#SharedPeaks 0
#MassDiff 0
#LibMZ -1
#SpecMZ 181.078
#SpecCharge 0
#internalFilename spec-00000.mgf

>collision 0
98.0156 0.62
101.0381 2.18
103.0536 5.02
126.0449 10.63
127.0537 30.09
128.0495 17.26
153.0555 12.31
154.0646 100.0
155.0623 24.18
166.0529 0.95
181.0754 253.47
