>compound Doxazosin mesylate
>formula C23H25N5O5
>ionization [M+H]+
>parentmass 452.194794
#inchi InChI=1S/C23H25N5O5/c1-30-18-11-14-15(12-19(18)31-2)25-23(26-21(14)24)28-9-7-27(8-10-28)22(29)20-13-32-16-5-3-4-6-17(16)33-20/h3-6,11-12,20H,7-10,13H2,1-2H3,(H2,24,25,26)
#inchikey RUZYUOTYCVRMRZ
#origInchi InChI=1S/C23H25N5O5.CH4O3S/c1-30-18-11-14-15(12-19(18)31-2)25-23(26-21(14)24)28-9-7-27(8-10-28)22(29)20-13-32-16-5-3-4-6-17(16)33-20;1-5(2,3)4/h3-6,11-12,20H,7-10,13H2,1-2H3,(H2,24,25,26);1H3,(H,2,3,4)
#Ion_Source LC-ESI
#Instrument qTof
#Compound_Source Commercial
#PI Dorrestein
#Data_Collector Garg_Neha
#Scan -1
#Precursor_MZ 452.193
#ExactMass 451.186
#Charge 1
#CAS_Number 77883-43-3, 74191-85-8 (free base)
#Pubmed_ID N/A
#Smiles C12(=CC(=C(C=C1C(=NC(=N2)N3CCN(CC3)C(C4COC5=C(O4)C=CC=C5)=O)N)OC)OC).S(=O)(O)(=O)C
#INCHI_AUX N/A
#Library_Class 1
#SpectrumID CCMSLIB00000078096
#IonMode Positive
#UpdateWorkflowName UPDATE-SINGLE-ANNOTATED-GOLD
#LibraryQualityString Gold
#TaskID 77f51c88eb8b467eb4a01dd2d0cb90d2
##Scan# 1135
#SpectrumFile Plate2_1_20_GG5_01_16493.mzXML
#LibraryName FDALibrary_2_04302014.mgf
#MQScore -1
#Organism FDALibrary_2_04302014
#TIC_Query 0
#RT_Query -1
#MZErrorPPM -1
#SharedPeaks 0
#MassDiff 0
#LibMZ -1
#SpecMZ 452.193
#SpecCharge 0
#internalFilename spec-00000.mgf

>collision 0
98.06 1.22
124.0743 0.47
135.0442 1.96
163.0403 0.42
203.0924 0.65
204.078 0.46
205.0741 0.6
206.0802 1.54
217.0714 0.66
220.0963 1.13
221.1033 6.11
231.0874 2.28
232.0952 1.94
233.1032 5.51
245.1033 1.98
246.1121 0.43
247.1204 41.0
259.1219 0.67
273.1354 1.48
274.1331 1.31
282.1353 0.39
288.1457 4.41
290.1631 23.64
291.1671 3.93
292.1671 0.29
300.1435 0.65
301.1319 3.11
310.1299 1.61
311.1368 1.05
312.145 0.29
324.1478 0.3
326.1628 6.39
328.1423 2.1
329.1491 1.91
330.1547 0.43
342.1588 0.46
344.1754 100.0
345.1769 20.42
346.1791 2.23
436.1641 1.38
437.1689 2.08
452.1983 139.15
