>compound Duloxetine
>formula C18H19NOS
>ionization [M+H]+
>parentmass 298.124664
#inchi InChI=1S/C18H19NOS/c1-19-12-11-17(18-10-5-13-21-18)20-16-9-4-7-14-6-2-3-8-15(14)16/h2-10,13,17,19H,11-12H2,1H3/t17-/m0/s1
#inchikey ZEUITGRIYCTCEM
#Ion_Source LC-ESI
#Instrument qTof
#Compound_Source Commercial
#PI Dorrestein
#Data_Collector Garg_Neha
#Scan -1
#Precursor_MZ 298.126
#ExactMass 297.119
#Charge 1
#CAS_Number N/A
#Pubmed_ID N/A
#Smiles CNCC[C@H](Oc1cccc2ccccc12)c3cccs3
#INCHI_AUX N/A
#Library_Class 1
#SpectrumID CCMSLIB00000079168
#IonMode Positive
#UpdateWorkflowName UPDATE-SINGLE-ANNOTATED-GOLD
#LibraryQualityString Gold
#TaskID 278b19f5865741e282cec7349aa7e7a1
##Scan# 1191
#SpectrumFile NCP003592_C2_D11_BE1_01_15735.mzXML
#LibraryName NIHcollectionI_05062014.mgf
#MQScore -1
#Organism NIHcollectionI_05062014
#TIC_Query 0
#RT_Query -1
#MZErrorPPM -1
#SharedPeaks 0
#MassDiff 0
#LibMZ -1
#SpecMZ 298.126
#SpecCharge 0
#internalFilename spec-00000.mgf

>collision 0
97.0124 15.73
123.0251 34.42
124.035 89.91
129.0702 32.64
153.0611 20.47
154.0682 100.0
155.0782 56.97
178.0803 12.17
183.0825 47.18
212.0531 10.39
221.0439 11.28
221.0974 13.35
239.052 7.12
267.0829 46.29
268.0902 33.53
298.1247 204.75
