>compound [(8S,9R,10S,11S,13S,14S,16S,17R)-17-(2-chloroacetyl)-9-fluoro-11-hydroxy-10,13,16-trimethyl-3-oxo-6,7,8,11,12,14,15,16-octahydrocyclopenta[a]phenanthren-17-yl] propanoate
>formula C25H32ClFO5 
>ionization [M+H]+
>parentmass 467.198822
#inchi InChI=1S/C25H32ClFO5/c1-5-21(31)32-25(20(30)13-26)14(2)10-18-17-7-6-15-11-16(28)8-9-22(15,3)24(17,27)19(29)12-23(18,25)4/h8-9,11,14,17-19,29H,5-7,10,12-13H2,1-4H3/t14-,17-,18-,19-,22-,23-,24-,25-/m0/s1
#inchikey CBGUOGMQLZIXBE
#Ion_Source LC-ESI
#Instrument qTof
#Compound_Source Commercial
#PI Dorrestein
#Data_Collector Garg_Neha
#Scan -1
#Precursor_MZ 467.201
#ExactMass 466.192
#Charge 1
#CAS_Number N/A
#Pubmed_ID N/A
#Smiles N/A
#INCHI_AUX N/A
#Library_Class 1
#SpectrumID CCMSLIB00000077025
#IonMode Positive
#UpdateWorkflowName UPDATE-SINGLE-ANNOTATED-GOLD
#LibraryQualityString Gold
#TaskID 48f7f52fc6d249b5abbcc6e7b3df5969
##Scan# 2292
#SpectrumFile NCP003017_A2_B11_BA6_01_15701.mzXML
#LibraryName NIH_Clinical_Collection_2.mgf
#MQScore -1
#Organism NIHcollection2_04212014_2_mgf
#TIC_Query 0
#RT_Query -1
#MZErrorPPM -1
#SharedPeaks 0
#MassDiff 0
#LibMZ -1
#SpecMZ 467.201
#SpecCharge 0
#internalFilename spec-00000.mgf

>collision 0
119.0837 11.03
121.0651 12.61
135.0819 11.82
145.1018 12.32
147.0801 47.19
159.0788 32.91
161.0988 12.32
171.1179 10.64
173.0959 15.07
185.0988 21.97
203.1078 13.99
208.088 15.47
211.1124 15.37
213.1264 24.73
223.111 15.67
241.1208 11.23
248.1197 14.88
253.1597 29.36
262.1372 13.2
263.1431 74.09
277.158 28.97
278.166 47.39
279.175 68.37
291.1766 22.27
296.1769 11.82
301.1565 22.66
309.1875 9.75
319.1699 31.23
327.1511 28.57
337.1383 33.89
337.1797 14.19
339.1334 12.12
345.1623 15.47
347.1603 12.71
355.1448 100.0
357.143 47.78
373.1575 78.72
375.153 53.3
447.1912 15.86
467.1988 14.78
