>compound Undecylprodiginine
>formula C25H35N3O 
>ionization [M+H]+
>parentmass 394.286
#inchi InChI=1S/C25H35N3O/c1-3-4-5-6-7-8-9-10-11-13-20-15-16-21(27-20)18-24-25(29-2)19-23(28-24)22-14-12-17-26-22/h12,14-19,27-28H,3-11,13H2,1-2H3/b23-22-,24-18-
#inchikey ISFCPXILUVJVOC
#Ion_Source DI-ESI
#Instrument LTQ-FT-ICR
#Compound_Source Crude
#PI Dorrestein
#Data_Collector J Watrous
#Scan -1
#Precursor_MZ 394.286
#ExactMass 0.0
#Charge 1
#CAS_Number N/A
#Pubmed_ID N/A
#Smiles N/A
#INCHI_AUX N/A
#Library_Class 3
#SpectrumID CCMSLIB00000072310
#IonMode Positive
#UpdateWorkflowName UPDATE-SINGLE-ANNOTATED-BRONZE
#LibraryQualityString Bronze
#TaskID 3bbf0c46eeeb406782b2f3cd0ad9b2b3
##Scan# 1
#SpectrumFile Undecylprodiginine_1H_LTQ_394_2859.mzXML
#LibraryName gnps_library.mgf
#MQScore -1
#Organism GNPS_JDW_Batch_Library_Centroid
#TIC_Query 0
#RT_Query -1
#MZErrorPPM -1
#SharedPeaks 0
#MassDiff 0
#LibMZ -1
#SpecMZ 394.286
#SpecCharge 0
#internalFilename spec-00000.mgf

>collision 0
221.0833 3.15
239.0833 47.6
266.1667 2.79
281.1667 1.78
308.25 5.09
309.1667 2.25
323.25 1.74
337.25 2.43
362.25 10.31
394.286 0.0
