>compound Diethylstilbestrol (Stilbestrol)
>formula C18H20O2
>ionization [M+H]+
>parentmass 269.154
#inchi InChI=1S/C18H20O2/c1-3-17(13-5-9-15(19)10-6-13)18(4-2)14-7-11-16(20)12-8-14/h5-12,19-20H,3-4H2,1-2H3/b18-17+
#inchikey RGLYKWWBQGJZGM
#Ion_Source LC-ESI
#Instrument qTof
#Compound_Source Commercial
#PI Dorrestein
#Data_Collector Garg_Neha
#Scan -1
#Precursor_MZ 269.154
#ExactMass 268.146
#Charge 1
#CAS_Number 56-53-1
#Pubmed_ID N/A
#Smiles C1(=CC=C(C=C1)/C(=C(/C2=CC=C(C=C2)O)CC)CC)O
#INCHI_AUX N/A
#Library_Class 1
#SpectrumID CCMSLIB00000078320
#IonMode Positive
#UpdateWorkflowName UPDATE-SINGLE-ANNOTATED-GOLD
#LibraryQualityString Gold
#TaskID 77f51c88eb8b467eb4a01dd2d0cb90d2
##Scan# 1628
#SpectrumFile Plate5_21_40_GH7_01_16509.mzXML
#LibraryName FDALibrary_2_04302014.mgf
#MQScore -1
#Organism FDALibrary_2_04302014
#TIC_Query 0
#RT_Query -1
#MZErrorPPM -1
#SharedPeaks 0
#MassDiff 0
#LibMZ -1
#SpecMZ 269.154
#SpecCharge 0
#internalFilename spec-00000.mgf

>collision 0
107.049 39.91
121.0653 24.73
128.0627 4.73
135.0795 100.0
181.0635 14.82
199.0735 77.27
269.154 0.0
