>compound MLS001401401-01!Galanthamine
>formula C17H21NO3
>ionization [M+H]+
>parentmass 288.1594199840905
#inchi InChI=1S/C17H21NO3/c1-18-8-7-17-6-5-12(19)9-14(17)21-16-13(20-2)4-3-11(10-18)15(16)17/h3-6,12,14,19H,7-10H2,1-2H3/t12-,14-,17-/m0/s1
#inchikey ASUTZQLVASHGKV
#origInchi InChI=1S/C17H21NO3.BrH/c1-18-8-7-17-6-5-12(19)9-14(17)21-16-13(20-2)4-3-11(10-18)15(16)17;/h3-6,12,14,19H,7-10H2,1-2H3;1H/t12-,14-,17-;/m0./s1
#Ion_Source LC-ESI
#Instrument qTof
#Compound_Source NIH Pharmacologically Active Library
#PI Dorrestein
#Data_Collector VP/LMS
#Scan -1
#Precursor_MZ 288.156
#ExactMass 287.152
#Charge 1
#CAS_Number N/A
#Pubmed_ID N/A
#Smiles COc1ccc2CN(C)CC[C@]34C=C[C@H](O)C[C@@H]4Oc1c23.Br
#INCHI_AUX N/A
#Library_Class 1
#SpectrumID CCMSLIB00000085961
#IonMode Positive
#UpdateWorkflowName UPDATE-SINGLE-ANNOTATED-GOLD
#LibraryQualityString Gold
#TaskID d252d724072548979f1f6f1ced849daf
##Scan# 904
#SpectrumFile p4-H07_GH7_01_18415.mzXML
#LibraryName Pharm_Active_Library.mgf
#MQScore -1
#Organism Pharm_Active_Library
#TIC_Query 0
#RT_Query -1
#MZErrorPPM -1
#SharedPeaks 0
#MassDiff 0
#LibMZ -1
#SpecMZ 288.156
#SpecCharge 0
#internalFilename spec-00000.mgf

>collision 0
128.0615 3.6
135.0815 3.99
141.07 8.71
142.0775 3.79
145.066 3.84
152.0614 4.13
153.0693 7.3
159.0807 4.77
161.0966 4.04
165.0703 6.96
169.0645 13.28
170.0729 17.9
181.0649 11.04
182.0714 26.31
183.0444 32.88
189.0916 5.06
197.059 11.33
198.0669 88.13
203.1056 4.86
212.0832 4.04
213.0906 100.0
231.1001 6.57
255.1253 4.43
270.1494 6.23
288.1594 0.0
