>compound MLS001158167-01!
>formula C27H26N2O5
>ionization [M+H]+
>parentmass 459.192
#inchi InChI=1S/C27H26N2O5/c1-15-14-33-23-10-24-21(9-20(15)23)16(2)19(27(32)34-24)6-7-25(30)28-11-17-8-18(13-28)22-4-3-5-26(31)29(22)12-17/h3-5,9-10,14,17-18H,6-8,11-13H2,1-2H3/t17-,18+/m1/s1
#inchikey VUWMLTCBBVFJTC
#Ion_Source LC-ESI
#Instrument qTof
#Compound_Source NIH Natural Product Library
#PI Dorrestein
#Data_Collector VVP/LMS
#Scan -1
#Precursor_MZ 459.192
#ExactMass 458.184
#Charge 1
#CAS_Number N/A
#Pubmed_ID N/A
#Smiles Cc1coc2cc3oc(=O)c(CCC(=O)N4C[C@H]5C[C@@H](C4)c6cccc(=O)n6C5)c(C)c3cc12
#INCHI_AUX N/A
#Library_Class 1
#SpectrumID CCMSLIB00000080314
#IonMode Positive
#UpdateWorkflowName UPDATE-SINGLE-ANNOTATED-GOLD
#LibraryQualityString Gold
#TaskID b1d8e8f6646f4e71acdff9ca3d919d08
##Scan# 1965
#SpectrumFile p2-B07_GB7_01_17995.mzXML
#LibraryName NIH_Natural_Products_Library.mgf
#MQScore -1
#Organism NIH_Natural_Products_Library
#TIC_Query 0
#RT_Query -1
#MZErrorPPM -1
#SharedPeaks 0
#MassDiff 0
#LibMZ -1
#SpecMZ 459.192
#SpecCharge 0
#internalFilename spec-00000.mgf

>collision 0
128.1069 0.97
129.1129 0.43
149.128 0.23
168.1153 0.3
171.1394 1.63
192.1865 0.72
198.138 0.24
199.1445 7.51
213.1637 0.86
214.1691 0.22
227.1501 100.0
241.1704 28.61
242.174 4.99
269.1754 38.61
271.1809 0.62
459.192 0.0
