>compound MLS001195633-01!clopidogrel
>formula C16H16ClNO2S
>ionization [M+H]+
>parentmass 322.06630388409053
#inchi InChI=1S/C16H16ClNO2S/c1-20-16(19)15(12-4-2-3-5-13(12)17)18-8-6-14-11(10-18)7-9-21-14/h2-5,7,9,15H,6,8,10H2,1H3/t15-/m0/s1
#inchikey GKTWGGQPFAXNFI
#Ion_Source LC-ESI
#Instrument qTof
#Compound_Source NIH Pharmacologically Active Library
#PI Dorrestein
#Data_Collector VP/LMS
#Scan -1
#Precursor_MZ 322.072
#ExactMass 321.059
#Charge 1
#CAS_Number N/A
#Pubmed_ID N/A
#Smiles COC(=O)[C@@H](N1CCc2sccc2C1)c3ccccc3Cl
#INCHI_AUX N/A
#Library_Class 1
#SpectrumID CCMSLIB00000086145
#IonMode Positive
#UpdateWorkflowName UPDATE-SINGLE-ANNOTATED-GOLD
#LibraryQualityString Gold
#TaskID d252d724072548979f1f6f1ced849daf
##Scan# 1996
#SpectrumFile p5-G02_GG2_01_18471.mzXML
#LibraryName Pharm_Active_Library.mgf
#MQScore -1
#Organism Pharm_Active_Library
#TIC_Query 0
#RT_Query -1
#MZErrorPPM -1
#SharedPeaks 0
#MassDiff 0
#LibMZ -1
#SpecMZ 322.072
#SpecCharge 0
#internalFilename spec-00000.mgf

>collision 0
91.0555 2.51
105.0338 5.87
112.0067 0.4
117.0573 0.51
125.0161 27.82
133.028 1.12
138.9943 1.3
140.0017 0.65
148.0517 2.91
152.0267 38.98
155.027 100.0
167.9979 0.27
183.0211 31.46
184.053 33.63
212.0472 9.15
322.0663 0.0
