>compound MLS000860043-01!1,5-Isoquinolinediol
>formula C9H7NO2
>ionization [M+H]+
>parentmass 162.054993
#inchi InChI=1S/C9H7NO2/c11-8-3-1-2-7-6(8)4-5-10-9(7)12/h1-5,11H,(H,10,12)
#inchikey LFUJIPVWTMGYDG
#Ion_Source LC-ESI
#Instrument qTof
#Compound_Source NIH Pharmacologically Active Library
#PI Dorrestein
#Data_Collector VP/LMS
#Scan -1
#Precursor_MZ 162.056
#ExactMass 161.048
#Charge 1
#CAS_Number N/A
#Pubmed_ID N/A
#Smiles Oc1cccc2c(O)nccc12
#INCHI_AUX N/A
#Library_Class 1
#SpectrumID CCMSLIB00000085840
#IonMode Positive
#UpdateWorkflowName UPDATE-SINGLE-ANNOTATED-GOLD
#LibraryQualityString Gold
#TaskID d252d724072548979f1f6f1ced849daf
##Scan# 1168
#SpectrumFile p4-G02_GG2_01_18398.mzXML
#LibraryName Pharm_Active_Library.mgf
#MQScore -1
#Organism Pharm_Active_Library
#TIC_Query 0
#RT_Query -1
#MZErrorPPM -1
#SharedPeaks 0
#MassDiff 0
#LibMZ -1
#SpecMZ 162.056
#SpecCharge 0
#internalFilename spec-00000.mgf

>collision 0
89.0393 6.01
101.0388 2.64
106.0662 5.02
116.0486 100.0
117.0339 5.41
135.0432 3.23
144.0436 20.0
162.055 20.4
