>compound MLS001148390-01!DL-KAWAIN
>formula C14H14O3
>ionization [M+H]+
>parentmass 231.102
#inchi InChI=1S/C14H14O3/c1-16-13-9-12(17-14(15)10-13)8-7-11-5-3-2-4-6-11/h2-8,10,12H,9H2,1H3/b8-7+
#inchikey XEAQIWGXBXCYFX
#Ion_Source LC-ESI
#Instrument qTof
#Compound_Source NIH Pharmacologically Active Library
#PI Dorrestein
#Data_Collector VP/LMS
#Scan -1
#Precursor_MZ 231.102
#ExactMass 230.094
#Charge 1
#CAS_Number N/A
#Pubmed_ID N/A
#Smiles COC1=CC(=O)OC(C1)/C=C/c2ccccc2
#INCHI_AUX N/A
#Library_Class 1
#SpectrumID CCMSLIB00000084963
#IonMode Positive
#UpdateWorkflowName UPDATE-SINGLE-ANNOTATED-GOLD
#LibraryQualityString Gold
#TaskID d252d724072548979f1f6f1ced849daf
##Scan# 2050
#SpectrumFile p3-D03_GD3_01_18260.mzXML
#LibraryName Pharm_Active_Library.mgf
#MQScore -1
#Organism Pharm_Active_Library
#TIC_Query 0
#RT_Query -1
#MZErrorPPM -1
#SharedPeaks 0
#MassDiff 0
#LibMZ -1
#SpecMZ 231.102
#SpecCharge 0
#internalFilename spec-00000.mgf

>collision 0
55.0541 3.14
77.0386 3.25
103.054 9.81
115.055 63.0
126.0445 5.93
128.0625 69.5
129.0703 13.45
131.0485 6.73
141.0698 12.54
142.0765 12.2
145.0639 4.56
151.0547 14.65
152.0616 100.0
153.0693 83.24
157.0666 5.25
158.1087 3.14
169.0648 23.09
181.0659 21.27
185.0972 5.07
186.1024 4.56
213.0905 3.48
214.099 3.88
231.102 0.0
