>compound MLS002153333-01!NO-711 hydrochloride145645-62-1
>formula C21H22N2O3
>ionization [M+H]+
>parentmass 351.171112
#inchi InChI=1S/C21H22N2O3/c24-21(25)19-12-7-13-23(16-19)14-15-26-22-20(17-8-3-1-4-9-17)18-10-5-2-6-11-18/h1-6,8-12H,7,13-16H2,(H,24,25)
#inchikey NGNALWDRPKNJGR
#origInchi InChI=1S/C21H22N2O3.ClH/c24-21(25)19-12-7-13-23(16-19)14-15-26-22-20(17-8-3-1-4-9-17)18-10-5-2-6-11-18;/h1-6,8-12H,7,13-16H2,(H,24,25);1H
#Ion_Source LC-ESI
#Instrument qTof
#Compound_Source NIH Pharmacologically Active Library
#PI Dorrestein
#Data_Collector VP/LMS
#Scan -1
#Precursor_MZ 351.177
#ExactMass 350.163
#Charge 1
#CAS_Number N/A
#Pubmed_ID N/A
#Smiles OC(=O)C1=CCCN(CCON=C(c2ccccc2)c3ccccc3)C1.Cl
#INCHI_AUX N/A
#Library_Class 1
#SpectrumID CCMSLIB00000085821
#IonMode Positive
#UpdateWorkflowName UPDATE-SINGLE-ANNOTATED-GOLD
#LibraryQualityString Gold
#TaskID d252d724072548979f1f6f1ced849daf
##Scan# 1694
#SpectrumFile p4-F10_GF10_01_18394.mzXML
#LibraryName Pharm_Active_Library.mgf
#MQScore -1
#Organism Pharm_Active_Library
#TIC_Query 0
#RT_Query -1
#MZErrorPPM -1
#SharedPeaks 0
#MassDiff 0
#LibMZ -1
#SpecMZ 351.177
#SpecCharge 0
#internalFilename spec-00000.mgf

>collision 0
91.0541 0.68
94.066 0.39
104.0493 1.79
106.0654 0.22
108.0442 0.35
108.081 1.31
122.0597 1.3
124.0749 0.33
126.0548 1.51
136.0749 3.6
140.0702 5.92
154.0864 48.1
170.0817 0.8
180.0806 100.0
351.1693 0.05
