>compound Cilostazol
>formula C20H27N5O2
>ionization [M+H]+
>parentmass 370.2237515560906
#inchi InChI=1S/C20H27N5O2/c26-20-12-9-15-14-17(10-11-18(15)21-20)27-13-5-4-8-19-22-23-24-25(19)16-6-2-1-3-7-16/h10-11,14,16H,1-9,12-13H2,(H,21,26)
#inchikey RRGUKTPIGVIEKM
#Ion_Source LC-ESI
#Instrument qTof
#Compound_Source Commercial
#PI Dorrestein
#Data_Collector Garg_Neha
#Scan -1
#Precursor_MZ 370.224
#ExactMass 369.216
#Charge 1
#CAS_Number 73963-72-1
#Pubmed_ID N/A
#Smiles C1C(NC2=C(C1)C=C(C=C2)OCCCCC3N(N=NN=3)C4CCCCC4)=O
#INCHI_AUX N/A
#Library_Class 1
#SpectrumID CCMSLIB00000078092
#IonMode Positive
#UpdateWorkflowName UPDATE-SINGLE-ANNOTATED-GOLD
#LibraryQualityString Gold
#TaskID 77f51c88eb8b467eb4a01dd2d0cb90d2
##Scan# 1355
#SpectrumFile Plate2_1_20_GG5_01_16493.mzXML
#LibraryName FDALibrary_2_04302014.mgf
#MQScore -1
#Organism FDALibrary_2_04302014
#TIC_Query 0
#RT_Query -1
#MZErrorPPM -1
#SharedPeaks 0
#MassDiff 0
#LibMZ -1
#SpecMZ 370.224
#SpecCharge 0
#internalFilename spec-00000.mgf

>collision 0
120.0446 0.57
122.0612 1.04
125.0831 26.22
134.0606 1.29
146.0608 1.89
148.0759 3.47
160.0756 2.43
162.0563 3.59
164.0712 6.82
173.072 2.15
174.0923 4.16
176.0715 9.22
184.0759 1.7
188.0702 0.45
189.0658 2.36
190.0851 0.71
198.0893 0.55
200.0699 1.33
201.0663 3.86
201.1021 1.63
202.0856 9.05
215.0824 0.51
215.1175 0.39
216.1 1.04
218.1188 5.98
226.084 0.62
228.0881 0.47
243.1133 3.82
245.128 3.08
288.147 100.0
370.2258 137.51
