>compound Ferintoic acid B
>formula C47H60N8O9 
>ionization [M+H]+
>parentmass 881.4556019520905
#inchi InChI=1S/C47H60N8O9/c1-5-28(2)40-44(60)50-37(23-20-30-18-21-33(56)22-19-30)45(61)55(4)29(3)41(57)51-38(25-31-13-7-6-8-14-31)42(58)48-24-12-11-17-36(43(59)54-40)52-47(64)53-39(46(62)63)26-32-27-49-35-16-10-9-15-34(32)35/h6-10,13-16,18-19,21-22,27-29,36-40,49,56H,5,11-12,17,20,23-26H2,1-4H3,(H,48,58)(H,50,60)(H,51,57)(H,54,59)(H,62,63)(H2,52,53,64)/t28-,29+,36-,37+,38+,39+,40+/m1/s1
#inchikey RZGOIGKRVXBOMH
#Ion_Source LC-ESI
#Instrument LCQ
#Compound_Source Crude
#PI Gerwick
#Data_Collector E Briand
#Scan -1
#Precursor_MZ 881.18
#ExactMass 881.456
#Charge 1
#CAS_Number N/A
#Pubmed_ID N/A
#Smiles N/A
#INCHI_AUX N/A
#Library_Class 3
#SpectrumID CCMSLIB00000071762
#IonMode Positive
#UpdateWorkflowName UPDATE-SINGLE-ANNOTATED-BRONZE
#LibraryQualityString Bronze
#TaskID 6e221885dc494bf18708e4b1149ba4da
##Scan# 473
#SpectrumFile Ferintoic acidB_MSMS.mzXML
#LibraryName gnps_library.mgf
#MQScore -1
#Organism GNPS_Standard_Enora
#TIC_Query 0
#RT_Query -1
#MZErrorPPM -1
#SharedPeaks 0
#MassDiff 0
#LibMZ -1
#SpecMZ 881.18
#SpecCharge 0
#internalFilename spec-00000.mgf

>collision 0
467.3046 7.49
482.1874 10.28
499.975 34.63
572.988 44.98
602.2307 15.05
651.0747 72.41
677.0166 100.0
686.215 8.68
704.3582 12.7
810.4492 9.83
853.4219 47.36
881.4556 0.0
