>compound Racecadotril (Acetorphan)
>formula C21H23NO4S
>ionization [M+H]+
>parentmass 386.140533
#inchi InChI=1S/C21H23NO4S/c1-16(23)27-15-19(12-17-8-4-2-5-9-17)21(25)22-13-20(24)26-14-18-10-6-3-7-11-18/h2-11,19H,12-15H2,1H3,(H,22,25)
#inchikey ODUOJXZPIYUATO
#Ion_Source LC-ESI
#Instrument qTof
#Compound_Source Commercial
#PI Dorrestein
#Data_Collector Garg_Neha
#Scan -1
#Precursor_MZ 386.142
#ExactMass 385.135
#Charge 1
#CAS_Number 81110-73-8
#Pubmed_ID N/A
#Smiles C1=CC=C(C=C1)COC(CNC(C(CSC(=O)C)CC2=CC=CC=C2)=O)=O
#INCHI_AUX N/A
#Library_Class 1
#SpectrumID CCMSLIB00000078496
#IonMode Positive
#UpdateWorkflowName UPDATE-SINGLE-ANNOTATED-GOLD
#LibraryQualityString Gold
#TaskID 77f51c88eb8b467eb4a01dd2d0cb90d2
##Scan# 1985
#SpectrumFile Plate8_1_20_GC9_01_15762.mzXML
#LibraryName FDALibrary_2_04302014.mgf
#MQScore -1
#Organism FDALibrary_2_04302014
#TIC_Query 0
#RT_Query -1
#MZErrorPPM -1
#SharedPeaks 0
#MassDiff 0
#LibMZ -1
#SpecMZ 386.142
#SpecCharge 0
#internalFilename spec-00000.mgf

>collision 0
91.0542 15.81
117.0693 3.99
129.0696 1.27
137.041 1.81
145.0647 11.69
157.0648 4.28
179.0527 4.71
179.0851 1.09
191.0513 1.89
191.0858 1.46
207.1176 4.94
217.0995 1.0
235.1117 14.64
269.1004 100.0
278.0846 1.55
298.1258 10.16
299.129 3.95
326.1207 11.11
344.1325 80.8
347.1312 0.74
386.142 3.81
