>compound MLS002153463-01!
>formula C29H32O13
>ionization [M+H]+
>parentmass 589.1915675360905
#inchi InChI=1S/C29H32O13/c1-11-36-9-20-27(40-11)24(31)25(32)29(41-20)42-26-14-7-17-16(38-10-39-17)6-13(14)21(22-15(26)8-37-28(22)33)12-4-18(34-2)23(30)19(5-12)35-3/h4-7,11,15,20-22,24-27,29-32H,8-10H2,1-3H3/t11-,15+,20-,21-,22+,24-,25-,26-,27-,29+/m1/s1
#inchikey VJJPUSNTGOMMGY
#Ion_Source LC-ESI
#Instrument qTof
#Compound_Source NIH Pharmacologically Active Library
#PI Dorrestein
#Data_Collector VP/LMS
#Scan -1
#Precursor_MZ 589.187
#ExactMass 588.184
#Charge 1
#CAS_Number N/A
#Pubmed_ID N/A
#Smiles COc1cc(cc(OC)c1O)[C@H]2[C@@H]3[C@H](COC3=O)[C@H](O[C@@H]4O[C@@H]5CO[C@@H](C)O[C@H]5[C@H](O)[C@H]4O)c6cc7OCOc7cc26
#INCHI_AUX N/A
#Library_Class 1
#SpectrumID CCMSLIB00000085936
#IonMode Positive
#UpdateWorkflowName UPDATE-SINGLE-ANNOTATED-GOLD
#LibraryQualityString Gold
#TaskID d252d724072548979f1f6f1ced849daf
##Scan# 1652
#SpectrumFile p4-H03_GH3_01_18411.mzXML
#LibraryName Pharm_Active_Library.mgf
#MQScore -1
#Organism Pharm_Active_Library
#TIC_Query 0
#RT_Query -1
#MZErrorPPM -1
#SharedPeaks 0
#MassDiff 0
#LibMZ -1
#SpecMZ 589.187
#SpecCharge 0
#internalFilename spec-00000.mgf

>collision 0
115.0547 3.83
128.062 1.21
129.0699 1.57
143.0493 4.09
155.048 0.91
171.0432 0.53
173.06 10.47
185.0601 100.0
199.0383 6.93
201.054 1.33
217.0497 2.33
229.0498 69.18
239.0704 1.14
247.0595 2.17
284.067 0.3
299.0898 0.59
589.1916 0.0
