>compound FORMOTEROL FUMARATE DIHYDRATE
>formula C19H24N2O4
>ionization [M+H]+
>parentmass 345.18088370009053
#inchi InChI=1S/C19H24N2O4/c1-13(9-14-3-6-16(25-2)7-4-14)20-11-19(24)15-5-8-18(23)17(10-15)21-12-22/h3-8,10,12-13,19-20,23-24H,9,11H2,1-2H3,(H,21,22)/t13-,19+/m0/s1
#inchikey BPZSYCZIITTYBL
#Ion_Source LC-ESI
#Instrument qTof
#Compound_Source Commercial
#PI Dorrestein
#Data_Collector Garg_Neha
#Scan -1
#Precursor_MZ 345.181
#ExactMass 344.174
#Charge 1
#CAS_Number N/A
#Pubmed_ID N/A
#Smiles COc1ccc(C[C@H](C)NC[C@@H](O)c2ccc(O)c(NC=O)c2)cc1
#INCHI_AUX N/A
#Library_Class 1
#SpectrumID CCMSLIB00000079144
#IonMode Positive
#UpdateWorkflowName UPDATE-SINGLE-ANNOTATED-GOLD
#LibraryQualityString Gold
#TaskID 278b19f5865741e282cec7349aa7e7a1
##Scan# 1040
#SpectrumFile NCP003512_G2_H11_BD7_01_15731.mzXML
#LibraryName NIHcollectionI_05062014.mgf
#MQScore -1
#Organism NIHcollectionI_05062014
#TIC_Query 0
#RT_Query -1
#MZErrorPPM -1
#SharedPeaks 0
#MassDiff 0
#LibMZ -1
#SpecMZ 345.181
#SpecCharge 0
#internalFilename spec-00000.mgf

>collision 0
91.0549 0.75
109.0642 0.6
117.0699 0.66
119.0493 0.43
121.0662 47.83
136.0744 0.51
147.0806 0.26
149.0972 100.0
151.0994 0.27
176.1069 0.25
327.1729 85.83
345.1837 88.22
