>compound MLS001065902-01!
>formula C18H17NO5
>ionization [M+H]+
>parentmass 328.119
#inchi InChI=1S/C18H17NO5/c1-23-15-9-7-12(11-16(15)24-2)8-10-17(20)19-14-6-4-3-5-13(14)18(21)22/h3-11H,1-2H3,(H,19,20)(H,21,22)/b10-8+
#inchikey NZHGWWWHIYHZNX
#Ion_Source LC-ESI
#Instrument qTof
#Compound_Source NIH Pharmacologically Active Library
#PI Dorrestein
#Data_Collector VP/LMS
#Scan -1
#Precursor_MZ 328.119
#ExactMass 327.111
#Charge 1
#CAS_Number N/A
#Pubmed_ID N/A
#Smiles COc1ccc(/C=C/C(=O)Nc2ccccc2C(=O)O)cc1OC
#INCHI_AUX N/A
#Library_Class 1
#SpectrumID CCMSLIB00000085388
#IonMode Positive
#UpdateWorkflowName UPDATE-SINGLE-ANNOTATED-GOLD
#LibraryQualityString Gold
#TaskID d252d724072548979f1f6f1ced849daf
##Scan# 2060
#SpectrumFile p4-A03_GA3_01_18327.mzXML
#LibraryName Pharm_Active_Library.mgf
#MQScore -1
#Organism Pharm_Active_Library
#TIC_Query 0
#RT_Query -1
#MZErrorPPM -1
#SharedPeaks 0
#MassDiff 0
#LibMZ -1
#SpecMZ 328.119
#SpecCharge 0
#internalFilename spec-00000.mgf

>collision 0
91.0524 1.01
102.047 0.95
103.0544 4.38
105.0338 2.01
105.0704 3.11
117.0335 1.3
118.0431 3.27
119.0491 5.86
120.0557 2.67
130.0428 0.99
132.0575 12.61
133.0284 6.14
133.0648 4.05
135.081 1.73
146.0362 1.16
147.0426 5.26
148.0518 22.43
160.052 6.26
163.0753 49.53
176.0456 3.56
191.0711 100.0
328.1204 0.0
