>compound MLS002154130-01!Piperidolate hydrochloride129-77-1
>formula C21H25NO2
>ionization [M+H]+
>parentmass 324.196075
#inchi InChI=1S/C21H25NO2/c1-2-22-15-9-14-19(16-22)24-21(23)20(17-10-5-3-6-11-17)18-12-7-4-8-13-18/h3-8,10-13,19-20H,2,9,14-16H2,1H3
#inchikey KTHVBAZBLKXIHZ
#origInchi InChI=1S/C21H25NO2.ClH/c1-2-22-15-9-14-19(16-22)24-21(23)20(17-10-5-3-6-11-17)18-12-7-4-8-13-18;/h3-8,10-13,19-20H,2,9,14-16H2,1H3;1H
#Ion_Source LC-ESI
#Instrument qTof
#Compound_Source NIH Pharmacologically Active Library
#PI Dorrestein
#Data_Collector VP/LMS
#Scan -1
#Precursor_MZ 324.202
#ExactMass 323.189
#Charge 1
#CAS_Number N/A
#Pubmed_ID N/A
#Smiles CCN1CCCC(C1)OC(=O)C(c2ccccc2)c3ccccc3.Cl
#INCHI_AUX N/A
#Library_Class 1
#SpectrumID CCMSLIB00000086034
#IonMode Positive
#UpdateWorkflowName UPDATE-SINGLE-ANNOTATED-GOLD
#LibraryQualityString Gold
#TaskID d252d724072548979f1f6f1ced849daf
##Scan# 1680
#SpectrumFile p5-B05_GB5_01_18444.mzXML
#LibraryName Pharm_Active_Library.mgf
#MQScore -1
#Organism Pharm_Active_Library
#TIC_Query 0
#RT_Query -1
#MZErrorPPM -1
#SharedPeaks 0
#MassDiff 0
#LibMZ -1
#SpecMZ 324.202
#SpecCharge 0
#internalFilename spec-00000.mgf

>collision 0
110.0974 1.14
115.0557 0.27
128.0634 0.78
128.1058 0.3
141.069 1.08
151.055 1.28
152.0638 28.72
165.0714 30.7
166.0779 15.0
169.0645 0.44
324.1961 2.47
