>compound Clopidogrel (Plavix)
>formula C16H16ClNO2S
>ionization [M+H]+
>parentmass 322.06630388409053
#inchi InChI=1S/C16H16ClNO2S/c1-20-16(19)15(12-4-2-3-5-13(12)17)18-8-6-14-11(10-18)7-9-21-14/h2-5,7,9,15H,6,8,10H2,1H3/t15-/m0/s1
#inchikey GKTWGGQPFAXNFI
#origInchi InChI=1S/C16H16ClNO2S.H2O4S/c1-20-16(19)15(12-4-2-3-5-13(12)17)18-8-6-14-11(10-18)7-9-21-14;1-5(2,3)4/h2-5,7,9,15H,6,8,10H2,1H3;(H2,1,2,3,4)/t15-;/m0./s1
#Ion_Source LC-ESI
#Instrument qTof
#Compound_Source Commercial
#PI Dorrestein
#Data_Collector Garg_Neha
#Scan -1
#Precursor_MZ 322.066
#ExactMass 321.059
#Charge 1
#CAS_Number 120202-66-6, 113665-84-2 (free base)
#Pubmed_ID N/A
#Smiles C1(=CC=CC(=C1Cl)[C@H](N2CCC3=C(C2)C=CS3)C(=O)OC).OS(O)(=O)=O
#INCHI_AUX N/A
#Library_Class 1
#SpectrumID CCMSLIB00000078139
#IonMode Positive
#UpdateWorkflowName UPDATE-SINGLE-ANNOTATED-GOLD
#LibraryQualityString Gold
#TaskID 77f51c88eb8b467eb4a01dd2d0cb90d2
##Scan# 1532
#SpectrumFile Plate2_61_88_GG8_01_16496.mzXML
#LibraryName FDALibrary_2_04302014.mgf
#MQScore -1
#Organism FDALibrary_2_04302014
#TIC_Query 0
#RT_Query -1
#MZErrorPPM -1
#SharedPeaks 0
#MassDiff 0
#LibMZ -1
#SpecMZ 322.066
#SpecCharge 0
#internalFilename spec-00000.mgf

>collision 0
91.0543 0.32
105.0335 0.49
111.0268 0.58
125.015 11.19
138.037 0.58
138.9928 0.29
148.0502 0.83
152.0262 41.35
155.0263 80.29
183.0201 50.91
184.0522 67.52
185.017 11.08
186.0489 13.63
212.0482 100.0
213.0499 18.8
214.0442 51.5
264.0385 0.31
322.0667 92.24
