>compound Dyphylline (Dilor)
>formula C10H14N4O4
>ionization [M+H]+
>parentmass 255.108719
#inchi InChI=1S/C10H14N4O4/c1-12-8-7(9(17)13(2)10(12)18)14(5-11-8)3-6(16)4-15/h5-6,15-16H,3-4H2,1-2H3
#inchikey KSCFJBIXMNOVSH
#Ion_Source LC-ESI
#Instrument qTof
#Compound_Source Commercial
#PI Dorrestein
#Data_Collector Garg_Neha
#Scan -1
#Precursor_MZ 255.109
#ExactMass 254.102
#Charge 1
#CAS_Number 479-18-5, 52756-53-3, 68350-70-9
#Pubmed_ID N/A
#Smiles N1(C(N(C2=C(C1=O)N(C=N2)CC(CO)O)C)=O)C
#INCHI_AUX N/A
#Library_Class 1
#SpectrumID CCMSLIB00000078168
#IonMode Positive
#UpdateWorkflowName UPDATE-SINGLE-ANNOTATED-GOLD
#LibraryQualityString Gold
#TaskID 77f51c88eb8b467eb4a01dd2d0cb90d2
##Scan# 1002
#SpectrumFile Plate3_1_20_GG9_01_16498.mzXML
#LibraryName FDALibrary_2_04302014.mgf
#MQScore -1
#Organism FDALibrary_2_04302014
#TIC_Query 0
#RT_Query -1
#MZErrorPPM -1
#SharedPeaks 0
#MassDiff 0
#LibMZ -1
#SpecMZ 255.109
#SpecCharge 0
#internalFilename spec-00000.mgf

>collision 0
91.0292 1.35
96.0548 1.35
124.0509 31.77
136.0878 1.22
137.0826 2.7
163.098 1.17
181.0717 100.0
237.0983 2.26
255.1087 113.94
