>compound MLS001076071-01!
>formula C8H7ClN2O2S
>ionization [M+H]+
>parentmass 230.99895259609053
#inchi InChI=1S/C8H7ClN2O2S/c1-5-10-7-3-2-6(9)4-8(7)14(12,13)11-5/h2-4H,1H3,(H,10,11)
#inchikey GDLBFKVLRPITMI
#Ion_Source LC-ESI
#Instrument qTof
#Compound_Source NIH Pharmacologically Active Library
#PI Dorrestein
#Data_Collector VP/LMS
#Scan -1
#Precursor_MZ 231.001
#ExactMass 229.992
#Charge 1
#CAS_Number N/A
#Pubmed_ID N/A
#Smiles CC1=NS(=O)(=O)c2cc(Cl)ccc2N1
#INCHI_AUX N/A
#Library_Class 1
#SpectrumID CCMSLIB00000086190
#IonMode Positive
#UpdateWorkflowName UPDATE-SINGLE-ANNOTATED-GOLD
#LibraryQualityString Gold
#TaskID d252d724072548979f1f6f1ced849daf
##Scan# 1450
#SpectrumFile p5-H05_GH5_01_18480.mzXML
#LibraryName Pharm_Active_Library.mgf
#MQScore -1
#Organism Pharm_Active_Library
#TIC_Query 0
#RT_Query -1
#MZErrorPPM -1
#SharedPeaks 0
#MassDiff 0
#LibMZ -1
#SpecMZ 231.001
#SpecCharge 0
#internalFilename spec-00000.mgf

>collision 0
90.0338 11.55
99.0005 48.6
114.0101 75.89
126.0097 100.0
142.0055 39.53
230.999 0.0
