>compound MLS000517276-01!
>formula C8H8O4
>ionization [M+H]+
>parentmass 169.05
#inchi InChI=1S/C8H8O4/c1-12-5-2-3-6(8(10)11)7(9)4-5/h2-4,9H,1H3,(H,10,11)
#inchikey MRIXVKKOHPQOFK
#Ion_Source LC-ESI
#Instrument qTof
#Compound_Source NIH Natural Product Library
#PI Dorrestein
#Data_Collector VVP/LMS
#Scan -1
#Precursor_MZ 169.05
#ExactMass 168.042
#Charge 1
#CAS_Number N/A
#Pubmed_ID N/A
#Smiles COc1ccc(C(=O)O)c(O)c1
#INCHI_AUX N/A
#Library_Class 3
#SpectrumID CCMSLIB00000079368
#IonMode Positive
#UpdateWorkflowName UPDATE-SINGLE-ANNOTATED-BRONZE
#LibraryQualityString Bronze
#TaskID b1d8e8f6646f4e71acdff9ca3d919d08
##Scan# 1736
#SpectrumFile p1-C05_GC5_01_17901.mzXML
#LibraryName NIH_Natural_Products_Library.mgf
#MQScore -1
#Organism NIH_Natural_Products_Library
#TIC_Query 0
#RT_Query -1
#MZErrorPPM -1
#SharedPeaks 0
#MassDiff 0
#LibMZ -1
#SpecMZ 169.05
#SpecCharge 0
#internalFilename spec-00000.mgf

>collision 0
95.0499 10.27
108.0197 38.81
136.0146 6.16
151.0381 100.0
169.05 0.0
