>compound MLS002154214-01!Dihydroergotamine tartrate5989-77-5
>formula C33H37N5O5
>ionization [M+H]+
>parentmass 584.2867457360906
#inchi InChI=1S/C33H37N5O5/c1-32(35-29(39)21-15-23-22-10-6-11-24-28(22)20(17-34-24)16-25(23)36(2)18-21)31(41)38-26(14-19-8-4-3-5-9-19)30(40)37-13-7-12-27(37)33(38,42)43-32/h3-6,8-11,17,21,23,25-27,34,42H,7,12-16,18H2,1-2H3,(H,35,39)/t21-,23?,25-,26+,27+,32-,33+/m1/s1
#inchikey LUZRJRNZXALNLM
#origInchi InChI=1S/C33H37N5O5.C4H6O6/c1-32(35-29(39)21-15-23-22-10-6-11-24-28(22)20(17-34-24)16-25(23)36(2)18-21)31(41)38-26(14-19-8-4-3-5-9-19)30(40)37-13-7-12-27(37)33(38,42)43-32;5-1(3(7)8)2(6)4(9)10/h3-6,8-11,17,21,23,25-27,34,42H,7,12-16,18H2,1-2H3,(H,35,39);1-2,5-6H,(H,7,8)(H,9,10)/t21-,23?,25-,26+,27+,32-,33+;/m1./s1
#Ion_Source LC-ESI
#Instrument qTof
#Compound_Source NIH Pharmacologically Active Library
#PI Dorrestein
#Data_Collector VP/LMS
#Scan -1
#Precursor_MZ 584.29
#ExactMass 583.279
#Charge 1
#CAS_Number N/A
#Pubmed_ID N/A
#Smiles CN1C[C@@H](CC2[C@H]1Cc3c[nH]c4cccc2c34)C(=O)N[C@]5(C)O[C@@]6(O)[C@@H]7CCCN7C(=O)[C@H](Cc8ccccc8)N6C5=O.OC(C(O)C(=O)O)C(=O)O
#INCHI_AUX N/A
#Library_Class 1
#SpectrumID CCMSLIB00000085203
#IonMode Positive
#UpdateWorkflowName UPDATE-SINGLE-ANNOTATED-GOLD
#LibraryQualityString Gold
#TaskID d252d724072548979f1f6f1ced849daf
##Scan# 1694
#SpectrumFile p3-F11_GF11_01_18292.mzXML
#LibraryName Pharm_Active_Library.mgf
#MQScore -1
#Organism Pharm_Active_Library
#TIC_Query 0
#RT_Query -1
#MZErrorPPM -1
#SharedPeaks 0
#MassDiff 0
#LibMZ -1
#SpecMZ 584.29
#SpecCharge 0
#internalFilename spec-00000.mgf

>collision 0
144.078 0.57
154.0624 2.84
155.0697 1.06
156.0766 0.72
168.0781 12.9
170.0925 0.61
180.0776 1.16
182.0927 2.48
192.0774 0.63
194.0938 7.26
197.1049 3.1
208.0725 1.61
209.1045 1.29
210.0887 19.82
222.0898 1.5
223.1189 1.33
225.1356 23.03
227.1154 1.41
238.1066 2.23
241.1305 0.36
253.1309 33.64
270.1573 100.0
294.1561 9.61
312.1673 0.32
584.279 7.26
