>compound Ranolazine
>formula C24H33N3O4 
>ionization [M+H]+
>parentmass 428.252777
#inchi InChI=1S/C24H33N3O4/c1-18-7-6-8-19(2)24(18)25-23(29)16-27-13-11-26(12-14-27)15-20(28)17-31-22-10-5-4-9-21(22)30-3/h4-10,20,28H,11-17H2,1-3H3,(H,25,29)
#inchikey XKLMZUWKNUAPSZ
#Ion_Source LC-ESI
#Instrument qTof
#Compound_Source Isolated
#PI Sirenas
#Data_Collector Ed Esquenazi 
#Scan -1
#Precursor_MZ 428.255
#ExactMass 0.0
#Charge 1
#CAS_Number N/A
#Pubmed_ID N/A
#Smiles N/A
#INCHI_AUX N/A
#Library_Class 3
#SpectrumID CCMSLIB00000006035
#IonMode Positive
#UpdateWorkflowName UPDATE-SINGLE-ANNOTATED-BRONZE
#LibraryQualityString Bronze
#TaskID d19310cd93df49b68e9fcbec27720eb5
##Scan# 3
#SpectrumFile Ranolazine.mgf
#LibraryName fda_library.mgf
#MQScore -1
#Organism fda_library
#TIC_Query 0
#RT_Query -1
#MZErrorPPM -1
#SharedPeaks 0
#MassDiff 0
#LibMZ -1
#SpecMZ 428.255
#SpecCharge 0
#internalFilename spec-00000.mgf

>collision 0
100.0757 17.65
101.1074 25.1
102.0915 1.8
103.0543 2.11
105.0698 2.76
106.0659 1.33
107.0491 5.39
108.0799 1.31
109.0649 2.29
109.0749 1.41
110.0594 1.53
111.092 68.31
112.0756 11.44
113.1074 100.0
114.115 41.58
119.0489 5.29
120.0805 3.86
121.0281 1.48
121.0645 5.05
122.036 11.05
122.0967 5.88
123.0436 4.37
124.0995 16.35
127.1228 3.03
131.0492 2.06
133.0646 2.52
134.096 8.63
135.0434 1.41
135.0806 2.93
137.0597 9.84
137.1072 10.3
138.1146 9.31
139.0867 3.88
139.1225 4.94
141.1018 1.98
147.0433 5.87
148.112 1.55
149.059 3.97
151.0757 2.11
155.1179 52.21
157.1331 2.1
161.0595 8.93
163.075 5.78
179.0698 12.2
191.117 3.31
236.1282 2.15
261.16 1.38
264.1469 10.34
279.1702 26.42
428.2537 2.94
