>compound MLS001140950-01!4-[[2-(6-chloro-4-ethyl-2-oxochromen-7-yl)oxypropanoylamino]methyl]cyclohexane-1-carboxylic acid
>formula C22H26ClNO6
>ionization [M+H]+
>parentmass 436.153
#inchi InChI=1S/C22H26ClNO6/c1-3-14-8-20(25)30-18-10-19(17(23)9-16(14)18)29-12(2)21(26)24-11-13-4-6-15(7-5-13)22(27)28/h8-10,12-13,15H,3-7,11H2,1-2H3,(H,24,26)(H,27,28)/t12?,13-,15-
#inchikey PRJMUHABANULGT
#Ion_Source LC-ESI
#Instrument qTof
#Compound_Source NIH Natural Product Library
#PI Dorrestein
#Data_Collector VVP/LMS
#Scan -1
#Precursor_MZ 436.153
#ExactMass 435.145
#Charge 1
#CAS_Number N/A
#Pubmed_ID N/A
#Smiles CCc1cc(=O)oc2cc(OC(C)C(=O)NC[C@H]3CC[C@@H](CC3)C(=O)O)c(Cl)cc12
#INCHI_AUX N/A
#Library_Class 1
#SpectrumID CCMSLIB00000080185
#IonMode Positive
#UpdateWorkflowName UPDATE-SINGLE-ANNOTATED-GOLD
#LibraryQualityString Gold
#TaskID b1d8e8f6646f4e71acdff9ca3d919d08
##Scan# 2062
#SpectrumFile p2-C05_GC5_01_18005.mzXML
#LibraryName NIH_Natural_Products_Library.mgf
#MQScore -1
#Organism NIH_Natural_Products_Library
#TIC_Query 0
#RT_Query -1
#MZErrorPPM -1
#SharedPeaks 0
#MassDiff 0
#LibMZ -1
#SpecMZ 436.153
#SpecCharge 0
#internalFilename spec-00000.mgf

>collision 0
95.0849 10.81
103.0542 1.44
111.1041 5.21
112.1128 6.0
115.0542 1.62
124.0752 2.14
138.0923 5.65
138.1273 9.31
140.1071 46.44
141.0103 2.36
145.0659 2.42
155.0251 1.75
159.082 3.51
161.0587 2.34
162.0663 5.06
166.087 2.76
166.1231 7.39
167.0258 1.59
167.1298 24.5
184.0977 2.46
184.1331 8.94
187.0753 4.81
188.084 8.12
195.0553 2.39
196.0643 1.54
216.0786 1.99
223.0157 8.49
223.0527 8.19
225.0321 100.0
251.0479 55.77
252.0545 5.38
279.0406 1.84
296.069 6.47
309.0761 1.49
390.1474 7.39
391.1541 2.09
436.1518 0.0
