>compound MLS001148168-01!BUTETHAMATE CITRATE
>formula C16H25NO2
>ionization [M+H]+
>parentmass 264.197479
#inchi InChI=1S/C16H25NO2/c1-4-15(14-10-8-7-9-11-14)16(18)19-13-12-17(5-2)6-3/h7-11,15H,4-6,12-13H2,1-3H3
#inchikey CKWHSYRZDLWQFV
#origInchi InChI=1S/C16H25NO2.C6H8O7/c1-4-15(14-10-8-7-9-11-14)16(18)19-13-12-17(5-2)6-3;7-3(8)1-6(13,5(11)12)2-4(9)10/h7-11,15H,4-6,12-13H2,1-3H3;13H,1-2H2,(H,7,8)(H,9,10)(H,11,12)
#Ion_Source LC-ESI
#Instrument qTof
#Compound_Source NIH Pharmacologically Active Library
#PI Dorrestein
#Data_Collector VP/LMS
#Scan -1
#Precursor_MZ 264.196
#ExactMass 263.189
#Charge 1
#CAS_Number N/A
#Pubmed_ID N/A
#Smiles CCC(C(=O)OCCN(CC)CC)c1ccccc1.OC(=O)CC(O)(CC(=O)O)C(=O)O
#INCHI_AUX N/A
#Library_Class 1
#SpectrumID CCMSLIB00000085044
#IonMode Positive
#UpdateWorkflowName UPDATE-SINGLE-ANNOTATED-GOLD
#LibraryQualityString Gold
#TaskID d252d724072548979f1f6f1ced849daf
##Scan# 1605
#SpectrumFile p3-E02_GE2_01_18271.mzXML
#LibraryName Pharm_Active_Library.mgf
#MQScore -1
#Organism Pharm_Active_Library
#TIC_Query 0
#RT_Query -1
#MZErrorPPM -1
#SharedPeaks 0
#MassDiff 0
#LibMZ -1
#SpecMZ 264.196
#SpecCharge 0
#internalFilename spec-00000.mgf

>collision 0
91.0542 86.79
104.0633 1.13
105.0326 4.69
105.0696 1.68
117.0688 4.18
118.0415 4.44
119.085 45.64
147.0815 0.73
149.059 6.75
162.0668 17.17
191.1064 100.0
264.1975 1.88
