>compound MLS001048949-01!4-[(E)-6,7-dihydroxy-3,7-dimethyloct-2-enoxy]-1H-quinolin-2-one
>formula C19H25NO4
>ionization [M+H]+
>parentmass 332.186
#inchi InChI=1S/C19H25NO4/c1-13(8-9-17(21)19(2,3)23)10-11-24-16-12-18(22)20-15-7-5-4-6-14(15)16/h4-7,10,12,17,21,23H,8-9,11H2,1-3H3,(H,20,22)/b13-10+
#inchikey PBWIOAMUZKICDN
#Ion_Source LC-ESI
#Instrument qTof
#Compound_Source NIH Natural Product Library
#PI Dorrestein
#Data_Collector VVP/LMS
#Scan -1
#Precursor_MZ 332.186
#ExactMass 331.178
#Charge 1
#CAS_Number N/A
#Pubmed_ID N/A
#Smiles C/C(=C\COc1cc(O)nc2ccccc12)/CCC(O)C(C)(C)O
#INCHI_AUX N/A
#Library_Class 1
#SpectrumID CCMSLIB00000079426
#IonMode Positive
#UpdateWorkflowName UPDATE-SINGLE-ANNOTATED-GOLD
#LibraryQualityString Gold
#TaskID b1d8e8f6646f4e71acdff9ca3d919d08
##Scan# 1802
#SpectrumFile p1-B06_GB6_01_17890.mzXML
#LibraryName NIH_Natural_Products_Library.mgf
#MQScore -1
#Organism NIH_Natural_Products_Library
#TIC_Query 0
#RT_Query -1
#MZErrorPPM -1
#SharedPeaks 0
#MassDiff 0
#LibMZ -1
#SpecMZ 332.186
#SpecCharge 0
#internalFilename spec-00000.mgf

>collision 0
107.0862 0.55
116.0498 3.66
120.0457 2.87
135.1174 0.92
144.0453 18.32
162.0563 100.0
332.186 0.0
