>compound MLS001148632-01!2438-72-4
>formula C12H17NO3
>ionization [M+H]+
>parentmass 224.1281198560905
#inchi InChI=1S/C12H17NO3/c1-2-3-8-16-11-6-4-10(5-7-11)9-12(14)13-15/h4-7,15H,2-3,8-9H2,1H3,(H,13,14)
#inchikey MXJWRABVEGLYDG
#Ion_Source LC-ESI
#Instrument qTof
#Compound_Source NIH Pharmacologically Active Library
#PI Dorrestein
#Data_Collector VP/LMS
#Scan -1
#Precursor_MZ 224.124
#ExactMass 223.121
#Charge 1
#CAS_Number N/A
#Pubmed_ID N/A
#Smiles CCCCOc1ccc(CC(=O)NO)cc1
#INCHI_AUX N/A
#Library_Class 1
#SpectrumID CCMSLIB00000085307
#IonMode Positive
#UpdateWorkflowName UPDATE-SINGLE-ANNOTATED-GOLD
#LibraryQualityString Gold
#TaskID d252d724072548979f1f6f1ced849daf
##Scan# 1763
#SpectrumFile p3-H03_GH3_01_18308.mzXML
#LibraryName Pharm_Active_Library.mgf
#MQScore -1
#Organism Pharm_Active_Library
#TIC_Query 0
#RT_Query -1
#MZErrorPPM -1
#SharedPeaks 0
#MassDiff 0
#LibMZ -1
#SpecMZ 224.124
#SpecCharge 0
#internalFilename spec-00000.mgf

>collision 0
95.0479 2.31
104.0493 2.31
107.0491 100.0
224.1281 0.0
