>compound VARDENAFIL CITRATE
>formula C23H32N6O4S
>ionization [M+H]+
>parentmass 489.2278509560905
#inchi InChI=1S/C23H32N6O4S/c1-5-8-20-24-16(4)21-23(30)25-22(26-29(20)21)18-15-17(9-10-19(18)33-7-3)34(31,32)28-13-11-27(6-2)12-14-28/h9-10,15H,5-8,11-14H2,1-4H3,(H,25,26,30)
#inchikey SECKRCOLJRRGGV
#Ion_Source LC-ESI
#Instrument qTof
#Compound_Source Commercial
#PI Dorrestein
#Data_Collector Garg_Neha
#Scan -1
#Precursor_MZ 489.228
#ExactMass 488.221
#Charge 1
#CAS_Number N/A
#Pubmed_ID N/A
#Smiles CCCc1nc(C)c2c(O)nc(nn12)c3cc(ccc3OCC)S(=O)(=O)N4CCN(CC)CC4
#INCHI_AUX N/A
#Library_Class 1
#SpectrumID CCMSLIB00000079076
#IonMode Positive
#UpdateWorkflowName UPDATE-SINGLE-ANNOTATED-GOLD
#LibraryQualityString Gold
#TaskID 278b19f5865741e282cec7349aa7e7a1
##Scan# 1120
#SpectrumFile NCP003432_E2_F11_BD2_01_15724.mzXML
#LibraryName NIHcollectionI_05062014.mgf
#MQScore -1
#Organism NIHcollectionI_05062014
#TIC_Query 0
#RT_Query -1
#MZErrorPPM -1
#SharedPeaks 0
#MassDiff 0
#LibMZ -1
#SpecMZ 489.228
#SpecCharge 0
#internalFilename spec-00000.mgf

>collision 0
98.0843 3.45
99.0923 25.05
113.108 36.35
114.1136 13.58
173.071 6.25
254.0791 6.03
255.1259 4.32
256.0976 2.56
267.1222 2.92
269.1373 2.51
282.1125 9.5
283.1194 100.0
284.1242 22.15
285.1348 9.91
293.1392 2.8
297.0973 2.11
297.1335 5.92
298.1382 1.58
299.1159 29.16
300.1179 3.34
301.1265 2.61
311.1512 56.99
312.1551 18.92
313.1627 11.51
315.1082 5.39
327.1433 4.41
329.1633 1.91
330.1623 2.36
344.1486 9.44
349.0937 1.69
377.1289 12.69
461.1946 18.43
489.2309 1158.77
