>compound Betaxolol (Betoptic)
>formula C18H29NO3
>ionization [M+H]+
>parentmass 308.221863
#inchi InChI=1S/C18H29NO3/c1-14(2)19-11-17(20)13-22-18-7-5-15(6-8-18)9-10-21-12-16-3-4-16/h5-8,14,16-17,19-20H,3-4,9-13H2,1-2H3
#inchikey NWIUTZDMDHAVTP
#Ion_Source LC-ESI
#Instrument qTof
#Compound_Source Commercial
#PI Dorrestein
#Data_Collector Garg_Neha
#Scan -1
#Precursor_MZ 308.222
#ExactMass 307.215
#Charge 1
#CAS_Number 659-18-7
#Pubmed_ID N/A
#Smiles C1=CC(=CC=C1CCOCC2CC2)OCC(CNC(C)C)O
#INCHI_AUX N/A
#Library_Class 1
#SpectrumID CCMSLIB00000078431
#IonMode Positive
#UpdateWorkflowName UPDATE-SINGLE-ANNOTATED-GOLD
#LibraryQualityString Gold
#TaskID 77f51c88eb8b467eb4a01dd2d0cb90d2
##Scan# 1148
#SpectrumFile Plate6_61_80_GD10_01_15777.mzXML
#LibraryName FDALibrary_2_04302014.mgf
#MQScore -1
#Organism FDALibrary_2_04302014
#TIC_Query 0
#RT_Query -1
#MZErrorPPM -1
#SharedPeaks 0
#MassDiff 0
#LibMZ -1
#SpecMZ 308.222
#SpecCharge 0
#internalFilename spec-00000.mgf

>collision 0
128.0629 3.2
133.0636 9.83
152.0635 8.38
159.0807 3.05
165.0693 16.77
167.0852 100.0
239.106 29.04
290.2128 2.59
308.2219 72.03
