>compound DorzolamideHCl
>formula C10H16N2O4S3 
>ionization [M+H]+
>parentmass 325.034973
#inchi InChI=1S/C10H16N2O4S3/c1-3-12-8-4-6(2)18(13,14)10-7(8)5-9(17-10)19(11,15)16/h5-6,8,12H,3-4H2,1-2H3,(H2,11,15,16)/t6-,8-/m0/s1
#inchikey IAVUPMFITXYVAF
#Ion_Source LC-ESI
#Instrument qTof
#Compound_Source Isolated
#PI Sirenas
#Data_Collector Ed Esquenazi 
#Scan -1
#Precursor_MZ 325.035
#ExactMass 0.0
#Charge 1
#CAS_Number N/A
#Pubmed_ID N/A
#Smiles N/A
#INCHI_AUX N/A
#Library_Class 3
#SpectrumID CCMSLIB00000004221
#IonMode Positive
#UpdateWorkflowName UPDATE-SINGLE-ANNOTATED-BRONZE
#LibraryQualityString Bronze
#TaskID d19310cd93df49b68e9fcbec27720eb5
##Scan# 1
#SpectrumFile DorzolamideHCl.mgf
#LibraryName fda_library.mgf
#MQScore -1
#Organism fda_library
#TIC_Query 0
#RT_Query -1
#MZErrorPPM -1
#SharedPeaks 0
#MassDiff 0
#LibMZ -1
#SpecMZ 325.035
#SpecCharge 0
#internalFilename spec-00000.mgf

>collision 0
134.019 0.62
135.0257 23.08
151.0214 10.93
152.0514 1.72
153.99 1.04
198.0044 0.76
198.9881 82.34
216.0141 100.0
235.9503 17.98
259.0565 1.16
279.9766 59.95
325.035 439.66
