>compound TIBOLONE
>formula C21H28O2
>ionization [M+H]+
>parentmass 313.215668
#inchi InChI=1S/C21H28O2/c1-4-21(23)10-8-18-19-13(2)11-14-12-15(22)5-6-16(14)17(19)7-9-20(18,21)3/h1,13,17-19,23H,5-12H2,2-3H3/t13-,17-,18+,19-,20+,21+/m1/s1
#inchikey WZDGZWOAQTVYBX
#Ion_Source LC-ESI
#Instrument qTof
#Compound_Source Commercial
#PI Dorrestein
#Data_Collector Garg_Neha
#Scan -1
#Precursor_MZ 313.216
#ExactMass 312.209
#Charge 1
#CAS_Number N/A
#Pubmed_ID N/A
#Smiles C[C@@H]1CC2=C(CCC(=O)C2)[C@H]3CC[C@@]4(C)[C@@H](CC[C@@]4(O)C#C)[C@H]13
#INCHI_AUX N/A
#Library_Class 1
#SpectrumID CCMSLIB00000079085
#IonMode Positive
#UpdateWorkflowName UPDATE-SINGLE-ANNOTATED-GOLD
#LibraryQualityString Gold
#TaskID 278b19f5865741e282cec7349aa7e7a1
##Scan# 1912
#SpectrumFile NCP003432_E2_F11_BD2_01_15724.mzXML
#LibraryName NIHcollectionI_05062014.mgf
#MQScore -1
#Organism NIHcollectionI_05062014
#TIC_Query 0
#RT_Query -1
#MZErrorPPM -1
#SharedPeaks 0
#MassDiff 0
#LibMZ -1
#SpecMZ 313.216
#SpecCharge 0
#internalFilename spec-00000.mgf

>collision 0
105.0707 6.73
107.0839 4.82
117.07 5.34
119.0842 19.52
129.0685 6.21
131.0872 27.49
133.0999 8.63
135.0815 11.48
137.0968 8.55
142.0765 7.68
143.0856 7.6
145.1008 13.01
147.118 7.82
155.086 10.38
157.1015 10.96
159.1168 10.09
163.1119 6.8
169.1029 7.6
171.1154 8.85
177.1286 7.53
181.1014 6.65
195.1159 6.07
197.1321 5.34
199.1487 7.16
207.1181 5.19
211.1477 4.9
221.1341 7.46
227.1808 7.46
235.1463 4.9
249.1647 10.23
251.1807 7.31
253.1943 4.61
267.2093 6.07
277.1928 38.67
295.206 100.0
313.2157 38.67
