>compound Linagliptin (BI-1356)
>formula C25H28N8O2
>ionization [M+H]+
>parentmass 473.24173
#inchi InChI=1S/C25H28N8O2/c1-4-5-13-32-21-22(29-24(32)31-12-8-9-17(26)14-31)30(3)25(35)33(23(21)34)15-20-27-16(2)18-10-6-7-11-19(18)28-20/h6-7,10-11,17H,8-9,12-15,26H2,1-3H3/t17-/m1/s1
#inchikey LTXREWYXXSTFRX
#Ion_Source LC-ESI
#Instrument qTof
#Compound_Source Commercial
#PI Dorrestein
#Data_Collector Garg_Neha
#Scan -1
#Precursor_MZ 473.241
#ExactMass 472.234
#Charge 1
#CAS_Number 668270-12-0
#Pubmed_ID N/A
#Smiles C1=CC=C2C(=C1)N=C(N=C2C)CN3C(N(C4=C(C3=O)N(C(=N4)N5C[C@@H](CCC5)N)CC#CC)C)=O
#INCHI_AUX N/A
#Library_Class 1
#SpectrumID CCMSLIB00000078546
#IonMode Positive
#UpdateWorkflowName UPDATE-SINGLE-ANNOTATED-GOLD
#LibraryQualityString Gold
#TaskID 77f51c88eb8b467eb4a01dd2d0cb90d2
##Scan# 1085
#SpectrumFile Plate9_1_20_GC4_01_15750.mzXML
#LibraryName FDALibrary_2_04302014.mgf
#MQScore -1
#Organism FDALibrary_2_04302014
#TIC_Query 0
#RT_Query -1
#MZErrorPPM -1
#SharedPeaks 0
#MassDiff 0
#LibMZ -1
#SpecMZ 473.241
#SpecCharge 0
#internalFilename spec-00000.mgf

>collision 0
149.0712 4.35
153.0769 2.9
158.0829 12.84
165.0774 3.05
177.1139 7.59
178.1218 3.16
191.0919 4.84
204.1008 4.91
205.1074 21.47
206.1045 3.57
208.0832 6.25
220.1208 3.31
236.1146 3.35
246.1009 14.7
247.0981 5.4
257.1395 3.76
263.1248 22.14
323.1252 3.83
335.1246 4.28
336.1336 16.75
337.1299 18.65
348.1465 5.95
349.1407 5.43
350.1369 51.99
351.1422 61.59
352.1435 12.32
362.1368 2.94
363.1461 12.84
364.1515 100.0
366.1592 3.68
374.1392 6.92
375.1428 17.98
376.1502 15.52
377.1577 6.07
388.1578 3.61
390.1674 7.96
402.1635 13.17
403.1744 52.51
404.1809 44.32
405.184 13.7
419.1908 6.48
420.2015 76.78
421.2017 15.26
456.2157 5.43
473.2417 562.9
