>compound MLS000863294-01!
>formula C21H26N2O7
>ionization [M+H]+
>parentmass 419.1812776240905
#inchi InChI=1S/C21H26N2O7/c1-12(2)30-21(25)18-14(4)22-13(3)17(20(24)29-10-9-28-5)19(18)15-7-6-8-16(11-15)23(26)27/h6-8,11-12,19,24H,9-10H2,1-5H3/b20-17+
#inchikey FXLASALIDJKUIQ
#Ion_Source LC-ESI
#Instrument qTof
#Compound_Source NIH Pharmacologically Active Library
#PI Dorrestein
#Data_Collector VP/LMS
#Scan -1
#Precursor_MZ 419.173
#ExactMass 418.174
#Charge 1
#CAS_Number N/A
#Pubmed_ID N/A
#Smiles COCCO/C(=C\1/C(C(=C(C)N=C1C)C(=O)OC(C)C)c2cccc(c2)[N+](=O)[O-])/O
#INCHI_AUX N/A
#Library_Class 1
#SpectrumID CCMSLIB00000085317
#IonMode Positive
#UpdateWorkflowName UPDATE-SINGLE-ANNOTATED-GOLD
#LibraryQualityString Gold
#TaskID d252d724072548979f1f6f1ced849daf
##Scan# 2359
#SpectrumFile p3-H04_GH4_01_18309.mzXML
#LibraryName Pharm_Active_Library.mgf
#MQScore -1
#Organism Pharm_Active_Library
#TIC_Query 0
#RT_Query -1
#MZErrorPPM -1
#SharedPeaks 0
#MassDiff 0
#LibMZ -1
#SpecMZ 419.173
#SpecCharge 0
#internalFilename spec-00000.mgf

>collision 0
158.096 1.05
168.0781 9.38
176.032 1.42
180.0798 1.5
181.0858 1.04
182.0938 2.65
183.1003 2.54
208.0741 1.7
209.0809 2.23
210.0889 5.85
211.0951 2.31
212.0699 2.67
215.0939 1.57
217.0608 2.76
225.0751 1.36
226.0856 7.33
227.0893 3.2
228.0639 0.98
240.0653 1.24
240.0895 1.3
241.0707 1.98
242.0799 2.54
243.085 2.01
253.0704 3.44
254.0804 24.02
255.0868 23.9
267.0747 2.24
271.0812 2.51
283.0713 7.59
284.0779 11.04
285.0649 5.39
287.0781 15.36
301.0831 100.0
317.0765 6.21
359.1253 5.79
375.1185 2.08
419.1846 0.0
