>compound MLS002695970-01!
>formula C30H44O9
>ionization [M+Na]+
>parentmass 571.2877536880906
#inchi InChI=1S/C30H44O9/c1-16-24(33)26(36-3)25(34)27(38-16)39-19-6-10-29(15-31)18(13-19)4-5-22-21(29)7-9-28(2)20(8-11-30(22,28)35)17-12-23(32)37-14-17/h12,15-16,18-22,24-27,33-35H,4-11,13-14H2,1-3H3
#inchikey PMTSPAGBAFCORP
#Ion_Source LC-ESI
#Instrument qTof
#Compound_Source NIH Natural Product Library
#PI Dorrestein
#Data_Collector VVP/LMS
#Scan -1
#Precursor_MZ 571.288
#ExactMass 548.299
#Charge 1
#CAS_Number N/A
#Pubmed_ID N/A
#Smiles COC1C(O)C(C)OC(OC2CCC3(C=O)C(CCC4C3CCC5(C)C(CCC45O)C6=CC(=O)OC6)C2)C1O
#INCHI_AUX N/A
#Library_Class 1
#SpectrumID CCMSLIB00000079914
#IonMode Positive
#UpdateWorkflowName UPDATE-SINGLE-ANNOTATED-GOLD
#LibraryQualityString Gold
#TaskID b1d8e8f6646f4e71acdff9ca3d919d08
##Scan# 1804
#SpectrumFile p1-G12_GG12_01_17956.mzXML
#LibraryName NIH_Natural_Products_Library.mgf
#MQScore -1
#Organism NIH_Natural_Products_Library
#TIC_Query 0
#RT_Query -1
#MZErrorPPM -1
#SharedPeaks 0
#MassDiff 0
#LibMZ -1
#SpecMZ 571.288
#SpecCharge 0
#internalFilename spec-00000.mgf

>collision 0
235.0363 22.29
284.1372 24.57
324.1148 37.71
336.2075 37.71
337.1902 22.29
353.2245 28.57
356.211 24.0
411.2126 100.0
412.2183 41.14
429.2188 24.0
429.2462 23.43
430.2289 28.0
464.2278 25.14
489.1559 24.57
515.2236 24.0
529.2367 25.71
533.2139 27.43
571.2833 1281.14
