>compound MLS001146633-01!
>formula C23H25N3O4S
>ionization [M+H]+
>parentmass 440.164
#inchi InChI=1S/C23H25N3O4S/c1-29-19-8-6-15(11-20(19)30-2)7-9-21(27)24-23(31)25-12-16-10-17(14-25)18-4-3-5-22(28)26(18)13-16/h3-9,11,16-17H,10,12-14H2,1-2H3,(H,24,27,31)/b9-7+/t16-,17-/m1/s1
#inchikey NLCSAWDCXBHPNW
#Ion_Source LC-ESI
#Instrument qTof
#Compound_Source NIH Natural Product Library
#PI Dorrestein
#Data_Collector VVP/LMS
#Scan -1
#Precursor_MZ 440.164
#ExactMass 439.157
#Charge 1
#CAS_Number N/A
#Pubmed_ID N/A
#Smiles COc1ccc(/C=C/C(=O)NC(=S)N2C[C@H]3C[C@H](C2)c4cccc(=O)n4C3)cc1OC
#INCHI_AUX N/A
#Library_Class 1
#SpectrumID CCMSLIB00000080032
#IonMode Positive
#UpdateWorkflowName UPDATE-SINGLE-ANNOTATED-GOLD
#LibraryQualityString Gold
#TaskID b1d8e8f6646f4e71acdff9ca3d919d08
##Scan# 1786
#SpectrumFile p2-C03_GC3_01_18003.mzXML
#LibraryName NIH_Natural_Products_Library.mgf
#MQScore -1
#Organism NIH_Natural_Products_Library
#TIC_Query 0
#RT_Query -1
#MZErrorPPM -1
#SharedPeaks 0
#MassDiff 0
#LibMZ -1
#SpecMZ 440.164
#SpecCharge 0
#internalFilename spec-00000.mgf

>collision 0
103.055 1.11
107.0489 0.49
119.0491 1.21
132.0574 2.94
133.0297 2.55
133.0677 2.09
146.0364 0.88
147.0457 2.1
148.0543 9.35
160.0542 3.44
161.0597 1.71
163.0777 28.18
164.081 5.09
176.0502 3.72
189.0566 0.48
191.0734 100.0
192.0767 16.31
233.0783 6.41
440.1734 0.0
