>compound (8S,11R,13S,14S,17S)-11-(4-(dimethylamino)phenyl)-17-hydroxy-13-methyl-17-(prop-1-yn-1-yl)-6,7,8,11,12,13,14,15,16,17-decahydro-1H-cyclopenta[a]phenanthren-3(2H)-one
>formula C29H35NO2
>ionization [M+H]+
>parentmass 430.2740558120906
#inchi InChI=1S/C29H35NO2/c1-5-15-29(32)16-14-26-24-12-8-20-17-22(31)11-13-23(20)27(24)25(18-28(26,29)2)19-6-9-21(10-7-19)30(3)4/h6-7,9-10,17,24-26,32H,8,11-14,16,18H2,1-4H3/t24-,25+,26-,28-,29-/m0/s1
#inchikey VKHAHZOOUSRJNA
#Ion_Source LC-ESI
#Instrument qTof
#Compound_Source Commercial
#PI Dorrestein
#Data_Collector Garg_Neha
#Scan -1
#Precursor_MZ 430.274
#ExactMass 429.267
#Charge 1
#CAS_Number N/A
#Pubmed_ID N/A
#Smiles CC#C[C@]1(O)CC[C@H]2[C@@H]3CCC4=CC(=O)CCC4=C3[C@H](C[C@@]21C)c5ccc(cc5)N(C)C
#INCHI_AUX N/A
#Library_Class 1
#SpectrumID CCMSLIB00000079244
#IonMode Positive
#UpdateWorkflowName UPDATE-SINGLE-ANNOTATED-GOLD
#LibraryQualityString Gold
#TaskID 278b19f5865741e282cec7349aa7e7a1
##Scan# 1194
#SpectrumFile NCP003672_E27F27G26H26_BE5_01_15741.mzXML
#LibraryName NIHcollectionI_05062014.mgf
#MQScore -1
#Organism NIHcollectionI_05062014
#TIC_Query 0
#RT_Query -1
#MZErrorPPM -1
#SharedPeaks 0
#MassDiff 0
#LibMZ -1
#SpecMZ 430.274
#SpecCharge 0
#internalFilename spec-00000.mgf

>collision 0
122.0966 23.97
133.0647 12.72
134.0967 99.55
135.0803 16.32
143.0859 10.17
146.0972 9.42
148.1119 25.79
158.0965 13.32
159.0815 15.69
160.1117 32.66
161.0965 15.54
162.127 15.74
172.1117 29.89
173.0967 22.34
174.1266 12.67
184.112 9.82
186.1278 11.13
188.144 14.08
198.1273 10.85
211.1111 17.4
224.1412 14.38
225.1275 14.88
225.1503 12.11
236.1438 32.44
238.1601 10.83
240.1736 10.43
242.153 15.26
249.153 14.45
250.1586 12.44
262.1597 9.75
264.175 15.34
266.1554 9.62
266.1899 10.88
269.1531 33.97
274.1587 13.3
280.1696 27.32
282.1858 15.31
288.1745 49.61
291.1744 22.54
306.1836 14.4
309.1844 42.79
314.1885 10.2
332.2009 22.36
346.2161 12.42
360.2325 11.13
372.2329 100.0
412.2637 29.84
415.2506 42.21
430.2762 1396.42
