>compound Rifaximin
>formula C43H51N3O11 
>ionization [M+H]+
>parentmass 786.359253
#inchi InChI=1S/C43H51N3O11/c1-19-14-16-46-28(18-19)44-32-29-30-37(50)25(7)40-31(29)41(52)43(9,57-40)55-17-15-27(54-10)22(4)39(56-26(8)47)24(6)36(49)23(5)35(48)20(2)12-11-13-21(3)42(53)45-33(34(32)46)38(30)51/h11-18,20,22-24,27,35-36,39,48-51H,1-10H3,(H,45,53)/b12-11+,17-15+,21-13-/t20-,22+,23+,24+,27-,35-,36+,39+,43-/m0/s1
#inchikey NZCRJKRKKOLAOJ
#Ion_Source LC-ESI
#Instrument qTof
#Compound_Source Isolated
#PI Sirenas
#Data_Collector Ed Esquenazi 
#Scan -1
#Precursor_MZ 786.36
#ExactMass 0.0
#Charge 1
#CAS_Number N/A
#Pubmed_ID N/A
#Smiles N/A
#INCHI_AUX N/A
#Library_Class 3
#SpectrumID CCMSLIB00000005102
#IonMode Positive
#UpdateWorkflowName UPDATE-SINGLE-ANNOTATED-BRONZE
#LibraryQualityString Bronze
#TaskID d19310cd93df49b68e9fcbec27720eb5
##Scan# 5
#SpectrumFile Rifaximin.mgf
#LibraryName fda_library.mgf
#MQScore -1
#Organism fda_library
#TIC_Query 0
#RT_Query -1
#MZErrorPPM -1
#SharedPeaks 0
#MassDiff 0
#LibMZ -1
#SpecMZ 786.36
#SpecCharge 0
#internalFilename spec-00000.mgf

>collision 0
105.0694 0.46
107.0855 2.8
109.0648 0.89
109.101 0.62
111.0794 0.88
119.0844 0.53
121.0643 0.53
121.1003 0.83
123.0805 3.72
125.0963 1.65
133.1014 0.42
135.0811 1.5
135.116 0.87
137.096 1.45
139.0743 1.07
145.1007 0.64
147.1168 1.15
149.0955 0.45
151.0753 9.35
153.0906 1.58
155.1066 0.93
159.1176 1.07
161.0972 1.01
163.1113 4.2
173.0945 0.62
173.1336 0.61
175.1133 1.24
177.1274 0.6
179.1067 3.62
181.1206 0.42
191.1064 2.95
193.1212 0.96
201.1254 0.58
209.1174 1.82
219.1371 1.08
231.1392 0.67
251.1813 0.41
269.1916 0.5
271.1701 0.4
279.1743 0.9
289.179 0.52
297.1862 1.87
315.1973 1.6
333.2068 0.64
736.322 2.35
755.3381 10.32
768.3487 1.67
786.3624 119.75
