>compound MLS001157934-01!(2S)-1-[2-[[(2Z)-2-[(3-methoxyphenyl)methylidene]-3-oxo-1-benzofuran-6-yl]oxy]acetyl]pyrrolidine-2-carboxylic acid
>formula C23H21NO7
>ionization [M+H]+
>parentmass 424.139191
#inchi InChI=1S/C23H21NO7/c1-29-15-5-2-4-14(10-15)11-20-22(26)17-8-7-16(12-19(17)31-20)30-13-21(25)24-9-3-6-18(24)23(27)28/h2,4-5,7-8,10-12,18H,3,6,9,13H2,1H3,(H,27,28)/b20-11-/t18-/m0/s1
#inchikey BYTYHIIQPJFZAU
#Ion_Source LC-ESI
#Instrument qTof
#Compound_Source NIH Natural Product Library
#PI Dorrestein
#Data_Collector VVP/LMS
#Scan -1
#Precursor_MZ 424.14
#ExactMass 423.132
#Charge 1
#CAS_Number N/A
#Pubmed_ID N/A
#Smiles COc1cccc(/C=C/2\Oc3cc(OCC(=O)N4CCC[C@H]4C(=O)O)ccc3C2=O)c1
#INCHI_AUX N/A
#Library_Class 1
#SpectrumID CCMSLIB00000079524
#IonMode Positive
#UpdateWorkflowName UPDATE-SINGLE-ANNOTATED-GOLD
#LibraryQualityString Gold
#TaskID b1d8e8f6646f4e71acdff9ca3d919d08
##Scan# 2089
#SpectrumFile p1-F07_GF7_01_17939.mzXML
#LibraryName NIH_Natural_Products_Library.mgf
#MQScore -1
#Organism NIH_Natural_Products_Library
#TIC_Query 0
#RT_Query -1
#MZErrorPPM -1
#SharedPeaks 0
#MassDiff 0
#LibMZ -1
#SpecMZ 424.14
#SpecCharge 0
#internalFilename spec-00000.mgf

>collision 0
98.0583 6.45
100.075 16.53
128.0691 16.44
129.07 2.86
137.0224 8.09
156.0648 10.79
163.0389 4.53
181.0648 2.92
197.097 2.54
198.0675 4.49
213.0911 26.55
220.0528 7.64
225.0927 3.56
226.0611 4.85
237.055 26.0
251.0703 6.1
252.0416 15.15
253.0496 9.95
253.0839 5.78
255.0638 3.15
267.0641 5.26
269.0807 100.0
281.0806 54.83
282.0529 9.7
282.0868 9.31
283.0588 10.66
327.0862 2.38
350.1374 8.89
378.132 2.22
424.1419 5.87
