>compound TREMULACIN
>formula C27H28O11
>ionization [M+Na]+
>parentmass 551.153992
#inchi InChI=1S/C27H28O11/c28-14-19-21(30)22(31)23(38-24(32)16-8-2-1-3-9-16)25(37-19)36-18-11-5-4-10-17(18)15-35-26(33)27(34)13-7-6-12-20(27)29/h1-5,7-11,13,19,21-23,25,28,30-31,34H,6,12,14-15H2/t19-,21-,22+,23-,25-,27?/m1/s1
#inchikey RCKCYCDBDYUIGM
#Ion_Source LC-ESI
#Instrument qTof
#Compound_Source Commercial
#PI Dorrestein
#Data_Collector Garg_Neha
#Scan -1
#Precursor_MZ 551.152
#ExactMass 528.163
#Charge 1
#CAS_Number N/A
#Pubmed_ID N/A
#Smiles OC[C@H]1O[C@@H](Oc2ccccc2COC(=O)C3(O)C=CCCC3=O)[C@H](OC(=O)c4ccccc4)[C@@H](O)[C@@H]1O
#INCHI_AUX N/A
#Library_Class 1
#SpectrumID CCMSLIB00000079091
#IonMode Positive
#UpdateWorkflowName UPDATE-SINGLE-ANNOTATED-GOLD
#LibraryQualityString Gold
#TaskID 278b19f5865741e282cec7349aa7e7a1
##Scan# 1197
#SpectrumFile NCP003432_G2_H11_BD3_01_15725.mzXML
#LibraryName NIHcollectionI_05062014.mgf
#MQScore -1
#Organism NIHcollectionI_05062014
#TIC_Query 0
#RT_Query -1
#MZErrorPPM -1
#SharedPeaks 0
#MassDiff 0
#LibMZ -1
#SpecMZ 551.152
#SpecCharge 0
#internalFilename spec-00000.mgf

>collision 0
127.0377 18.17
129.0309 5.27
130.0381 5.73
133.0264 6.18
135.0408 14.81
169.0479 13.89
179.0305 100.0
180.0375 14.58
231.0631 7.4
287.0182 6.56
289.0701 90.69
372.0483 4.05
395.1097 6.26
401.0968 4.12
411.0688 5.95
445.1263 7.02
507.1615 25.27
551.154 1434.12
