>compound MLS000766289-01!
>formula C19H23N3O4
>ionization [M+H]+
>parentmass 358.17746
#inchi InChI=1S/C19H23N3O4/c1-21-12-7-11(19(24)25)18(21)13-6-10-4-3-5-16(26-2)17(10)15(9-23)22(13)14(12)8-20/h3-5,11-15,18,23H,6-7,9H2,1-2H3,(H,24,25)
#inchikey YGWHMSNGVVTUIT
#Ion_Source LC-ESI
#Instrument qTof
#Compound_Source NIH Natural Product Library
#PI Dorrestein
#Data_Collector VVP/LMS
#Scan -1
#Precursor_MZ 358.177
#ExactMass 357.169
#Charge 1
#CAS_Number N/A
#Pubmed_ID N/A
#Smiles COc1cccc2CC3C4C(CC(C(C#N)N3C(CO)c12)N4C)C(=O)O
#INCHI_AUX N/A
#Library_Class 1
#SpectrumID CCMSLIB00000080327
#IonMode Positive
#UpdateWorkflowName UPDATE-SINGLE-ANNOTATED-GOLD
#LibraryQualityString Gold
#TaskID b1d8e8f6646f4e71acdff9ca3d919d08
##Scan# 1372
#SpectrumFile p2-C07_GC7_01_18007.mzXML
#LibraryName NIH_Natural_Products_Library.mgf
#MQScore -1
#Organism NIH_Natural_Products_Library
#TIC_Query 0
#RT_Query -1
#MZErrorPPM -1
#SharedPeaks 0
#MassDiff 0
#LibMZ -1
#SpecMZ 358.177
#SpecCharge 0
#internalFilename spec-00000.mgf

>collision 0
115.0543 0.79
140.0715 8.45
146.071 0.69
147.0802 1.31
156.0801 0.63
157.0886 0.64
161.0941 0.61
172.0772 3.81
173.0836 4.16
174.0923 4.42
182.06 0.85
183.0686 5.66
184.0737 1.91
185.0834 1.8
186.0921 2.54
187.0962 1.08
188.0712 2.04
188.1071 8.12
197.0844 13.01
198.0919 29.88
199.097 7.51
200.1057 6.21
201.1032 3.12
210.0912 1.04
211.0879 0.76
212.1039 1.35
213.1032 21.26
214.1075 5.22
215.1177 6.2
216.1017 4.27
225.1032 0.72
226.1093 1.37
227.1183 5.54
228.1029 10.29
229.1325 10.93
241.1336 4.2
244.1203 2.52
259.1448 100.0
331.1646 19.77
358.1733 0.14
