>compound MLS002153353-01!3-Tropanylindole-3-carboxylate methiodide
>formula C18H22N2O2
>ionization [M+H]+
>parentmass 299.176514
#inchi InChI=1S/C18H22N2O2/c1-20(2)12-7-8-13(20)10-14(9-12)22-18(21)16-11-19-17-6-4-3-5-15(16)17/h3-6,11-14H,7-10H2,1-2H3
#inchikey KVDHVTQKKLVMJD
#origInchi InChI=1S/C18H22N2O2.HI/c1-20(2)12-7-8-13(20)10-14(9-12)22-18(21)16-11-19-17-6-4-3-5-15(16)17;/h3-6,11-14H,7-10H2,1-2H3;1H
#Ion_Source LC-ESI
#Instrument qTof
#Compound_Source NIH Pharmacologically Active Library
#PI Dorrestein
#Data_Collector VP/LMS
#Scan -1
#Precursor_MZ 299.177
#ExactMass 299.176
#Charge 1
#CAS_Number N/A
#Pubmed_ID N/A
#Smiles C[N+]1(C)C2CCC1CC(C2)OC(=O)c3c[nH]c4ccccc34.[I-]
#INCHI_AUX N/A
#Library_Class 1
#SpectrumID CCMSLIB00000084752
#IonMode Positive
#UpdateWorkflowName UPDATE-SINGLE-ANNOTATED-GOLD
#LibraryQualityString Gold
#TaskID d252d724072548979f1f6f1ced849daf
##Scan# 1421
#SpectrumFile p3-A03_GA3_01_18225.mzXML
#LibraryName Pharm_Active_Library.mgf
#MQScore -1
#Organism Pharm_Active_Library
#TIC_Query 0
#RT_Query -1
#MZErrorPPM -1
#SharedPeaks 0
#MassDiff 0
#LibMZ -1
#SpecMZ 299.177
#SpecCharge 0
#internalFilename spec-00000.mgf

>collision 0
91.0552 4.16
93.0706 6.42
95.0856 3.84
108.0806 1.05
110.098 0.55
112.1127 0.36
123.106 1.03
138.1293 100.0
156.1395 2.11
299.1765 22.87
