>compound FAMOTIDINE
>formula C8H15N7O2S3
>ionization [M+H]+
>parentmass 338.053345
#inchi InChI=1S/C8H15N7O2S3/c9-6(15-20(12,16)17)1-2-18-3-5-4-19-8(13-5)14-7(10)11/h4H,1-3H2,(H2,9,15)(H2,12,16,17)(H4,10,11,13,14)
#inchikey XUFQPHANEAPEMJ
#Ion_Source LC-ESI
#Instrument qTof
#Compound_Source Commercial
#PI Dorrestein
#Data_Collector Garg_Neha
#Scan -1
#Precursor_MZ 338.052
#ExactMass 337.045
#Charge 1
#CAS_Number N/A
#Pubmed_ID N/A
#Smiles NC(=N)Nc1nc(CSCCC(=N)NS(=O)(=O)N)cs1
#INCHI_AUX N/A
#Library_Class 1
#SpectrumID CCMSLIB00000079201
#IonMode Positive
#UpdateWorkflowName UPDATE-SINGLE-ANNOTATED-GOLD
#LibraryQualityString Gold
#TaskID 278b19f5865741e282cec7349aa7e7a1
##Scan# 946
#SpectrumFile NCP003592_G2_H11_BE3_01_15737.mzXML
#LibraryName NIHcollectionI_05062014.mgf
#MQScore -1
#Organism NIHcollectionI_05062014
#TIC_Query 0
#RT_Query -1
#MZErrorPPM -1
#SharedPeaks 0
#MassDiff 0
#LibMZ -1
#SpecMZ 338.052
#SpecCharge 0
#internalFilename spec-00000.mgf

>collision 0
113.0165 3.44
138.0104 4.37
147.0051 3.7
155.0391 31.56
189.0268 100.0
242.0513 4.72
259.0796 84.77
338.0533 11.95
