>compound MLS001401427-01!azelastine hydrochloride79307-93-0
>formula C22H24ClN3O
>ionization [M+H]+
>parentmass 382.169098
#inchi InChI=1S/C22H24ClN3O/c1-25-13-4-5-18(12-14-25)26-22(27)20-7-3-2-6-19(20)21(24-26)15-16-8-10-17(23)11-9-16/h2-3,6-11,18H,4-5,12-15H2,1H3
#inchikey MBUVEWMHONZEQD
#origInchi InChI=1S/C22H24ClN3O.ClH/c1-25-13-4-5-18(12-14-25)26-22(27)20-7-3-2-6-19(20)21(24-26)15-16-8-10-17(23)11-9-16;/h2-3,6-11,18H,4-5,12-15H2,1H3;1H
#Ion_Source LC-ESI
#Instrument qTof
#Compound_Source NIH Pharmacologically Active Library
#PI Dorrestein
#Data_Collector VP/LMS
#Scan -1
#Precursor_MZ 382.162
#ExactMass 381.161
#Charge 1
#CAS_Number N/A
#Pubmed_ID N/A
#Smiles CN1CCCC(CC1)n2nc(Cc3ccc(Cl)cc3)c4ccccc4c2=O.Cl
#INCHI_AUX N/A
#Library_Class 1
#SpectrumID CCMSLIB00000085372
#IonMode Positive
#UpdateWorkflowName UPDATE-SINGLE-ANNOTATED-GOLD
#LibraryQualityString Gold
#TaskID d252d724072548979f1f6f1ced849daf
##Scan# 1773
#SpectrumFile p3-H10_GH10_01_18315.mzXML
#LibraryName Pharm_Active_Library.mgf
#MQScore -1
#Organism Pharm_Active_Library
#TIC_Query 0
#RT_Query -1
#MZErrorPPM -1
#SharedPeaks 0
#MassDiff 0
#LibMZ -1
#SpecMZ 382.162
#SpecCharge 0
#internalFilename spec-00000.mgf

>collision 0
89.0383 0.71
98.0958 3.9
99.0011 0.54
103.0538 5.61
110.0963 9.31
125.0157 61.68
128.0148 1.13
130.0284 2.12
131.0505 2.75
159.0555 39.8
171.0557 0.85
197.0702 0.91
219.0681 20.99
227.0483 1.96
228.0555 1.29
254.0363 5.49
255.0428 4.35
271.0637 87.63
283.0636 100.0
297.0792 1.08
309.0769 2.12
311.0941 4.3
323.0921 1.44
339.1255 13.36
351.1252 9.17
382.1691 126.13
