>compound Trimethoprim
>formula C14H18N4O3
>ionization [M+H]+
>parentmass 291.146362
#inchi InChI=1S/C14H18N4O3/c1-19-10-5-8(6-11(20-2)12(10)21-3)4-9-7-17-14(16)18-13(9)15/h5-7H,4H2,1-3H3,(H4,15,16,17,18)
#inchikey IEDVJHCEMCRBQM
#Ion_Source LC-ESI
#Instrument qTof
#Compound_Source Commercial
#PI Dorrestein
#Data_Collector Garg_Neha
#Scan -1
#Precursor_MZ 291.145
#ExactMass 290.138
#Charge 1
#CAS_Number 738-70-5, 56585-33-2 (1/2H2O4S)
#Pubmed_ID N/A
#Smiles C1(N=C(C(=CN=1)CC2C=C(C(=C(C=2)OC)OC)OC)N)N
#INCHI_AUX N/A
#Library_Class 1
#SpectrumID CCMSLIB00000078580
#IonMode Positive
#UpdateWorkflowName UPDATE-SINGLE-ANNOTATED-GOLD
#LibraryQualityString Gold
#TaskID 77f51c88eb8b467eb4a01dd2d0cb90d2
##Scan# 997
#SpectrumFile Plate9_41_60_GC6_01_15755.mzXML
#LibraryName FDALibrary_2_04302014.mgf
#MQScore -1
#Organism FDALibrary_2_04302014
#TIC_Query 0
#RT_Query -1
#MZErrorPPM -1
#SharedPeaks 0
#MassDiff 0
#LibMZ -1
#SpecMZ 291.145
#SpecCharge 0
#internalFilename spec-00000.mgf

>collision 0
174.0653 3.1
187.0979 6.96
191.0929 2.91
199.0961 2.06
201.0758 2.27
201.1122 8.26
202.121 4.89
205.1068 1.07
215.0912 3.04
216.1006 2.52
217.1066 3.31
229.1086 22.89
230.116 48.56
232.0946 7.69
233.103 20.62
245.1031 42.21
247.0827 2.65
247.1171 9.48
257.1031 44.92
259.0825 3.28
261.0975 100.0
275.1128 58.31
291.1452 630.83
