>compound 298-46-4
>formula C15H12N2O 
>ionization [M+H]+
>parentmass 237.102798
#inchi InChI=1S/C15H12N2O/c16-15(18)17-13-7-3-1-5-11(13)9-10-12-6-2-4-8-14(12)17/h1-10H,(H2,16,18)
#inchikey FFGPTBGBLSHEPO
#Ion_Source LC-ESI
#Instrument qTof
#Compound_Source Commercial
#PI Dorrestein
#Data_Collector Garg_Neha
#Scan -1
#Precursor_MZ 237.104
#ExactMass 236.095
#Charge 1
#CAS_Number N/A
#Pubmed_ID N/A
#Smiles N/A
#INCHI_AUX N/A
#Library_Class 1
#SpectrumID CCMSLIB00000077080
#IonMode Positive
#UpdateWorkflowName UPDATE-SINGLE-ANNOTATED-GOLD
#LibraryQualityString Gold
#TaskID 48f7f52fc6d249b5abbcc6e7b3df5969
##Scan# 1223
#SpectrumFile NCP003106_A2_B11_BB2_01_15705.mzXML
#LibraryName NIH_Clinical_Collection_2.mgf
#MQScore -1
#Organism NIHcollection2_04212014_2_mgf
#TIC_Query 0
#RT_Query -1
#MZErrorPPM -1
#SharedPeaks 0
#MassDiff 0
#LibMZ -1
#SpecMZ 237.104
#SpecCharge 0
#internalFilename spec-00000.mgf

>collision 0
152.0631 0.76
153.0563 0.66
165.0702 4.88
177.0592 0.67
179.0728 7.64
191.0728 5.39
192.0809 24.12
194.0967 100.0
220.0746 2.65
237.1028 73.35
