>compound MLS001142427-01!
>formula C25H25BrN4O2
>ionization [M+H]+
>parentmass 493.123505
#inchi InChI=1S/C25H25BrN4O2/c26-18-6-3-5-17(15-18)23-24-20(19-7-1-2-8-21(19)28-24)16-22(29-23)25(31)27-9-4-10-30-11-13-32-14-12-30/h1-3,5-8,15-16,29H,4,9-14H2,(H,27,31)
#inchikey XSMQKIDAEVUBHU
#Ion_Source LC-ESI
#Instrument qTof
#Compound_Source NIH Natural Product Library
#PI Dorrestein
#Data_Collector VVP/LMS
#Scan -1
#Precursor_MZ 493.124
#ExactMass 492.116
#Charge 1
#CAS_Number N/A
#Pubmed_ID N/A
#Smiles Brc1cccc(c1)c2[nH]c(cc3c4ccccc4nc23)C(=O)NCCCN5CCOCC5
#INCHI_AUX N/A
#Library_Class 1
#SpectrumID CCMSLIB00000080337
#IonMode Positive
#UpdateWorkflowName UPDATE-SINGLE-ANNOTATED-GOLD
#LibraryQualityString Gold
#TaskID b1d8e8f6646f4e71acdff9ca3d919d08
##Scan# 1921
#SpectrumFile p2-D07_GD7_01_18019.mzXML
#LibraryName NIH_Natural_Products_Library.mgf
#MQScore -1
#Organism NIH_Natural_Products_Library
#TIC_Query 0
#RT_Query -1
#MZErrorPPM -1
#SharedPeaks 0
#MassDiff 0
#LibMZ -1
#SpecMZ 493.124
#SpecCharge 0
#internalFilename spec-00000.mgf

>collision 0
100.0754 1.57
126.09 0.55
243.0903 12.56
244.0966 1.17
321.0061 54.57
322.0096 12.06
323.0039 46.02
324.0075 7.91
335.0186 1.07
337.0211 1.3
338.0263 0.63
339.0169 63.2
340.0205 13.65
341.0148 67.91
343.0209 0.78
348.0191 11.41
349.0024 27.79
350.0101 11.31
350.9992 27.46
353.015 1.48
362.037 0.9
364.0314 0.85
366.0394 0.78
368.0155 7.15
369.0103 24.64
378.0284 20.99
379.0318 6.04
380.0259 16.57
390.0476 1.01
406.06 100.0
407.0626 27.87
408.0582 96.33
410.0645 0.97
493.1272 6.22
