>compound MLS001139277-01!(2S)-5-oxo-1-(3-oxo-1H-2-benzofuran-1-yl)-N-(oxolan-2-ylmethyl)pyrrolidine-2-carboxamide
>formula C18H20N2O5
>ionization [M+H]+
>parentmass 345.1444981920905
#inchi InChI=1S/C18H20N2O5/c21-15-8-7-14(16(22)19-10-11-4-3-9-24-11)20(15)17-12-5-1-2-6-13(12)18(23)25-17/h1-2,5-6,11,14,17H,3-4,7-10H2,(H,19,22)/t11?,14-,17?/m0/s1
#inchikey LPVUBEMQVNVTLG
#Ion_Source LC-ESI
#Instrument qTof
#Compound_Source NIH Natural Product Library
#PI Dorrestein
#Data_Collector VVP/LMS
#Scan -1
#Precursor_MZ 345.145
#ExactMass 344.137
#Charge 1
#CAS_Number N/A
#Pubmed_ID N/A
#Smiles O=C(NCC1CCCO1)[C@@H]2CCC(=O)N2C3OC(=O)c4ccccc34
#INCHI_AUX N/A
#Library_Class 1
#SpectrumID CCMSLIB00000079381
#IonMode Positive
#UpdateWorkflowName UPDATE-SINGLE-ANNOTATED-GOLD
#LibraryQualityString Gold
#TaskID b1d8e8f6646f4e71acdff9ca3d919d08
##Scan# 1490
#SpectrumFile p1-D05_GD5_01_17913.mzXML
#LibraryName NIH_Natural_Products_Library.mgf
#MQScore -1
#Organism NIH_Natural_Products_Library
#TIC_Query 0
#RT_Query -1
#MZErrorPPM -1
#SharedPeaks 0
#MassDiff 0
#LibMZ -1
#SpecMZ 345.145
#SpecCharge 0
#internalFilename spec-00000.mgf

>collision 0
105.0343 11.85
116.0492 0.46
133.0293 100.0
142.0656 0.5
144.0808 0.64
154.0646 0.43
170.0616 0.54
172.0755 5.72
198.0552 1.03
216.0644 0.52
216.1024 2.72
345.1471 0.08
