>compound Mupirocin
>formula C26H44O9 
>ionization [M+H]+
>parentmass 501.303955
#inchi InChI=1S/C26H44O9/c1-16(13-23(30)33-11-9-7-5-4-6-8-10-22(28)29)12-20-25(32)24(31)19(15-34-20)14-21-26(35-21)17(2)18(3)27/h13,17-21,24-27,31-32H,4-12,14-15H2,1-3H3,(H,28,29)/b16-13+/t17-,18-,19-,20-,21-,24+,25-,26-/m0/s1
#inchikey MINDHVHHQZYEEK
#Ion_Source LC-ESI
#Instrument qTof
#Compound_Source Commercial
#PI Dorrestein
#Data_Collector Garg_Neha
#Scan -1
#Precursor_MZ 501.309
#ExactMass 500.299
#Charge 1
#CAS_Number N/A
#Pubmed_ID N/A
#Smiles N/A
#INCHI_AUX N/A
#Library_Class 1
#SpectrumID CCMSLIB00000077108
#IonMode Positive
#UpdateWorkflowName UPDATE-SINGLE-ANNOTATED-GOLD
#LibraryQualityString Gold
#TaskID 48f7f52fc6d249b5abbcc6e7b3df5969
##Scan# 1285
#SpectrumFile NCP003106_E2_F11_BB4_01_15707.mzXML
#LibraryName NIH_Clinical_Collection_2.mgf
#MQScore -1
#Organism NIHcollection2_04212014_2_mgf
#TIC_Query 0
#RT_Query -1
#MZErrorPPM -1
#SharedPeaks 0
#MassDiff 0
#LibMZ -1
#SpecMZ 501.309
#SpecCharge 0
#internalFilename spec-00000.mgf

>collision 0
105.0712 3.28
109.0646 3.69
111.0443 9.87
121.0657 3.21
125.061 3.55
129.0552 3.83
133.0661 4.9
135.0808 4.28
137.0972 5.47
145.0998 4.74
147.0814 3.42
149.0949 6.36
155.1079 5.52
159.0814 3.55
161.0593 3.31
161.0966 6.18
165.0904 3.8
167.106 9.18
175.0752 5.06
177.0903 6.33
179.0711 6.93
181.1219 4.47
189.0894 4.17
191.1083 4.42
195.1027 3.51
207.1011 5.28
209.1182 8.39
223.0973 4.47
227.1285 10.75
235.0979 4.9
245.1522 4.58
247.1328 5.24
253.1077 10.87
255.1366 4.13
265.143 21.92
271.1171 7.41
273.1473 9.93
291.1595 40.42
309.1697 100.0
327.1807 84.42
447.2711 4.74
465.285 10.03
483.2973 4.63
501.304 7.25
