>compound MLS001401433-01!ITOPRIDE HCl
>formula C20H26N2O4
>ionization [M+H]+
>parentmass 359.19653376409053
#inchi InChI=1S/C20H26N2O4/c1-22(2)11-12-26-17-8-5-15(6-9-17)14-21-20(23)16-7-10-18(24-3)19(13-16)25-4/h5-10,13H,11-12,14H2,1-4H3,(H,21,23)
#inchikey QQQIECGTIMUVDS
#origInchi InChI=1S/C20H26N2O4.ClH/c1-22(2)11-12-26-17-8-5-15(6-9-17)14-21-20(23)16-7-10-18(24-3)19(13-16)25-4;/h5-10,13H,11-12,14H2,1-4H3,(H,21,23);1H
#Ion_Source LC-ESI
#Instrument qTof
#Compound_Source NIH Pharmacologically Active Library
#PI Dorrestein
#Data_Collector VP/LMS
#Scan -1
#Precursor_MZ 359.197
#ExactMass 358.189
#Charge 1
#CAS_Number N/A
#Pubmed_ID N/A
#Smiles COc1ccc(cc1OC)C(=O)NCc2ccc(OCCN(C)C)cc2.Cl
#INCHI_AUX N/A
#Library_Class 1
#SpectrumID CCMSLIB00000085004
#IonMode Positive
#UpdateWorkflowName UPDATE-SINGLE-ANNOTATED-GOLD
#LibraryQualityString Gold
#TaskID d252d724072548979f1f6f1ced849daf
##Scan# 1366
#SpectrumFile p3-D08_GD8_01_18265.mzXML
#LibraryName Pharm_Active_Library.mgf
#MQScore -1
#Organism Pharm_Active_Library
#TIC_Query 0
#RT_Query -1
#MZErrorPPM -1
#SharedPeaks 0
#MassDiff 0
#LibMZ -1
#SpecMZ 359.197
#SpecCharge 0
#internalFilename spec-00000.mgf

>collision 0
79.0184 0.93
98.0344 0.9
103.0554 1.91
105.0693 2.02
107.0743 0.91
109.0629 1.72
122.0347 3.58
122.071 1.05
126.0296 2.28
133.0649 13.33
137.0592 4.34
165.0543 100.0
166.1218 21.37
359.1965 0.0
