>compound (8R,9S,10R,13S,14S,17S)-17-hydroxy-10,13,17-trimethyl-2,6,7,8,9,11,12,14,15,16-decahydro-1H-cyclopenta[a]phenanthren-3-one
>formula C20H30O2
>ionization [M+H]+
>parentmass 303.2318566520905
#inchi InChI=1S/C20H30O2/c1-18-9-6-14(21)12-13(18)4-5-15-16(18)7-10-19(2)17(15)8-11-20(19,3)22/h12,15-17,22H,4-11H2,1-3H3/t15-,16+,17+,18+,19+,20+/m1/s1
#inchikey GCKMFJBGXUYNAG
#Ion_Source LC-ESI
#Instrument qTof
#Compound_Source Commercial
#PI Dorrestein
#Data_Collector Garg_Neha
#Scan -1
#Precursor_MZ 303.232
#ExactMass 302.225
#Charge 1
#CAS_Number N/A
#Pubmed_ID N/A
#Smiles C[C@]1(O)CC[C@H]2[C@@H]3CCC4=CC(=O)CC[C@]4(C)[C@H]3CC[C@@]21C
#INCHI_AUX N/A
#Library_Class 1
#SpectrumID CCMSLIB00000078973
#IonMode Positive
#UpdateWorkflowName UPDATE-SINGLE-ANNOTATED-GOLD
#LibraryQualityString Gold
#TaskID 278b19f5865741e282cec7349aa7e7a1
##Scan# 1520
#SpectrumFile NCP003352_A2_B11_BC4_01_15718.mzXML
#LibraryName NIHcollectionI_05062014.mgf
#MQScore -1
#Organism NIHcollectionI_05062014
#TIC_Query 0
#RT_Query -1
#MZErrorPPM -1
#SharedPeaks 0
#MassDiff 0
#LibMZ -1
#SpecMZ 303.232
#SpecCharge 0
#internalFilename spec-00000.mgf

>collision 0
95.086 7.24
97.0653 52.91
105.0697 3.92
107.0854 9.66
109.0654 88.88
119.0851 9.48
121.0658 3.52
121.1008 10.9
123.0814 16.14
131.0845 4.27
133.1008 12.38
135.118 6.69
137.1334 3.9
143.0865 5.18
145.1015 4.03
147.1178 7.97
149.097 5.33
149.1327 8.68
157.1026 5.18
159.1175 13.73
161.0961 3.36
161.1333 11.37
163.1131 3.48
163.1477 9.76
171.1174 7.01
173.1331 3.68
175.1125 5.12
175.1497 9.01
177.1263 11.61
177.164 13.09
185.134 7.65
187.1472 9.64
189.1642 30.79
191.1436 2.99
201.1656 8.19
203.1788 12.04
211.1486 6.95
215.1424 4.74
215.1802 3.36
225.1624 5.61
227.1807 22.43
229.1569 6.65
241.1937 3.86
243.1737 5.29
245.191 14.38
267.2121 36.34
285.222 100.0
303.2345 904.9
