>compound Erythromycin A
>formula C37H67NO13
>ionization [M+H]+
>parentmass 734.4685176560905
#inchi InChI=1S/C37H67NO13/c1-14-25-37(10,45)30(41)20(4)27(39)18(2)16-35(8,44)32(51-34-28(40)24(38(11)12)15-19(3)47-34)21(5)29(22(6)33(43)49-25)50-26-17-36(9,46-13)31(42)23(7)48-26/h18-26,28-32,34,40-42,44-45H,14-17H2,1-13H3/t18-,19-,20+,21+,22-,23+,24+,25-,26+,28-,29+,30-,31+,32-,34+,35-,36-,37-/m1/s1
#inchikey ULGZDMOVFRHVEP
#Ion_Source DI-ESI
#Instrument Hybrid FT
#Compound_Source commercial
#PI Dorrestein/Moore
#Data_Collector Roland Kersten
#Scan -1
#Precursor_MZ 734.5
#ExactMass 733.461
#Charge 1
#CAS_Number N/A
#Pubmed_ID N/A
#Smiles CC[C@@H]1[C@@]([C@@H]([C@H](C(=O)[C@@H](C[C@@]([C@@H]([C@H]([C@@H]([C@H](C(=O)O1)C)O[C@H]2C[C@@]([C@H]([C@@H](O2)C)O)(C)OC)C)O[C@H]3[C@@H]([C@H](C[C@H](O3)C)N(C)C)O)(C)O)C)C)O)(C)O
#INCHI_AUX N/A
#Library_Class 3
#SpectrumID CCMSLIB00000075306
#IonMode Positive
#UpdateWorkflowName UPDATE-SINGLE-ANNOTATED-BRONZE
#LibraryQualityString Bronze
#TaskID 216f7e25eb284d139eda10f0ea06e32c
##Scan# 26
#SpectrumFile Erythromycin_A_FT_734mz.mzXML
#LibraryName gnps_library.mgf
#MQScore -1
#Organism empty
#TIC_Query 0
#RT_Query -1
#MZErrorPPM -1
#SharedPeaks 0
#MassDiff 0
#LibMZ -1
#SpecMZ 734.5
#SpecCharge 0
#internalFilename spec-00000.mgf

>collision 0
522.3412 11.91
523.3445 9.31
536.2988 5.6
540.351 11.57
541.3549 6.66
558.3622 20.86
559.3652 9.22
573.2328 4.48
576.3719 100.0
577.3757 38.96
605.394 4.83
611.3697 7.47
611.4186 10.12
611.4327 8.16
631.2626 6.11
631.2765 6.24
651.4137 5.28
651.4551 10.93
664.2112 8.74
664.2389 5.15
668.4443 7.12
668.4603 9.26
673.274 9.91
698.4432 5.07
706.2462 7.9
734.4685 0.0
