>compound MLS001141007-01!
>formula C28H30N4O5
>ionization [M+H]+
>parentmass 503.230042
#inchi InChI=1S/C28H30N4O5/c1-16(2)22(24(33)30-21(25(34)35)15-17-9-5-4-6-10-17)32-26(36)28(3)23-19(13-14-31(28)27(32)37)18-11-7-8-12-20(18)29-23/h4-12,16,21-22,29H,13-15H2,1-3H3,(H,30,33)(H,34,35)/t21-,22-,28-/m0/s1
#inchikey ICQSMOIRUNOHQP
#Ion_Source LC-ESI
#Instrument qTof
#Compound_Source NIH Natural Product Library
#PI Dorrestein
#Data_Collector VVP/LMS
#Scan -1
#Precursor_MZ 503.229
#ExactMass 502.222
#Charge 1
#CAS_Number N/A
#Pubmed_ID N/A
#Smiles CC(C)[C@H](N1C(=O)N2CCc3c([nH]c4ccccc34)[C@@]2(C)C1=O)C(=O)N[C@@H](Cc5ccccc5)C(=O)O
#INCHI_AUX N/A
#Library_Class 1
#SpectrumID CCMSLIB00000079614
#IonMode Positive
#UpdateWorkflowName UPDATE-SINGLE-ANNOTATED-GOLD
#LibraryQualityString Gold
#TaskID b1d8e8f6646f4e71acdff9ca3d919d08
##Scan# 2345
#SpectrumFile p1-G08_GG8_01_17952.mzXML
#LibraryName NIH_Natural_Products_Library.mgf
#MQScore -1
#Organism NIH_Natural_Products_Library
#TIC_Query 0
#RT_Query -1
#MZErrorPPM -1
#SharedPeaks 0
#MassDiff 0
#LibMZ -1
#SpecMZ 503.229
#SpecCharge 0
#internalFilename spec-00000.mgf

>collision 0
98.0599 1.87
115.0545 0.68
117.0689 0.9
120.0808 0.82
124.0752 1.12
144.0813 65.85
156.0817 0.71
168.0808 5.17
171.0925 0.66
183.0914 1.69
185.1077 83.25
195.091 1.01
198.1265 1.08
210.1043 0.61
211.0863 12.98
213.1018 7.9
238.0961 0.43
239.0812 2.55
239.1532 1.77
240.0755 1.62
240.1121 2.82
241.0832 2.77
256.1078 10.01
267.1476 1.08
277.1188 0.57
282.1596 58.73
292.1425 1.87
295.1311 0.87
310.1549 100.0
503.2294 0.22
