>compound Palmyramide A
>formula C36H53N3O9 
>ionization [M+H]+
>parentmass 672.385193
#inchi InChI=1S/C36H53N3O9/c1-10-15-27-36(7,8)35(45)46-23(6)33(43)47-26(20-24-16-12-11-13-17-24)32(42)39-19-14-18-25(39)31(41)38(9)29(22(4)5)30(40)37-28(21(2)3)34(44)48-27/h11-13,16-17,21-23,25-29H,10,14-15,18-20H2,1-9H3,(H,37,40)/t23-,25-,26-,27+,28-,29+/m0/s1
#inchikey QXWOTWUQMDHDCF
#Ion_Source LC-ESI
#Instrument qToF
#Compound_Source Isolated
#PI Dorrestein/Gerwick
#Data_Collector Luzzatto/Garg
#Scan -1
#Precursor_MZ 672.39
#ExactMass 671.378
#Charge 1
#CAS_Number N/A
#Pubmed_ID 19839606
#Smiles N/A
#INCHI_AUX N/A
#Library_Class 2
#SpectrumID CCMSLIB00000070260
#IonMode Positive
#UpdateWorkflowName UPDATE-SINGLE-ANNOTATED-SILVER
#LibraryQualityString Silver
#TaskID 6c7cf0ddbcd944488b3f58728dc48405
##Scan# 2528
#SpectrumFile 1B6_PalmyramideA_MH_672.mzXML
#LibraryName gnps_library.mgf
#MQScore -1
#Organism Dorrestein_TLK_Lib
#TIC_Query 0
#RT_Query -1
#MZErrorPPM -1
#SharedPeaks 0
#MassDiff 0
#LibMZ -1
#SpecMZ 672.39
#SpecCharge 0
#internalFilename spec-00000.mgf

>collision 0
131.0506 20.66
133.0074 15.13
143.1067 19.93
172.0724 15.87
194.1158 22.51
197.1181 84.87
201.1102 14.39
215.0559 20.66
215.1289 18.45
228.1015 100.0
229.1055 46.49
230.0994 14.76
246.0913 19.56
246.1131 16.61
279.0315 18.08
293.1334 15.5
313.1593 23.62
333.1529 18.08
345.1761 32.84
346.1758 19.93
393.2904 31.73
405.1319 14.76
413.1238 17.34
432.2282 18.82
445.2883 69.37
446.2935 23.99
465.2343 17.34
513.2791 16.24
531.2743 14.39
555.3084 48.34
556.3169 38.01
573.317 25.09
574.3226 16.24
672.3848 131.0
