>compound Desferrichrome
>formula C27H45N9O12 
>ionization [M+H]+
>parentmass 688.3260443320905
#inchi InChI=1S/C27H45N9O12/c1-16(37)34(46)10-4-7-19-25(43)30-14-23(41)28-13-22(40)29-15-24(42)31-20(8-5-11-35(47)17(2)38)26(44)33-21(27(45)32-19)9-6-12-36(48)18(3)39/h19-21,46-48H,4-15H2,1-3H3,(H,28,41)(H,29,40)(H,30,43)(H,31,42)(H,32,45)(H,33,44)/t19-,20-,21-/m0/s1
#inchikey ZFDAUYPBCXMSBF
#Ion_Source DI-ESI
#Instrument Hybrid Ft
#Compound_Source Commercial
#PI Dorrestein
#Data_Collector S Mascuch
#Scan -1
#Precursor_MZ 688.39
#ExactMass 687.319
#Charge 1
#CAS_Number 34787-28-5
#Pubmed_ID N/A
#Smiles N/A
#INCHI_AUX N/A
#Library_Class 1
#SpectrumID CCMSLIB00000006879
#IonMode Positive
#UpdateWorkflowName UPDATE-SINGLE-ANNOTATED-GOLD
#LibraryQualityString Gold
#TaskID 0dd853e0cae340a2bb2d3e87d780aa00
##Scan# 1
#SpectrumFile desferrichromeMH.mzXML
#LibraryName gnps_library.mgf
#MQScore -1
#Organism gnps_library
#TIC_Query 0
#RT_Query -1
#MZErrorPPM -1
#SharedPeaks 0
#MassDiff 0
#LibMZ -1
#SpecMZ 688.39
#SpecCharge 0
#internalFilename spec-00000.mgf

>collision 0
244.998 1.38
267.044 1.98
284.0753 1.09
285.0551 5.57
286.0552 1.13
302.0253 3.71
303.0586 1.86
326.0314 3.01
327.0563 2.89
329.0496 1.23
344.0234 25.75
345.0699 17.82
346.083 2.47
361.0579 1.34
386.0157 3.24
387.0522 1.62
402.0708 5.68
438.0629 1.42
439.1071 1.98
440.1069 1.26
441.1517 1.06
456.1108 5.87
457.1242 1.83
459.0974 8.42
474.1501 5.28
481.0593 1.77
498.1627 6.2
499.1451 2.38
516.1056 100.0
517.1388 19.94
533.1437 4.13
558.0946 6.81
574.1512 2.92
575.1261 1.92
578.1627 1.67
593.1997 1.5
610.1938 6.13
611.2071 3.76
643.2106 0.93
646.2178 13.77
647.2127 3.87
688.3266 0.0
