>compound MLS000697596-01!
>formula C25H24O6
>ionization [M+H]+
>parentmass 421.165771
#inchi InChI=1S/C25H24O6/c1-13(2)5-7-17-23(29)21-20(30-24(17)15-8-6-14(26)11-18(15)27)12-19-16(22(21)28)9-10-25(3,4)31-19/h5-6,8-12,26-28H,7H2,1-4H3
#inchikey XIWCDUHPYMOFIL
#Ion_Source LC-ESI
#Instrument qTof
#Compound_Source NIH Natural Product Library
#PI Dorrestein
#Data_Collector VVP/LMS
#Scan -1
#Precursor_MZ 421.165
#ExactMass 420.157
#Charge 1
#CAS_Number N/A
#Pubmed_ID N/A
#Smiles CC(=CCc1c(oc2cc3OC(C)(C)C=Cc3c(O)c2c1=O)c4ccc(O)cc4O)C
#INCHI_AUX N/A
#Library_Class 3
#SpectrumID CCMSLIB00000079977
#IonMode Positive
#UpdateWorkflowName UPDATE-SINGLE-ANNOTATED-BRONZE
#LibraryQualityString Bronze
#TaskID b1d8e8f6646f4e71acdff9ca3d919d08
##Scan# 2670
#SpectrumFile p2-E02_GE2_01_18026.mzXML
#LibraryName NIH_Natural_Products_Library.mgf
#MQScore -1
#Organism NIH_Natural_Products_Library
#TIC_Query 0
#RT_Query -1
#MZErrorPPM -1
#SharedPeaks 0
#MassDiff 0
#LibMZ -1
#SpecMZ 421.165
#SpecCharge 0
#internalFilename spec-00000.mgf

>collision 0
145.0287 2.66
147.0439 5.19
173.0238 4.77
191.0337 3.52
203.0335 3.12
217.0495 4.07
241.0486 5.95
253.0496 3.25
255.0662 3.57
257.0446 2.68
266.0575 3.71
267.0663 4.11
267.1005 3.62
277.0866 3.88
279.0649 4.21
280.0727 5.34
281.0795 4.27
283.061 3.29
291.1019 3.09
295.0601 7.27
295.0964 19.54
296.0675 2.41
304.0745 2.13
307.0589 3.74
308.0665 3.32
309.1142 2.45
311.0558 38.12
319.0961 6.16
323.0567 13.02
323.091 11.01
324.0606 3.09
332.0671 11.27
335.0564 17.17
337.1057 8.72
347.0912 17.77
349.071 13.07
350.0785 17.15
365.1027 100.0
421.1639 5.52
