>compound MLS002154057-01!Methylatropine nitrate52-88-0
>formula C18H26NO3
>ionization [M+H]+
>parentmass 305.19854514409053
#inchi InChI=1S/C18H26NO3/c1-19(2)14-8-9-15(19)11-16(10-14)22-18(21)17(12-20)13-6-4-3-5-7-13/h3-7,14-17,20H,8-12H2,1-2H3/q+1/t14-,15?,16+,17?/m0/s1
#inchikey PIPAJLPNWZMYQA
#origInchi InChI=1S/C18H26NO3.HNO3/c1-19(2)14-8-9-15(19)11-16(10-14)22-18(21)17(12-20)13-6-4-3-5-7-13;2-1(3)4/h3-7,14-17,20H,8-12H2,1-2H3;(H,2,3,4)/q+1;/t14-,15?,16+,17?;/m0./s1
#Ion_Source LC-ESI
#Instrument qTof
#Compound_Source NIH Pharmacologically Active Library
#PI Dorrestein
#Data_Collector VP/LMS
#Scan -1
#Precursor_MZ 304.191
#ExactMass 304.191
#Charge 1
#CAS_Number N/A
#Pubmed_ID N/A
#Smiles C[N+]1(C)C2CC[C@H]1C[C@H](C2)OC(=O)C(CO)c3ccccc3.O[N+](=O)[O-]
#INCHI_AUX N/A
#Library_Class 1
#SpectrumID CCMSLIB00000086018
#IonMode Positive
#UpdateWorkflowName UPDATE-SINGLE-ANNOTATED-GOLD
#LibraryQualityString Gold
#TaskID d252d724072548979f1f6f1ced849daf
##Scan# 1231
#SpectrumFile p5-B03_GB3_01_18442.mzXML
#LibraryName Pharm_Active_Library.mgf
#MQScore -1
#Organism Pharm_Active_Library
#TIC_Query 0
#RT_Query -1
#MZErrorPPM -1
#SharedPeaks 0
#MassDiff 0
#LibMZ -1
#SpecMZ 304.191
#SpecCharge 0
#internalFilename spec-00000.mgf

>collision 0
91.0559 5.82
93.0713 6.61
95.0868 1.93
96.0818 1.19
97.0878 0.35
100.0766 0.46
108.0803 1.49
109.0893 0.97
110.0961 1.42
112.1126 1.3
122.0983 0.85
123.1036 0.96
124.1111 0.63
136.1116 0.39
138.1294 100.0
154.1226 2.1
156.139 4.54
274.181 1.37
275.1903 0.7
304.1915 29.67
305.1985 0.0
