>compound MLS002153789-01!Benfluorex hydrochloride23642-66-2
>formula C19H20F3NO2
>ionization [M+H]+
>parentmass 352.15188999209056
#inchi InChI=1S/C19H20F3NO2/c1-14(12-15-6-5-9-17(13-15)19(20,21)22)23-10-11-25-18(24)16-7-3-2-4-8-16/h2-9,13-14,23H,10-12H2,1H3
#inchikey CJAVTWRYCDNHSM
#origInchi InChI=1S/C19H20F3NO2.ClH/c1-14(12-15-6-5-9-17(13-15)19(20,21)22)23-10-11-25-18(24)16-7-3-2-4-8-16;/h2-9,13-14,23H,10-12H2,1H3;1H
#Ion_Source LC-ESI
#Instrument qTof
#Compound_Source NIH Pharmacologically Active Library
#PI Dorrestein
#Data_Collector VP/LMS
#Scan -1
#Precursor_MZ 352.15
#ExactMass 351.145
#Charge 1
#CAS_Number N/A
#Pubmed_ID N/A
#Smiles CC(Cc1cccc(c1)C(F)(F)F)NCCOC(=O)c2ccccc2.Cl
#INCHI_AUX N/A
#Library_Class 1
#SpectrumID CCMSLIB00000085283
#IonMode Positive
#UpdateWorkflowName UPDATE-SINGLE-ANNOTATED-GOLD
#LibraryQualityString Gold
#TaskID d252d724072548979f1f6f1ced849daf
##Scan# 1872
#SpectrumFile p3-G09_GG9_01_18302.mzXML
#LibraryName Pharm_Active_Library.mgf
#MQScore -1
#Organism Pharm_Active_Library
#TIC_Query 0
#RT_Query -1
#MZErrorPPM -1
#SharedPeaks 0
#MassDiff 0
#LibMZ -1
#SpecMZ 352.15
#SpecCharge 0
#internalFilename spec-00000.mgf

>collision 0
105.0335 27.0
109.0442 3.13
139.0345 0.69
147.0587 0.39
149.0598 26.0
159.042 100.0
167.0661 0.49
185.0563 0.21
187.0721 7.82
210.1069 0.95
213.088 0.3
230.1148 15.99
352.1519 0.0
