>compound FLUBENDAZOLE
>formula C16H12FN3O3
>ionization [M+H]+
>parentmass 314.095459
#inchi InChI=1S/C16H12FN3O3/c1-23-16(22)20-15-18-12-7-4-10(8-13(12)19-15)14(21)9-2-5-11(17)6-3-9/h2-8H,1H3,(H2,18,19,20,22)
#inchikey CPEUVMUXAHMANV
#Ion_Source LC-ESI
#Instrument qTof
#Compound_Source Commercial
#PI Dorrestein
#Data_Collector Garg_Neha
#Scan -1
#Precursor_MZ 314.094
#ExactMass 313.086
#Charge 1
#CAS_Number N/A
#Pubmed_ID N/A
#Smiles COC(=O)Nc1nc2cc(ccc2[nH]1)C(=O)c3ccc(F)cc3
#INCHI_AUX N/A
#Library_Class 1
#SpectrumID CCMSLIB00000078974
#IonMode Positive
#UpdateWorkflowName UPDATE-SINGLE-ANNOTATED-GOLD
#LibraryQualityString Gold
#TaskID 278b19f5865741e282cec7349aa7e7a1
##Scan# 1246
#SpectrumFile NCP003352_A2_B11_BC4_01_15718.mzXML
#LibraryName NIHcollectionI_05062014.mgf
#MQScore -1
#Organism NIHcollectionI_05062014
#TIC_Query 0
#RT_Query -1
#MZErrorPPM -1
#SharedPeaks 0
#MassDiff 0
#LibMZ -1
#SpecMZ 314.094
#SpecCharge 0
#internalFilename spec-00000.mgf

>collision 0
113.0405 1.73
140.0068 2.03
165.0134 2.11
168.0192 2.49
205.0791 4.23
209.0572 1.69
227.0238 3.34
230.0498 4.44
231.0934 1.73
233.0842 2.87
241.0418 1.82
243.0466 5.33
244.0539 8.5
254.0355 7.78
255.0464 3.3
258.0678 3.25
282.0666 46.2
284.0721 22.78
285.0799 3.72
314.0955 66.48
