>compound MLS001148260-01!25332-39-2
>formula C19H22ClN5O
>ionization [M+H]+
>parentmass 372.158813
#inchi InChI=1S/C19H22ClN5O/c20-16-5-3-6-17(15-16)23-13-11-22(12-14-23)8-4-10-25-19(26)24-9-2-1-7-18(24)21-25/h1-3,5-7,9,15H,4,8,10-14H2
#inchikey PHLBKPHSAVXXEF
#origInchi InChI=1S/C19H22ClN5O.ClH/c20-16-5-3-6-17(15-16)23-13-11-22(12-14-23)8-4-10-25-19(26)24-9-2-1-7-18(24)21-25;/h1-3,5-7,9,15H,4,8,10-14H2;1H
#Ion_Source LC-ESI
#Instrument qTof
#Compound_Source NIH Pharmacologically Active Library
#PI Dorrestein
#Data_Collector VP/LMS
#Scan -1
#Precursor_MZ 372.161
#ExactMass 371.151
#Charge 1
#CAS_Number N/A
#Pubmed_ID N/A
#Smiles Clc1cccc(c1)N2CCN(CCCn3nc4ccccn4c3=O)CC2.Cl
#INCHI_AUX N/A
#Library_Class 1
#SpectrumID CCMSLIB00000084783
#IonMode Positive
#UpdateWorkflowName UPDATE-SINGLE-ANNOTATED-GOLD
#LibraryQualityString Gold
#TaskID d252d724072548979f1f6f1ced849daf
##Scan# 1562
#SpectrumFile p3-A08_GA8_01_18229.mzXML
#LibraryName Pharm_Active_Library.mgf
#MQScore -1
#Organism Pharm_Active_Library
#TIC_Query 0
#RT_Query -1
#MZErrorPPM -1
#SharedPeaks 0
#MassDiff 0
#LibMZ -1
#SpecMZ 372.161
#SpecCharge 0
#internalFilename spec-00000.mgf

>collision 0
93.046 0.98
107.0617 0.69
119.0617 1.47
120.0571 1.82
121.0774 2.09
133.0767 5.29
135.0436 1.99
148.052 100.0
148.0877 22.78
176.0834 81.57
372.1588 7.66
