>compound Reserpine
>formula C33H40N2O9 
>ionization [M+H]+
>parentmass 609.281128
#inchi InChI=1S/C33H40N2O9/c1-38-19-7-8-20-21-9-10-35-16-18-13-27(44-32(36)17-11-25(39-2)30(41-4)26(12-17)40-3)31(42-5)28(33(37)43-6)22(18)15-24(35)29(21)34-23(20)14-19/h7-8,11-12,14,18,22,24,27-28,31,34H,9-10,13,15-16H2,1-6H3/t18-,22+,24-,27-,28+,31+/m1/s1
#inchikey QEVHRUUCFGRFIF
#Ion_Source LC-ESI
#Instrument qTof
#Compound_Source Isolated
#PI Sirenas
#Data_Collector Ed Esquenazi 
#Scan -1
#Precursor_MZ 609.282
#ExactMass 0.0
#Charge 1
#CAS_Number N/A
#Pubmed_ID N/A
#Smiles N/A
#INCHI_AUX N/A
#Library_Class 3
#SpectrumID CCMSLIB00000006373
#IonMode Positive
#UpdateWorkflowName UPDATE-SINGLE-ANNOTATED-BRONZE
#LibraryQualityString Bronze
#TaskID d19310cd93df49b68e9fcbec27720eb5
##Scan# 3
#SpectrumFile Reserpine.mgf
#LibraryName fda_library.mgf
#MQScore -1
#Organism fda_library
#TIC_Query 0
#RT_Query -1
#MZErrorPPM -1
#SharedPeaks 0
#MassDiff 0
#LibMZ -1
#SpecMZ 609.282
#SpecCharge 0
#internalFilename spec-00000.mgf

>collision 0
118.0642 1.13
132.0459 0.96
143.0695 1.66
148.0757 3.64
152.047 3.44
159.0672 2.25
160.0769 1.01
162.0915 1.55
174.0913 67.69
178.086 1.44
181.086 1.37
190.0876 1.03
192.1019 5.34
195.0651 100.0
198.0915 1.02
199.0962 1.43
200.1069 1.09
204.103 2.56
215.1157 1.6
226.1207 1.48
236.1269 13.6
248.1049 0.87
250.1216 1.22
251.1295 1.19
267.1467 0.88
276.1348 2.07
288.1381 1.7
316.1282 0.92
333.1325 0.98
333.1543 1.89
336.1586 4.76
348.1587 3.85
365.1807 10.95
380.1816 1.63
382.1849 0.88
397.2094 23.83
609.2763 7.6
