>compound MLS002153460-01!Naloxone hydrochloride dihydrate357-08-4
>formula C19H21NO4
>ionization [M+H]+
>parentmass 328.15332
#inchi InChI=1S/C19H21NO4/c1-2-8-20-9-7-18-15-11-3-4-12(21)16(15)24-17(18)13(22)5-6-19(18,23)14(20)10-11/h2-4,14,17,21,23H,1,5-10H2/t14-,17+,18+,19-/m1/s1
#inchikey UZHSEJADLWPNLE
#origInchi InChI=1S/C19H21NO4.ClH.H2O/c1-2-8-20-9-7-18-15-11-3-4-12(21)16(15)24-17(18)13(22)5-6-19(18,23)14(20)10-11;;/h2-4,14,17,21,23H,1,5-10H2;1H;1H2/t14-,17+,18+,19-;;/m1../s1
#Ion_Source LC-ESI
#Instrument qTof
#Compound_Source NIH Pharmacologically Active Library
#PI Dorrestein
#Data_Collector VP/LMS
#Scan -1
#Precursor_MZ 328.153
#ExactMass 327.147
#Charge 1
#CAS_Number N/A
#Pubmed_ID N/A
#Smiles Oc1ccc2C[C@H]3N(CC=C)CC[C@]4([C@H]5Oc1c24)[C@@]3(O)CCC5=O.O.Cl
#INCHI_AUX N/A
#Library_Class 1
#SpectrumID CCMSLIB00000085244
#IonMode Positive
#UpdateWorkflowName UPDATE-SINGLE-ANNOTATED-GOLD
#LibraryQualityString Gold
#TaskID d252d724072548979f1f6f1ced849daf
##Scan# 1179
#SpectrumFile p3-G05_GG5_01_18298.mzXML
#LibraryName Pharm_Active_Library.mgf
#MQScore -1
#Organism Pharm_Active_Library
#TIC_Query 0
#RT_Query -1
#MZErrorPPM -1
#SharedPeaks 0
#MassDiff 0
#LibMZ -1
#SpecMZ 328.153
#SpecCharge 0
#internalFilename spec-00000.mgf

>collision 0
146.0594 5.43
152.0624 3.97
153.0688 11.41
157.0647 8.72
158.0963 6.17
171.079 5.96
173.0586 12.52
174.0556 9.5
180.0554 3.74
180.0807 4.91
181.0639 13.3
184.0528 8.96
185.0597 8.06
186.0913 4.23
198.0671 9.56
198.0889 4.77
199.0748 15.38
210.0916 4.05
212.0715 100.0
214.0861 6.35
224.1043 7.42
226.0853 21.16
227.0924 13.14
240.1025 12.27
242.1176 3.54
251.0949 6.19
252.1018 8.64
253.1095 48.62
268.0955 8.06
268.1336 31.8
269.1054 19.06
282.149 6.66
292.1314 4.65
310.1459 78.8
328.1565 4.09
