>compound MLS000862187-01!SB 218795
>formula C25H20N2O3
>ionization [M+H]+
>parentmass 397.155609
#inchi InChI=1S/C25H20N2O3/c1-30-25(29)23(18-12-6-3-7-13-18)27-24(28)20-16-22(17-10-4-2-5-11-17)26-21-15-9-8-14-19(20)21/h2-16,23H,1H3,(H,27,28)/t23-/m1/s1
#inchikey IUMQXQJZIHWLIN
#Ion_Source LC-ESI
#Instrument qTof
#Compound_Source NIH Pharmacologically Active Library
#PI Dorrestein
#Data_Collector VP/LMS
#Scan -1
#Precursor_MZ 397.164
#ExactMass 396.147
#Charge 1
#CAS_Number N/A
#Pubmed_ID N/A
#Smiles COC(=O)[C@H](NC(=O)c1cc(nc2ccccc12)c3ccccc3)c4ccccc4
#INCHI_AUX N/A
#Library_Class 1
#SpectrumID CCMSLIB00000085598
#IonMode Positive
#UpdateWorkflowName UPDATE-SINGLE-ANNOTATED-GOLD
#LibraryQualityString Gold
#TaskID d252d724072548979f1f6f1ced849daf
##Scan# 2388
#SpectrumFile p4-D03_GD3_01_18363.mzXML
#LibraryName Pharm_Active_Library.mgf
#MQScore -1
#Organism Pharm_Active_Library
#TIC_Query 0
#RT_Query -1
#MZErrorPPM -1
#SharedPeaks 0
#MassDiff 0
#LibMZ -1
#SpecMZ 397.164
#SpecCharge 0
#internalFilename spec-00000.mgf

>collision 0
104.0496 1.36
128.0488 2.21
179.0856 0.68
180.0805 0.5
181.0884 1.49
204.0811 25.76
205.0895 64.66
206.0963 57.97
209.0836 10.15
216.0805 0.67
222.0919 1.28
231.0913 3.62
233.0851 0.99
234.0914 15.23
237.08 69.64
249.1021 2.35
260.0944 1.91
294.1274 3.96
308.1305 2.67
309.1397 29.09
318.1153 0.87
320.1179 0.47
336.1247 0.96
337.1358 100.0
347.1187 0.76
365.1277 1.13
397.1569 53.83
