>compound NCGC00160199-01!PRECOCENE II
>formula C13H16O3
>ionization [M+H]+
>parentmass 221.117691
#inchi InChI=1S/C13H16O3/c1-13(2)6-5-9-7-11(14-3)12(15-4)8-10(9)16-13/h5-8H,1-4H3
#inchikey PTIDGSWTMLSGAH
#Ion_Source LC-ESI
#Instrument qTOF
#Compound_Source Prestwick Phytochem Lib
#PI Dorrestein
#Data_Collector VVP/LMS
#Scan -1
#Precursor_MZ 221.118
#ExactMass 220.11
#Charge 1
#CAS_Number N/A
#Pubmed_ID N/A
#Smiles COC1=CC2=C(C=CC(C)(C)O2)C=C1OC
#INCHI_AUX N/A
#Library_Class 1
#SpectrumID CCMSLIB00000078724
#IonMode Positive
#UpdateWorkflowName UPDATE-SINGLE-ANNOTATED-GOLD
#LibraryQualityString Gold
#TaskID 67c915c6594c435cadc1fe2b5358144d
##Scan# 2250
#SpectrumFile p1-G02_GG2_01_17946.mzXML
#LibraryName phytochem_lib.mgf
#MQScore -1
#Organism phytochem_lib
#TIC_Query 0
#RT_Query -1
#MZErrorPPM -1
#SharedPeaks 0
#MassDiff 0
#LibMZ -1
#SpecMZ 221.118
#SpecCharge 0
#internalFilename spec-00000.mgf

>collision 0
103.0538 19.52
105.0684 9.19
107.0482 16.81
115.0532 17.01
121.0649 7.93
128.062 15.14
130.0759 9.6
131.0472 24.95
132.055 15.45
135.0454 16.81
135.079 14.09
147.0432 9.71
147.0791 8.04
148.0499 52.09
149.0604 12.11
151.0744 49.06
161.0594 17.33
161.0966 6.47
163.0391 13.57
163.0773 11.06
176.0463 56.58
191.0687 100.0
193.1227 7.72
205.0858 26.1
221.1177 3.97
