>compound Aphidicolin
>formula C20H34O4
>ionization [M+Na]+
>parentmass 361.2349302680905
#inchi InChI=1S/C20H34O4/c1-17(11-21)15-4-3-13-9-14-10-19(13,7-8-20(14,24)12-22)18(15,2)6-5-16(17)23/h13-16,21-24H,3-12H2,1-2H3/t13-,14+,15-,16+,17-,18-,19-,20-/m0/s1
#inchikey NOFOAYPPHIUXJR
#Ion_Source DI-ESI
#Instrument qTof
#Compound_Source Isolated
#PI Norberto Lopes
#Data_Collector Monica Pupo
#Scan -1
#Precursor_MZ 361.204
#ExactMass 338.246
#Charge 1
#CAS_Number 38966-21-1
#Pubmed_ID N/A
#Smiles OC[C@@]1(O)CC[C@]23[C@](CC[C@]4([H])[C@]2(C)CC[C@@H](O)[C@@]4(C)CO)([H])C[C@@]1(C3)[H]
#INCHI_AUX N/A
#Library_Class 3
#SpectrumID CCMSLIB00000081680
#IonMode Positive
#UpdateWorkflowName UPDATE-SINGLE-ANNOTATED-BRONZE
#LibraryQualityString Bronze
#TaskID 52bd5f0db6314c93924d5ce5c86348eb
##Scan# 1
#SpectrumFile gnps_Aphidicolin_pos_MplusNa.mgf
#LibraryName gnps_library.mgf
#MQScore -1
#Organism batch_27_05_V02
#TIC_Query 0
#RT_Query -1
#MZErrorPPM -1
#SharedPeaks 0
#MassDiff 0
#LibMZ -1
#SpecMZ 361.204
#SpecCharge 0
#internalFilename spec-00000.mgf

>collision 0
157.0847 17.24
169.0835 7.37
171.0992 20.28
185.1145 15.32
197.1143 12.04
211.1301 12.67
361.2349 0.0
