>compound MLS001074186-01!
>formula C14H22ClN3O2
>ionization [M+H]+
>parentmass 300.1473310760905
#inchi InChI=1S/C14H22ClN3O2/c1-4-18(5-2)7-6-17-14(19)10-8-11(15)12(16)9-13(10)20-3/h8-9H,4-7,16H2,1-3H3,(H,17,19)
#inchikey TTWJBBZEZQICBI
#origInchi InChI=1S/C14H22ClN3O2.ClH/c1-4-18(5-2)7-6-17-14(19)10-8-11(15)12(16)9-13(10)20-3;/h8-9H,4-7,16H2,1-3H3,(H,17,19);1H
#Ion_Source LC-ESI
#Instrument qTof
#Compound_Source NIH Pharmacologically Active Library
#PI Dorrestein
#Data_Collector VP/LMS
#Scan -1
#Precursor_MZ 300.151
#ExactMass 299.14
#Charge 1
#CAS_Number N/A
#Pubmed_ID N/A
#Smiles CCN(CC)CCNC(=O)c1cc(Cl)c(N)cc1OC.Cl
#INCHI_AUX N/A
#Library_Class 1
#SpectrumID CCMSLIB00000084825
#IonMode Positive
#UpdateWorkflowName UPDATE-SINGLE-ANNOTATED-GOLD
#LibraryQualityString Gold
#TaskID d252d724072548979f1f6f1ced849daf
##Scan# 1331
#SpectrumFile p3-B03_GB3_01_18236.mzXML
#LibraryName Pharm_Active_Library.mgf
#MQScore -1
#Organism Pharm_Active_Library
#TIC_Query 0
#RT_Query -1
#MZErrorPPM -1
#SharedPeaks 0
#MassDiff 0
#LibMZ -1
#SpecMZ 300.151
#SpecCharge 0
#internalFilename spec-00000.mgf

>collision 0
93.0573 1.0
99.0003 0.44
113.0021 0.74
120.0433 0.74
126.0105 1.89
128.0254 1.37
129.0107 0.66
140.9976 10.33
147.0556 0.42
148.0615 3.92
154.0061 1.68
156.0208 4.71
168.0083 8.94
168.9924 5.33
183.032 20.89
184.0167 100.0
211.0269 1.3
212.0349 28.9
227.059 60.23
300.1467 0.0
