>compound MLS001240195-01!4-Chloro-N-(2-morpholin-4-yl-ethyl)-benzamide
>formula C13H17ClN2O2
>ionization [M+H]+
>parentmass 269.1051319160905
#inchi InChI=1S/C13H17ClN2O2/c14-12-3-1-11(2-4-12)13(17)15-5-6-16-7-9-18-10-8-16/h1-4H,5-10H2,(H,15,17)
#inchikey YHXISWVBGDMDLQ
#Ion_Source LC-ESI
#Instrument qTof
#Compound_Source NIH Pharmacologically Active Library
#PI Dorrestein
#Data_Collector VP/LMS
#Scan -1
#Precursor_MZ 269.108
#ExactMass 268.098
#Charge 1
#CAS_Number N/A
#Pubmed_ID N/A
#Smiles Clc1ccc(cc1)C(=O)NCCN2CCOCC2
#INCHI_AUX N/A
#Library_Class 1
#SpectrumID CCMSLIB00000085718
#IonMode Positive
#UpdateWorkflowName UPDATE-SINGLE-ANNOTATED-GOLD
#LibraryQualityString Gold
#TaskID d252d724072548979f1f6f1ced849daf
##Scan# 1245
#SpectrumFile p4-E07_GE7_01_18379.mzXML
#LibraryName Pharm_Active_Library.mgf
#MQScore -1
#Organism Pharm_Active_Library
#TIC_Query 0
#RT_Query -1
#MZErrorPPM -1
#SharedPeaks 0
#MassDiff 0
#LibMZ -1
#SpecMZ 269.108
#SpecCharge 0
#internalFilename spec-00000.mgf

>collision 0
110.9996 3.83
138.9945 100.0
182.0366 68.36
269.1077 0.38
