>compound MLS000028603-01!SULFAMETHIZOLE
>formula C9H10N4O2S2
>ionization [M+H]+
>parentmass 271.03179401209053
#inchi InChI=1S/C9H10N4O2S2/c1-6-11-12-9(16-6)13-17(14,15)8-4-2-7(10)3-5-8/h2-5H,10H2,1H3,(H,12,13)
#inchikey VACCAVUAMIDAGB
#Ion_Source LC-ESI
#Instrument qTof
#Compound_Source NIH Pharmacologically Active Library
#PI Dorrestein
#Data_Collector VP/LMS
#Scan -1
#Precursor_MZ 271.035
#ExactMass 270.025
#Charge 1
#CAS_Number N/A
#Pubmed_ID N/A
#Smiles Cc1nnc(NS(=O)(=O)c2ccc(N)cc2)s1
#INCHI_AUX N/A
#Library_Class 1
#SpectrumID CCMSLIB00000086149
#IonMode Positive
#UpdateWorkflowName UPDATE-SINGLE-ANNOTATED-GOLD
#LibraryQualityString Gold
#TaskID d252d724072548979f1f6f1ced849daf
##Scan# 1292
#SpectrumFile p5-G02_GG2_01_18471.mzXML
#LibraryName Pharm_Active_Library.mgf
#MQScore -1
#Organism Pharm_Active_Library
#TIC_Query 0
#RT_Query -1
#MZErrorPPM -1
#SharedPeaks 0
#MassDiff 0
#LibMZ -1
#SpecMZ 271.035
#SpecCharge 0
#internalFilename spec-00000.mgf

>collision 0
92.0499 23.07
99.0008 5.09
108.0448 100.0
116.0273 17.57
156.0125 17.1
271.0318 0.0
