>compound MLS000551242-01!10H-acridin-9-one
>formula C13H9NO
>ionization [M+H]+
>parentmass 196.076248
#inchi InChI=1S/C13H9NO/c15-13-9-5-1-3-7-11(9)14-12-8-4-2-6-10(12)13/h1-8H,(H,14,15)
#inchikey FZEYVTFCMJSGMP
#Ion_Source LC-ESI
#Instrument qTof
#Compound_Source NIH Natural Product Library
#PI Dorrestein
#Data_Collector VVP/LMS
#Scan -1
#Precursor_MZ 196.076
#ExactMass 195.068
#Charge 1
#CAS_Number N/A
#Pubmed_ID N/A
#Smiles Oc1c2ccccc2nc3ccccc13
#INCHI_AUX N/A
#Library_Class 1
#SpectrumID CCMSLIB00000080408
#IonMode Positive
#UpdateWorkflowName UPDATE-SINGLE-ANNOTATED-GOLD
#LibraryQualityString Gold
#TaskID b1d8e8f6646f4e71acdff9ca3d919d08
##Scan# 1712
#SpectrumFile p2-E08_GE8_01_18032.mzXML
#LibraryName NIH_Natural_Products_Library.mgf
#MQScore -1
#Organism NIH_Natural_Products_Library
#TIC_Query 0
#RT_Query -1
#MZErrorPPM -1
#SharedPeaks 0
#MassDiff 0
#LibMZ -1
#SpecMZ 196.076
#SpecCharge 0
#internalFilename spec-00000.mgf

>collision 0
115.0553 2.58
128.0502 2.17
139.0552 3.83
141.0693 1.92
146.0597 0.68
166.0659 15.24
167.074 100.0
170.0605 0.69
177.0564 1.52
178.0643 2.05
195.0685 14.0
196.0762 65.96
