>compound MLS001158282-01!(2S)-2-[[(2S)-2-(1,2-dihydroimidazo[1,2-a]benzimidazole-3-carbonylamino)-4-methylpentanoyl]amino]-3-phenylpropanoic acid
>formula C25H29N5O4
>ionization [M+H]+
>parentmass 464.23
#inchi InChI=1S/C25H29N5O4/c1-16(2)14-19(22(31)26-20(23(32)33)15-17-8-4-3-5-9-17)28-25(34)30-13-12-29-21-11-7-6-10-18(21)27-24(29)30/h3-11,16,19-20H,12-15H2,1-2H3,(H,26,31)(H,28,34)(H,32,33)/t19-,20-/m0/s1
#inchikey RWSJPESCUJCQNS
#Ion_Source LC-ESI
#Instrument qTof
#Compound_Source NIH Natural Product Library
#PI Dorrestein
#Data_Collector VVP/LMS
#Scan -1
#Precursor_MZ 464.23
#ExactMass 463.222
#Charge 1
#CAS_Number N/A
#Pubmed_ID N/A
#Smiles CC(C)C[C@H](NC(=O)N1CCn2c1nc3ccccc23)C(=O)N[C@@H](Cc4ccccc4)C(=O)O
#INCHI_AUX N/A
#Library_Class 1
#SpectrumID CCMSLIB00000079592
#IonMode Positive
#UpdateWorkflowName UPDATE-SINGLE-ANNOTATED-GOLD
#LibraryQualityString Gold
#TaskID b1d8e8f6646f4e71acdff9ca3d919d08
##Scan# 2092
#SpectrumFile p1-E08_GE8_01_17928.mzXML
#LibraryName NIH_Natural_Products_Library.mgf
#MQScore -1
#Organism NIH_Natural_Products_Library
#TIC_Query 0
#RT_Query -1
#MZErrorPPM -1
#SharedPeaks 0
#MassDiff 0
#LibMZ -1
#SpecMZ 464.23
#SpecCharge 0
#internalFilename spec-00000.mgf

>collision 0
128.095 0.58
131.1067 0.36
132.1031 1.07
133.1216 1.13
134.1191 0.35
160.1451 100.0
162.1495 0.83
172.1473 1.03
228.2299 3.66
229.1888 0.27
231.2307 2.16
259.2351 6.92
464.23 0.0
