>compound Buflomedil HCl
>formula C17H25NO4
>ionization [M+H]+
>parentmass 308.18563473209053
#inchi InChI=1S/C17H25NO4/c1-20-13-11-15(21-2)17(16(12-13)22-3)14(19)7-6-10-18-8-4-5-9-18/h11-12H,4-10H2,1-3H3
#inchikey OWYLAEYXIQKAOL
#origInchi InChI=1S/C17H25NO4.ClH/c1-20-13-11-15(21-2)17(16(12-13)22-3)14(19)7-6-10-18-8-4-5-9-18;/h11-12H,4-10H2,1-3H3;1H
#Ion_Source LC-ESI
#Instrument qTof
#Compound_Source Commercial
#PI Dorrestein
#Data_Collector Garg_Neha
#Scan -1
#Precursor_MZ 308.186
#ExactMass 307.178
#Charge 1
#CAS_Number 35543-24-9
#Pubmed_ID N/A
#Smiles C1(=CC(=C(C(=C1)OC)C(=O)CCCN2CCCC2)OC)OC.Cl
#INCHI_AUX N/A
#Library_Class 1
#SpectrumID CCMSLIB00000078529
#IonMode Positive
#UpdateWorkflowName UPDATE-SINGLE-ANNOTATED-GOLD
#LibraryQualityString Gold
#TaskID 77f51c88eb8b467eb4a01dd2d0cb90d2
##Scan# 1114
#SpectrumFile Plate8_61_80_GD1_01_15765.mzXML
#LibraryName FDALibrary_2_04302014.mgf
#MQScore -1
#Organism FDALibrary_2_04302014
#TIC_Query 0
#RT_Query -1
#MZErrorPPM -1
#SharedPeaks 0
#MassDiff 0
#LibMZ -1
#SpecMZ 308.186
#SpecCharge 0
#internalFilename spec-00000.mgf

>collision 0
98.0606 13.95
151.0751 26.74
152.0479 15.12
178.061 13.57
181.0856 18.6
183.0891 18.6
195.0643 40.7
195.1028 12.79
196.0603 13.95
237.1121 100.0
308.1836 101.94
