>compound alosetron??monohydrochloride
>formula C17H18N4O
>ionization [M+H]+
>parentmass 295.156097
#inchi InChI=1S/C17H18N4O/c1-11-13(19-10-18-11)9-21-8-7-15-16(17(21)22)12-5-3-4-6-14(12)20(15)2/h3-6,10H,7-9H2,1-2H3,(H,18,19)
#inchikey JSWZEAMFRNKZNL
#Ion_Source LC-ESI
#Instrument qTof
#Compound_Source Commercial
#PI Dorrestein
#Data_Collector Garg_Neha
#Scan -1
#Precursor_MZ 295.155
#ExactMass 294.148
#Charge 1
#CAS_Number N/A
#Pubmed_ID N/A
#Smiles Cc1[nH]cnc1CN2CCc3c(C2=O)c4ccccc4n3C
#INCHI_AUX N/A
#Library_Class 1
#SpectrumID CCMSLIB00000079036
#IonMode Positive
#UpdateWorkflowName UPDATE-SINGLE-ANNOTATED-GOLD
#LibraryQualityString Gold
#TaskID 278b19f5865741e282cec7349aa7e7a1
##Scan# 1056
#SpectrumFile NCP003352_G2_H11_BC7_01_15721.mzXML
#LibraryName NIHcollectionI_05062014.mgf
#MQScore -1
#Organism NIHcollectionI_05062014
#TIC_Query 0
#RT_Query -1
#MZErrorPPM -1
#SharedPeaks 0
#MassDiff 0
#LibMZ -1
#SpecMZ 295.155
#SpecCharge 0
#internalFilename spec-00000.mgf

>collision 0
95.0604 3.96
130.0653 0.22
131.0727 0.2
143.0727 0.63
144.0804 0.51
146.0961 2.78
158.0965 9.72
168.081 0.36
170.0843 0.21
172.076 0.9
173.1074 4.34
181.0772 0.73
184.0754 0.36
185.1073 0.37
199.0863 15.15
201.1027 100.0
213.102 4.01
295.1552 24.41
