>compound BUPROPION HYDROCHLORIDE
>formula C13H18ClNO
>ionization [M+H]+
>parentmass 240.115845
#inchi InChI=1S/C13H18ClNO/c1-9(15-13(2,3)4)12(16)10-6-5-7-11(14)8-10/h5-9,15H,1-4H3
#inchikey SNPPWIUOZRMYNY
#Ion_Source LC-ESI
#Instrument qTof
#Compound_Source Commercial
#PI Dorrestein
#Data_Collector Garg_Neha
#Scan -1
#Precursor_MZ 240.115
#ExactMass 239.108
#Charge 1
#CAS_Number N/A
#Pubmed_ID N/A
#Smiles CC(NC(C)(C)C)C(=O)c1cccc(Cl)c1
#INCHI_AUX N/A
#Library_Class 1
#SpectrumID CCMSLIB00000078899
#IonMode Positive
#UpdateWorkflowName UPDATE-SINGLE-ANNOTATED-GOLD
#LibraryQualityString Gold
#TaskID 278b19f5865741e282cec7349aa7e7a1
##Scan# 1099
#SpectrumFile NCP003272_A2_B11_BB8_01_15713.mzXML
#LibraryName NIHcollectionI_05062014.mgf
#MQScore -1
#Organism NIHcollectionI_05062014
#TIC_Query 0
#RT_Query -1
#MZErrorPPM -1
#SharedPeaks 0
#MassDiff 0
#LibMZ -1
#SpecMZ 240.115
#SpecCharge 0
#internalFilename spec-00000.mgf

>collision 0
103.055 4.95
130.0658 37.28
131.0742 70.97
139.0316 30.23
151.0185 2.32
166.0424 65.81
167.0267 26.02
240.1158 47.77
