>compound MLS001146946-01!
>formula C15H10ClFN2O
>ionization [M+H]+
>parentmass 289.05365
#inchi InChI=1S/C15H10ClFN2O/c16-9-5-6-13-11(7-9)15(18-8-14(20)19-13)10-3-1-2-4-12(10)17/h1-7H,8H2,(H,19,20)
#inchikey UVCOILFBWYKHHB
#Ion_Source LC-ESI
#Instrument qTof
#Compound_Source NIH Pharmacologically Active Library
#PI Dorrestein
#Data_Collector VP/LMS
#Scan -1
#Precursor_MZ 289.054
#ExactMass 288.047
#Charge 1
#CAS_Number N/A
#Pubmed_ID N/A
#Smiles Fc1ccccc1C2=NCC(=O)Nc3ccc(Cl)cc23
#INCHI_AUX N/A
#Library_Class 1
#SpectrumID CCMSLIB00000085042
#IonMode Positive
#UpdateWorkflowName UPDATE-SINGLE-ANNOTATED-GOLD
#LibraryQualityString Gold
#TaskID d252d724072548979f1f6f1ced849daf
##Scan# 1925
#SpectrumFile p3-E02_GE2_01_18271.mzXML
#LibraryName Pharm_Active_Library.mgf
#MQScore -1
#Organism Pharm_Active_Library
#TIC_Query 0
#RT_Query -1
#MZErrorPPM -1
#SharedPeaks 0
#MassDiff 0
#LibMZ -1
#SpecMZ 289.054
#SpecCharge 0
#internalFilename spec-00000.mgf

>collision 0
104.0491 6.61
113.0146 3.91
130.0521 2.03
138.0107 6.73
140.0259 100.0
143.024 1.78
150.0107 3.68
165.0206 29.9
166.0062 8.18
167.0168 7.8
179.0723 8.56
193.0173 1.96
197.0639 2.22
198.0708 8.15
205.0752 8.41
206.0835 18.43
209.0626 2.24
211.0792 11.06
214.0418 22.53
225.0819 9.45
226.09 81.84
232.0317 2.96
234.0785 2.09
236.0744 4.04
241.0527 4.03
244.0325 2.97
245.0401 6.37
254.0846 2.02
259.0435 3.51
261.0585 20.1
289.0554 86.98
