>compound MLS001143605-01!1-ethyl-9H-pyrido[3,4-b]indole
>formula C13H12N2
>ionization [M+H]+
>parentmass 197.108383
#inchi InChI=1S/C13H12N2/c1-2-11-13-10(7-8-14-11)9-5-3-4-6-12(9)15-13/h3-8,15H,2H2,1H3
#inchikey YTQRHYCHEIXUIU
#Ion_Source LC-ESI
#Instrument qTof
#Compound_Source NIH Natural Product Library
#PI Dorrestein
#Data_Collector VVP/LMS
#Scan -1
#Precursor_MZ 197.108
#ExactMass 196.1
#Charge 1
#CAS_Number N/A
#Pubmed_ID N/A
#Smiles CCc1nccc2c3ccccc3[nH]c12
#INCHI_AUX N/A
#Library_Class 1
#SpectrumID CCMSLIB00000080311
#IonMode Positive
#UpdateWorkflowName UPDATE-SINGLE-ANNOTATED-GOLD
#LibraryQualityString Gold
#TaskID b1d8e8f6646f4e71acdff9ca3d919d08
##Scan# 1488
#SpectrumFile p2-A07_GA7_01_17984.mzXML
#LibraryName NIH_Natural_Products_Library.mgf
#MQScore -1
#Organism NIH_Natural_Products_Library
#TIC_Query 0
#RT_Query -1
#MZErrorPPM -1
#SharedPeaks 0
#MassDiff 0
#LibMZ -1
#SpecMZ 197.108
#SpecCharge 0
#internalFilename spec-00000.mgf

>collision 0
113.0381 0.3
115.055 6.1
127.0543 0.86
129.0587 0.94
140.0495 2.25
142.0645 1.04
154.0661 23.01
155.0724 12.46
167.0614 0.58
169.0762 3.47
181.0773 31.95
182.0851 100.0
197.1084 25.64
