>compound Ulipristal
>formula C30H37NO4
>ionization [M+H]+
>parentmass 476.2795351160906
#inchi InChI=1S/C30H37NO4/c1-18(32)30(35-19(2)33)15-14-27-25-12-8-21-16-23(34)11-13-24(21)28(25)26(17-29(27,30)3)20-6-9-22(10-7-20)31(4)5/h6-7,9-10,16,25-27H,8,11-15,17H2,1-5H3/t25-,26+,27-,29-,30+/m0/s1
#inchikey OOLLAFOLCSJHRE
#Ion_Source LC-ESI
#Instrument qTof
#Compound_Source Commercial
#PI Dorrestein
#Data_Collector Garg_Neha
#Scan -1
#Precursor_MZ 476.28
#ExactMass 475.272
#Charge 1
#CAS_Number 126784-99-4
#Pubmed_ID N/A
#Smiles [C@H]1(C2[C@]([C@]3([C@](C1)([C@@](CC3)(C(=O)C)OC(C)=O)C)[H])(CCC4C=2CCC(C=4)=O)[H])C5=CC=C(C=C5)N(C)C
#INCHI_AUX N/A
#Library_Class 1
#SpectrumID CCMSLIB00000078573
#IonMode Positive
#UpdateWorkflowName UPDATE-SINGLE-ANNOTATED-GOLD
#LibraryQualityString Gold
#TaskID 77f51c88eb8b467eb4a01dd2d0cb90d2
##Scan# 1285
#SpectrumFile Plate9_21_40_GC5_01_15753.mzXML
#LibraryName FDALibrary_2_04302014.mgf
#MQScore -1
#Organism FDALibrary_2_04302014
#TIC_Query 0
#RT_Query -1
#MZErrorPPM -1
#SharedPeaks 0
#MassDiff 0
#LibMZ -1
#SpecMZ 476.28
#SpecCharge 0
#internalFilename spec-00000.mgf

>collision 0
122.0964 14.45
134.0966 71.76
148.1119 9.22
157.0651 5.42
159.0803 3.44
209.0956 2.38
211.1115 4.04
222.1269 3.25
226.1584 3.49
235.146 3.21
236.144 3.46
237.1272 2.88
238.1581 2.44
248.1416 2.49
249.153 3.42
251.143 6.2
252.1509 14.3
253.1587 56.18
262.159 2.71
263.1667 7.34
264.1742 8.0
269.153 3.74
273.1517 4.3
274.158 3.28
277.1585 8.77
279.1626 4.97
280.1677 4.44
288.1743 4.43
291.162 2.32
292.1698 3.85
294.1843 2.32
295.1703 36.74
300.1739 2.39
306.1846 8.08
315.1986 18.13
317.1781 2.54
344.201 2.64
358.2168 17.8
373.24 14.54
374.2468 19.63
383.2237 2.27
398.2475 5.0
401.2353 6.68
416.2604 100.0
417.2628 36.77
434.2687 3.38
476.2826 194.83
