>compound MLS001074742-01!
>formula C10H13N5O
>ionization [M+H]+
>parentmass 220.12
#inchi InChI=1S/C10H13N5O/c1-7(4-16)2-3-11-9-8-10(13-5-12-8)15-6-14-9/h2,5-6,16H,3-4H2,1H3,(H2,11,12,13,14,15)/b7-2+
#inchikey UZKQTCBAMSWPJD
#Ion_Source LC-ESI
#Instrument qTof
#Compound_Source NIH Natural Product Library
#PI Dorrestein
#Data_Collector VVP/LMS
#Scan -1
#Precursor_MZ 220.12
#ExactMass 219.112
#Charge 1
#CAS_Number N/A
#Pubmed_ID N/A
#Smiles C/C(=C\CNc1[nH]cnc2ncnc12)/CO
#INCHI_AUX N/A
#Library_Class 3
#SpectrumID CCMSLIB00000079576
#IonMode Positive
#UpdateWorkflowName UPDATE-SINGLE-ANNOTATED-BRONZE
#LibraryQualityString Bronze
#TaskID b1d8e8f6646f4e71acdff9ca3d919d08
##Scan# 842
#SpectrumFile p1-D08_GD8_01_17916.mzXML
#LibraryName NIH_Natural_Products_Library.mgf
#MQScore -1
#Organism NIH_Natural_Products_Library
#TIC_Query 0
#RT_Query -1
#MZErrorPPM -1
#SharedPeaks 0
#MassDiff 0
#LibMZ -1
#SpecMZ 220.12
#SpecCharge 0
#internalFilename spec-00000.mgf

>collision 0
119.0343 46.41
134.06 2.95
136.0614 100.0
160.075 11.39
220.12 0.0
