>compound MLS000859954-01!p-Iodoclonidine hydrochloride
>formula C9H8Cl2IN3
>ionization [M+H]+
>parentmass 355.922363
#inchi InChI=1S/C9H8Cl2IN3/c10-6-3-5(12)4-7(11)8(6)15-9-13-1-2-14-9/h3-4H,1-2H2,(H2,13,14,15)
#inchikey HSRPTPAPMBHRRJ
#origInchi InChI=1S/C9H8Cl2IN3.ClH/c10-6-3-5(12)4-7(11)8(6)15-9-13-1-2-14-9;/h3-4H,1-2H2,(H2,13,14,15);1H
#Ion_Source LC-ESI
#Instrument qTof
#Compound_Source NIH Pharmacologically Active Library
#PI Dorrestein
#Data_Collector VP/LMS
#Scan -1
#Precursor_MZ 355.926
#ExactMass 354.914
#Charge 1
#CAS_Number N/A
#Pubmed_ID N/A
#Smiles Clc1cc(I)cc(Cl)c1NC2=NCCN2.Cl
#INCHI_AUX N/A
#Library_Class 1
#SpectrumID CCMSLIB00000086189
#IonMode Positive
#UpdateWorkflowName UPDATE-SINGLE-ANNOTATED-GOLD
#LibraryQualityString Gold
#TaskID d252d724072548979f1f6f1ced849daf
##Scan# 1362
#SpectrumFile p5-H05_GH5_01_18480.mzXML
#LibraryName Pharm_Active_Library.mgf
#MQScore -1
#Organism Pharm_Active_Library
#TIC_Query 0
#RT_Query -1
#MZErrorPPM -1
#SharedPeaks 0
#MassDiff 0
#LibMZ -1
#SpecMZ 355.926
#SpecCharge 0
#internalFilename spec-00000.mgf

>collision 0
126.0106 2.96
131.0595 1.8
132.0679 1.51
139.0066 0.78
153.0214 3.68
157.063 1.39
158.0713 7.22
159.0789 20.05
166.0174 5.68
177.0216 0.73
192.0323 0.89
194.048 53.73
211.9902 0.56
228.0084 4.18
229.0158 62.73
355.9177 55.86
