>compound Xylometazoline HCl
>formula C16H24N2
>ionization [M+H]+
>parentmass 245.201309
#inchi InChI=1S/C16H24N2/c1-11-8-13(16(3,4)5)9-12(2)14(11)10-15-17-6-7-18-15/h8-9H,6-7,10H2,1-5H3,(H,17,18)
#inchikey HUCJFAOMUPXHDK
#origInchi InChI=1S/C16H24N2.ClH/c1-11-8-13(16(3,4)5)9-12(2)14(11)10-15-17-6-7-18-15;/h8-9H,6-7,10H2,1-5H3,(H,17,18);1H
#Ion_Source LC-ESI
#Instrument qTof
#Compound_Source Commercial
#PI Dorrestein
#Data_Collector Garg_Neha
#Scan -1
#Precursor_MZ 245.201
#ExactMass 244.194
#Charge 1
#CAS_Number 1218-35-5
#Pubmed_ID N/A
#Smiles C1(=C(C=C(C(=C1C)CC2NCCN=2)C)C(C)(C)C).Cl
#INCHI_AUX N/A
#Library_Class 1
#SpectrumID CCMSLIB00000078516
#IonMode Positive
#UpdateWorkflowName UPDATE-SINGLE-ANNOTATED-GOLD
#LibraryQualityString Gold
#TaskID 77f51c88eb8b467eb4a01dd2d0cb90d2
##Scan# 1176
#SpectrumFile Plate8_41_60_GC11_01_15764.mzXML
#LibraryName FDALibrary_2_04302014.mgf
#MQScore -1
#Organism FDALibrary_2_04302014
#TIC_Query 0
#RT_Query -1
#MZErrorPPM -1
#SharedPeaks 0
#MassDiff 0
#LibMZ -1
#SpecMZ 245.201
#SpecCharge 0
#internalFilename spec-00000.mgf

>collision 0
105.0698 9.47
119.0836 8.15
145.1018 10.67
160.1229 30.1
175.1464 90.29
189.1387 100.0
215.155 13.55
230.1782 36.81
245.2013 992.81
