>compound MLS002206281-01!4-phenylpyridine
>formula C11H9N
>ionization [M+H]+
>parentmass 156.081879
#inchi InChI=1S/C11H9N/c1-2-4-10(5-3-1)11-6-8-12-9-7-11/h1-9H
#inchikey JVZRCNQLWOELDU
#Ion_Source LC-ESI
#Instrument qTof
#Compound_Source NIH Natural Product Library
#PI Dorrestein
#Data_Collector VVP/LMS
#Scan -1
#Precursor_MZ 156.081
#ExactMass 155.074
#Charge 1
#CAS_Number N/A
#Pubmed_ID N/A
#Smiles c1ccc(cc1)c2ccncc2
#INCHI_AUX N/A
#Library_Class 1
#SpectrumID CCMSLIB00000079973
#IonMode Positive
#UpdateWorkflowName UPDATE-SINGLE-ANNOTATED-GOLD
#LibraryQualityString Gold
#TaskID b1d8e8f6646f4e71acdff9ca3d919d08
##Scan# 1295
#SpectrumFile p2-E02_GE2_01_18026.mzXML
#LibraryName NIH_Natural_Products_Library.mgf
#MQScore -1
#Organism NIH_Natural_Products_Library
#TIC_Query 0
#RT_Query -1
#MZErrorPPM -1
#SharedPeaks 0
#MassDiff 0
#LibMZ -1
#SpecMZ 156.081
#SpecCharge 0
#internalFilename spec-00000.mgf

>collision 0
101.0384 2.45
102.0453 5.81
103.0562 15.75
104.0479 6.13
114.0323 2.65
115.0555 3.29
117.0579 4.65
126.0466 2.71
127.0535 18.92
128.0621 100.0
130.066 4.39
141.0578 2.84
154.0642 26.4
156.0819 147.39
