>compound Nizatidine
>formula C12H21N5O2S2 
>ionization [M+H]+
>parentmass 332.121094
#inchi InChI=1S/C12H21N5O2S2/c1-13-11(6-17(18)19)14-4-5-20-8-10-9-21-12(15-10)7-16(2)3/h6,9,13-14H,4-5,7-8H2,1-3H3/b11-6+
#inchikey SGXXNSQHWDMGGP
#Ion_Source LC-ESI
#Instrument qTof
#Compound_Source Isolated
#PI Sirenas
#Data_Collector Ed Esquenazi 
#Scan -1
#Precursor_MZ 332.122
#ExactMass 0.0
#Charge 1
#CAS_Number N/A
#Pubmed_ID N/A
#Smiles N/A
#INCHI_AUX N/A
#Library_Class 3
#SpectrumID CCMSLIB00000006363
#IonMode Positive
#UpdateWorkflowName UPDATE-SINGLE-ANNOTATED-BRONZE
#LibraryQualityString Bronze
#TaskID d19310cd93df49b68e9fcbec27720eb5
##Scan# 2
#SpectrumFile Nizatidine.mgf
#LibraryName fda_library.mgf
#MQScore -1
#Organism fda_library
#TIC_Query 0
#RT_Query -1
#MZErrorPPM -1
#SharedPeaks 0
#MassDiff 0
#LibMZ -1
#SpecMZ 332.122
#SpecCharge 0
#internalFilename spec-00000.mgf

>collision 0
102.037 0.54
110.0059 0.25
111.0137 1.09
112.0211 0.88
113.029 1.25
129.0482 0.48
131.0642 54.56
138.0373 0.59
139.0324 1.58
154.056 20.48
155.064 100.0
172.0254 0.75
187.0357 10.02
199.0358 3.11
215.0668 11.95
230.0778 0.33
232.0936 21.8
243.0856 27.11
258.0729 11.49
271.1049 28.08
286.1285 16.51
287.0986 0.47
296.0997 0.26
301.0787 0.54
314.1106 1.27
332.1206 19.74
