>compound 2-[(3Z)-6-fluoro-2-methyl-3-[(4-methylsulfinylphenyl)methylidene]inden-1-yl]acetic acid
>formula C20H17FO3S 
>ionization [M+H]+
>parentmass 357.09552007609057
#inchi InChI=1S/C20H17FO3S/c1-12-17(9-13-3-6-15(7-4-13)25(2)24)16-8-5-14(21)10-19(16)18(12)11-20(22)23/h3-10H,11H2,1-2H3,(H,22,23)/b17-9-
#inchikey MLKXDPUZXIRXEP
#Ion_Source LC-ESI
#Instrument qTof
#Compound_Source Commercial
#PI Dorrestein
#Data_Collector Garg_Neha
#Scan -1
#Precursor_MZ 357.098
#ExactMass 356.088
#Charge 1
#CAS_Number N/A
#Pubmed_ID N/A
#Smiles N/A
#INCHI_AUX N/A
#Library_Class 1
#SpectrumID CCMSLIB00000077059
#IonMode Positive
#UpdateWorkflowName UPDATE-SINGLE-ANNOTATED-GOLD
#LibraryQualityString Gold
#TaskID 48f7f52fc6d249b5abbcc6e7b3df5969
##Scan# 1295
#SpectrumFile NCP003017_E2_F11_BA8_01_15703.mzXML
#LibraryName NIH_Clinical_Collection_2.mgf
#MQScore -1
#Organism NIHcollection2_04212014_2_mgf
#TIC_Query 0
#RT_Query -1
#MZErrorPPM -1
#SharedPeaks 0
#MassDiff 0
#LibMZ -1
#SpecMZ 357.098
#SpecCharge 0
#internalFilename spec-00000.mgf

>collision 0
147.0607 0.7
173.0751 6.35
220.0679 0.94
221.0758 0.89
233.0762 100.0
246.0842 1.68
247.0914 20.51
248.0996 75.22
262.1157 1.88
265.0474 3.45
266.056 1.17
279.0619 2.8
280.0714 9.45
281.0421 1.93
281.0778 2.76
282.0504 2.52
283.0594 2.08
294.087 3.95
295.0948 25.11
296.067 1.58
297.0741 11.86
298.0793 3.71
311.0903 2.83
313.1039 2.76
339.0854 2.46
340.092 28.55
342.072 8.19
357.0969 309.52
