>compound MLS002153837-01!Benperidol2062-84-2
>formula C22H24FN3O2
>ionization [M+H]+
>parentmass 382.192383
#inchi InChI=1S/C22H24FN3O2/c23-17-9-7-16(8-10-17)21(27)6-3-13-25-14-11-18(12-15-25)26-20-5-2-1-4-19(20)24-22(26)28/h1-2,4-5,7-10,18H,3,6,11-15H2,(H,24,28)
#inchikey FEBOTPHFXYHVPL
#Ion_Source LC-ESI
#Instrument qTof
#Compound_Source NIH Pharmacologically Active Library
#PI Dorrestein
#Data_Collector VP/LMS
#Scan -1
#Precursor_MZ 382.197
#ExactMass 381.185
#Charge 1
#CAS_Number N/A
#Pubmed_ID N/A
#Smiles Oc1nc2ccccc2n1C3CCN(CCCC(=O)c4ccc(F)cc4)CC3
#INCHI_AUX N/A
#Library_Class 1
#SpectrumID CCMSLIB00000085742
#IonMode Positive
#UpdateWorkflowName UPDATE-SINGLE-ANNOTATED-GOLD
#LibraryQualityString Gold
#TaskID d252d724072548979f1f6f1ced849daf
##Scan# 1563
#SpectrumFile p4-E10_GE10_01_18382.mzXML
#LibraryName Pharm_Active_Library.mgf
#MQScore -1
#Organism Pharm_Active_Library
#TIC_Query 0
#RT_Query -1
#MZErrorPPM -1
#SharedPeaks 0
#MassDiff 0
#LibMZ -1
#SpecMZ 382.197
#SpecCharge 0
#internalFilename spec-00000.mgf

>collision 0
95.0291 3.78
96.032 0.28
109.0445 1.22
113.0397 0.5
121.0435 0.22
123.0251 90.14
130.065 0.34
147.0592 0.9
165.0719 100.0
173.0705 3.68
201.1017 2.04
218.1292 3.28
230.1338 0.51
248.1448 2.2
364.179 0.21
382.195 9.3
