>compound Thiamphenicol (Thiophenicol)
>formula C12H15Cl2NO5S
>ionization [M+H]+
>parentmass 356.012
#inchi InChI=1S/C12H15Cl2NO5S/c1-21(19,20)8-4-2-7(3-5-8)10(17)9(6-16)15-12(18)11(13)14/h2-5,9-11,16-17H,6H2,1H3,(H,15,18)/t9-,10-/m1/s1
#inchikey OTVAEFIXJLOWRX
#Ion_Source LC-ESI
#Instrument qTof
#Compound_Source Commercial
#PI Dorrestein
#Data_Collector Garg_Neha
#Scan -1
#Precursor_MZ 356.012
#ExactMass 355.005
#Charge 1
#CAS_Number 15318-45-3
#Pubmed_ID N/A
#Smiles C1=C(C=CC(=C1)[C@H]([C@H](NC(C(Cl)Cl)=O)CO)O)S(C)(=O)=O
#INCHI_AUX N/A
#Library_Class 1
#SpectrumID CCMSLIB00000078520
#IonMode Positive
#UpdateWorkflowName UPDATE-SINGLE-ANNOTATED-GOLD
#LibraryQualityString Gold
#TaskID 77f51c88eb8b467eb4a01dd2d0cb90d2
##Scan# 1026
#SpectrumFile Plate8_41_60_GC11_01_15764.mzXML
#LibraryName FDALibrary_2_04302014.mgf
#MQScore -1
#Organism FDALibrary_2_04302014
#TIC_Query 0
#RT_Query -1
#MZErrorPPM -1
#SharedPeaks 0
#MassDiff 0
#LibMZ -1
#SpecMZ 356.012
#SpecCharge 0
#internalFilename spec-00000.mgf

>collision 0
107.0527 2.86
118.0655 3.52
119.0712 5.27
120.0567 7.27
129.9641 1.62
132.0571 5.24
146.0609 8.12
150.0223 2.0
155.0272 2.67
169.0626 1.71
170.0624 2.16
176.026 2.06
182.0376 1.71
198.058 54.81
199.0616 6.0
206.0366 7.17
229.0053 31.42
232.0057 2.6
241.0055 18.91
307.9907 100.0
310.9905 7.87
325.9997 4.98
338.0016 27.1
356.0128 0.0
