>compound MLS001074086-01!
>formula C10H15NO
>ionization [M+H]+
>parentmass 166.121918
#inchi InChI=1S/C10H15NO/c1-4-11(2,3)9-6-5-7-10(12)8-9/h5-8H,4H2,1-3H3
#inchikey VWLHWLSRQJQWRG
#origInchi InChI=1S/C10H15NO.ClH/c1-4-11(2,3)9-6-5-7-10(12)8-9;/h5-8H,4H2,1-3H3;1H
#Ion_Source LC-ESI
#Instrument qTof
#Compound_Source NIH Pharmacologically Active Library
#PI Dorrestein
#Data_Collector VP/LMS
#Scan -1
#Precursor_MZ 166.122
#ExactMass 166.123
#Charge 1
#CAS_Number N/A
#Pubmed_ID N/A
#Smiles CC[N+](C)(C)c1cccc(O)c1.[Cl-]
#INCHI_AUX N/A
#Library_Class 1
#SpectrumID CCMSLIB00000085209
#IonMode Positive
#UpdateWorkflowName UPDATE-SINGLE-ANNOTATED-GOLD
#LibraryQualityString Gold
#TaskID d252d724072548979f1f6f1ced849daf
##Scan# 299
#SpectrumFile p3-G02_GG2_01_18295.mzXML
#LibraryName Pharm_Active_Library.mgf
#MQScore -1
#Organism Pharm_Active_Library
#TIC_Query 0
#RT_Query -1
#MZErrorPPM -1
#SharedPeaks 0
#MassDiff 0
#LibMZ -1
#SpecMZ 166.122
#SpecCharge 0
#internalFilename spec-00000.mgf

>collision 0
94.0397 4.3
110.0948 3.44
118.0638 3.91
119.049 3.83
120.0437 6.57
121.0532 5.79
136.074 100.0
138.0911 12.28
166.1219 5.47
