>compound MLS001076466-01!7-(2,3-DIHYDROXYPROPYL)THEOPHYLLINE479-18-5
>formula C10H14N4O4
>ionization [M+H]+
>parentmass 255.11
#inchi InChI=1S/C10H14N4O4/c1-12-8-7(9(17)13(2)10(12)18)14(5-11-8)3-6(16)4-15/h5-6,15-16H,3-4H2,1-2H3
#inchikey KSCFJBIXMNOVSH
#Ion_Source LC-ESI
#Instrument qTof
#Compound_Source NIH Pharmacologically Active Library
#PI Dorrestein
#Data_Collector VP/LMS
#Scan -1
#Precursor_MZ 255.11
#ExactMass 254.102
#Charge 1
#CAS_Number N/A
#Pubmed_ID N/A
#Smiles Cn1c(=O)n(C)c2ncn(CC(O)CO)c2c1=O
#INCHI_AUX N/A
#Library_Class 1
#SpectrumID CCMSLIB00000084738
#IonMode Positive
#UpdateWorkflowName UPDATE-SINGLE-ANNOTATED-GOLD
#LibraryQualityString Gold
#TaskID d252d724072548979f1f6f1ced849daf
##Scan# 1159
#SpectrumFile p3-A02_GA2_01_18224.mzXML
#LibraryName Pharm_Active_Library.mgf
#MQScore -1
#Organism Pharm_Active_Library
#TIC_Query 0
#RT_Query -1
#MZErrorPPM -1
#SharedPeaks 0
#MassDiff 0
#LibMZ -1
#SpecMZ 255.11
#SpecCharge 0
#internalFilename spec-00000.mgf

>collision 0
71.0144 3.01
96.0543 3.08
97.0377 3.01
112.0631 2.79
124.0507 53.44
136.0751 4.66
143.0817 3.87
181.0719 100.0
255.11 0.0
