>compound RUTIN
>formula C27H30O16
>ionization [M+H]+
>parentmass 611.1606613320905
#inchi InChI=1S/C27H30O16/c1-8-17(32)20(35)22(37)26(40-8)39-7-15-18(33)21(36)23(38)27(42-15)43-25-19(34)16-13(31)5-10(28)6-14(16)41-24(25)9-2-3-11(29)12(30)4-9/h2-6,8,15,17-18,20-23,26-33,35-38H,7H2,1H3/t8-,15+,17-,18+,20+,21-,22+,23+,26+,27-/m0/s1
#inchikey IKGXIBQEEMLURG
#Ion_Source LC-ESI
#Instrument qTof
#Compound_Source Commercial
#PI Dorrestein
#Data_Collector Garg_Neha
#Scan -1
#Precursor_MZ 611.161
#ExactMass 610.153
#Charge 1
#CAS_Number N/A
#Pubmed_ID N/A
#Smiles C[C@@H]1O[C@@H](OC[C@H]2O[C@@H](Oc3c(oc4cc(O)cc(O)c4c3=O)c5ccc(O)c(O)c5)[C@H](O)[C@@H](O)[C@@H]2O)[C@H](O)[C@H](O)[C@H]1O
#INCHI_AUX N/A
#Library_Class 1
#SpectrumID CCMSLIB00000079258
#IonMode Positive
#UpdateWorkflowName UPDATE-SINGLE-ANNOTATED-GOLD
#LibraryQualityString Gold
#TaskID 278b19f5865741e282cec7349aa7e7a1
##Scan# 1058
#SpectrumFile NCP003512_A2_B11_BD4_01_15728.mzXML
#LibraryName NIHcollectionI_05062014.mgf
#MQScore -1
#Organism NIHcollectionI_05062014
#TIC_Query 0
#RT_Query -1
#MZErrorPPM -1
#SharedPeaks 0
#MassDiff 0
#LibMZ -1
#SpecMZ 611.161
#SpecCharge 0
#internalFilename spec-00000.mgf

>collision 0
127.0374 0.55
129.055 1.63
147.0647 1.84
148.0714 0.47
149.0236 0.33
153.0188 0.32
181.0512 0.41
251.1289 0.32
275.0504 0.3
284.0616 0.29
302.034 0.3
303.0514 100.0
304.0541 17.68
369.0555 0.3
449.1035 0.74
465.1036 11.94
611.157 0.78
