>compound Amlodipine
>formula C20H25ClN2O5
>ionization [M+H]+
>parentmass 409.154327
#inchi InChI=1S/C20H25ClN2O5/c1-4-28-20(25)18-15(11-27-10-9-22)23-12(2)16(19(24)26-3)17(18)13-7-5-6-8-14(13)21/h5-8,17,25H,4,9-11,22H2,1-3H3/b20-18+
#inchikey VNTNQZVUQJROCO
#Ion_Source LC-ESI
#Instrument qTof
#Compound_Source Commercial
#PI Dorrestein
#Data_Collector Garg_Neha
#Scan -1
#Precursor_MZ 409.152
#ExactMass 408.145
#Charge 1
#CAS_Number N/A
#Pubmed_ID N/A
#Smiles CCO/C(=C\1/C(C(=C(C)N=C1COCCN)C(=O)OC)c2ccccc2Cl)/O
#INCHI_AUX N/A
#Library_Class 1
#SpectrumID CCMSLIB00000079248
#IonMode Positive
#UpdateWorkflowName UPDATE-SINGLE-ANNOTATED-GOLD
#LibraryQualityString Gold
#TaskID 278b19f5865741e282cec7349aa7e7a1
##Scan# 1091
#SpectrumFile NCP003672_E27F27G26H26_BE5_01_15741.mzXML
#LibraryName NIHcollectionI_05062014.mgf
#MQScore -1
#Organism NIHcollectionI_05062014
#TIC_Query 0
#RT_Query -1
#MZErrorPPM -1
#SharedPeaks 0
#MassDiff 0
#LibMZ -1
#SpecMZ 409.152
#SpecCharge 0
#internalFilename spec-00000.mgf

>collision 0
137.0147 1.5
139.0127 1.4
142.0659 3.01
143.0733 2.87
149.016 4.3
151.0123 1.36
163.0305 1.88
165.0102 8.92
167.008 3.02
170.0601 18.15
176.0337 1.12
177.0112 1.17
178.0415 7.86
179.0455 1.17
184.0762 3.3
192.0582 1.51
197.0839 1.05
202.0865 3.2
205.0031 1.09
206.0369 30.63
207.0392 2.73
212.072 1.18
213.0793 1.87
220.0529 26.07
221.0555 4.35
232.0526 1.09
238.0638 100.0
239.0668 10.36
241.0634 3.28
248.0487 5.95
260.0461 2.5
286.0616 1.09
294.0902 65.51
320.0683 2.44
334.0834 3.6
360.0983 1.78
377.1259 11.35
378.1327 2.92
392.1276 3.64
409.1543 1.41
