>compound Eplerenone
>formula C24H30O6 
>ionization [M+H]+
>parentmass 415.212
#inchi InChI=1S/C24H30O6/c1-21-7-4-14(25)10-13(21)11-15(20(27)28-3)19-16-5-8-23(9-6-18(26)30-23)22(16,2)12-17-24(19,21)29-17/h10,15-17,19H,4-9,11-12H2,1-3H3/t15-,16+,17-,19+,21+,22+,23-,24-/m1/s1
#inchikey JUKPWJGBANNWMW
#Ion_Source LC-ESI
#Instrument qTof
#Compound_Source Isolated
#PI Sirenas
#Data_Collector Ed Esquenazi 
#Scan -1
#Precursor_MZ 415.212
#ExactMass 0.0
#Charge 1
#CAS_Number N/A
#Pubmed_ID N/A
#Smiles N/A
#INCHI_AUX N/A
#Library_Class 3
#SpectrumID CCMSLIB00000004471
#IonMode Positive
#UpdateWorkflowName UPDATE-SINGLE-ANNOTATED-BRONZE
#LibraryQualityString Bronze
#TaskID d19310cd93df49b68e9fcbec27720eb5
##Scan# 3
#SpectrumFile Eplerenone.mgf
#LibraryName fda_library.mgf
#MQScore -1
#Organism fda_library
#TIC_Query 0
#RT_Query -1
#MZErrorPPM -1
#SharedPeaks 0
#MassDiff 0
#LibMZ -1
#SpecMZ 415.212
#SpecCharge 0
#internalFilename spec-00000.mgf

>collision 0
105.07 14.22
107.0491 8.8
107.0853 7.19
111.044 13.58
117.07 9.72
119.0853 14.23
121.065 78.69
123.0804 5.08
129.0703 4.31
131.0485 6.44
131.0854 9.48
133.0646 7.09
133.101 11.25
135.0804 12.78
143.0852 16.82
145.0651 7.93
145.0996 3.1
147.0806 11.01
147.1163 4.26
155.0856 4.48
157.102 11.35
159.0804 10.32
159.1171 3.51
161.0958 22.37
163.0755 100.0
169.1003 6.02
171.0802 12.49
173.0969 4.1
175.1116 11.87
181.1013 5.0
183.1185 3.72
185.0962 8.79
189.0912 9.54
195.117 10.14
197.0959 4.46
197.1321 5.08
199.1118 3.57
203.1061 6.79
207.1166 3.71
209.0952 4.91
209.1332 3.63
211.1109 4.89
215.1059 3.92
223.1114 5.59
233.1333 8.24
235.1111 3.09
237.1282 4.94
239.1435 5.59
255.1392 3.33
259.1499 3.85
263.1429 3.4
277.1595 9.52
291.1752 3.38
337.1827 3.47
415.2142 0.0
