>compound MLS000697735-01!
>formula C20H18O6
>ionization [M+H]+
>parentmass 355.117462
#inchi InChI=1S/C20H18O6/c1-10(2)3-4-11-7-12(5-6-14(11)22)20-19(25)18(24)17-15(23)8-13(21)9-16(17)26-20/h3,5-9,21-23,25H,4H2,1-2H3
#inchikey PGCKDCPTJAQQSQ
#Ion_Source LC-ESI
#Instrument qTof
#Compound_Source NIH Natural Product Library
#PI Dorrestein
#Data_Collector VVP/LMS
#Scan -1
#Precursor_MZ 355.118
#ExactMass 354.11
#Charge 1
#CAS_Number N/A
#Pubmed_ID N/A
#Smiles CC(=CCc1cc(ccc1O)c2oc3cc(O)cc(O)c3c(=O)c2O)C
#INCHI_AUX N/A
#Library_Class 1
#SpectrumID CCMSLIB00000079607
#IonMode Positive
#UpdateWorkflowName UPDATE-SINGLE-ANNOTATED-GOLD
#LibraryQualityString Gold
#TaskID b1d8e8f6646f4e71acdff9ca3d919d08
##Scan# 2347
#SpectrumFile p1-G08_GG8_01_17952.mzXML
#LibraryName NIH_Natural_Products_Library.mgf
#MQScore -1
#Organism NIH_Natural_Products_Library
#TIC_Query 0
#RT_Query -1
#MZErrorPPM -1
#SharedPeaks 0
#MassDiff 0
#LibMZ -1
#SpecMZ 355.118
#SpecCharge 0
#internalFilename spec-00000.mgf

>collision 0
105.0334 3.93
141.0682 4.38
153.0183 19.24
155.0485 2.86
157.0643 5.41
169.0634 2.56
187.0392 7.23
197.0581 8.05
213.0525 3.19
215.0682 10.72
225.054 2.63
229.0486 13.13
242.0574 3.3
243.0637 32.67
253.05 3.3
256.0377 3.89
269.0469 4.49
271.058 45.98
287.0538 85.8
299.0532 100.0
355.1175 19.91
