>compound MLS001055442-01!
>formula C27H38N2O4
>ionization [M+H]+
>parentmass 455.290588
#inchi InChI=1S/C27H38N2O4/c1-20(2)27(19-28,22-10-12-24(31-5)26(18-22)33-7)14-8-15-29(3)16-13-21-9-11-23(30-4)25(17-21)32-6/h9-12,17-18,20H,8,13-16H2,1-7H3
#inchikey SGTNSNPWRIOYBX
#origInchi InChI=1S/C27H38N2O4.ClH/c1-20(2)27(19-28,22-10-12-24(31-5)26(18-22)33-7)14-8-15-29(3)16-13-21-9-11-23(30-4)25(17-21)32-6;/h9-12,17-18,20H,8,13-16H2,1-7H3;1H
#Ion_Source LC-ESI
#Instrument qTof
#Compound_Source NIH Pharmacologically Active Library
#PI Dorrestein
#Data_Collector VP/LMS
#Scan -1
#Precursor_MZ 455.293
#ExactMass 454.283
#Charge 1
#CAS_Number N/A
#Pubmed_ID N/A
#Smiles COc1ccc(CCN(C)CCCC(C#N)(C(C)C)c2ccc(OC)c(OC)c2)cc1OC.Cl
#INCHI_AUX N/A
#Library_Class 1
#SpectrumID CCMSLIB00000085882
#IonMode Positive
#UpdateWorkflowName UPDATE-SINGLE-ANNOTATED-GOLD
#LibraryQualityString Gold
#TaskID d252d724072548979f1f6f1ced849daf
##Scan# 1773
#SpectrumFile p4-G07_GG7_01_18403.mzXML
#LibraryName Pharm_Active_Library.mgf
#MQScore -1
#Organism Pharm_Active_Library
#TIC_Query 0
#RT_Query -1
#MZErrorPPM -1
#SharedPeaks 0
#MassDiff 0
#LibMZ -1
#SpecMZ 455.293
#SpecCharge 0
#internalFilename spec-00000.mgf

>collision 0
103.0548 1.83
104.0614 0.9
105.0707 5.52
107.0499 1.54
118.0414 1.72
119.0487 1.4
120.057 1.18
121.0647 2.64
122.0725 0.97
122.0958 1.11
131.0504 1.13
132.0561 0.55
133.0657 5.28
134.0726 7.16
135.0443 5.3
135.08 3.87
136.0506 1.08
137.0589 1.24
137.0961 0.38
139.0742 0.85
149.0594 1.61
150.0685 36.14
151.0742 7.85
165.0919 100.0
177.0904 3.98
191.1068 1.02
203.0949 0.51
217.1096 0.83
218.1173 3.85
233.1529 0.54
243.1385 0.49
245.1406 1.03
260.1644 6.73
303.2064 24.27
455.2904 7.57
