>compound Celecoxib
>formula C17H14F3N3O2S
>ionization [M+H]+
>parentmass 382.083099
#inchi InChI=1S/C17H14F3N3O2S/c1-11-2-4-12(5-3-11)15-10-16(17(18,19)20)22-23(15)13-6-8-14(9-7-13)26(21,24)25/h2-10H,1H3,(H2,21,24,25)
#inchikey RZEKVGVHFLEQIL
#Ion_Source LC-ESI
#Instrument qTof
#Compound_Source Commercial
#PI Dorrestein
#Data_Collector Garg_Neha
#Scan -1
#Precursor_MZ 382.083
#ExactMass 381.076
#Charge 1
#CAS_Number 169590-42-5,184007-95-2, 194044-54-7
#Pubmed_ID N/A
#Smiles C1(=CC=C(C=C1)S(N)(=O)=O)N2C(=CC(=N2)C(F)(F)F)C3=CC=C(C=C3)C
#INCHI_AUX N/A
#Library_Class 1
#SpectrumID CCMSLIB00000078076
#IonMode Positive
#UpdateWorkflowName UPDATE-SINGLE-ANNOTATED-GOLD
#LibraryQualityString Gold
#TaskID 77f51c88eb8b467eb4a01dd2d0cb90d2
##Scan# 2174
#SpectrumFile Plate1_61_88_GG4_01_16491.mzXML
#LibraryName FDALibrary_2_04302014.mgf
#MQScore -1
#Organism FDALibrary_2_04302014
#TIC_Query 0
#RT_Query -1
#MZErrorPPM -1
#SharedPeaks 0
#MassDiff 0
#LibMZ -1
#SpecMZ 382.083
#SpecCharge 0
#internalFilename spec-00000.mgf

>collision 0
131.0714 2.58
165.0403 4.23
184.0397 2.51
185.0449 3.3
200.0686 2.27
207.106 5.54
221.0184 4.44
231.0896 2.72
255.0755 2.55
261.0852 6.23
262.086 5.16
263.0929 9.26
267.0708 7.3
274.0957 2.31
275.0783 5.71
281.0886 12.56
282.0957 19.3
283.1013 17.65
286.0723 3.75
287.078 20.51
288.086 2.62
300.0857 6.19
301.0954 23.19
302.1017 35.62
303.1097 20.85
314.0876 6.23
316.0839 2.34
317.0892 4.03
334.0914 6.68
335.063 2.86
336.0977 3.06
342.0728 8.05
347.0538 3.75
362.0761 100.0
364.0739 9.05
382.0831 544.29
