>compound Diphenhydramine HCl (Benadryl)
>formula C17H21NO
>ionization [M+H]+
>parentmass 256.167938
#inchi InChI=1S/C17H21NO/c1-18(2)13-14-19-17(15-9-5-3-6-10-15)16-11-7-4-8-12-16/h3-12,17H,13-14H2,1-2H3
#inchikey ZZVUWRFHKOJYTH
#origInchi InChI=1S/C17H21NO.ClH/c1-18(2)13-14-19-17(15-9-5-3-6-10-15)16-11-7-4-8-12-16;/h3-12,17H,13-14H2,1-2H3;1H
#Ion_Source LC-ESI
#Instrument qTof
#Compound_Source Commercial
#PI Dorrestein
#Data_Collector Garg_Neha
#Scan -1
#Precursor_MZ 256.17
#ExactMass 255.162
#Charge 1
#CAS_Number 147-24-0
#Pubmed_ID N/A
#Smiles C1(=CC(=CC=C1)C(C2=CC=CC=C2)OCCN(C)C).Cl
#INCHI_AUX N/A
#Library_Class 1
#SpectrumID CCMSLIB00000078322
#IonMode Positive
#UpdateWorkflowName UPDATE-SINGLE-ANNOTATED-GOLD
#LibraryQualityString Gold
#TaskID 77f51c88eb8b467eb4a01dd2d0cb90d2
##Scan# 1133
#SpectrumFile Plate5_21_40_GH7_01_16509.mzXML
#LibraryName FDALibrary_2_04302014.mgf
#MQScore -1
#Organism FDALibrary_2_04302014
#TIC_Query 0
#RT_Query -1
#MZErrorPPM -1
#SharedPeaks 0
#MassDiff 0
#LibMZ -1
#SpecMZ 256.17
#SpecCharge 0
#internalFilename spec-00000.mgf

>collision 0
141.0697 0.79
151.0528 1.16
152.062 30.32
163.0535 0.21
165.07 29.5
167.0867 100.0
169.0643 0.32
181.0636 0.53
256.1679 0.75
