>compound MLS001160333-01!
>formula C24H23ClN2O5
>ionization [M+H]+
>parentmass 455.138794
#inchi InChI=1S/C24H23ClN2O5/c1-13-16-7-18(25)21(31-2)9-20(16)32-24(30)17(13)8-23(29)26-10-14-6-15(12-26)19-4-3-5-22(28)27(19)11-14/h3-5,7,9,14-15H,6,8,10-12H2,1-2H3/t14-,15+/m1/s1
#inchikey JRXKUVRBGCRRCI
#Ion_Source LC-ESI
#Instrument qTof
#Compound_Source NIH Natural Product Library
#PI Dorrestein
#Data_Collector VVP/LMS
#Scan -1
#Precursor_MZ 455.137
#ExactMass 454.13
#Charge 1
#CAS_Number N/A
#Pubmed_ID N/A
#Smiles COc1cc2oc(=O)c(CC(=O)N3C[C@H]4C[C@@H](C3)c5cccc(=O)n5C4)c(C)c2cc1Cl
#INCHI_AUX N/A
#Library_Class 1
#SpectrumID CCMSLIB00000080437
#IonMode Positive
#UpdateWorkflowName UPDATE-SINGLE-ANNOTATED-GOLD
#LibraryQualityString Gold
#TaskID b1d8e8f6646f4e71acdff9ca3d919d08
##Scan# 1802
#SpectrumFile p2-H08_GH8_01_18068.mzXML
#LibraryName NIH_Natural_Products_Library.mgf
#MQScore -1
#Organism NIH_Natural_Products_Library
#TIC_Query 0
#RT_Query -1
#MZErrorPPM -1
#SharedPeaks 0
#MassDiff 0
#LibMZ -1
#SpecMZ 455.137
#SpecCharge 0
#internalFilename spec-00000.mgf

>collision 0
103.0526 0.21
128.0627 0.23
131.0491 0.24
143.0481 0.48
145.0648 0.22
146.0716 0.79
148.0758 6.46
159.0434 1.03
166.0173 0.31
174.0672 2.57
191.1186 26.64
194.0127 0.82
195.0327 0.3
209.0368 7.6
237.0324 100.0
238.0349 15.83
265.0265 5.29
266.0318 0.48
455.1362 1.8
