>compound MLS002701928-01!
>formula C13H12Cl2O4
>ionization [M+H]+
>parentmass 303.017
#inchi InChI=1S/C13H12Cl2O4/c1-3-7(2)13(18)8-4-5-9(12(15)11(8)14)19-6-10(16)17/h4-5H,2-3,6H2,1H3,(H,16,17)
#inchikey AVOLMBLBETYQHX
#Ion_Source LC-ESI
#Instrument qTof
#Compound_Source NIH Pharmacologically Active Library
#PI Dorrestein
#Data_Collector VP/LMS
#Scan -1
#Precursor_MZ 303.017
#ExactMass 302.011
#Charge 1
#CAS_Number N/A
#Pubmed_ID N/A
#Smiles CCC(=C)C(=O)c1ccc(OCC(=O)O)c(Cl)c1Cl
#INCHI_AUX N/A
#Library_Class 1
#SpectrumID CCMSLIB00000085228
#IonMode Positive
#UpdateWorkflowName UPDATE-SINGLE-ANNOTATED-GOLD
#LibraryQualityString Gold
#TaskID d252d724072548979f1f6f1ced849daf
##Scan# 2180
#SpectrumFile p3-G03_GG3_01_18296.mzXML
#LibraryName Pharm_Active_Library.mgf
#MQScore -1
#Organism Pharm_Active_Library
#TIC_Query 0
#RT_Query -1
#MZErrorPPM -1
#SharedPeaks 0
#MassDiff 0
#LibMZ -1
#SpecMZ 303.017
#SpecCharge 0
#internalFilename spec-00000.mgf

>collision 0
115.0528 25.75
116.0602 12.83
125.014 15.16
128.062 22.57
129.0686 25.75
130.0789 10.85
131.0868 8.44
132.0571 10.59
132.9607 8.87
137.0144 11.54
141.0695 39.28
145.0282 7.92
146.0723 9.39
150.0237 8.35
151.0314 12.06
152.0008 7.67
158.0717 17.31
158.9751 9.13
159.0788 18.86
165.0118 20.33
166.0166 14.47
167.0264 10.85
172.956 24.89
174.0673 15.33
176.0381 34.45
177.0105 9.22
179.0255 100.0
193.0052 13.87
194.0117 24.03
194.0496 15.5
195.0203 76.23
211.979 21.19
212.9882 10.16
228.9817 29.29
253.026 97.67
303.0192 0.0
