>compound L-694,247
>formula C20H21N5O3S
>ionization [M+H]+
>parentmass 412.145599
#inchi InChI=1S/C20H21N5O3S/c1-29(26,27)25-16-5-2-13(3-6-16)10-19-23-20(28-24-19)14-4-7-18-17(11-14)15(8-9-21)12-22-18/h2-7,11-12,22,25H,8-10,21H2,1H3
#inchikey HKXMQLISPYELRD
#Ion_Source LC-ESI
#Instrument qTof
#Compound_Source Commercial
#PI Dorrestein
#Data_Collector Garg_Neha
#Scan -1
#Precursor_MZ 412.144
#ExactMass 411.137
#Charge 1
#CAS_Number N/A
#Pubmed_ID N/A
#Smiles CS(=O)(=O)Nc1ccc(Cc2noc(n2)c3ccc4[nH]cc(CCN)c4c3)cc1
#INCHI_AUX N/A
#Library_Class 1
#SpectrumID CCMSLIB00000079078
#IonMode Positive
#UpdateWorkflowName UPDATE-SINGLE-ANNOTATED-GOLD
#LibraryQualityString Gold
#TaskID 278b19f5865741e282cec7349aa7e7a1
##Scan# 1077
#SpectrumFile NCP003432_E2_F11_BD2_01_15724.mzXML
#LibraryName NIHcollectionI_05062014.mgf
#MQScore -1
#Organism NIHcollectionI_05062014
#TIC_Query 0
#RT_Query -1
#MZErrorPPM -1
#SharedPeaks 0
#MassDiff 0
#LibMZ -1
#SpecMZ 412.144
#SpecCharge 0
#internalFilename spec-00000.mgf

>collision 0
106.0654 9.99
115.0543 0.75
116.046 0.33
118.0647 0.72
122.0597 0.3
130.0651 0.85
132.0659 0.35
142.0653 2.69
143.0726 1.33
144.0813 5.88
145.0832 0.28
146.0706 1.31
147.0756 0.52
157.0559 0.29
157.077 0.36
158.061 7.17
160.0749 0.31
168.0674 0.77
169.0758 0.7
170.0609 57.85
171.0637 7.21
172.0646 0.57
173.071 2.65
175.0647 1.06
184.0435 59.43
185.0458 4.77
187.0867 3.6
188.0893 0.75
211.0748 1.7
212.0827 21.2
214.0861 0.31
245.1025 0.29
261.1005 0.38
273.1252 0.49
303.1253 1.6
304.1317 1.51
312.0809 1.53
316.1319 10.06
318.1354 0.47
334.1631 0.56
383.118 7.53
395.119 100.0
397.1178 5.24
412.1456 113.8
