>compound Glyburide (Diabeta)
>formula C23H28ClN3O5S
>ionization [M+Na]+
>parentmass 516.13385
#inchi InChI=1S/C23H28ClN3O5S/c1-32-21-12-9-17(24)15-20(21)22(28)25-14-13-16-7-10-19(11-8-16)33(30,31)27-23(29)26-18-5-3-2-4-6-18/h7-12,15,18H,2-6,13-14H2,1H3,(H,25,28)(H2,26,27,29)
#inchikey ZNNLBTZKUZBEKO
#Ion_Source LC-ESI
#Instrument qTof
#Compound_Source Commercial
#PI Dorrestein
#Data_Collector Garg_Neha
#Scan -1
#Precursor_MZ 516.133
#ExactMass 493.144
#Charge 1
#CAS_Number 10238-21-8
#Pubmed_ID N/A
#Smiles C1CCCC(C1)NC(NS(C2=CC=C(C=C2)CCNC(C3=C(C=CC(=C3)Cl)OC)=O)(=O)=O)=O
#INCHI_AUX N/A
#Library_Class 1
#SpectrumID CCMSLIB00000078251
#IonMode Positive
#UpdateWorkflowName UPDATE-SINGLE-ANNOTATED-GOLD
#LibraryQualityString Gold
#TaskID 77f51c88eb8b467eb4a01dd2d0cb90d2
##Scan# 1869
#SpectrumFile Plate4_21_40_GH3_01_16504.mzXML
#LibraryName FDALibrary_2_04302014.mgf
#MQScore -1
#Organism FDALibrary_2_04302014
#TIC_Query 0
#RT_Query -1
#MZErrorPPM -1
#SharedPeaks 0
#MassDiff 0
#LibMZ -1
#SpecMZ 516.133
#SpecCharge 0
#internalFilename spec-00000.mgf

>collision 0
170.9986 3.56
219.0247 2.07
249.1466 2.32
259.0494 2.58
280.0882 1.89
309.155 1.81
335.0468 1.85
346.0435 1.78
369.068 1.89
372.0646 2.65
391.0492 100.0
393.0445 37.13
394.0527 2.32
395.0436 5.74
396.0503 2.79
398.1276 1.92
414.0183 4.61
417.0284 50.89
418.0328 10.96
419.0264 18.95
420.0291 3.27
421.1794 1.92
516.1339 487.11
