>compound MLS000595399-01![3-(2-Chloro-phenothiazin-10-yl)-propyl]-dimethyl-ammonium
>formula C17H19ClN2S
>ionization [M+H]+
>parentmass 319.101807
#inchi InChI=1S/C17H19ClN2S/c1-19(2)10-5-11-20-14-6-3-4-7-16(14)21-17-9-8-13(18)12-15(17)20/h3-4,6-9,12H,5,10-11H2,1-2H3
#inchikey ZPEIMTDSQAKGNT
#origInchi InChI=1S/C17H19ClN2S.ClH/c1-19(2)10-5-11-20-14-6-3-4-7-16(14)21-17-9-8-13(18)12-15(17)20;/h3-4,6-9,12H,5,10-11H2,1-2H3;1H
#Ion_Source LC-ESI
#Instrument qTof
#Compound_Source NIH Pharmacologically Active Library
#PI Dorrestein
#Data_Collector VP/LMS
#Scan -1
#Precursor_MZ 319.104
#ExactMass 319.104
#Charge 1
#CAS_Number N/A
#Pubmed_ID N/A
#Smiles C[NH+](C)CCCN1c2ccccc2Sc3ccc(Cl)cc13.[Cl-]
#INCHI_AUX N/A
#Library_Class 1
#SpectrumID CCMSLIB00000086138
#IonMode Positive
#UpdateWorkflowName UPDATE-SINGLE-ANNOTATED-GOLD
#LibraryQualityString Gold
#TaskID d252d724072548979f1f6f1ced849daf
##Scan# 1816
#SpectrumFile p5-F04_GF4_01_18467.mzXML
#LibraryName Pharm_Active_Library.mgf
#MQScore -1
#Organism Pharm_Active_Library
#TIC_Query 0
#RT_Query -1
#MZErrorPPM -1
#SharedPeaks 0
#MassDiff 0
#LibMZ -1
#SpecMZ 319.104
#SpecCharge 0
#internalFilename spec-00000.mgf

>collision 0
130.0659 0.73
154.065 0.89
166.0655 0.99
177.058 0.74
178.0644 2.49
179.0723 1.89
184.0334 2.26
198.0377 8.62
201.034 3.61
204.0802 2.26
205.0898 1.64
206.097 6.89
209.0287 0.89
210.0366 6.58
211.0457 36.69
213.0348 9.45
214.0429 100.0
223.0458 1.3
224.054 6.12
233.0066 16.51
238.0678 10.7
239.0769 38.95
241.0656 5.38
246.0142 57.15
274.0436 4.06
319.1018 3.19
