>compound MLS000860061-01!SKF-89976A
>formula C22H25NO2
>ionization [M+H]+
>parentmass 336.196655
#inchi InChI=1S/C22H25NO2/c24-22(25)20-13-7-15-23(17-20)16-8-14-21(18-9-3-1-4-10-18)19-11-5-2-6-12-19/h1-6,9-12,14,20H,7-8,13,15-17H2,(H,24,25)
#inchikey TXQKSMSLZVKQBI
#origInchi InChI=1S/C22H25NO2.ClH/c24-22(25)20-13-7-15-23(17-20)16-8-14-21(18-9-3-1-4-10-18)19-11-5-2-6-12-19;/h1-6,9-12,14,20H,7-8,13,15-17H2,(H,24,25);1H
#Ion_Source LC-ESI
#Instrument qTof
#Compound_Source NIH Pharmacologically Active Library
#PI Dorrestein
#Data_Collector VP/LMS
#Scan -1
#Precursor_MZ 336.202
#ExactMass 335.189
#Charge 1
#CAS_Number N/A
#Pubmed_ID N/A
#Smiles OC(=O)C1CCCN(CCC=C(c2ccccc2)c3ccccc3)C1.Cl
#INCHI_AUX N/A
#Library_Class 1
#SpectrumID CCMSLIB00000085445
#IonMode Positive
#UpdateWorkflowName UPDATE-SINGLE-ANNOTATED-GOLD
#LibraryQualityString Gold
#TaskID d252d724072548979f1f6f1ced849daf
##Scan# 1760
#SpectrumFile p4-B02_GB2_01_18338.mzXML
#LibraryName Pharm_Active_Library.mgf
#MQScore -1
#Organism Pharm_Active_Library
#TIC_Query 0
#RT_Query -1
#MZErrorPPM -1
#SharedPeaks 0
#MassDiff 0
#LibMZ -1
#SpecMZ 336.202
#SpecCharge 0
#internalFilename spec-00000.mgf

>collision 0
91.0555 14.72
96.0821 0.44
102.0472 0.73
103.0552 6.5
105.07 0.58
108.0802 0.41
115.0545 1.2
122.0963 0.9
123.1039 0.47
126.0461 1.86
127.055 10.8
128.0633 68.47
129.0713 100.0
141.0685 0.26
142.0867 5.55
145.0645 2.97
150.0908 0.4
152.0624 0.67
153.0699 0.55
165.0699 4.63
166.0777 6.87
167.0844 3.61
168.1017 6.65
179.0843 3.39
181.1012 4.88
191.0864 0.58
192.0935 1.72
198.1279 0.25
207.1152 1.95
258.1475 0.58
318.1841 1.54
336.1955 21.44
