>compound MLS001201740-01!
>formula C14H18N4O3
>ionization [M+H]+
>parentmass 291.143829
#inchi InChI=1S/C14H18N4O3/c1-19-10-5-8(6-11(20-2)12(10)21-3)4-9-7-17-14(16)18-13(9)15/h5-7H,4H2,1-3H3,(H4,15,16,17,18)
#inchikey IEDVJHCEMCRBQM
#Ion_Source LC-ESI
#Instrument qTof
#Compound_Source NIH Pharmacologically Active Library
#PI Dorrestein
#Data_Collector VP/LMS
#Scan -1
#Precursor_MZ 291.145
#ExactMass 290.138
#Charge 1
#CAS_Number N/A
#Pubmed_ID N/A
#Smiles COc1cc(Cc2cnc(N)nc2N)cc(OC)c1OC
#INCHI_AUX N/A
#Library_Class 1
#SpectrumID CCMSLIB00000085074
#IonMode Positive
#UpdateWorkflowName UPDATE-SINGLE-ANNOTATED-GOLD
#LibraryQualityString Gold
#TaskID d252d724072548979f1f6f1ced849daf
##Scan# 1255
#SpectrumFile p3-E06_GE6_01_18275.mzXML
#LibraryName Pharm_Active_Library.mgf
#MQScore -1
#Organism Pharm_Active_Library
#TIC_Query 0
#RT_Query -1
#MZErrorPPM -1
#SharedPeaks 0
#MassDiff 0
#LibMZ -1
#SpecMZ 291.145
#SpecCharge 0
#internalFilename spec-00000.mgf

>collision 0
135.0431 2.11
135.0651 2.3
137.0584 2.43
142.0631 2.38
145.0509 2.4
146.0689 1.81
149.0717 3.71
151.037 5.28
161.0793 5.82
175.0614 2.43
175.0968 2.25
181.0856 2.65
184.0842 2.33
185.079 2.11
187.0964 11.95
199.0954 3.06
201.1121 19.75
202.117 6.11
203.0929 4.02
218.0795 2.83
229.1074 35.59
230.1147 42.74
231.0871 7.7
232.0939 15.26
233.1013 29.24
244.0734 1.82
245.1021 58.03
247.0805 9.06
247.1168 13.0
257.1036 42.6
259.0808 10.46
259.1178 2.76
260.0886 1.79
261.0982 100.0
275.1134 60.46
291.1446 28.78
