>compound MLS000876814-01!13,15-dihydroxy-5-methyl-4-oxabicyclo[10.4.0]hexadeca-1(16),9,12,14-tetraene-3,11-dione
>formula C16H18O5
>ionization [M+H]+
>parentmass 291.121735
#inchi InChI=1S/C16H18O5/c1-10-5-3-2-4-6-13(18)16-11(8-15(20)21-10)7-12(17)9-14(16)19/h4,6-7,9-10,17,19H,2-3,5,8H2,1H3
#inchikey AVIRMQMUBGNCKS
#Ion_Source LC-ESI
#Instrument qTof
#Compound_Source NIH Natural Product Library
#PI Dorrestein
#Data_Collector VVP/LMS
#Scan -1
#Precursor_MZ 291.123
#ExactMass 290.115
#Charge 1
#CAS_Number N/A
#Pubmed_ID N/A
#Smiles CC1CCCC=CC(=O)c2c(O)cc(O)cc2CC(=O)O1
#INCHI_AUX N/A
#Library_Class 1
#SpectrumID CCMSLIB00000079481
#IonMode Positive
#UpdateWorkflowName UPDATE-SINGLE-ANNOTATED-GOLD
#LibraryQualityString Gold
#TaskID b1d8e8f6646f4e71acdff9ca3d919d08
##Scan# 2128
#SpectrumFile p1-H06_GH6_01_17962.mzXML
#LibraryName NIH_Natural_Products_Library.mgf
#MQScore -1
#Organism NIH_Natural_Products_Library
#TIC_Query 0
#RT_Query -1
#MZErrorPPM -1
#SharedPeaks 0
#MassDiff 0
#LibMZ -1
#SpecMZ 291.123
#SpecCharge 0
#internalFilename spec-00000.mgf

>collision 0
104.0624 3.8
116.0626 2.37
119.0854 3.01
129.0705 9.39
130.041 2.53
131.0491 3.11
141.0697 3.8
144.0558 4.85
147.0456 2.74
161.0605 6.91
161.0966 2.37
162.0664 4.17
175.0739 11.13
176.0473 4.06
177.0533 7.02
185.0581 3.48
189.0563 3.43
190.0626 21.85
203.0702 100.0
217.0867 5.7
233.1181 2.64
291.1217 12.19
