>compound BIBR-1048 (Dabigatran)
>formula C34H41N7O5
>ionization [M+H]+
>parentmass 628.324646
#inchi InChI=1S/C34H41N7O5/c1-4-6-7-10-21-46-34(44)39-32(35)24-12-15-26(16-13-24)37-23-30-38-27-22-25(14-17-28(27)40(30)3)33(43)41(20-18-31(42)45-5-2)29-11-8-9-19-36-29/h8-9,11-17,19,22,37H,4-7,10,18,20-21,23H2,1-3H3,(H2,35,39,44)
#inchikey KSGXQBZTULBEEQ
#Ion_Source LC-ESI
#Instrument qTof
#Compound_Source Commercial
#PI Dorrestein
#Data_Collector Garg_Neha
#Scan -1
#Precursor_MZ 628.324
#ExactMass 627.317
#Charge 1
#CAS_Number 211915-06-9, 872728-81-9 (methanesulfonate), 1019206-66-6 (HCl)
#Pubmed_ID N/A
#Smiles C1(=CC=C(C=C1)NCC2N(C3=C(N=2)C=C(C=C3)C(N(CCC(OCC)=O)C4=CC=CC=N4)=O)C)/C(=N\C(OCCCCCC)=O)N
#INCHI_AUX N/A
#Library_Class 1
#SpectrumID CCMSLIB00000078455
#IonMode Positive
#UpdateWorkflowName UPDATE-SINGLE-ANNOTATED-GOLD
#LibraryQualityString Gold
#TaskID 77f51c88eb8b467eb4a01dd2d0cb90d2
##Scan# 1172
#SpectrumFile Plate7_21_40_GD3_01_15768.mzXML
#LibraryName FDALibrary_2_04302014.mgf
#MQScore -1
#Organism FDALibrary_2_04302014
#TIC_Query 0
#RT_Query -1
#MZErrorPPM -1
#SharedPeaks 0
#MassDiff 0
#LibMZ -1
#SpecMZ 628.324
#SpecCharge 0
#internalFilename spec-00000.mgf

>collision 0
144.0655 1.46
172.0634 6.27
173.0708 2.66
189.0659 11.22
190.0712 3.41
263.1284 1.62
264.1016 6.31
265.1089 2.52
273.1601 45.42
289.1087 100.0
290.1123 28.44
291.1152 2.09
293.1062 1.58
306.1347 3.96
307.1219 2.13
324.1428 0.95
332.114 25.54
333.1174 7.87
350.1251 1.93
351.1281 1.7
365.1628 6.92
366.1632 2.43
434.2184 18.5
435.2221 6.19
483.2112 1.18
500.2425 1.01
526.2211 28.22
541.239 0.99
628.3264 104.97
