>compound ORLISTAT
>formula C29H53NO5
>ionization [M+H]+
>parentmass 496.4
#inchi InChI=1S/C29H53NO5/c1-5-7-9-11-12-13-14-15-16-18-24(34-29(33)26(30-22-31)20-23(3)4)21-27-25(28(32)35-27)19-17-10-8-6-2/h22-27H,5-21H2,1-4H3,(H,30,31)/t24-,25-,26-,27-/m0/s1
#inchikey AHLBNYSZXLDEJQ
#Ion_Source LC-ESI
#Instrument qTof
#Compound_Source Commercial
#PI Dorrestein
#Data_Collector Garg_Neha
#Scan -1
#Precursor_MZ 496.4
#ExactMass 495.392
#Charge 1
#CAS_Number N/A
#Pubmed_ID N/A
#Smiles CCCCCCCCCCC[C@@H](C[C@@H]1OC(=O)[C@H]1CCCCCC)OC(=O)[C@H](CC(C)C)NC=O
#INCHI_AUX N/A
#Library_Class 1
#SpectrumID CCMSLIB00000079005
#IonMode Positive
#UpdateWorkflowName UPDATE-SINGLE-ANNOTATED-GOLD
#LibraryQualityString Gold
#TaskID 278b19f5865741e282cec7349aa7e7a1
##Scan# 4422
#SpectrumFile NCP003352_E2_F11_BC6_01_15720.mzXML
#LibraryName NIHcollectionI_05062014.mgf
#MQScore -1
#Organism NIHcollectionI_05062014
#TIC_Query 0
#RT_Query -1
#MZErrorPPM -1
#SharedPeaks 0
#MassDiff 0
#LibMZ -1
#SpecMZ 496.4
#SpecCharge 0
#internalFilename spec-00000.mgf

>collision 0
95.0862 5.26
97.1027 3.37
109.1009 7.26
110.1071 1.33
111.1177 2.42
119.0858 1.66
121.1025 1.27
123.1172 5.29
125.1332 1.85
127.1112 1.27
133.1019 2.71
135.1164 1.32
137.1326 3.73
149.1328 2.59
151.1486 6.59
165.1633 3.44
177.164 1.43
179.144 3.94
179.18 3.11
189.1619 1.49
191.1787 4.47
193.196 20.22
207.1756 1.93
211.2076 5.85
217.1952 2.84
219.2116 1.68
221.1906 2.67
237.2202 1.3
245.2271 2.53
291.3073 13.56
292.3104 4.53
301.2904 16.76
319.3017 100.0
320.3045 27.05
337.3117 45.7
496.4048 3.75
