>compound URAPIDIL HYDROCHLORIDE
>formula C20H29N5O3
>ionization [M+H]+
>parentmass 388.23431624009055
#inchi InChI=1S/C20H29N5O3/c1-22-18(15-19(26)23(2)20(22)27)21-9-6-10-24-11-13-25(14-12-24)16-7-4-5-8-17(16)28-3/h4-5,7-8,15,21H,6,9-14H2,1-3H3
#inchikey ICMGLRUYEQNHPF
#Ion_Source LC-ESI
#Instrument qTof
#Compound_Source Commercial
#PI Dorrestein
#Data_Collector Garg_Neha
#Scan -1
#Precursor_MZ 388.234
#ExactMass 387.227
#Charge 1
#CAS_Number N/A
#Pubmed_ID N/A
#Smiles COc1ccccc1N2CCN(CCCNc3cc(=O)n(C)c(=O)n3C)CC2
#INCHI_AUX N/A
#Library_Class 1
#SpectrumID CCMSLIB00000079194
#IonMode Positive
#UpdateWorkflowName UPDATE-SINGLE-ANNOTATED-GOLD
#LibraryQualityString Gold
#TaskID 278b19f5865741e282cec7349aa7e7a1
##Scan# 1013
#SpectrumFile NCP003592_E2_F11_BE2_01_15736.mzXML
#LibraryName NIHcollectionI_05062014.mgf
#MQScore -1
#Organism NIHcollectionI_05062014
#TIC_Query 0
#RT_Query -1
#MZErrorPPM -1
#SharedPeaks 0
#MassDiff 0
#LibMZ -1
#SpecMZ 388.234
#SpecCharge 0
#internalFilename spec-00000.mgf

>collision 0
111.0548 0.96
118.0664 0.76
134.0597 3.99
136.0755 1.4
139.0867 9.5
141.0658 13.07
146.0847 1.35
147.067 0.92
148.0759 2.04
150.0914 8.63
162.0918 19.35
168.0776 9.16
175.087 2.19
176.1053 0.92
189.1022 3.13
190.1108 100.0
193.1331 3.6
194.0932 1.11
196.1086 78.51
203.1173 5.76
205.1344 78.64
219.1494 32.55
231.1509 1.92
233.1655 53.84
239.1509 1.87
248.1749 8.48
276.1689 1.08
388.2375 465.5
