>compound NABUMETONE
>formula C15H16O2 
>ionization [M+H]+
>parentmass 229.122208
#inchi InChI=1S/C15H16O2/c1-11(16)3-4-12-5-6-14-10-15(17-2)8-7-13(14)9-12/h5-10H,3-4H2,1-2H3
#inchikey BLXXJMDCKKHMKV
#Ion_Source LC-ESI
#Instrument qTof
#Compound_Source Commercial
#PI Dorrestein
#Data_Collector Garg_Neha
#Scan -1
#Precursor_MZ 229.123
#ExactMass 228.115
#Charge 1
#CAS_Number N/A
#Pubmed_ID N/A
#Smiles N/A
#INCHI_AUX N/A
#Library_Class 1
#SpectrumID CCMSLIB00000077055
#IonMode Positive
#UpdateWorkflowName UPDATE-SINGLE-ANNOTATED-GOLD
#LibraryQualityString Gold
#TaskID 48f7f52fc6d249b5abbcc6e7b3df5969
##Scan# 1823
#SpectrumFile NCP003017_E2_F11_BA8_01_15703.mzXML
#LibraryName NIH_Clinical_Collection_2.mgf
#MQScore -1
#Organism NIHcollection2_04212014_2_mgf
#TIC_Query 0
#RT_Query -1
#MZErrorPPM -1
#SharedPeaks 0
#MassDiff 0
#LibMZ -1
#SpecMZ 229.123
#SpecCharge 0
#internalFilename spec-00000.mgf

>collision 0
126.0459 0.44
128.0619 4.06
141.0709 0.33
156.0574 2.13
171.0811 100.0
229.1222 1.67
