>compound MLS001401361-01!Flurbiprofen5104-49-4
>formula C15H13FO2
>ionization [M+H]+
>parentmass 245.099
#inchi InChI=1S/C15H13FO2/c1-10(15(17)18)12-7-8-13(14(16)9-12)11-5-3-2-4-6-11/h2-10H,1H3,(H,17,18)
#inchikey SYTBZMRGLBWNTM
#Ion_Source LC-ESI
#Instrument qTof
#Compound_Source NIH Pharmacologically Active Library
#PI Dorrestein
#Data_Collector VP/LMS
#Scan -1
#Precursor_MZ 245.099
#ExactMass 244.09
#Charge 1
#CAS_Number N/A
#Pubmed_ID N/A
#Smiles CC(C(=O)O)c1ccc(c(F)c1)c2ccccc2
#INCHI_AUX N/A
#Library_Class 1
#SpectrumID CCMSLIB00000085682
#IonMode Positive
#UpdateWorkflowName UPDATE-SINGLE-ANNOTATED-GOLD
#LibraryQualityString Gold
#TaskID d252d724072548979f1f6f1ced849daf
##Scan# 2199
#SpectrumFile p4-E03_GE3_01_18375.mzXML
#LibraryName Pharm_Active_Library.mgf
#MQScore -1
#Organism Pharm_Active_Library
#TIC_Query 0
#RT_Query -1
#MZErrorPPM -1
#SharedPeaks 0
#MassDiff 0
#LibMZ -1
#SpecMZ 245.099
#SpecCharge 0
#internalFilename spec-00000.mgf

>collision 0
103.0552 2.17
133.0434 1.92
151.055 4.27
152.0636 5.09
159.0599 2.15
177.0692 11.9
178.0775 100.0
183.059 37.27
184.0673 35.38
198.0837 1.87
199.0898 27.09
245.099 0.0
