>compound MLS000863597-01!(4,7,7-trimethyl-3-bicyclo[2.2.1]heptanyl) (E)-3-(4-hydroxy-3-methoxyphenyl)prop-2-enoate
>formula C20H26O4
>ionization [M+H]+
>parentmass 331.191
#inchi InChI=1S/C20H26O4/c1-19(2)14-9-10-20(19,3)17(12-14)24-18(22)8-6-13-5-7-15(21)16(11-13)23-4/h5-8,11,14,17,21H,9-10,12H2,1-4H3/b8-6+
#inchikey PKAIECBWQZFYRP
#Ion_Source LC-ESI
#Instrument qTof
#Compound_Source NIH Natural Product Library
#PI Dorrestein
#Data_Collector VVP/LMS
#Scan -1
#Precursor_MZ 331.191
#ExactMass 330.183
#Charge 1
#CAS_Number N/A
#Pubmed_ID N/A
#Smiles COc1cc(/C=C/C(=O)OC2CC3CCC2(C)C3(C)C)ccc1O
#INCHI_AUX N/A
#Library_Class 1
#SpectrumID CCMSLIB00000080294
#IonMode Positive
#UpdateWorkflowName UPDATE-SINGLE-ANNOTATED-GOLD
#LibraryQualityString Gold
#TaskID b1d8e8f6646f4e71acdff9ca3d919d08
##Scan# 2729
#SpectrumFile p2-G06_GG6_01_18054.mzXML
#LibraryName NIH_Natural_Products_Library.mgf
#MQScore -1
#Organism NIH_Natural_Products_Library
#TIC_Query 0
#RT_Query -1
#MZErrorPPM -1
#SharedPeaks 0
#MassDiff 0
#LibMZ -1
#SpecMZ 331.191
#SpecCharge 0
#internalFilename spec-00000.mgf

>collision 0
95.0857 14.78
96.0924 5.94
117.0342 44.61
134.0364 7.04
137.1325 36.46
145.0288 36.74
149.0587 13.95
162.0312 9.94
177.0557 100.0
331.191 0.0
