>compound MLS001148257-01!(+)-CIS-DILTIAZEM HYDROCHLORIDE
>formula C22H26N2O4S
>ionization [M+H]+
>parentmass 415.167206
#inchi InChI=1S/C22H26N2O4S/c1-15(25)28-20-21(16-9-11-17(27-4)12-10-16)29-19-8-6-5-7-18(19)24(22(20)26)14-13-23(2)3/h5-12,20-21H,13-14H2,1-4H3/t20-,21+/m1/s1
#inchikey HSUGRBWQSSZJOP
#origInchi InChI=1S/C22H26N2O4S.ClH/c1-15(25)28-20-21(16-9-11-17(27-4)12-10-16)29-19-8-6-5-7-18(19)24(22(20)26)14-13-23(2)3;/h5-12,20-21H,13-14H2,1-4H3;1H/t20-,21+;/m1./s1
#Ion_Source LC-ESI
#Instrument qTof
#Compound_Source NIH Pharmacologically Active Library
#PI Dorrestein
#Data_Collector VP/LMS
#Scan -1
#Precursor_MZ 415.161
#ExactMass 414.161
#Charge 1
#CAS_Number N/A
#Pubmed_ID N/A
#Smiles COc1ccc(cc1)[C@@H]2Sc3ccccc3N(CCN(C)C)C(=O)[C@@H]2OC(=O)C.Cl
#INCHI_AUX N/A
#Library_Class 1
#SpectrumID CCMSLIB00000085377
#IonMode Positive
#UpdateWorkflowName UPDATE-SINGLE-ANNOTATED-GOLD
#LibraryQualityString Gold
#TaskID d252d724072548979f1f6f1ced849daf
##Scan# 1696
#SpectrumFile p3-H11_GH11_01_18316.mzXML
#LibraryName Pharm_Active_Library.mgf
#MQScore -1
#Organism Pharm_Active_Library
#TIC_Query 0
#RT_Query -1
#MZErrorPPM -1
#SharedPeaks 0
#MassDiff 0
#LibMZ -1
#SpecMZ 415.161
#SpecCharge 0
#internalFilename spec-00000.mgf

>collision 0
109.0109 15.95
110.0144 1.28
118.0635 0.86
121.0646 1.73
133.0656 0.2
135.0133 0.33
136.0215 0.44
146.0603 0.22
148.02 0.43
149.0256 0.31
149.0588 0.5
150.0381 56.68
151.0399 5.44
164.0157 0.3
174.0365 1.08
175.0407 0.24
178.0331 100.0
179.0355 14.12
181.0315 0.55
191.04 3.48
192.0445 1.07
234.0582 0.34
267.0721 0.27
295.0635 0.34
310.0897 4.74
312.1042 0.69
328.1024 0.99
370.1099 0.58
415.1672 0.44
