>compound LOBELINE HYDROCHLORIDE
>formula C22H27NO2
>ionization [M+H]+
>parentmass 338.211
#inchi InChI=1S/C22H27NO2/c1-23-19(15-21(24)17-9-4-2-5-10-17)13-8-14-20(23)16-22(25)18-11-6-3-7-12-18/h2-7,9-12,19-21,24H,8,13-16H2,1H3/t19-,20+,21-/m0/s1
#inchikey MXYUKLILVYORSK
#Ion_Source LC-ESI
#Instrument qTof
#Compound_Source Commercial
#PI Dorrestein
#Data_Collector Garg_Neha
#Scan -1
#Precursor_MZ 338.211
#ExactMass 337.204
#Charge 1
#CAS_Number N/A
#Pubmed_ID N/A
#Smiles CN1[C@H](C[C@H](O)c2ccccc2)CCC[C@@H]1CC(=O)c3ccccc3
#INCHI_AUX N/A
#Library_Class 1
#SpectrumID CCMSLIB00000079165
#IonMode Positive
#UpdateWorkflowName UPDATE-SINGLE-ANNOTATED-GOLD
#LibraryQualityString Gold
#TaskID 278b19f5865741e282cec7349aa7e7a1
##Scan# 1157
#SpectrumFile NCP003592_C2_D11_BE1_01_15735.mzXML
#LibraryName NIHcollectionI_05062014.mgf
#MQScore -1
#Organism NIHcollectionI_05062014
#TIC_Query 0
#RT_Query -1
#MZErrorPPM -1
#SharedPeaks 0
#MassDiff 0
#LibMZ -1
#SpecMZ 338.211
#SpecCharge 0
#internalFilename spec-00000.mgf

>collision 0
91.0554 0.47
94.0653 3.08
96.0818 44.57
105.0337 12.61
107.0501 1.21
109.0883 1.0
114.0915 2.36
117.0693 0.7
128.0617 2.24
131.0846 0.8
141.0704 0.71
143.0855 7.17
157.1025 0.35
159.0801 1.24
174.1266 0.63
185.0955 0.5
198.128 0.5
200.143 27.37
216.138 73.3
218.1539 100.0
320.1992 28.58
338.2079 0.0
