>compound MLS002153904-01!Hydrocotarnine hydrobromide5985-00-2
>formula C12H15NO3
>ionization [M+H]+
>parentmass 222.111664
#inchi InChI=1S/C12H15NO3/c1-13-4-3-8-5-10-12(16-7-15-10)11(14-2)9(8)6-13/h5H,3-4,6-7H2,1-2H3
#inchikey XXANNZJIZQTCBP
#origInchi InChI=1S/C12H15NO3.BrH/c1-13-4-3-8-5-10-12(16-7-15-10)11(14-2)9(8)6-13;/h5H,3-4,6-7H2,1-2H3;1H
#Ion_Source LC-ESI
#Instrument qTof
#Compound_Source NIH Pharmacologically Active Library
#PI Dorrestein
#Data_Collector VP/LMS
#Scan -1
#Precursor_MZ 222.118
#ExactMass 221.105
#Charge 1
#CAS_Number N/A
#Pubmed_ID N/A
#Smiles COc1c2OCOc2cc3CCN(C)Cc13.Br
#INCHI_AUX N/A
#Library_Class 1
#SpectrumID CCMSLIB00000085550
#IonMode Positive
#UpdateWorkflowName UPDATE-SINGLE-ANNOTATED-GOLD
#LibraryQualityString Gold
#TaskID d252d724072548979f1f6f1ced849daf
##Scan# 1197
#SpectrumFile p4-C06_GC6_01_18354.mzXML
#LibraryName Pharm_Active_Library.mgf
#MQScore -1
#Organism Pharm_Active_Library
#TIC_Query 0
#RT_Query -1
#MZErrorPPM -1
#SharedPeaks 0
#MassDiff 0
#LibMZ -1
#SpecMZ 222.118
#SpecCharge 0
#internalFilename spec-00000.mgf

>collision 0
91.0546 8.77
93.0706 2.45
103.0545 2.49
105.0326 2.59
105.0698 7.8
106.0664 4.26
107.049 6.79
108.0565 3.52
115.0542 3.09
117.0561 6.01
118.0415 5.39
119.0479 4.69
120.057 4.8
120.0806 2.18
121.0631 14.08
123.0432 2.78
123.0803 2.47
132.0818 6.83
133.0286 3.54
133.0645 12.41
134.0602 10.43
135.0802 18.56
136.0537 6.3
146.0591 2.76
147.043 3.27
148.0517 5.99
148.0761 4.9
149.0597 9.94
149.0825 10.04
151.0385 6.52
151.076 8.62
160.0766 5.19
161.0592 4.47
161.0838 4.16
163.0393 4.9
163.0762 8.97
164.0465 15.29
164.1067 11.28
165.055 15.97
176.0701 3.89
177.0775 4.45
178.0632 9.53
179.0708 100.0
191.071 3.66
191.0942 8.15
192.0643 4.16
192.1016 7.59
193.0858 37.39
206.0811 3.17
207.0897 8.46
222.1124 20.62
