>compound S(-)-Timolol maleate
>formula C13H24N4O3S 
>ionization [M+H]+
>parentmass 317.1641880800905
#inchi InChI=1S/C13H24N4O3S/c1-13(2,3)14-8-10(18)9-20-12-11(15-21-16-12)17-4-6-19-7-5-17/h10,14,18H,4-9H2,1-3H3/t10-/m0/s1
#inchikey BLJRIMJGRPQVNF
#Ion_Source LC-ESI
#Instrument qTof
#Compound_Source Commercial
#PI Dorrestein
#Data_Collector Garg_Neha
#Scan -1
#Precursor_MZ 317.166
#ExactMass 316.157
#Charge 1
#CAS_Number N/A
#Pubmed_ID N/A
#Smiles N/A
#INCHI_AUX N/A
#Library_Class 1
#SpectrumID CCMSLIB00000077038
#IonMode Positive
#UpdateWorkflowName UPDATE-SINGLE-ANNOTATED-GOLD
#LibraryQualityString Gold
#TaskID 48f7f52fc6d249b5abbcc6e7b3df5969
##Scan# 1047
#SpectrumFile NCP003017_A2_B11_BA6_01_15701.mzXML
#LibraryName NIH_Clinical_Collection_2.mgf
#MQScore -1
#Organism NIHcollection2_04212014_2_mgf
#TIC_Query 0
#RT_Query -1
#MZErrorPPM -1
#SharedPeaks 0
#MassDiff 0
#LibMZ -1
#SpecMZ 317.166
#SpecCharge 0
#internalFilename spec-00000.mgf

>collision 0
113.0707 1.76
144.0224 8.92
145.0434 2.13
170.0389 0.39
172.0546 1.36
188.0492 33.3
200.0483 1.39
226.0645 0.23
243.0917 1.77
244.0759 25.24
261.103 100.0
317.1667 140.9
