>compound MLS000701318-01!1-phenyl-1H-1,2,3-benzotriazole
>formula C12H9N3
>ionization [M+H]+
>parentmass 196.085876
#inchi InChI=1S/C12H9N3/c1-2-6-10(7-3-1)15-12-9-5-4-8-11(12)13-14-15/h1-9H
#inchikey ZBJLUVHQIPUCPM
#Ion_Source LC-ESI
#Instrument qTof
#Compound_Source NIH Pharmacologically Active Library
#PI Dorrestein
#Data_Collector VP/LMS
#Scan -1
#Precursor_MZ 196.088
#ExactMass 195.08
#Charge 1
#CAS_Number N/A
#Pubmed_ID N/A
#Smiles c1ccc(cc1)n2nnc3ccccc23
#INCHI_AUX N/A
#Library_Class 1
#SpectrumID CCMSLIB00000085754
#IonMode Positive
#UpdateWorkflowName UPDATE-SINGLE-ANNOTATED-GOLD
#LibraryQualityString Gold
#TaskID d252d724072548979f1f6f1ced849daf
##Scan# 2047
#SpectrumFile p4-F02_GF2_01_18386.mzXML
#LibraryName Pharm_Active_Library.mgf
#MQScore -1
#Organism Pharm_Active_Library
#TIC_Query 0
#RT_Query -1
#MZErrorPPM -1
#SharedPeaks 0
#MassDiff 0
#LibMZ -1
#SpecMZ 196.088
#SpecCharge 0
#internalFilename spec-00000.mgf

>collision 0
101.0383 0.54
115.0534 4.18
126.0472 0.3
128.0494 1.46
139.0531 10.14
141.0687 4.48
166.0643 22.22
167.0723 100.0
196.0859 18.7
