>compound MLS001075524-01!
>formula C24H29N3O5
>ionization [M+H]+
>parentmass 440.218658
#inchi InChI=1S/C24H29N3O5/c1-31-20-7-3-5-17(24(20)32-2)12-25-21(28)9-10-22(29)26-13-16-11-18(15-26)19-6-4-8-23(30)27(19)14-16/h3-8,16,18H,9-15H2,1-2H3,(H,25,28)/t16-,18-/m1/s1
#inchikey VVWYWMYOKKCUAB
#Ion_Source LC-ESI
#Instrument qTof
#Compound_Source NIH Natural Product Library
#PI Dorrestein
#Data_Collector VVP/LMS
#Scan -1
#Precursor_MZ 440.219
#ExactMass 439.211
#Charge 1
#CAS_Number N/A
#Pubmed_ID N/A
#Smiles COc1cccc(CNC(=O)CCC(=O)N2C[C@H]3C[C@H](C2)c4cccc(=O)n4C3)c1OC
#INCHI_AUX N/A
#Library_Class 1
#SpectrumID CCMSLIB00000079571
#IonMode Positive
#UpdateWorkflowName UPDATE-SINGLE-ANNOTATED-GOLD
#LibraryQualityString Gold
#TaskID b1d8e8f6646f4e71acdff9ca3d919d08
##Scan# 1621
#SpectrumFile p1-C08_GC8_01_17904.mzXML
#LibraryName NIH_Natural_Products_Library.mgf
#MQScore -1
#Organism NIH_Natural_Products_Library
#TIC_Query 0
#RT_Query -1
#MZErrorPPM -1
#SharedPeaks 0
#MassDiff 0
#LibMZ -1
#SpecMZ 440.219
#SpecCharge 0
#internalFilename spec-00000.mgf

>collision 0
121.0654 0.68
123.0806 1.09
135.0433 5.83
136.0517 45.53
142.0656 0.38
146.0601 1.28
148.0754 3.64
151.0754 26.66
160.0757 4.85
172.0754 0.63
189.1028 1.62
191.1177 20.35
227.1196 1.66
245.1299 75.17
273.1253 100.0
397.2119 0.35
423.192 2.79
440.2216 0.34
