>compound Darunavir Ethanolate (Prezista)
>formula C27H37N3O7S
>ionization [M+Na]+
>parentmass 570.22522
#inchi InChI=1S/C27H37N3O7S/c1-18(2)15-30(38(33,34)21-10-8-20(28)9-11-21)16-24(31)23(14-19-6-4-3-5-7-19)29-27(32)37-25-17-36-26-22(25)12-13-35-26/h3-11,18,22-26,31H,12-17,28H2,1-2H3,(H,29,32)/t22-,23-,24+,25-,26+/m0/s1
#inchikey CJBJHOAVZSMMDJ
#origInchi InChI=1S/C27H37N3O7S.C2H6O/c1-18(2)15-30(38(33,34)21-10-8-20(28)9-11-21)16-24(31)23(14-19-6-4-3-5-7-19)29-27(32)37-25-17-36-26-22(25)12-13-35-26;1-2-3/h3-11,18,22-26,31H,12-17,28H2,1-2H3,(H,29,32);3H,2H2,1H3/t22-,23-,24+,25-,26+;/m0./s1
#Ion_Source LC-ESI
#Instrument qTof
#Compound_Source Commercial
#PI Dorrestein
#Data_Collector Garg_Neha
#Scan -1
#Precursor_MZ 570.224
#ExactMass 547.235
#Charge 1
#CAS_Number 635728-49-3
#Pubmed_ID N/A
#Smiles [C@@]12([C@]([C@@](CO1)([H])OC(N[C@](CC3=CC=CC=C3)([H])[C@](CN(CC(C)C)S(C4=CC=C(C=C4)N)(=O)=O)([H])O)=O)(CCO2)[H])[H].CCO
#INCHI_AUX N/A
#Library_Class 1
#SpectrumID CCMSLIB00000078212
#IonMode Positive
#UpdateWorkflowName UPDATE-SINGLE-ANNOTATED-GOLD
#LibraryQualityString Gold
#TaskID 77f51c88eb8b467eb4a01dd2d0cb90d2
##Scan# 1413
#SpectrumFile Plate3_41_60_GG11_01_16500.mzXML
#LibraryName FDALibrary_2_04302014.mgf
#MQScore -1
#Organism FDALibrary_2_04302014
#TIC_Query 0
#RT_Query -1
#MZErrorPPM -1
#SharedPeaks 0
#MassDiff 0
#LibMZ -1
#SpecMZ 570.224
#SpecCharge 0
#internalFilename spec-00000.mgf

>collision 0
157.0132 7.14
196.061 6.43
238.0736 13.71
239.0705 6.29
240.0757 7.71
285.0541 6.29
298.105 28.71
328.1187 32.86
329.1236 10.57
371.1585 33.86
372.1593 11.14
384.1103 6.57
394.1831 7.57
396.1679 9.43
397.1552 20.14
414.182 100.0
415.1797 15.43
416.1696 11.0
431.1283 7.57
440.157 29.43
441.1624 11.57
442.1393 8.29
458.1685 12.43
500.1849 9.29
511.1702 7.86
570.2216 1178.57
