>compound MLS000860022-01!R(+)-IAA-94
>formula C17H18Cl2O4
>ionization [M+H]+
>parentmass 357.06549086809054
#inchi InChI=1S/C17H18Cl2O4/c1-17(10-4-2-3-5-10)7-9-6-11(23-8-12(20)21)14(18)15(19)13(9)16(17)22/h6,10H,2-5,7-8H2,1H3,(H,20,21)/t17-/m1/s1
#inchikey RNOJGTHBMJBOSP
#Ion_Source LC-ESI
#Instrument qTof
#Compound_Source NIH Pharmacologically Active Library
#PI Dorrestein
#Data_Collector VP/LMS
#Scan -1
#Precursor_MZ 357.069
#ExactMass 356.058
#Charge 1
#CAS_Number N/A
#Pubmed_ID N/A
#Smiles C[C@@]1(Cc2cc(OCC(=O)O)c(Cl)c(Cl)c2C1=O)C3CCCC3
#INCHI_AUX N/A
#Library_Class 1
#SpectrumID CCMSLIB00000085818
#IonMode Positive
#UpdateWorkflowName UPDATE-SINGLE-ANNOTATED-GOLD
#LibraryQualityString Gold
#TaskID d252d724072548979f1f6f1ced849daf
##Scan# 2320
#SpectrumFile p4-F09_GF9_01_18393.mzXML
#LibraryName Pharm_Active_Library.mgf
#MQScore -1
#Organism Pharm_Active_Library
#TIC_Query 0
#RT_Query -1
#MZErrorPPM -1
#SharedPeaks 0
#MassDiff 0
#LibMZ -1
#SpecMZ 357.069
#SpecCharge 0
#internalFilename spec-00000.mgf

>collision 0
115.0542 12.75
116.0624 14.22
145.0654 70.82
149.0152 12.52
150.0237 12.95
151.0299 18.71
158.976 14.86
162.0233 25.7
167.0238 8.5
178.0181 28.18
179.0259 29.72
180.0333 95.48
189.0108 7.1
190.0189 8.07
195.0206 61.31
196.0283 24.67
196.9917 18.54
200.9885 12.55
208.0294 7.33
212.9866 33.6
219.066 10.48
224.9876 26.91
228.982 29.92
229.9889 15.29
230.9969 80.29
242.9974 34.2
253.0256 9.17
254.0325 28.35
270.9948 9.87
286.987 8.3
289.0037 100.0
357.0686 0.0
