>compound MLS000863635-01!6-[2-(1,3-benzodioxol-5-yl)ethyl]-4-methoxypyran-2-one
>formula C15H14O5
>ionization [M+H]+
>parentmass 275.092
#inchi InChI=1S/C15H14O5/c1-17-12-7-11(20-15(16)8-12)4-2-10-3-5-13-14(6-10)19-9-18-13/h3,5-8H,2,4,9H2,1H3
#inchikey BYHVZDRLSCCTND
#Ion_Source LC-ESI
#Instrument qTof
#Compound_Source NIH Natural Product Library
#PI Dorrestein
#Data_Collector VVP/LMS
#Scan -1
#Precursor_MZ 275.092
#ExactMass 274.084
#Charge 1
#CAS_Number N/A
#Pubmed_ID N/A
#Smiles COc1cc(CCc2ccc3OCOc3c2)oc(=O)c1
#INCHI_AUX N/A
#Library_Class 1
#SpectrumID CCMSLIB00000079608
#IonMode Positive
#UpdateWorkflowName UPDATE-SINGLE-ANNOTATED-GOLD
#LibraryQualityString Gold
#TaskID b1d8e8f6646f4e71acdff9ca3d919d08
##Scan# 2060
#SpectrumFile p1-G08_GG8_01_17952.mzXML
#LibraryName NIH_Natural_Products_Library.mgf
#MQScore -1
#Organism NIH_Natural_Products_Library
#TIC_Query 0
#RT_Query -1
#MZErrorPPM -1
#SharedPeaks 0
#MassDiff 0
#LibMZ -1
#SpecMZ 275.092
#SpecCharge 0
#internalFilename spec-00000.mgf

>collision 0
105.0324 3.91
121.0654 0.5
131.0489 0.76
135.0439 100.0
149.0609 0.47
190.0969 0.58
275.092 0.0
