>compound MLS002153393-01!(+/-)-PD 128,907 hydrochloride123594-64-9
>formula C14H19NO3
>ionization [M+H]+
>parentmass 250.143326
#inchi InChI=1S/C14H19NO3/c1-2-5-15-6-7-17-14-11-8-10(16)3-4-13(11)18-9-12(14)15/h3-4,8,12,14,16H,2,5-7,9H2,1H3/t12-,14-/m1/s1
#inchikey YOILXOMTHPUMRG
#origInchi InChI=1S/C14H19NO3.ClH/c1-2-5-15-6-7-17-14-11-8-10(16)3-4-13(11)18-9-12(14)15;/h3-4,8,12,14,16H,2,5-7,9H2,1H3;1H/t12-,14-;/m1./s1
#Ion_Source LC-ESI
#Instrument qTof
#Compound_Source NIH Pharmacologically Active Library
#PI Dorrestein
#Data_Collector VP/LMS
#Scan -1
#Precursor_MZ 250.147
#ExactMass 249.136
#Charge 1
#CAS_Number N/A
#Pubmed_ID N/A
#Smiles CCCN1CCO[C@H]2[C@H]1COc3ccc(O)cc23.Cl
#INCHI_AUX N/A
#Library_Class 1
#SpectrumID CCMSLIB00000085441
#IonMode Positive
#UpdateWorkflowName UPDATE-SINGLE-ANNOTATED-GOLD
#LibraryQualityString Gold
#TaskID d252d724072548979f1f6f1ced849daf
##Scan# 1144
#SpectrumFile p4-A10_GA10_01_18334.mzXML
#LibraryName Pharm_Active_Library.mgf
#MQScore -1
#Organism Pharm_Active_Library
#TIC_Query 0
#RT_Query -1
#MZErrorPPM -1
#SharedPeaks 0
#MassDiff 0
#LibMZ -1
#SpecMZ 250.147
#SpecCharge 0
#internalFilename spec-00000.mgf

>collision 0
91.0551 3.27
93.0716 2.8
103.0531 3.27
107.05 3.62
115.054 1.87
119.0503 8.46
121.065 6.71
123.0438 4.11
134.0606 2.31
135.0449 2.9
135.0677 1.87
147.0447 100.0
149.0582 9.52
161.061 1.8
162.0569 13.11
163.0637 14.61
164.0691 3.12
188.0707 1.75
190.0869 6.25
206.081 5.9
207.0891 8.63
208.0955 4.99
222.1488 2.71
250.1435 21.91
