>compound MLS002153512-01!CB 34
>formula C21H22Cl3N3O
>ionization [M+H]+
>parentmass 438.091461
#inchi InChI=1S/C21H22Cl3N3O/c1-3-9-26(10-4-2)19(28)12-18-20(14-5-7-15(22)8-6-14)25-21-17(24)11-16(23)13-27(18)21/h5-8,11,13H,3-4,9-10,12H2,1-2H3
#inchikey QYVWBXJKZUCSNI
#Ion_Source LC-ESI
#Instrument qTof
#Compound_Source NIH Pharmacologically Active Library
#PI Dorrestein
#Data_Collector VP/LMS
#Scan -1
#Precursor_MZ 438.096
#ExactMass 437.083
#Charge 1
#CAS_Number N/A
#Pubmed_ID N/A
#Smiles CCCN(CCC)C(=O)Cc1c(nc2c(Cl)cc(Cl)cn12)c3ccc(Cl)cc3
#INCHI_AUX N/A
#Library_Class 1
#SpectrumID CCMSLIB00000085741
#IonMode Positive
#UpdateWorkflowName UPDATE-SINGLE-ANNOTATED-GOLD
#LibraryQualityString Gold
#TaskID d252d724072548979f1f6f1ced849daf
##Scan# 2652
#SpectrumFile p4-E10_GE10_01_18382.mzXML
#LibraryName Pharm_Active_Library.mgf
#MQScore -1
#Organism Pharm_Active_Library
#TIC_Query 0
#RT_Query -1
#MZErrorPPM -1
#SharedPeaks 0
#MassDiff 0
#LibMZ -1
#SpecMZ 438.096
#SpecCharge 0
#internalFilename spec-00000.mgf

>collision 0
137.0145 0.6
138.0105 0.55
146.9626 1.5
149.0139 0.89
165.0067 0.65
172.9775 2.95
192.0196 0.62
239.036 3.8
267.0294 0.44
272.9972 11.32
274.0055 26.99
282.9576 1.58
300.9921 3.54
301.9997 7.31
302.9953 1.5
308.9755 91.07
309.9823 100.0
336.9702 83.81
396.0421 2.39
438.0915 67.96
