>compound MLS002153304-01!Rutaecarpine84-26-4
>formula C18H13N3O
>ionization [M+H]+
>parentmass 288.114044
#inchi InChI=1S/C18H13N3O/c22-18-13-6-2-4-8-15(13)20-17-16-12(9-10-21(17)18)11-5-1-3-7-14(11)19-16/h1-8,19H,9-10H2
#inchikey ACVGWSKVRYFWRP
#Ion_Source LC-ESI
#Instrument qTof
#Compound_Source NIH Pharmacologically Active Library
#PI Dorrestein
#Data_Collector VP/LMS
#Scan -1
#Precursor_MZ 288.117
#ExactMass 287.106
#Charge 1
#CAS_Number N/A
#Pubmed_ID N/A
#Smiles O=c1n2CCc3c([nH]c4ccccc34)-c2nc5ccccc15
#INCHI_AUX N/A
#Library_Class 1
#SpectrumID CCMSLIB00000084901
#IonMode Positive
#UpdateWorkflowName UPDATE-SINGLE-ANNOTATED-GOLD
#LibraryQualityString Gold
#TaskID d252d724072548979f1f6f1ced849daf
##Scan# 2246
#SpectrumFile p3-C05_GC5_01_18250.mzXML
#LibraryName Pharm_Active_Library.mgf
#MQScore -1
#Organism Pharm_Active_Library
#TIC_Query 0
#RT_Query -1
#MZErrorPPM -1
#SharedPeaks 0
#MassDiff 0
#LibMZ -1
#SpecMZ 288.117
#SpecCharge 0
#internalFilename spec-00000.mgf

>collision 0
92.0494 2.5
115.0539 25.89
116.0499 7.86
117.0453 8.0
118.065 3.91
119.0366 3.4
120.0442 21.83
128.0499 2.71
130.0269 3.41
130.0647 11.23
140.0489 8.82
142.0647 23.73
144.0448 6.06
144.0808 26.99
145.0398 34.01
146.0599 3.61
155.0616 5.65
157.0748 3.0
167.0605 17.55
169.0764 57.12
170.0607 10.03
171.0546 8.43
185.0707 6.07
190.0652 3.43
216.0812 14.45
218.0854 9.35
219.0921 8.23
231.0915 6.78
232.0984 8.17
235.0857 2.57
243.0914 26.39
244.0881 46.98
245.0938 20.68
253.076 2.77
260.1159 5.12
261.1022 9.98
262.0992 13.04
270.1026 10.53
271.0881 70.22
273.0905 100.0
288.1152 609.96
