>compound MLS001240277-01!Isonicotinic acid but-2-enylidene-hydrazide
>formula C10H11N3O
>ionization [M+H]+
>parentmass 190.097961
#inchi InChI=1S/C10H11N3O/c1-2-3-6-12-13-10(14)9-4-7-11-8-5-9/h2-8H,1H3,(H,13,14)/b3-2+,12-6?
#inchikey YLWYNCPRXFCNLQ
#Ion_Source LC-ESI
#Instrument qTof
#Compound_Source NIH Pharmacologically Active Library
#PI Dorrestein
#Data_Collector VP/LMS
#Scan -1
#Precursor_MZ 190.101
#ExactMass 189.09
#Charge 1
#CAS_Number N/A
#Pubmed_ID N/A
#Smiles C/C=C/C=NNC(=O)c1ccncc1
#INCHI_AUX N/A
#Library_Class 1
#SpectrumID CCMSLIB00000086043
#IonMode Positive
#UpdateWorkflowName UPDATE-SINGLE-ANNOTATED-GOLD
#LibraryQualityString Gold
#TaskID d252d724072548979f1f6f1ced849daf
##Scan# 1109
#SpectrumFile p5-C02_GC2_01_18447.mzXML
#LibraryName Pharm_Active_Library.mgf
#MQScore -1
#Organism Pharm_Active_Library
#TIC_Query 0
#RT_Query -1
#MZErrorPPM -1
#SharedPeaks 0
#MassDiff 0
#LibMZ -1
#SpecMZ 190.101
#SpecCharge 0
#internalFilename spec-00000.mgf

>collision 0
93.0444 3.55
105.0457 100.0
120.0558 4.87
121.0404 67.66
123.0557 17.94
146.0697 3.89
190.098 5.56
