>compound cyclo(L-Leu-L-Pro)
>formula C11H18N2O2 
>ionization [M+H]+
>parentmass 211.143723
#inchi InChI=1S/C11H18N2O2/c1-7(2)6-8-11(15)13-5-3-4-9(13)10(14)12-8/h7-9H,3-6H2,1-2H3,(H,12,14)
#inchikey SZJNCZMRZAUNQT
#Ion_Source DI-ESI
#Instrument qTof
#Compound_Source Isolated
#PI Keyzers
#Data_Collector R Keyzers
#Scan -1
#Precursor_MZ 211.145
#ExactMass 210.137
#Charge 1
#CAS_Number 2873-36-1
#Pubmed_ID N/A
#Smiles N/A
#INCHI_AUX N/A
#Library_Class 3
#SpectrumID CCMSLIB00000007049
#IonMode Positive
#UpdateWorkflowName UPDATE-SINGLE-ANNOTATED-BRONZE
#LibraryQualityString Bronze
#TaskID 76b66bf1ccd04cec9993212b36387ea3
##Scan# 4
#SpectrumFile CDB02_35I_pos_MSMS_003_2.mgf
#LibraryName gnps_library.mgf
#MQScore -1
#Organism test_rob_keyzers
#TIC_Query 0
#RT_Query -1
#MZErrorPPM -1
#SharedPeaks 0
#MassDiff 0
#LibMZ -1
#SpecMZ 211.145
#SpecCharge 0
#internalFilename spec-00000.mgf

>collision 0
43.0176 1.89
43.0557 1.79
45.0326 4.71
70.0653 100.0
71.0493 1.33
72.0463 13.1
85.1014 0.6
86.0973 16.82
89.06 11.65
95.0852 1.79
98.0595 8.45
119.0852 1.53
127.0862 4.36
138.1276 14.71
166.1241 0.96
183.1485 18.16
194.1174 0.97
211.145 106.22
