>compound NCGC00160220-01!VINCANIDINE
>formula C19H20N2O2
>ionization [M+H]+
>parentmass 309.158386
#inchi InChI=1S/C19H20N2O2/c1-2-11-9-21-7-6-19-14-4-3-5-15(23)17(14)20-18(19)13(10-22)12(11)8-16(19)21/h2-5,10,12,16,20,23H,6-9H2,1H3/b11-2-/t12-,16+,19-/m1/s1
#inchikey JDOFCMASVRMYJU
#Ion_Source LC-ESI
#Instrument qTOF
#Compound_Source Prestwick Phytochem Lib
#PI Dorrestein
#Data_Collector VVP/LMS
#Scan -1
#Precursor_MZ 309.16
#ExactMass 308.152
#Charge 1
#CAS_Number N/A
#Pubmed_ID N/A
#Smiles C\C=C1\CN2CC[C@@]34[C@@H]2C[C@H]1C(C=O)=C3NC5=C(O)C=CC=C45
#INCHI_AUX N/A
#Library_Class 1
#SpectrumID CCMSLIB00000078809
#IonMode Positive
#UpdateWorkflowName UPDATE-SINGLE-ANNOTATED-GOLD
#LibraryQualityString Gold
#TaskID 67c915c6594c435cadc1fe2b5358144d
##Scan# 1347
#SpectrumFile p1-F04_GF4_01_17936.mzXML
#LibraryName phytochem_lib.mgf
#MQScore -1
#Organism phytochem_lib
#TIC_Query 0
#RT_Query -1
#MZErrorPPM -1
#SharedPeaks 0
#MassDiff 0
#LibMZ -1
#SpecMZ 309.16
#SpecCharge 0
#internalFilename spec-00000.mgf

>collision 0
134.0589 21.46
146.06 59.56
154.0653 17.96
160.0755 36.94
166.0651 25.28
170.0603 34.1
174.0903 24.79
183.0671 71.0
184.0752 100.0
187.0875 33.22
196.0755 83.02
199.0631 34.19
202.0865 29.8
207.0677 25.99
208.0757 37.61
209.0832 34.55
210.0903 64.61
215.0807 55.65
220.0756 35.65
221.0825 63.68
222.0908 54.32
225.1024 25.99
234.0901 40.18
236.1049 75.7
238.122 81.33
246.0906 18.94
251.1172 28.12
252.1369 32.37
253.1352 16.81
254.1165 17.65
265.1341 17.21
266.1186 43.33
279.1483 16.54
280.1349 21.91
281.165 23.81
291.1493 22.26
309.1594 158.85
