>compound Ampiroxicam
>formula C20H21N3O7S
>ionization [M+H]+
>parentmass 448.118866
#inchi InChI=1S/C20H21N3O7S/c1-4-28-20(25)30-13(2)29-18-14-9-5-6-10-15(14)31(26,27)23(3)17(18)19(24)22-16-11-7-8-12-21-16/h5-13H,4H2,1-3H3,(H,21,22,24)
#inchikey LSNWBKACGXCGAJ
#Ion_Source LC-ESI
#Instrument qTof
#Compound_Source Commercial
#PI Dorrestein
#Data_Collector Garg_Neha
#Scan -1
#Precursor_MZ 448.117
#ExactMass 447.11
#Charge 1
#CAS_Number 99464-64-9
#Pubmed_ID N/A
#Smiles C1(C2=C(S(N(C=1C(NC3C=CC=CN=3)=O)C)(=O)=O)C=CC=C2)OC(OC(OCC)=O)C
#INCHI_AUX N/A
#Library_Class 1
#SpectrumID CCMSLIB00000078620
#IonMode Positive
#UpdateWorkflowName UPDATE-SINGLE-ANNOTATED-GOLD
#LibraryQualityString Gold
#TaskID 77f51c88eb8b467eb4a01dd2d0cb90d2
##Scan# 1614
#SpectrumFile Plate10_1_20_GC1_01_15743.mzXML
#LibraryName FDALibrary_2_04302014.mgf
#MQScore -1
#Organism FDALibrary_2_04302014
#TIC_Query 0
#RT_Query -1
#MZErrorPPM -1
#SharedPeaks 0
#MassDiff 0
#LibMZ -1
#SpecMZ 448.117
#SpecCharge 0
#internalFilename spec-00000.mgf

>collision 0
95.0613 6.94
105.0442 1.06
107.0585 0.24
119.0613 0.25
121.0404 15.25
121.0766 13.59
123.0924 8.19
135.054 0.4
136.0871 0.45
146.0704 1.15
148.051 0.98
153.0002 1.79
162.0676 2.03
163.0752 2.33
164.0819 9.28
168.9957 12.12
192.113 4.68
210.022 6.46
236.0369 0.58
296.0492 0.81
314.0596 4.82
315.0649 1.0
316.0561 0.33
332.0725 100.0
333.0745 20.92
334.0686 5.47
358.0872 51.12
359.0893 9.43
360.1016 15.9
362.1013 0.55
448.1189 6.56
