>compound Thalidomide
>formula C13H10N2O4 
>ionization [M+H]+
>parentmass 259.07077
#inchi InChI=1S/C13H10N2O4/c16-10-6-5-9(11(17)14-10)15-12(18)7-3-1-2-4-8(7)13(15)19/h1-4,9H,5-6H2,(H,14,16,17)
#inchikey UEJJHQNACJXSKW
#Ion_Source LC-ESI
#Instrument qTof
#Compound_Source Commercial
#PI Dorrestein
#Data_Collector Garg_Neha
#Scan -1
#Precursor_MZ 259.072
#ExactMass 258.064
#Charge 1
#CAS_Number N/A
#Pubmed_ID N/A
#Smiles N/A
#INCHI_AUX N/A
#Library_Class 1
#SpectrumID CCMSLIB00000077039
#IonMode Positive
#UpdateWorkflowName UPDATE-SINGLE-ANNOTATED-GOLD
#LibraryQualityString Gold
#TaskID 48f7f52fc6d249b5abbcc6e7b3df5969
##Scan# 1126
#SpectrumFile NCP003017_A2_B11_BA6_01_15701.mzXML
#LibraryName NIH_Clinical_Collection_2.mgf
#MQScore -1
#Organism NIHcollection2_04212014_2_mgf
#TIC_Query 0
#RT_Query -1
#MZErrorPPM -1
#SharedPeaks 0
#MassDiff 0
#LibMZ -1
#SpecMZ 259.072
#SpecCharge 0
#internalFilename spec-00000.mgf

>collision 0
130.0291 9.58
143.0491 2.75
148.039 12.66
174.0556 1.5
186.0552 100.0
214.0486 16.01
231.0773 14.44
259.0708 11.04
