>compound MLS000737673-01!
>formula C7H5NOS
>ionization [M+H]+
>parentmass 152.01646123209053
#inchi InChI=1S/C7H5NOS/c9-7-8-5-3-1-2-4-6(5)10-7/h1-4H,(H,8,9)
#inchikey YEDUAINPPJYDJZ
#Ion_Source LC-ESI
#Instrument qTof
#Compound_Source NIH Natural Product Library
#PI Dorrestein
#Data_Collector VVP/LMS
#Scan -1
#Precursor_MZ 152.017
#ExactMass 151.009
#Charge 1
#CAS_Number N/A
#Pubmed_ID N/A
#Smiles Oc1nc2ccccc2s1
#INCHI_AUX N/A
#Library_Class 3
#SpectrumID CCMSLIB00000080353
#IonMode Positive
#UpdateWorkflowName UPDATE-SINGLE-ANNOTATED-BRONZE
#LibraryQualityString Bronze
#TaskID b1d8e8f6646f4e71acdff9ca3d919d08
##Scan# 1614
#SpectrumFile p2-F07_GF7_01_18043.mzXML
#LibraryName NIH_Natural_Products_Library.mgf
#MQScore -1
#Organism NIH_Natural_Products_Library
#TIC_Query 0
#RT_Query -1
#MZErrorPPM -1
#SharedPeaks 0
#MassDiff 0
#LibMZ -1
#SpecMZ 152.017
#SpecCharge 0
#internalFilename spec-00000.mgf

>collision 0
109.0089 68.39
119.0353 51.3
124.0208 100.0
134.0064 17.62
152.0145 219.69
