>compound Betapar
>formula C22H28O5 
>ionization [M+H]+
>parentmass 373.2009504480905
#inchi InChI=1S/C22H28O5/c1-12-8-16-15-5-4-13-9-14(24)6-7-20(13,2)19(15)17(25)10-21(16,3)22(12,27)18(26)11-23/h6-7,9,12,15-16,19,23,27H,4-5,8,10-11H2,1-3H3/t12-,15-,16?,19?,20-,21-,22-/m0/s1
#inchikey PIDANAQULIKBQS
#Ion_Source LC-ESI
#Instrument qTof
#Compound_Source Isolated
#PI Sirenas
#Data_Collector Ed Esquenazi 
#Scan -1
#Precursor_MZ 373.164
#ExactMass 0.0
#Charge 1
#CAS_Number N/A
#Pubmed_ID N/A
#Smiles N/A
#INCHI_AUX N/A
#Library_Class 3
#SpectrumID CCMSLIB00000005656
#IonMode Positive
#UpdateWorkflowName UPDATE-SINGLE-ANNOTATED-BRONZE
#LibraryQualityString Bronze
#TaskID d19310cd93df49b68e9fcbec27720eb5
##Scan# 2
#SpectrumFile Betapar.mgf
#LibraryName fda_library.mgf
#MQScore -1
#Organism fda_library
#TIC_Query 0
#RT_Query -1
#MZErrorPPM -1
#SharedPeaks 0
#MassDiff 0
#LibMZ -1
#SpecMZ 373.164
#SpecCharge 0
#internalFilename spec-00000.mgf

>collision 0
123.0445 42.77
145.0629 5.56
149.0605 10.94
171.0785 11.58
179.0712 19.7
187.075 26.31
225.1268 33.02
248.1203 19.67
249.0902 25.49
253.1581 5.84
265.1206 21.38
273.1267 13.89
281.1556 19.16
291.1399 47.5
299.1628 14.35
319.1326 8.07
327.1609 49.51
337.1451 17.64
373.201 0.0
