>compound MLS000563058-01!
>formula C19H18O11
>ionization [M+H]+
>parentmass 423.093
#inchi InChI=1S/C19H18O11/c20-4-11-15(25)17(27)18(28)19(30-11)12-8(23)3-10-13(16(12)26)14(24)5-1-6(21)7(22)2-9(5)29-10/h1-3,11,15,17-23,25-28H,4H2
#inchikey AEDDIBAIWPIIBD
#Ion_Source LC-ESI
#Instrument qTof
#Compound_Source NIH Natural Product Library
#PI Dorrestein
#Data_Collector VVP/LMS
#Scan -1
#Precursor_MZ 423.093
#ExactMass 422.085
#Charge 1
#CAS_Number N/A
#Pubmed_ID N/A
#Smiles OCC1OC(C(O)C(O)C1O)c2c(O)cc3oc4cc(O)c(O)cc4c(=O)c3c2O
#INCHI_AUX N/A
#Library_Class 1
#SpectrumID CCMSLIB00000080190
#IonMode Positive
#UpdateWorkflowName UPDATE-SINGLE-ANNOTATED-GOLD
#LibraryQualityString Gold
#TaskID b1d8e8f6646f4e71acdff9ca3d919d08
##Scan# 1324
#SpectrumFile p2-D05_GD5_01_18017.mzXML
#LibraryName NIH_Natural_Products_Library.mgf
#MQScore -1
#Organism NIH_Natural_Products_Library
#TIC_Query 0
#RT_Query -1
#MZErrorPPM -1
#SharedPeaks 0
#MassDiff 0
#LibMZ -1
#SpecMZ 423.093
#SpecCharge 0
#internalFilename spec-00000.mgf

>collision 0
201.0545 5.43
221.0585 3.78
225.0528 9.43
229.048 9.05
245.0089 5.98
245.0448 8.72
249.0545 4.06
253.0473 4.61
256.0368 3.51
257.0445 37.83
260.0329 8.61
261.0405 10.03
267.0301 5.65
271.0254 4.17
273.0402 100.0
275.0546 10.75
281.0483 4.5
283.0645 8.0
285.0394 18.2
295.0625 14.14
296.067 3.62
297.0422 6.47
298.0462 5.21
299.0171 6.58
299.0549 18.48
301.0553 4.55
303.052 43.86
311.0596 4.99
313.0718 10.58
321.0581 5.04
327.05 15.35
423.0958 0.0
