>compound QUETIAPINE HEMIFUMARATE
>formula C21H25N3O2S
>ionization [M+H]+
>parentmass 384.17402449209055
#inchi InChI=1S/C21H25N3O2S/c25-14-16-26-15-13-23-9-11-24(12-10-23)21-17-5-1-3-7-19(17)27-20-8-4-2-6-18(20)22-21/h1-8,25H,9-16H2
#inchikey URKOMYMAXPYINW
#Ion_Source LC-ESI
#Instrument qTof
#Compound_Source Commercial
#PI Dorrestein
#Data_Collector Garg_Neha
#Scan -1
#Precursor_MZ 384.174
#ExactMass 383.167
#Charge 1
#CAS_Number N/A
#Pubmed_ID N/A
#Smiles OCCOCCN1CCN(CC1)C2=Nc3ccccc3Sc4ccccc24
#INCHI_AUX N/A
#Library_Class 1
#SpectrumID CCMSLIB00000079141
#IonMode Positive
#UpdateWorkflowName UPDATE-SINGLE-ANNOTATED-GOLD
#LibraryQualityString Gold
#TaskID 278b19f5865741e282cec7349aa7e7a1
##Scan# 1090
#SpectrumFile NCP003512_G2_H11_BD7_01_15731.mzXML
#LibraryName NIHcollectionI_05062014.mgf
#MQScore -1
#Organism NIHcollectionI_05062014
#TIC_Query 0
#RT_Query -1
#MZErrorPPM -1
#SharedPeaks 0
#MassDiff 0
#LibMZ -1
#SpecMZ 384.174
#SpecCharge 0
#internalFilename spec-00000.mgf

>collision 0
210.038 18.58
211.0404 3.5
212.0365 1.0
219.0919 0.91
221.1085 46.77
228.0468 0.6
238.0518 0.42
247.124 11.6
252.0687 0.49
253.0806 100.0
254.0829 15.86
259.0918 0.36
264.0679 0.39
279.0955 32.16
280.0996 3.14
384.1762 217.55
