>compound MLS001074182-01!N,N'-DIACETYL-1,6-DIAMINOHEXANE
>formula C10H20N2O2
>ionization [M+H]+
>parentmass 201.161
#inchi InChI=1S/C10H20N2O2/c1-9(13)11-7-5-3-4-6-8-12-10(2)14/h3-8H2,1-2H3,(H,11,13)(H,12,14)
#inchikey BNQSTAOJRULKNX
#Ion_Source LC-ESI
#Instrument qTof
#Compound_Source NIH Pharmacologically Active Library
#PI Dorrestein
#Data_Collector VP/LMS
#Scan -1
#Precursor_MZ 201.161
#ExactMass 200.152
#Charge 1
#CAS_Number N/A
#Pubmed_ID N/A
#Smiles CC(=O)NCCCCCCNC(=O)C
#INCHI_AUX N/A
#Library_Class 1
#SpectrumID CCMSLIB00000085889
#IonMode Positive
#UpdateWorkflowName UPDATE-SINGLE-ANNOTATED-GOLD
#LibraryQualityString Gold
#TaskID d252d724072548979f1f6f1ced849daf
##Scan# 1168
#SpectrumFile p4-G07_GG7_01_18403.mzXML
#LibraryName Pharm_Active_Library.mgf
#MQScore -1
#Organism Pharm_Active_Library
#TIC_Query 0
#RT_Query -1
#MZErrorPPM -1
#SharedPeaks 0
#MassDiff 0
#LibMZ -1
#SpecMZ 201.161
#SpecCharge 0
#internalFilename spec-00000.mgf

>collision 0
99.1181 2.5
100.1116 100.0
117.1378 4.76
142.121 15.12
143.1311 6.52
159.1487 11.16
201.161 0.0
