>compound MLS001331716-01!
>formula C18H22O2
>ionization [M+H]+
>parentmass 271.171
#inchi InChI=1S/C18H22O2/c1-18-9-8-14-13-5-3-12(19)10-11(13)2-4-15(14)16(18)6-7-17(18)20/h3,5,10,14-16,19H,2,4,6-9H2,1H3
#inchikey DNXHEGUUPJUMQT
#Ion_Source LC-ESI
#Instrument qTof
#Compound_Source NIH Pharmacologically Active Library
#PI Dorrestein
#Data_Collector VP/LMS
#Scan -1
#Precursor_MZ 271.171
#ExactMass 270.162
#Charge 1
#CAS_Number N/A
#Pubmed_ID N/A
#Smiles CC12CCC3C(CCc4cc(O)ccc34)C2CCC1=O
#INCHI_AUX N/A
#Library_Class 1
#SpectrumID CCMSLIB00000085999
#IonMode Positive
#UpdateWorkflowName UPDATE-SINGLE-ANNOTATED-GOLD
#LibraryQualityString Gold
#TaskID d252d724072548979f1f6f1ced849daf
##Scan# 2073
#SpectrumFile p5-A03_GA3_01_18432.mzXML
#LibraryName Pharm_Active_Library.mgf
#MQScore -1
#Organism Pharm_Active_Library
#TIC_Query 0
#RT_Query -1
#MZErrorPPM -1
#SharedPeaks 0
#MassDiff 0
#LibMZ -1
#SpecMZ 271.171
#SpecCharge 0
#internalFilename spec-00000.mgf

>collision 0
103.0557 5.94
105.0701 27.16
107.0474 7.14
115.0541 16.35
116.0618 16.67
127.0561 5.35
128.0624 11.37
129.0693 11.57
131.0497 14.2
131.0864 14.32
132.0558 5.38
133.0648 86.08
141.0695 18.79
144.0567 40.69
145.0637 21.54
147.0803 6.42
153.0713 3.95
154.0761 3.23
155.0844 5.86
157.0651 100.0
159.0806 57.4
167.0864 4.87
171.079 14.52
172.0883 5.15
179.0872 8.54
181.0996 3.51
182.0722 13.92
183.0813 22.02
185.0943 7.42
197.0959 25.77
198.1021 15.32
199.1107 5.11
211.1132 15.16
213.1273 7.98
225.1259 3.15
253.1566 12.09
271.1704 0.0
