>compound Ofloxacin (Floxin)
>formula C18H20FN3O4
>ionization [M+H]+
>parentmass 362.15106079209056
#inchi InChI=1S/C18H20FN3O4/c1-10-9-26-17-14-11(16(23)12(18(24)25)8-22(10)14)7-13(19)15(17)21-5-3-20(2)4-6-21/h7-8,10H,3-6,9H2,1-2H3,(H,24,25)
#inchikey GSDSWSVVBLHKDQ
#Ion_Source LC-ESI
#Instrument qTof
#Compound_Source Commercial
#PI Dorrestein
#Data_Collector Garg_Neha
#Scan -1
#Precursor_MZ 362.151
#ExactMass 361.144
#Charge 1
#CAS_Number 82419-36-1, 118120-51-7 (XHCl)
#Pubmed_ID N/A
#Smiles C1(C(=C2C3=C(C=1)C(C(=CN3C(CO2)C)C(O)=O)=O)N4CCN(CC4)C)F
#INCHI_AUX N/A
#Library_Class 1
#SpectrumID CCMSLIB00000078156
#IonMode Positive
#UpdateWorkflowName UPDATE-SINGLE-ANNOTATED-GOLD
#LibraryQualityString Gold
#TaskID 77f51c88eb8b467eb4a01dd2d0cb90d2
##Scan# 1034
#SpectrumFile Plate3_1_20_GG9_01_16498.mzXML
#LibraryName FDALibrary_2_04302014.mgf
#MQScore -1
#Organism FDALibrary_2_04302014
#TIC_Query 0
#RT_Query -1
#MZErrorPPM -1
#SharedPeaks 0
#MassDiff 0
#LibMZ -1
#SpecMZ 362.151
#SpecCharge 0
#internalFilename spec-00000.mgf

>collision 0
164.0497 0.78
178.0296 1.16
192.0452 2.19
193.0417 1.07
199.0502 1.39
200.0569 0.58
204.0457 1.77
205.0413 7.03
205.0763 3.85
207.0551 0.6
213.0642 0.86
219.0568 9.13
220.0641 2.0
221.0721 12.05
231.0571 0.62
233.0726 5.18
241.0971 2.06
244.0759 0.54
245.0728 1.14
246.0796 0.65
247.0882 5.19
248.0915 0.75
255.1013 0.72
261.1052 85.08
262.1067 21.59
270.1238 1.64
273.1036 2.43
274.1076 0.54
276.114 3.51
298.154 1.12
301.1211 2.16
302.1257 0.5
316.1453 5.83
317.148 0.88
318.1626 100.0
320.1045 23.63
344.1407 4.38
362.1537 90.3
