>compound MLS000559484-01!Priscoline
>formula C10H12N2
>ionization [M+H]+
>parentmass 161.108307
#inchi InChI=1S/C10H12N2/c1-2-4-9(5-3-1)8-10-11-6-7-12-10/h1-5H,6-8H2,(H,11,12)
#inchikey JIVZKJJQOZQXQB
#origInchi InChI=1S/C10H12N2.ClH/c1-2-4-9(5-3-1)8-10-11-6-7-12-10;/h1-5H,6-8H2,(H,11,12);1H
#Ion_Source LC-ESI
#Instrument qTof
#Compound_Source NIH Pharmacologically Active Library
#PI Dorrestein
#Data_Collector VP/LMS
#Scan -1
#Precursor_MZ 161.108
#ExactMass 160.1
#Charge 1
#CAS_Number N/A
#Pubmed_ID N/A
#Smiles C(C1=NCCN1)c2ccccc2.Cl
#INCHI_AUX N/A
#Library_Class 1
#SpectrumID CCMSLIB00000085402
#IonMode Positive
#UpdateWorkflowName UPDATE-SINGLE-ANNOTATED-GOLD
#LibraryQualityString Gold
#TaskID d252d724072548979f1f6f1ced849daf
##Scan# 486
#SpectrumFile p4-A06_GA6_01_18331.mzXML
#LibraryName Pharm_Active_Library.mgf
#MQScore -1
#Organism Pharm_Active_Library
#TIC_Query 0
#RT_Query -1
#MZErrorPPM -1
#SharedPeaks 0
#MassDiff 0
#LibMZ -1
#SpecMZ 161.108
#SpecCharge 0
#internalFilename spec-00000.mgf

>collision 0
103.0549 27.96
115.0553 26.54
116.0503 20.38
117.0588 22.27
130.0647 19.91
132.0811 18.48
145.0761 19.43
161.1083 415.17
