>compound Lithocholic acid
>formula C24H40O3
>ionization [M+Na]+
>parentmass 399.287689
#inchi InChI=1S/C24H40O3/c1-15(4-9-22(26)27)19-7-8-20-18-6-5-16-14-17(25)10-12-23(16,2)21(18)11-13-24(19,20)3/h15-21,25H,4-14H2,1-3H3,(H,26,27)/t15-,16-,17-,18+,19+,20+,21+,23+,24-/m1/s1
#inchikey SMEROWZSTRWXGI
#Ion_Source LC-ESI
#Instrument qTof
#Compound_Source Commercial
#PI Dorrestein
#Data_Collector Garg_Neha
#Scan -1
#Precursor_MZ 399.287
#ExactMass 376.298
#Charge 1
#CAS_Number 434-13-9
#Pubmed_ID N/A
#Smiles [C@@]12([C@]3([C@@]([C@@]4([C@](CC3)(C[C@@H](CC4)O)[H])C)(CC[C@@]1([C@H]([C@@H](CCC(O)=O)C)CC2)C)[H])[H])[H]
#INCHI_AUX N/A
#Library_Class 1
#SpectrumID CCMSLIB00000078613
#IonMode Positive
#UpdateWorkflowName UPDATE-SINGLE-ANNOTATED-GOLD
#LibraryQualityString Gold
#TaskID 77f51c88eb8b467eb4a01dd2d0cb90d2
##Scan# 2858
#SpectrumFile Plate9_81_88_Plate8_81_88_GC8_01_15759.mzXML
#LibraryName FDALibrary_2_04302014.mgf
#MQScore -1
#Organism FDALibrary_2_04302014
#TIC_Query 0
#RT_Query -1
#MZErrorPPM -1
#SharedPeaks 0
#MassDiff 0
#LibMZ -1
#SpecMZ 399.287
#SpecCharge 0
#internalFilename spec-00000.mgf

>collision 0
95.0836 8.93
107.0849 8.71
109.1003 20.16
121.1002 17.87
147.1146 13.75
149.1317 34.14
161.1319 10.08
163.1466 12.71
164.1528 9.39
177.1233 8.93
189.161 13.63
195.1355 28.18
203.1754 8.82
205.1919 9.62
209.152 12.26
213.1611 8.82
215.177 6.3
223.167 8.36
235.167 8.59
245.2235 13.97
249.1823 17.75
253.1789 5.84
255.209 5.73
263.1986 6.99
303.2272 6.07
323.2723 75.26
324.2758 12.14
359.2943 100.0
399.2877 108.82
