>compound Trilostane
>formula C20H27NO3
>ionization [M+H]+
>parentmass 330.206573
#inchi InChI=1S/C20H27NO3/c1-18-7-6-14-12(13(18)3-4-15(18)22)5-8-20-17(24-20)16(23)11(10-21)9-19(14,20)2/h12-15,17,22-23H,3-9H2,1-2H3/t12-,13-,14+,15+,17+,18-,19+,20+/m0/s1
#inchikey KVJXBPDAXMEYOA
#Ion_Source LC-ESI
#Instrument qTof
#Compound_Source Commercial
#PI Dorrestein
#Data_Collector Garg_Neha
#Scan -1
#Precursor_MZ 330.206
#ExactMass 329.199
#Charge 1
#CAS_Number 13647-35-3, 27107-98-8, 28414-46-2
#Pubmed_ID N/A
#Smiles C1(=C([C@@]2([C@]3([C@](C1)([C@]4([C@@](CC3)([C@]5([C@](CC4)([C@@H](CC5)O)C)[H])[H])[H])C)O2)[H])O)C#N
#INCHI_AUX N/A
#Library_Class 1
#SpectrumID CCMSLIB00000078135
#IonMode Positive
#UpdateWorkflowName UPDATE-SINGLE-ANNOTATED-GOLD
#LibraryQualityString Gold
#TaskID 77f51c88eb8b467eb4a01dd2d0cb90d2
##Scan# 1285
#SpectrumFile Plate2_61_88_GG8_01_16496.mzXML
#LibraryName FDALibrary_2_04302014.mgf
#MQScore -1
#Organism FDALibrary_2_04302014
#TIC_Query 0
#RT_Query -1
#MZErrorPPM -1
#SharedPeaks 0
#MassDiff 0
#LibMZ -1
#SpecMZ 330.206
#SpecCharge 0
#internalFilename spec-00000.mgf

>collision 0
107.0851 24.75
109.101 22.77
115.0392 27.23
119.0845 22.77
125.0596 31.19
128.0622 24.75
133.0652 26.24
133.1025 23.76
134.0589 24.26
135.1187 26.24
152.0702 21.78
168.0559 23.76
172.1245 37.13
173.1326 40.59
183.0873 23.27
184.077 22.77
199.1001 21.78
201.1625 100.0
239.178 22.77
285.1863 25.25
294.1881 34.16
312.1933 41.09
330.2062 861.39
