>compound MLS002222187-01!548-66-3
>formula C20H31NO2
>ionization [M+H]+
>parentmass 318.24292
#inchi InChI=1S/C20H31NO2/c1-3-21(4-2)15-16-23-20(22)19(17-11-7-5-8-12-17)18-13-9-6-10-14-18/h5,7-8,11-12,18-19H,3-4,6,9-10,13-16H2,1-2H3
#inchikey AGJBLWCLQCKRJP
#origInchi InChI=1S/C20H31NO2.ClH/c1-3-21(4-2)15-16-23-20(22)19(17-11-7-5-8-12-17)18-13-9-6-10-14-18;/h5,7-8,11-12,18-19H,3-4,6,9-10,13-16H2,1-2H3;1H
#Ion_Source LC-ESI
#Instrument qTof
#Compound_Source NIH Pharmacologically Active Library
#PI Dorrestein
#Data_Collector VP/LMS
#Scan -1
#Precursor_MZ 318.245
#ExactMass 317.235
#Charge 1
#CAS_Number N/A
#Pubmed_ID N/A
#Smiles CCN(CC)CCOC(=O)C(C1CCCCC1)c2ccccc2.Cl
#INCHI_AUX N/A
#Library_Class 1
#SpectrumID CCMSLIB00000085395
#IonMode Positive
#UpdateWorkflowName UPDATE-SINGLE-ANNOTATED-GOLD
#LibraryQualityString Gold
#TaskID d252d724072548979f1f6f1ced849daf
##Scan# 1905
#SpectrumFile p4-A03_GA3_01_18327.mzXML
#LibraryName Pharm_Active_Library.mgf
#MQScore -1
#Organism Pharm_Active_Library
#TIC_Query 0
#RT_Query -1
#MZErrorPPM -1
#SharedPeaks 0
#MassDiff 0
#LibMZ -1
#SpecMZ 318.245
#SpecCharge 0
#internalFilename spec-00000.mgf

>collision 0
91.055 43.25
95.086 4.37
103.0542 0.92
105.0703 17.52
115.0536 1.77
117.0702 7.26
119.0496 0.27
129.0696 0.4
131.0853 2.66
163.0758 100.0
173.1325 13.56
245.1534 23.5
318.2429 5.14
