>compound Riluzole
>formula C8H5F3N2OS 
>ionization [M+H]+
>parentmass 235.014053
#inchi InChI=1S/C8H5F3N2OS/c9-8(10,11)14-4-1-2-5-6(3-4)15-7(12)13-5/h1-3H,(H2,12,13)
#inchikey FTALBRSUTCGOEG
#Ion_Source LC-ESI
#Instrument qTof
#Compound_Source Isolated
#PI Sirenas
#Data_Collector Ed Esquenazi 
#Scan -1
#Precursor_MZ 235.015
#ExactMass 0.0
#Charge 1
#CAS_Number N/A
#Pubmed_ID N/A
#Smiles N/A
#INCHI_AUX N/A
#Library_Class 3
#SpectrumID CCMSLIB00000006316
#IonMode Positive
#UpdateWorkflowName UPDATE-SINGLE-ANNOTATED-BRONZE
#LibraryQualityString Bronze
#TaskID d19310cd93df49b68e9fcbec27720eb5
##Scan# 3
#SpectrumFile Riluzole.mgf
#LibraryName fda_library.mgf
#MQScore -1
#Organism fda_library
#TIC_Query 0
#RT_Query -1
#MZErrorPPM -1
#SharedPeaks 0
#MassDiff 0
#LibMZ -1
#SpecMZ 235.015
#SpecCharge 0
#internalFilename spec-00000.mgf

>collision 0
101.0188 1.89
105.0447 7.19
106.9953 0.59
107.0356 0.95
110.0064 3.04
111.0136 28.55
115.0014 1.29
115.0295 0.32
116.0299 0.31
120.9977 3.01
121.0271 1.12
122.0058 24.46
123.0137 9.37
123.9975 19.39
127.0008 17.39
133.04 6.66
137.0178 1.71
138.0246 100.0
142.012 0.55
144.9924 0.53
149.0194 18.73
159.9999 0.24
164.0315 42.65
165.0119 1.94
166.0195 54.71
176.032 3.7
180.9927 0.58
192.9934 13.15
208.0036 12.55
235.0151 21.69
