>compound MLS001066393-01!5,7-Dichlorokynurenic acid monohydrate
>formula C10H5Cl2NO3
>ionization [M+H]+
>parentmass 257.971252
#inchi InChI=1S/C10H5Cl2NO3/c11-4-1-5(12)9-6(2-4)13-7(10(15)16)3-8(9)14/h1-3H,(H,13,14)(H,15,16)
#inchikey BGKFPRIGXAVYNX
#origInchi InChI=1S/C10H5Cl2NO3.H2O/c11-4-1-5(12)9-6(2-4)13-7(10(15)16)3-8(9)14;/h1-3H,(H,13,14)(H,15,16);1H2
#Ion_Source LC-ESI
#Instrument qTof
#Compound_Source NIH Pharmacologically Active Library
#PI Dorrestein
#Data_Collector VP/LMS
#Scan -1
#Precursor_MZ 257.976
#ExactMass 256.965
#Charge 1
#CAS_Number N/A
#Pubmed_ID N/A
#Smiles OC(=O)c1cc(O)c2c(Cl)cc(Cl)cc2n1.O
#INCHI_AUX N/A
#Library_Class 1
#SpectrumID CCMSLIB00000086016
#IonMode Positive
#UpdateWorkflowName UPDATE-SINGLE-ANNOTATED-GOLD
#LibraryQualityString Gold
#TaskID d252d724072548979f1f6f1ced849daf
##Scan# 1495
#SpectrumFile p5-B03_GB3_01_18442.mzXML
#LibraryName Pharm_Active_Library.mgf
#MQScore -1
#Organism Pharm_Active_Library
#TIC_Query 0
#RT_Query -1
#MZErrorPPM -1
#SharedPeaks 0
#MassDiff 0
#LibMZ -1
#SpecMZ 257.976
#SpecCharge 0
#internalFilename spec-00000.mgf

>collision 0
114.0334 1.78
147.9953 10.09
149.0015 9.26
156.9619 100.0
166.0059 1.58
176.996 7.6
183.9722 53.25
211.9669 51.41
229.9765 53.87
257.9713 0.47
