>compound Nalidixic acid (NegGram)
>formula C12H12N2O3
>ionization [M+H]+
>parentmass 233.090942
#inchi InChI=1S/C12H12N2O3/c1-3-14-6-9(12(16)17)10(15)8-5-4-7(2)13-11(8)14/h4-6H,3H2,1-2H3,(H,16,17)
#inchikey MHWLWQUZZRMNGJ
#Ion_Source LC-ESI
#Instrument qTof
#Compound_Source Commercial
#PI Dorrestein
#Data_Collector Garg_Neha
#Scan -1
#Precursor_MZ 233.092
#ExactMass 232.085
#Charge 1
#CAS_Number 389-08-2
#Pubmed_ID N/A
#Smiles C1=C(C(C2=C(N1CC)N=C(C=C2)C)=O)C(O)=O
#INCHI_AUX N/A
#Library_Class 1
#SpectrumID CCMSLIB00000078462
#IonMode Positive
#UpdateWorkflowName UPDATE-SINGLE-ANNOTATED-GOLD
#LibraryQualityString Gold
#TaskID 77f51c88eb8b467eb4a01dd2d0cb90d2
##Scan# 1203
#SpectrumFile Plate7_21_40_GD3_01_15768.mzXML
#LibraryName FDALibrary_2_04302014.mgf
#MQScore -1
#Organism FDALibrary_2_04302014
#TIC_Query 0
#RT_Query -1
#MZErrorPPM -1
#SharedPeaks 0
#MassDiff 0
#LibMZ -1
#SpecMZ 233.092
#SpecCharge 0
#internalFilename spec-00000.mgf

>collision 0
131.06 1.49
147.0552 1.07
159.0554 10.3
187.0495 57.85
205.0594 6.95
215.0799 100.0
233.0909 33.02
