>compound MLS002154079-01!Remoxipride Hydrochloride73220-03-8
>formula C16H23BrN2O3
>ionization [M+H]+
>parentmass 371.09648114809056
#inchi InChI=1S/C16H23BrN2O3/c1-4-19-9-5-6-11(19)10-18-16(20)14-13(21-2)8-7-12(17)15(14)22-3/h7-8,11H,4-6,9-10H2,1-3H3,(H,18,20)/t11-/m0/s1
#inchikey GUJRSXAPGDDABA
#origInchi InChI=1S/C16H23BrN2O3.ClH/c1-4-19-9-5-6-11(19)10-18-16(20)14-13(21-2)8-7-12(17)15(14)22-3;/h7-8,11H,4-6,9-10H2,1-3H3,(H,18,20);1H/t11-;/m0./s1
#Ion_Source LC-ESI
#Instrument qTof
#Compound_Source NIH Pharmacologically Active Library
#PI Dorrestein
#Data_Collector VP/LMS
#Scan -1
#Precursor_MZ 371.1
#ExactMass 370.089
#Charge 1
#CAS_Number N/A
#Pubmed_ID N/A
#Smiles CCN1CCC[C@H]1CNC(=O)c2c(OC)ccc(Br)c2OC.Cl
#INCHI_AUX N/A
#Library_Class 1
#SpectrumID CCMSLIB00000085151
#IonMode Positive
#UpdateWorkflowName UPDATE-SINGLE-ANNOTATED-GOLD
#LibraryQualityString Gold
#TaskID d252d724072548979f1f6f1ced849daf
##Scan# 1420
#SpectrumFile p3-F05_GF5_01_18286.mzXML
#LibraryName Pharm_Active_Library.mgf
#MQScore -1
#Organism Pharm_Active_Library
#TIC_Query 0
#RT_Query -1
#MZErrorPPM -1
#SharedPeaks 0
#MassDiff 0
#LibMZ -1
#SpecMZ 371.1
#SpecCharge 0
#internalFilename spec-00000.mgf

>collision 0
106.0031 0.91
108.056 0.48
121.0271 0.25
134.0 0.39
136.0506 0.76
149.0224 4.61
164.0469 0.76
184.9221 8.16
199.945 3.44
227.9411 58.71
242.9646 100.0
371.0943 6.28
