>compound MLS001401373-01!Granisetron??Hydrochloride
>formula C18H24N4O
>ionization [M+H]+
>parentmass 313.2022878400905
#inchi InChI=1S/C18H24N4O/c1-21-13-6-5-7-14(21)11-12(10-13)19-18(23)17-15-8-3-4-9-16(15)22(2)20-17/h3-4,8-9,12-14H,5-7,10-11H2,1-2H3,(H,19,23)/t12-,13+,14-
#inchikey MFWNKCLOYSRHCJ
#origInchi InChI=1S/C18H24N4O.ClH/c1-21-13-6-5-7-14(21)11-12(10-13)19-18(23)17-15-8-3-4-9-16(15)22(2)20-17;/h3-4,8-9,12-14H,5-7,10-11H2,1-2H3,(H,19,23);1H/t12-,13+,14-;
#Ion_Source LC-ESI
#Instrument qTof
#Compound_Source NIH Pharmacologically Active Library
#PI Dorrestein
#Data_Collector VP/LMS
#Scan -1
#Precursor_MZ 313.201
#ExactMass 312.195
#Charge 1
#CAS_Number N/A
#Pubmed_ID N/A
#Smiles CN1[C@H]2CCC[C@@H]1C[C@@H](C2)NC(=O)c3nn(C)c4ccccc34.Cl
#INCHI_AUX N/A
#Library_Class 1
#SpectrumID CCMSLIB00000085243
#IonMode Positive
#UpdateWorkflowName UPDATE-SINGLE-ANNOTATED-GOLD
#LibraryQualityString Gold
#TaskID d252d724072548979f1f6f1ced849daf
##Scan# 1421
#SpectrumFile p3-G05_GG5_01_18298.mzXML
#LibraryName Pharm_Active_Library.mgf
#MQScore -1
#Organism Pharm_Active_Library
#TIC_Query 0
#RT_Query -1
#MZErrorPPM -1
#SharedPeaks 0
#MassDiff 0
#LibMZ -1
#SpecMZ 313.201
#SpecCharge 0
#internalFilename spec-00000.mgf

>collision 0
91.0531 0.66
96.08 6.4
107.0848 2.16
110.0959 2.78
112.111 5.41
138.1269 100.0
158.0695 0.92
159.0546 94.57
176.0802 3.14
313.1997 25.27
