>compound MLS001074061-01!DIRITHROMYCIN
>formula C42H78N2O14
>ionization [M+Na]+
>parentmass 857.53418
#inchi InChI=1S/C42H78N2O14/c1-15-29-42(10,49)37-24(4)32(43-30(56-37)21-52-17-16-50-13)22(2)19-40(8,48)36(58-39-33(45)28(44(11)12)18-23(3)53-39)25(5)34(26(6)38(47)55-29)57-31-20-41(9,51-14)35(46)27(7)54-31/h22-37,39,43,45-46,48-49H,15-21H2,1-14H3/t22-,23-,24+,25+,26-,27+,28+,29-,30-,31+,32+,33-,34+,35+,36-,37-,39+,40-,41-,42-/m1/s1
#inchikey WLOHNSSYAXHWNR
#Ion_Source LC-ESI
#Instrument qTof
#Compound_Source NIH Pharmacologically Active Library
#PI Dorrestein
#Data_Collector VP/LMS
#Scan -1
#Precursor_MZ 857.547
#ExactMass 834.545
#Charge 1
#CAS_Number N/A
#Pubmed_ID N/A
#Smiles CC[C@H]1OC(=O)[C@H](C)[C@@H](O[C@H]2C[C@@](C)(OC)[C@@H](O)[C@H](C)O2)[C@H](C)[C@@H](O[C@@H]3O[C@H](C)C[C@@H]([C@H]3O)N(C)C)[C@](C)(O)C[C@@H](C)[C@@H]4N[C@@H](COCCOC)O[C@H]([C@H]4C)[C@]1(C)O
#INCHI_AUX N/A
#Library_Class 1
#SpectrumID CCMSLIB00000085623
#IonMode Positive
#UpdateWorkflowName UPDATE-SINGLE-ANNOTATED-GOLD
#LibraryQualityString Gold
#TaskID d252d724072548979f1f6f1ced849daf
##Scan# 1511
#SpectrumFile p4-D06_GD6_01_18366.mzXML
#LibraryName Pharm_Active_Library.mgf
#MQScore -1
#Organism Pharm_Active_Library
#TIC_Query 0
#RT_Query -1
#MZErrorPPM -1
#SharedPeaks 0
#MassDiff 0
#LibMZ -1
#SpecMZ 857.547
#SpecCharge 0
#internalFilename spec-00000.mgf

>collision 0
281.1298 12.81
322.202 6.56
398.2112 15.27
410.2388 5.84
419.29 7.89
422.2817 8.81
438.2462 11.07
448.27 11.78
481.2927 6.15
493.332 8.71
494.3323 8.4
495.2798 5.74
497.2809 6.15
506.3315 6.97
524.3217 9.73
525.3303 5.33
526.3314 6.66
537.3081 7.38
542.3345 29.41
543.3335 5.74
551.3217 5.33
555.3238 18.14
556.3228 7.79
557.348 8.61
567.3534 9.22
579.4012 11.27
584.3319 5.43
607.4016 5.74
613.3495 9.94
619.4279 12.81
620.4261 7.58
621.3812 5.33
625.4064 6.05
637.4412 21.41
638.4359 13.11
639.3859 7.99
641.397 6.76
642.398 7.68
681.4362 27.15
682.4376 12.6
699.4428 100.0
700.4476 56.35
857.5414 611.17
