>compound HYDROCORTISONE
>formula C21H30O5 
>ionization [M+H]+
>parentmass 363.217072
#inchi InChI=1S/C21H30O5/c1-19-7-5-13(23)9-12(19)3-4-14-15-6-8-21(26,17(25)11-22)20(15,2)10-16(24)18(14)19/h9,14-16,18,22,24,26H,3-8,10-11H2,1-2H3/t14-,15-,16-,18+,19-,20-,21-/m0/s1
#inchikey JYGXADMDTFJGBT
#Ion_Source LC-ESI
#Instrument qTof
#Compound_Source Commercial
#PI Dorrestein
#Data_Collector Garg_Neha
#Scan -1
#Precursor_MZ 363.217
#ExactMass 362.209
#Charge 1
#CAS_Number N/A
#Pubmed_ID N/A
#Smiles N/A
#INCHI_AUX N/A
#Library_Class 1
#SpectrumID CCMSLIB00000076968
#IonMode Positive
#UpdateWorkflowName UPDATE-SINGLE-ANNOTATED-GOLD
#LibraryQualityString Gold
#TaskID 48f7f52fc6d249b5abbcc6e7b3df5969
##Scan# 1181
#SpectrumFile NCP002928_A2_B11_BA2_01_15696.mzXML
#LibraryName NIH_Clinical_Collection_2.mgf
#MQScore -1
#Organism NIHcollection2_04212014_2_mgf
#TIC_Query 0
#RT_Query -1
#MZErrorPPM -1
#SharedPeaks 0
#MassDiff 0
#LibMZ -1
#SpecMZ 363.217
#SpecCharge 0
#internalFilename spec-00000.mgf

>collision 0
105.0701 14.03
109.0646 27.12
117.0684 13.97
119.0846 13.02
121.0647 66.31
123.0807 14.64
128.0636 13.63
129.0689 11.53
131.0865 15.73
133.1015 15.59
135.0799 18.1
137.0942 11.53
143.0851 24.34
145.1012 28.68
147.0801 21.56
147.116 40.41
149.0954 10.71
155.0851 22.78
157.1008 17.36
159.081 20.07
159.1168 22.78
161.098 14.78
163.111 29.63
169.1021 22.1
171.1169 22.17
173.0964 18.03
173.1333 14.64
175.1104 18.58
183.1169 25.97
185.1323 13.56
187.1111 22.64
195.1155 21.36
197.131 16.95
201.1268 10.98
209.1319 23.32
213.1253 26.71
225.1257 22.31
239.1427 17.49
241.1589 24.61
242.1659 10.31
251.1413 16.27
267.1743 41.83
268.1798 22.1
269.1882 33.97
281.1546 13.63
281.19 18.71
291.1755 25.49
297.1851 26.44
309.1835 70.24
327.1935 100.0
345.2058 53.22
363.2171 948.81
