>compound MLS001049059-01!methyl 2-benzamidoacetate
>formula C10H11NO3
>ionization [M+H]+
>parentmass 194.082
#inchi InChI=1S/C10H11NO3/c1-14-9(12)7-11-10(13)8-5-3-2-4-6-8/h2-6H,7H2,1H3,(H,11,13)
#inchikey XTKVNQKOTKPCKM
#Ion_Source LC-ESI
#Instrument qTof
#Compound_Source NIH Natural Product Library
#PI Dorrestein
#Data_Collector VVP/LMS
#Scan -1
#Precursor_MZ 194.082
#ExactMass 193.074
#Charge 1
#CAS_Number N/A
#Pubmed_ID N/A
#Smiles COC(=O)CNC(=O)c1ccccc1
#INCHI_AUX N/A
#Library_Class 1
#SpectrumID CCMSLIB00000080241
#IonMode Positive
#UpdateWorkflowName UPDATE-SINGLE-ANNOTATED-GOLD
#LibraryQualityString Gold
#TaskID b1d8e8f6646f4e71acdff9ca3d919d08
##Scan# 1473
#SpectrumFile p2-A06_GA6_01_17983.mzXML
#LibraryName NIH_Natural_Products_Library.mgf
#MQScore -1
#Organism NIH_Natural_Products_Library
#TIC_Query 0
#RT_Query -1
#MZErrorPPM -1
#SharedPeaks 0
#MassDiff 0
#LibMZ -1
#SpecMZ 194.082
#SpecCharge 0
#internalFilename spec-00000.mgf

>collision 0
105.0333 100.0
194.082 0.0
