>compound Ranolazine dihydrochloride
>formula C24H33N3O4
>ionization [M+H]+
>parentmass 428.2543829880906
#inchi InChI=1S/C24H33N3O4/c1-18-7-6-8-19(2)24(18)25-23(29)16-27-13-11-26(12-14-27)15-20(28)17-31-22-10-5-4-9-21(22)30-3/h4-10,20,28H,11-17H2,1-3H3,(H,25,29)
#inchikey XKLMZUWKNUAPSZ
#Ion_Source LC-ESI
#Instrument qTof
#Compound_Source Commercial
#PI Dorrestein
#Data_Collector Garg_Neha
#Scan -1
#Precursor_MZ 428.254
#ExactMass 427.247
#Charge 1
#CAS_Number N/A
#Pubmed_ID N/A
#Smiles COc1ccccc1OCC(O)CN2CCN(CC(=O)Nc3c(C)cccc3C)CC2
#INCHI_AUX N/A
#Library_Class 1
#SpectrumID CCMSLIB00000078966
#IonMode Positive
#UpdateWorkflowName UPDATE-SINGLE-ANNOTATED-GOLD
#LibraryQualityString Gold
#TaskID 278b19f5865741e282cec7349aa7e7a1
##Scan# 1105
#SpectrumFile NCP003272_G2_H11_BC3_01_15716.mzXML
#LibraryName NIHcollectionI_05062014.mgf
#MQScore -1
#Organism NIHcollectionI_05062014
#TIC_Query 0
#RT_Query -1
#MZErrorPPM -1
#SharedPeaks 0
#MassDiff 0
#LibMZ -1
#SpecMZ 428.254
#SpecCharge 0
#internalFilename spec-00000.mgf

>collision 0
97.0769 9.43
98.0842 30.76
99.0904 3.38
101.1078 3.74
105.0698 1.06
107.0488 1.91
111.0925 15.1
112.0755 2.69
113.108 28.37
114.1154 8.22
119.049 1.74
121.0645 2.24
122.0356 3.08
124.1001 2.91
134.0965 4.35
135.0811 2.01
137.0602 4.41
137.1073 5.38
138.1152 5.06
139.0868 1.22
139.1228 2.99
140.095 2.72
147.0447 3.2
149.0596 3.41
151.0752 1.14
155.1184 47.83
157.1339 3.1
161.0602 7.66
163.0742 6.06
179.0704 15.57
224.1288 7.16
245.1515 3.89
260.1768 9.23
261.1603 2.17
264.1468 14.66
279.1714 100.0
286.1909 3.97
304.2029 5.69
410.2436 2.21
428.2578 373.39
