>compound cyclo(L-Phe-L-Pro)
>formula C14H16N2O2 
>ionization [M+H]+
>parentmass 245.127457
#inchi InChI=1S/C14H16N2O2/c17-13-12-7-4-8-16(12)14(18)11(15-13)9-10-5-2-1-3-6-10/h1-3,5-6,11-12H,4,7-9H2,(H,15,17)/t11-,12-/m0/s1
#inchikey QZBUWPVZSXDWSB
#Ion_Source DI-ESI
#Instrument qTof
#Compound_Source Isolated
#PI Keyzers
#Data_Collector R Keyzers
#Scan -1
#Precursor_MZ 245.128
#ExactMass 244.121
#Charge 1
#CAS_Number 3705-26-8
#Pubmed_ID N/A
#Smiles N/A
#INCHI_AUX N/A
#Library_Class 3
#SpectrumID CCMSLIB00000007045
#IonMode Positive
#UpdateWorkflowName UPDATE-SINGLE-ANNOTATED-BRONZE
#LibraryQualityString Bronze
#TaskID 76b66bf1ccd04cec9993212b36387ea3
##Scan# 5
#SpectrumFile CDB02_15F_pos_MSMS_001_1.mgf
#LibraryName gnps_library.mgf
#MQScore -1
#Organism test_rob_keyzers
#TIC_Query 0
#RT_Query -1
#MZErrorPPM -1
#SharedPeaks 0
#MassDiff 0
#LibMZ -1
#SpecMZ 245.128
#SpecCharge 0
#internalFilename spec-00000.mgf

>collision 0
54.0327 5.72
60.045 7.65
62.0586 26.36
70.0647 100.0
71.0862 11.12
78.0356 5.35
81.068 10.95
91.056 4.5
102.0916 72.75
103.054 4.55
103.0992 10.13
108.0808 8.36
118.0658 6.22
120.0807 43.31
123.0552 4.21
135.1168 4.33
153.0645 9.92
160.1109 32.34
163.1117 5.27
170.095 10.93
187.123 31.0
245.1284 22.86
