>compound Altanserin
>formula C22H22FN3O2S
>ionization [M+H]+
>parentmass 412.1489526160906
#inchi InChI=1S/C22H22FN3O2S/c23-17-7-5-15(6-8-17)20(27)16-9-11-25(12-10-16)13-14-26-21(28)18-3-1-2-4-19(18)24-22(26)29/h1-8,16H,9-14H2,(H,24,29)
#inchikey SMYALUSCZJXWHG
#Ion_Source LC-ESI
#Instrument qTof
#Compound_Source Commercial
#PI Dorrestein
#Data_Collector Garg_Neha
#Scan -1
#Precursor_MZ 412.149
#ExactMass 411.142
#Charge 1
#CAS_Number N/A
#Pubmed_ID N/A
#Smiles Fc1ccc(cc1)C(=O)C2CCN(CCn3c(=O)c4ccccc4[nH]c3=S)CC2
#INCHI_AUX N/A
#Library_Class 1
#SpectrumID CCMSLIB00000079256
#IonMode Positive
#UpdateWorkflowName UPDATE-SINGLE-ANNOTATED-GOLD
#LibraryQualityString Gold
#TaskID 278b19f5865741e282cec7349aa7e7a1
##Scan# 1155
#SpectrumFile NCP003512_A2_B11_BD4_01_15728.mzXML
#LibraryName NIHcollectionI_05062014.mgf
#MQScore -1
#Organism NIHcollectionI_05062014
#TIC_Query 0
#RT_Query -1
#MZErrorPPM -1
#SharedPeaks 0
#MassDiff 0
#LibMZ -1
#SpecMZ 412.149
#SpecCharge 0
#internalFilename spec-00000.mgf

>collision 0
122.0971 0.59
134.0055 1.2
145.0405 0.36
146.0591 0.26
147.0567 0.32
161.0177 0.29
161.0758 0.42
162.0014 31.27
163.004 2.83
163.9974 0.96
171.055 0.26
190.1033 1.68
205.0456 100.0
206.0468 27.72
207.0407 6.55
208.1145 28.83
234.1286 0.24
412.1517 55.7
