>compound MLS000877030-01!Nobiletin478-01-3
>formula C21H22O8
>ionization [M+H]+
>parentmass 403.1387441160905
#inchi InChI=1S/C21H22O8/c1-23-13-8-7-11(9-15(13)24-2)14-10-12(22)16-17(25-3)19(26-4)21(28-6)20(27-5)18(16)29-14/h7-10H,1-6H3
#inchikey MRIAQLRQZPPODS
#Ion_Source LC-ESI
#Instrument qTof
#Compound_Source NIH Pharmacologically Active Library
#PI Dorrestein
#Data_Collector VP/LMS
#Scan -1
#Precursor_MZ 403.132
#ExactMass 402.131
#Charge 1
#CAS_Number N/A
#Pubmed_ID N/A
#Smiles COc1ccc(cc1OC)c2cc(=O)c3c(OC)c(OC)c(OC)c(OC)c3o2
#INCHI_AUX N/A
#Library_Class 1
#SpectrumID CCMSLIB00000085318
#IonMode Positive
#UpdateWorkflowName UPDATE-SINGLE-ANNOTATED-GOLD
#LibraryQualityString Gold
#TaskID d252d724072548979f1f6f1ced849daf
##Scan# 2092
#SpectrumFile p3-H04_GH4_01_18309.mzXML
#LibraryName Pharm_Active_Library.mgf
#MQScore -1
#Organism Pharm_Active_Library
#TIC_Query 0
#RT_Query -1
#MZErrorPPM -1
#SharedPeaks 0
#MassDiff 0
#LibMZ -1
#SpecMZ 403.132
#SpecCharge 0
#internalFilename spec-00000.mgf

>collision 0
165.019 1.39
168.0046 2.19
183.0291 17.77
193.0131 2.46
211.0236 23.57
231.0648 1.72
257.0806 1.02
258.0541 3.54
259.0618 4.31
273.0765 1.01
283.059 1.13
284.0659 1.26
285.0745 1.62
287.0556 1.25
297.0388 1.19
299.0912 2.9
301.0703 9.42
312.0626 5.03
313.0703 5.44
315.0501 5.21
325.0348 1.62
327.0852 8.96
329.067 5.72
330.072 10.45
343.0449 4.24
345.097 4.7
355.0813 7.84
357.0595 4.43
358.0671 10.5
373.0923 100.0
387.107 1.72
388.1152 6.01
403.1372 5.75
