>compound Loratadine
>formula C22H23ClN2O2
>ionization [M+H]+
>parentmass 383.15208210809055
#inchi InChI=1S/C22H23ClN2O2/c1-2-27-22(26)25-12-9-15(10-13-25)20-19-8-7-18(23)14-17(19)6-5-16-4-3-11-24-21(16)20/h3-4,7-8,11,14H,2,5-6,9-10,12-13H2,1H3
#inchikey JCCNYMKQOSZNPW
#Ion_Source LC-ESI
#Instrument qTof
#Compound_Source Commercial
#PI Dorrestein
#Data_Collector Garg_Neha
#Scan -1
#Precursor_MZ 383.152
#ExactMass 382.145
#Charge 1
#CAS_Number 79794-75-5, 444995-23-7 (HCl)
#Pubmed_ID N/A
#Smiles C1CN(CCC1=C2C3=C(CCC4=C2C=CC(=C4)Cl)C=CC=N3)C(=O)OCC
#INCHI_AUX N/A
#Library_Class 1
#SpectrumID CCMSLIB00000078115
#IonMode Positive
#UpdateWorkflowName UPDATE-SINGLE-ANNOTATED-GOLD
#LibraryQualityString Gold
#TaskID 77f51c88eb8b467eb4a01dd2d0cb90d2
##Scan# 1256
#SpectrumFile Plate2_21_40_GG6_01_16494.mzXML
#LibraryName FDALibrary_2_04302014.mgf
#MQScore -1
#Organism FDALibrary_2_04302014
#TIC_Query 0
#RT_Query -1
#MZErrorPPM -1
#SharedPeaks 0
#MassDiff 0
#LibMZ -1
#SpecMZ 383.152
#SpecCharge 0
#internalFilename spec-00000.mgf

>collision 0
214.0418 1.81
228.0574 4.16
229.0652 4.38
231.1037 1.58
232.1105 2.04
233.1191 0.85
243.1045 2.04
244.1108 2.09
245.1196 1.77
246.1274 3.79
252.0574 1.89
253.0654 4.28
258.128 14.93
259.1361 58.67
266.0732 17.22
267.0814 67.51
270.0814 2.91
279.0808 11.31
280.0882 15.95
281.0958 37.98
282.1029 23.03
285.1042 1.11
292.0888 5.98
294.1044 33.89
302.1404 6.06
309.1153 1.26
322.0864 6.14
337.1101 100.0
340.1093 4.45
355.1195 1.47
383.1535 140.16
