>compound Piroxicam (Feldene)
>formula C15H13N3O4S
>ionization [M+H]+
>parentmass 332.071625
#inchi InChI=1S/C15H13N3O4S/c1-18-13(15(20)17-12-8-4-5-9-16-12)14(19)10-6-2-3-7-11(10)23(18,21)22/h2-9,19H,1H3,(H,16,17,20)
#inchikey QYSPLQLAKJAUJT
#Ion_Source LC-ESI
#Instrument qTof
#Compound_Source Commercial
#PI Dorrestein
#Data_Collector Garg_Neha
#Scan -1
#Precursor_MZ 332.07
#ExactMass 331.063
#Charge 1
#CAS_Number 36322-90-4
#Pubmed_ID N/A
#Smiles C1=CN=C(C=C1)NC(C2N(S(C3=C(C=2O)C=CC=C3)(=O)=O)C)=O
#INCHI_AUX N/A
#Library_Class 1
#SpectrumID CCMSLIB00000078247
#IonMode Positive
#UpdateWorkflowName UPDATE-SINGLE-ANNOTATED-GOLD
#LibraryQualityString Gold
#TaskID 77f51c88eb8b467eb4a01dd2d0cb90d2
##Scan# 1253
#SpectrumFile Plate4_21_40_GH3_01_16504.mzXML
#LibraryName FDALibrary_2_04302014.mgf
#MQScore -1
#Organism FDALibrary_2_04302014
#TIC_Query 0
#RT_Query -1
#MZErrorPPM -1
#SharedPeaks 0
#MassDiff 0
#LibMZ -1
#SpecMZ 332.07
#SpecCharge 0
#internalFilename spec-00000.mgf

>collision 0
95.0605 84.64
105.0434 0.95
107.0596 0.79
121.0395 100.0
123.055 2.01
135.0556 1.28
136.0877 2.04
149.0579 2.26
162.065 3.53
164.0816 78.97
180.0758 0.43
332.0716 231.5
