>compound Budesonide
>formula C25H34O6
>ionization [M+H]+
>parentmass 431.24281526009054
#inchi InChI=1S/C25H34O6/c1-4-5-21-30-20-11-17-16-7-6-14-10-15(27)8-9-23(14,2)22(16)18(28)12-24(17,3)25(20,31-21)19(29)13-26/h8-10,16-18,20-22,26,28H,4-7,11-13H2,1-3H3/t16-,17-,18+,20+,21+,22-,23-,24-,25-/m0/s1
#inchikey VOVIALXJUBGFJZ
#Ion_Source LC-ESI
#Instrument qTof
#Compound_Source Commercial
#PI Dorrestein
#Data_Collector Garg_Neha
#Scan -1
#Precursor_MZ 431.243
#ExactMass 430.236
#Charge 1
#CAS_Number 51333-22-3
#Pubmed_ID N/A
#Smiles C1C(C=C2[C@](C=1)([C@]3([C@@](CC2)([C@]4([C@](C[C@H]3O)([C@@]5([C@@H](C4)O[C@](O5)(CCC)[H])C(CO)=O)C)[H])[H])[H])C)=O
#INCHI_AUX N/A
#Library_Class 1
#SpectrumID CCMSLIB00000078086
#IonMode Positive
#UpdateWorkflowName UPDATE-SINGLE-ANNOTATED-GOLD
#LibraryQualityString Gold
#TaskID 77f51c88eb8b467eb4a01dd2d0cb90d2
##Scan# 1444
#SpectrumFile Plate2_1_20_GG5_01_16493.mzXML
#LibraryName FDALibrary_2_04302014.mgf
#MQScore -1
#Organism FDALibrary_2_04302014
#TIC_Query 0
#RT_Query -1
#MZErrorPPM -1
#SharedPeaks 0
#MassDiff 0
#LibMZ -1
#SpecMZ 431.243
#SpecCharge 0
#internalFilename spec-00000.mgf

>collision 0
119.0842 3.09
121.0647 8.74
135.0812 5.93
145.0657 2.9
147.081 38.52
159.0803 8.71
163.0747 3.97
171.0805 12.57
173.0964 26.42
185.0967 7.09
197.096 4.57
199.1102 4.74
207.1159 4.9
209.0952 4.64
210.103 2.77
211.1132 7.33
223.1118 6.64
225.1274 14.76
227.1426 12.95
235.1121 5.2
237.1275 5.49
239.1427 5.87
248.1213 2.71
251.1417 4.03
261.1295 2.92
263.1427 11.65
265.159 11.17
277.1582 10.03
281.1522 3.82
283.1716 4.51
287.1428 4.76
289.1583 3.27
295.17 9.44
305.1526 12.0
307.1693 5.36
313.1821 3.91
323.1647 29.06
325.1797 7.08
341.1759 14.83
343.1911 3.53
413.2343 100.0
431.2474 5.3
