>compound MLS001333710-01!21-Acetoxypregnenolone566-78-9
>formula C23H34O4
>ionization [M+H]+
>parentmass 375.25298602009053
#inchi InChI=1S/C23H34O4/c1-14(24)27-13-21(26)20-7-6-18-17-5-4-15-12-16(25)8-10-22(15,2)19(17)9-11-23(18,20)3/h4,16-20,25H,5-13H2,1-3H3
#inchikey MDJRZSNPHZEMJH
#Ion_Source LC-ESI
#Instrument qTof
#Compound_Source NIH Pharmacologically Active Library
#PI Dorrestein
#Data_Collector VP/LMS
#Scan -1
#Precursor_MZ 375.248
#ExactMass 374.246
#Charge 1
#CAS_Number N/A
#Pubmed_ID N/A
#Smiles CC(=O)OCC(=O)C1CCC2C3CC=C4CC(O)CCC4(C)C3CCC12C
#INCHI_AUX N/A
#Library_Class 1
#SpectrumID CCMSLIB00000085293
#IonMode Positive
#UpdateWorkflowName UPDATE-SINGLE-ANNOTATED-GOLD
#LibraryQualityString Gold
#TaskID d252d724072548979f1f6f1ced849daf
##Scan# 2379
#SpectrumFile p3-G11_GG11_01_18304.mzXML
#LibraryName Pharm_Active_Library.mgf
#MQScore -1
#Organism Pharm_Active_Library
#TIC_Query 0
#RT_Query -1
#MZErrorPPM -1
#SharedPeaks 0
#MassDiff 0
#LibMZ -1
#SpecMZ 375.248
#SpecCharge 0
#internalFilename spec-00000.mgf

>collision 0
91.0541 14.75
105.0694 43.32
107.084 12.6
109.0996 16.59
117.0691 12.75
119.0849 33.33
121.1027 13.82
131.0848 70.97
133.1014 57.3
143.0852 21.66
145.1001 49.77
147.117 19.97
149.0942 12.29
155.0844 34.72
157.1004 53.76
159.117 100.0
167.0866 18.89
168.093 12.29
171.1165 37.94
173.1336 33.18
181.1002 17.2
185.1324 36.87
187.1499 19.2
201.1282 14.29
209.1326 25.81
215.1802 15.21
224.1552 17.2
227.1799 12.44
279.208 13.52
315.2296 32.72
375.2532 0.0
