>compound Flubendazole (Flutelmium)
>formula C16H12FN3O3
>ionization [M+H]+
>parentmass 314.09354591609053
#inchi InChI=1S/C16H12FN3O3/c1-23-16(22)20-15-18-12-7-4-10(8-13(12)19-15)14(21)9-2-5-11(17)6-3-9/h2-8H,1H3,(H2,18,19,20,22)
#inchikey CPEUVMUXAHMANV
#Ion_Source LC-ESI
#Instrument qTof
#Compound_Source Commercial
#PI Dorrestein
#Data_Collector Garg_Neha
#Scan -1
#Precursor_MZ 314.094
#ExactMass 313.086
#Charge 1
#CAS_Number 31430-15-6
#Pubmed_ID N/A
#Smiles C1(C(=O)C2=CC3=C(C=C2)N=C(N3)NC(=O)OC)=CC=C(C=C1)F
#INCHI_AUX N/A
#Library_Class 1
#SpectrumID CCMSLIB00000078310
#IonMode Positive
#UpdateWorkflowName UPDATE-SINGLE-ANNOTATED-GOLD
#LibraryQualityString Gold
#TaskID 77f51c88eb8b467eb4a01dd2d0cb90d2
##Scan# 1198
#SpectrumFile Plate5_1_20_GH6_01_16508.mzXML
#LibraryName FDALibrary_2_04302014.mgf
#MQScore -1
#Organism FDALibrary_2_04302014
#TIC_Query 0
#RT_Query -1
#MZErrorPPM -1
#SharedPeaks 0
#MassDiff 0
#LibMZ -1
#SpecMZ 314.094
#SpecCharge 0
#internalFilename spec-00000.mgf

>collision 0
95.0283 0.61
123.024 16.05
226.0776 1.05
254.0702 0.98
255.0802 0.38
270.1031 0.35
282.0689 100.0
314.0956 62.71
