>compound Nevirapine (Viramune)
>formula C15H14N4O
>ionization [M+H]+
>parentmass 267.125305
#inchi InChI=1S/C15H14N4O/c1-9-6-8-17-14-12(9)18-15(20)11-3-2-7-16-13(11)19(14)10-4-5-10/h2-3,6-8,10H,4-5H2,1H3,(H,18,20)
#inchikey NQDJXKOVJZTUJA
#Ion_Source LC-ESI
#Instrument qTof
#Compound_Source Commercial
#PI Dorrestein
#Data_Collector Garg_Neha
#Scan -1
#Precursor_MZ 267.124
#ExactMass 266.117
#Charge 1
#CAS_Number 129618-40-2
#Pubmed_ID N/A
#Smiles N1(C2CC2)C3=C(NC(C4=C1N=CC=C4)=O)C(=CC=N3)C
#INCHI_AUX N/A
#Library_Class 1
#SpectrumID CCMSLIB00000078272
#IonMode Positive
#UpdateWorkflowName UPDATE-SINGLE-ANNOTATED-GOLD
#LibraryQualityString Gold
#TaskID 77f51c88eb8b467eb4a01dd2d0cb90d2
##Scan# 1099
#SpectrumFile Plate4_41_60_GH4_01_16505.mzXML
#LibraryName FDALibrary_2_04302014.mgf
#MQScore -1
#Organism FDALibrary_2_04302014
#TIC_Query 0
#RT_Query -1
#MZErrorPPM -1
#SharedPeaks 0
#MassDiff 0
#LibMZ -1
#SpecMZ 267.124
#SpecCharge 0
#internalFilename spec-00000.mgf

>collision 0
107.0604 3.79
131.0601 2.03
143.0596 0.9
144.0675 3.15
158.0719 0.89
159.0558 2.33
161.0709 5.3
170.0702 0.99
171.079 1.11
181.0635 0.6
182.0716 2.58
184.0869 8.43
196.0878 0.87
197.0835 5.69
198.09 18.82
207.0785 1.01
209.0585 0.7
209.0825 0.99
210.067 3.74
212.0803 3.21
222.1013 1.87
223.0985 1.96
225.0779 6.85
226.086 100.0
227.0924 53.13
237.077 4.09
239.0926 4.38
239.1289 3.71
249.1136 6.4
250.0989 2.69
251.0938 9.85
252.0998 5.16
267.1261 162.32
