>compound MLS001139423-01!(2R)-1-[2-(8-methyl-2-oxo-4-propylchromen-7-yl)oxyacetyl]pyrrolidine-2-carboxylic acid
>formula C20H23NO6
>ionization [M+H]+
>parentmass 374.15981390809054
#inchi InChI=1S/C20H23NO6/c1-3-5-13-10-18(23)27-19-12(2)16(8-7-14(13)19)26-11-17(22)21-9-4-6-15(21)20(24)25/h7-8,10,15H,3-6,9,11H2,1-2H3,(H,24,25)/t15-/m1/s1
#inchikey VGBKUEYXIHVZRQ
#Ion_Source LC-ESI
#Instrument qTof
#Compound_Source NIH Natural Product Library
#PI Dorrestein
#Data_Collector VVP/LMS
#Scan -1
#Precursor_MZ 374.16
#ExactMass 373.153
#Charge 1
#CAS_Number N/A
#Pubmed_ID N/A
#Smiles CCCc1cc(=O)oc2c(C)c(OCC(=O)N3CCC[C@@H]3C(=O)O)ccc12
#INCHI_AUX N/A
#Library_Class 1
#SpectrumID CCMSLIB00000079830
#IonMode Positive
#UpdateWorkflowName UPDATE-SINGLE-ANNOTATED-GOLD
#LibraryQualityString Gold
#TaskID b1d8e8f6646f4e71acdff9ca3d919d08
##Scan# 1913
#SpectrumFile p1-F11_GF11_01_17943.mzXML
#LibraryName NIH_Natural_Products_Library.mgf
#MQScore -1
#Organism NIH_Natural_Products_Library
#TIC_Query 0
#RT_Query -1
#MZErrorPPM -1
#SharedPeaks 0
#MassDiff 0
#LibMZ -1
#SpecMZ 374.16
#SpecCharge 0
#internalFilename spec-00000.mgf

>collision 0
103.054 3.13
105.0689 8.3
116.0639 2.91
117.0684 4.89
119.0851 7.4
121.0662 10.56
123.043 3.42
129.07 11.16
130.0766 9.81
131.048 7.15
131.0853 4.54
133.0654 7.15
143.0858 8.59
145.0638 7.77
145.1013 14.35
147.0789 5.58
147.1179 7.3
155.0841 2.91
158.0713 13.91
160.0878 6.83
161.0596 3.7
162.0678 5.83
171.0804 3.89
173.0947 53.87
175.0738 6.68
175.1111 12.19
177.0547 13.16
188.0826 14.63
189.0893 6.83
190.0621 11.47
203.1062 49.55
218.0939 5.08
219.0999 60.36
231.1005 100.0
277.1079 3.35
374.157 2.63
