>compound Cephalomannine
>formula C45H53NO14
>ionization [M+Na]+
>parentmass 854.335327
#inchi InChI=1S/C45H53NO14/c1-9-23(2)39(52)46-33(27-16-12-10-13-17-27)34(50)41(54)58-29-21-45(55)38(59-40(53)28-18-14-11-15-19-28)36-43(8,30(49)20-31-44(36,22-56-31)60-26(5)48)37(51)35(57-25(4)47)32(24(29)3)42(45,6)7/h9-19,29-31,33-36,38,49-50,55H,20-22H2,1-8H3,(H,46,52)/b23-9+/t29-,30+,31+,33-,34+,35-,36-,38-,43+,44-,45+/m0/s1
#inchikey DBXFAPJCZABTDR
#Ion_Source LC-ESI
#Instrument qTof
#Compound_Source Commercial
#PI Dorrestein
#Data_Collector Garg_Neha
#Scan -1
#Precursor_MZ 854.336
#ExactMass 831.347
#Charge 1
#CAS_Number 71610-00-9
#Pubmed_ID N/A
#Smiles C1=CC=CC(=C1)[C@@H]([C@H](C(O[C@H]2C[C@@]3(C(C(=C2C)[C@@H](C([C@]4([C@@]([C@]5([C@@H](C[C@H]4O)OC5)OC(=O)C)([C@@H]3OC(C6=CC=CC=C6)=O)[H])C)=O)OC(=O)C)(C)C)O)=O)O)NC(/C(=C/C)C)=O
#INCHI_AUX N/A
#Library_Class 1
#SpectrumID CCMSLIB00000078466
#IonMode Positive
#UpdateWorkflowName UPDATE-SINGLE-ANNOTATED-GOLD
#LibraryQualityString Gold
#TaskID 77f51c88eb8b467eb4a01dd2d0cb90d2
##Scan# 1730
#SpectrumFile Plate7_41_60_GD4_01_15769.mzXML
#LibraryName FDALibrary_2_04302014.mgf
#MQScore -1
#Organism FDALibrary_2_04302014
#TIC_Query 0
#RT_Query -1
#MZErrorPPM -1
#SharedPeaks 0
#MassDiff 0
#LibMZ -1
#SpecMZ 854.336
#SpecCharge 0
#internalFilename spec-00000.mgf

>collision 0
105.0323 3.24
122.0559 5.31
129.0669 2.6
197.1302 3.21
207.1129 2.43
221.1287 2.5
249.1259 2.1
268.0899 4.83
281.1522 3.55
286.104 100.0
287.1044 19.6
289.1293 2.03
291.1433 2.94
349.1415 2.3
350.1528 2.91
351.1123 2.5
409.1553 3.31
427.1675 2.13
469.1803 3.65
471.1835 5.78
487.208 2.13
503.207 2.4
509.223 2.37
531.1992 27.98
532.1987 8.89
565.1814 5.17
569.231 2.26
591.2184 23.42
593.2179 2.13
672.2734 3.18
795.2991 2.13
810.2803 2.06
854.3353 97.47
