>compound MLS001157935-01!(3S)-N-[(2S)-1-[(4-methoxyphenyl)methylamino]-3-methyl-1-oxopentan-2-yl]-1,2,3,4-tetrahydroisoquinoline-3-carboxamide
>formula C24H31N3O3
>ionization [M+H]+
>parentmass 410.245575
#inchi InChI=1S/C24H31N3O3/c1-4-16(2)22(24(29)26-14-17-9-11-20(30-3)12-10-17)27-23(28)21-13-18-7-5-6-8-19(18)15-25-21/h5-12,16,21-22,25H,4,13-15H2,1-3H3,(H,26,29)(H,27,28)/t16?,21-,22-/m0/s1
#inchikey DOMWJOMKBNBKDW
#Ion_Source LC-ESI
#Instrument qTof
#Compound_Source NIH Natural Product Library
#PI Dorrestein
#Data_Collector VVP/LMS
#Scan -1
#Precursor_MZ 410.244
#ExactMass 409.237
#Charge 1
#CAS_Number N/A
#Pubmed_ID N/A
#Smiles CCC(C)[C@H](NC(=O)[C@@H]1Cc2ccccc2CN1)C(=O)NCc3ccc(OC)cc3
#INCHI_AUX N/A
#Library_Class 1
#SpectrumID CCMSLIB00000080441
#IonMode Positive
#UpdateWorkflowName UPDATE-SINGLE-ANNOTATED-GOLD
#LibraryQualityString Gold
#TaskID b1d8e8f6646f4e71acdff9ca3d919d08
##Scan# 1618
#SpectrumFile p2-A09_GA9_01_17985.mzXML
#LibraryName NIH_Natural_Products_Library.mgf
#MQScore -1
#Organism NIH_Natural_Products_Library
#TIC_Query 0
#RT_Query -1
#MZErrorPPM -1
#SharedPeaks 0
#MassDiff 0
#LibMZ -1
#SpecMZ 410.244
#SpecCharge 0
#internalFilename spec-00000.mgf

>collision 0
103.0542 0.98
105.0708 1.38
106.0419 0.72
107.0487 0.25
115.0546 3.23
117.0588 2.89
121.0662 71.12
130.0662 30.92
132.0822 100.0
141.0694 0.23
157.1025 0.22
175.0881 0.25
185.0948 0.46
197.0963 0.25
213.0909 3.33
227.106 0.29
241.0871 41.31
245.1651 3.35
254.12 0.24
255.1015 3.97
257.1046 0.23
282.1125 4.66
410.2437 0.05
