>compound Ethisterone
>formula C21H28O2
>ionization [M+H]+
>parentmass 313.216
#inchi InChI=1S/C21H28O2/c1-4-21(23)12-9-18-16-6-5-14-13-15(22)7-10-19(14,2)17(16)8-11-20(18,21)3/h1,13,16-18,23H,5-12H2,2-3H3/t16-,17-,18+,19+,20+,21-/m1/s1
#inchikey CHNXZKVNWQUJIB
#Ion_Source LC-ESI
#Instrument qTof
#Compound_Source Commercial
#PI Dorrestein
#Data_Collector Garg_Neha
#Scan -1
#Precursor_MZ 313.216
#ExactMass 312.209
#Charge 1
#CAS_Number 434-03-7
#Pubmed_ID N/A
#Smiles C1C(C=C2[C@](C1)([C@]3([C@@](CC2)([C@]4([C@](CC3)([C@@](CC4)(O)C#C)C)[H])[H])[H])C)=O
#INCHI_AUX N/A
#Library_Class 1
#SpectrumID CCMSLIB00000078531
#IonMode Positive
#UpdateWorkflowName UPDATE-SINGLE-ANNOTATED-GOLD
#LibraryQualityString Gold
#TaskID 77f51c88eb8b467eb4a01dd2d0cb90d2
##Scan# 1047
#SpectrumFile Plate8_61_80_GD1_01_15765.mzXML
#LibraryName FDALibrary_2_04302014.mgf
#MQScore -1
#Organism FDALibrary_2_04302014
#TIC_Query 0
#RT_Query -1
#MZErrorPPM -1
#SharedPeaks 0
#MassDiff 0
#LibMZ -1
#SpecMZ 313.216
#SpecCharge 0
#internalFilename spec-00000.mgf

>collision 0
93.0332 0.59
111.043 0.53
121.0278 0.46
123.0799 0.32
139.055 0.94
139.0734 1.47
141.0719 0.25
228.1145 0.23
297.1874 0.96
298.1902 0.23
313.216 0.0
