>compound Triamterene
>formula C12H11N7
>ionization [M+H]+
>parentmass 254.11486980409052
#inchi InChI=1S/C12H11N7/c13-9-7(6-4-2-1-3-5-6)16-8-10(14)18-12(15)19-11(8)17-9/h1-5H,(H6,13,14,15,17,18,19)
#inchikey FNYLWPVRPXGIIP
#Ion_Source LC-ESI
#Instrument qTof
#Compound_Source Commercial
#PI Dorrestein
#Data_Collector Garg_Neha
#Scan -1
#Precursor_MZ 254.115
#ExactMass 253.108
#Charge 1
#CAS_Number 396-01-0
#Pubmed_ID N/A
#Smiles C1(=NC2=C(C(=N1)N)N=C(C(=N2)N)C3=CC=CC=C3)N
#INCHI_AUX N/A
#Library_Class 1
#SpectrumID CCMSLIB00000078651
#IonMode Positive
#UpdateWorkflowName UPDATE-SINGLE-ANNOTATED-GOLD
#LibraryQualityString Gold
#TaskID 77f51c88eb8b467eb4a01dd2d0cb90d2
##Scan# 1036
#SpectrumFile Plate10_41_64_GC3_01_15747.mzXML
#LibraryName FDALibrary_2_04302014.mgf
#MQScore -1
#Organism FDALibrary_2_04302014
#TIC_Query 0
#RT_Query -1
#MZErrorPPM -1
#SharedPeaks 0
#MassDiff 0
#LibMZ -1
#SpecMZ 254.115
#SpecCharge 0
#internalFilename spec-00000.mgf

>collision 0
104.0501 3.11
131.0601 0.31
141.0447 1.4
168.0553 6.87
183.067 1.35
185.0825 2.0
193.0508 0.8
195.0673 15.24
210.0777 7.14
212.0935 7.34
227.1041 2.75
237.0893 100.0
254.117 300.89
