>compound MLS002154064-01!Xamoterol hemifumarate73210-73-8
>formula C16H25N3O5
>ionization [M+H]+
>parentmass 340.186646
#inchi InChI=1S/C16H25N3O5/c20-13-1-3-15(4-2-13)24-12-14(21)11-17-5-6-18-16(22)19-7-9-23-10-8-19/h1-4,14,17,20-21H,5-12H2,(H,18,22)/p-2
#inchikey DXPOSRCHIDYWHW
#origInchi InChI=1S/C16H25N3O5.C4H4O4/c20-13-1-3-15(4-2-13)24-12-14(21)11-17-5-6-18-16(22)19-7-9-23-10-8-19;5-3(6)1-2-4(7)8/h1-4,14,17,20-21H,5-12H2,(H,18,22);1-2H,(H,5,6)(H,7,8)/p-2/b;2-1+
#Ion_Source LC-ESI
#Instrument qTof
#Compound_Source NIH Pharmacologically Active Library
#PI Dorrestein
#Data_Collector VP/LMS
#Scan -1
#Precursor_MZ 340.194
#ExactMass 339.179
#Charge 1
#CAS_Number N/A
#Pubmed_ID N/A
#Smiles OC(CNCCNC(=O)N1CCOCC1)COc2ccc(O)cc2.[O-]C(=O)/C=C/C(=O)[O-]
#INCHI_AUX N/A
#Library_Class 1
#SpectrumID CCMSLIB00000085566
#IonMode Positive
#UpdateWorkflowName UPDATE-SINGLE-ANNOTATED-GOLD
#LibraryQualityString Gold
#TaskID d252d724072548979f1f6f1ced849daf
##Scan# 1080
#SpectrumFile p4-C08_GC8_01_18356.mzXML
#LibraryName Pharm_Active_Library.mgf
#MQScore -1
#Organism Pharm_Active_Library
#TIC_Query 0
#RT_Query -1
#MZErrorPPM -1
#SharedPeaks 0
#MassDiff 0
#LibMZ -1
#SpecMZ 340.194
#SpecCharge 0
#internalFilename spec-00000.mgf

>collision 0
95.0491 0.6
99.0563 11.08
103.0543 0.82
113.0714 3.3
114.0554 13.11
121.0655 1.94
123.0443 2.49
125.0711 3.46
143.0809 5.95
149.0611 3.99
157.0981 100.0
184.0965 0.29
210.1111 0.57
235.1072 0.52
253.1188 6.34
340.1866 0.28
