>compound MLS002152928-01!92-84-2
>formula C12H9NS
>ionization [M+H]+
>parentmass 200.054
#inchi InChI=1S/C12H9NS/c1-3-7-11-9(5-1)13-10-6-2-4-8-12(10)14-11/h1-8,13H
#inchikey WJFKNYWRSNBZNX
#Ion_Source LC-ESI
#Instrument qTof
#Compound_Source NIH Pharmacologically Active Library
#PI Dorrestein
#Data_Collector VP/LMS
#Scan -1
#Precursor_MZ 200.054
#ExactMass 199.046
#Charge 1
#CAS_Number N/A
#Pubmed_ID N/A
#Smiles N1c2ccccc2Sc3ccccc13
#INCHI_AUX N/A
#Library_Class 1
#SpectrumID CCMSLIB00000085764
#IonMode Positive
#UpdateWorkflowName UPDATE-SINGLE-ANNOTATED-GOLD
#LibraryQualityString Gold
#TaskID d252d724072548979f1f6f1ced849daf
##Scan# 2367
#SpectrumFile p4-F03_GF3_01_18387.mzXML
#LibraryName Pharm_Active_Library.mgf
#MQScore -1
#Organism Pharm_Active_Library
#TIC_Query 0
#RT_Query -1
#MZErrorPPM -1
#SharedPeaks 0
#MassDiff 0
#LibMZ -1
#SpecMZ 200.054
#SpecCharge 0
#internalFilename spec-00000.mgf

>collision 0
94.9948 0.75
96.0023 0.68
113.0366 0.61
115.0533 1.35
116.0497 0.93
122.006 0.55
127.0544 0.94
128.0499 1.55
137.0372 0.51
138.0323 0.42
139.0538 9.44
140.0497 10.84
141.057 1.09
142.0641 0.47
148.0221 0.41
154.064 14.62
164.0499 0.83
165.0556 1.6
166.0649 40.97
167.0722 100.0
173.0312 0.78
198.0358 26.58
199.0436 63.06
200.054 0.0
