>compound Telmisartan
>formula C33H30N4O2 
>ionization [M+H]+
>parentmass 515.244202
#inchi InChI=1S/C33H30N4O2/c1-4-9-30-35-31-21(2)18-24(32-34-27-12-7-8-13-28(27)36(32)3)19-29(31)37(30)20-22-14-16-23(17-15-22)25-10-5-6-11-26(25)33(38)39/h5-8,10-19H,4,9,20H2,1-3H3,(H,38,39)
#inchikey RMMXLENWKUUMAY
#Ion_Source LC-ESI
#Instrument qTof
#Compound_Source Isolated
#PI Sirenas
#Data_Collector Ed Esquenazi 
#Scan -1
#Precursor_MZ 515.245
#ExactMass 0.0
#Charge 1
#CAS_Number N/A
#Pubmed_ID N/A
#Smiles N/A
#INCHI_AUX N/A
#Library_Class 3
#SpectrumID CCMSLIB00000005935
#IonMode Positive
#UpdateWorkflowName UPDATE-SINGLE-ANNOTATED-BRONZE
#LibraryQualityString Bronze
#TaskID d19310cd93df49b68e9fcbec27720eb5
##Scan# 3
#SpectrumFile Telmisartan.mgf
#LibraryName fda_library.mgf
#MQScore -1
#Organism fda_library
#TIC_Query 0
#RT_Query -1
#MZErrorPPM -1
#SharedPeaks 0
#MassDiff 0
#LibMZ -1
#SpecMZ 515.245
#SpecCharge 0
#internalFilename spec-00000.mgf

>collision 0
133.0284 0.54
152.062 1.19
155.0857 1.06
165.0695 1.88
167.0851 0.57
168.0574 0.3
183.0812 0.54
193.0646 6.83
211.0759 50.32
261.1116 1.2
274.1197 0.24
275.1293 0.98
276.1378 38.2
288.1373 0.22
289.1452 7.12
301.1429 0.25
303.1604 3.57
317.1756 3.57
453.1715 0.38
455.1887 0.39
467.1878 2.24
471.253 0.52
483.2174 0.45
485.1967 1.16
497.2357 100.0
515.2459 55.68
