>compound Natamycin
>formula C33H47NO13 
>ionization [M+H]+
>parentmass 666.313
#inchi InChI=1S/C33H47NO13/c1-18-10-8-6-4-3-5-7-9-11-21(45-32-30(39)28(34)29(38)19(2)44-32)15-25-27(31(40)41)22(36)17-33(42,47-25)16-20(35)14-24-23(46-24)12-13-26(37)43-18/h3-9,11-13,18-25,27-30,32,35-36,38-39,42H,10,14-17,34H2,1-2H3,(H,40,41)/t18-,19-,20+,21+,22+,23-,24-,25+,27-,28+,29-,30+,32+,33-/m1/s1
#inchikey NCXMLFZGDNKEPB
#Ion_Source LC-ESI
#Instrument qTof
#Compound_Source Isolated
#PI Sirenas
#Data_Collector Ed Esquenazi 
#Scan -1
#Precursor_MZ 666.313
#ExactMass 0.0
#Charge 1
#CAS_Number N/A
#Pubmed_ID N/A
#Smiles N/A
#INCHI_AUX N/A
#Library_Class 3
#SpectrumID CCMSLIB00000004693
#IonMode Positive
#UpdateWorkflowName UPDATE-SINGLE-ANNOTATED-BRONZE
#LibraryQualityString Bronze
#TaskID d19310cd93df49b68e9fcbec27720eb5
##Scan# 2
#SpectrumFile Natamycin.mgf
#LibraryName fda_library.mgf
#MQScore -1
#Organism fda_library
#TIC_Query 0
#RT_Query -1
#MZErrorPPM -1
#SharedPeaks 0
#MassDiff 0
#LibMZ -1
#SpecMZ 666.313
#SpecCharge 0
#internalFilename spec-00000.mgf

>collision 0
104.0703 9.87
107.0861 32.32
119.0841 33.14
122.0456 10.93
133.0635 9.23
146.0818 25.32
163.0736 10.33
164.0907 8.0
173.1334 9.81
175.1127 15.42
199.0798 8.85
207.116 5.62
225.1192 7.38
229.0868 5.86
249.1211 7.82
253.1612 9.83
311.1601 25.39
313.1438 10.69
318.1528 9.43
329.1677 12.49
345.1688 35.3
357.1734 9.76
363.1627 14.41
365.144 6.54
365.1759 6.18
367.1174 5.59
405.2103 6.32
423.2079 9.77
449.1984 35.66
467.2045 47.85
485.211 47.67
630.2864 5.72
666.313 0.0
