>compound MLS001077309-01!
>formula C16H18N2O3
>ionization [M+H]+
>parentmass 287.138
#inchi InChI=1S/C16H18N2O3/c1-16(2)15(20)14(18-7-3-4-13(18)19)11-8-10(9-17)5-6-12(11)21-16/h5-6,8,14-15,20H,3-4,7H2,1-2H3/t14-,15+/m1/s1
#inchikey TVZCRIROJQEVOT
#Ion_Source LC-ESI
#Instrument qTof
#Compound_Source NIH Pharmacologically Active Library
#PI Dorrestein
#Data_Collector VP/LMS
#Scan -1
#Precursor_MZ 287.138
#ExactMass 286.132
#Charge 1
#CAS_Number N/A
#Pubmed_ID N/A
#Smiles CC1(C)Oc2ccc(C#N)cc2[C@H]([C@@H]1O)N3CCCC3=O
#INCHI_AUX N/A
#Library_Class 1
#SpectrumID CCMSLIB00000085058
#IonMode Positive
#UpdateWorkflowName UPDATE-SINGLE-ANNOTATED-GOLD
#LibraryQualityString Gold
#TaskID d252d724072548979f1f6f1ced849daf
##Scan# 1708
#SpectrumFile p3-E04_GE4_01_18273.mzXML
#LibraryName Pharm_Active_Library.mgf
#MQScore -1
#Organism Pharm_Active_Library
#TIC_Query 0
#RT_Query -1
#MZErrorPPM -1
#SharedPeaks 0
#MassDiff 0
#LibMZ -1
#SpecMZ 287.138
#SpecCharge 0
#internalFilename spec-00000.mgf

>collision 0
103.0544 3.05
104.0491 4.53
105.0694 5.23
117.0556 5.5
118.0648 4.12
129.0702 7.82
132.0431 23.45
133.0663 3.79
141.0567 2.31
142.0666 2.68
145.0526 6.15
156.0451 3.15
156.0821 5.09
160.0747 100.0
184.075 14.15
215.0824 2.36
287.138 0.0
