>compound Phentolamine mesilate
>formula C17H19N3O
>ionization [M+H]+
>parentmass 282.160339
#inchi InChI=1S/C17H19N3O/c1-13-5-7-14(8-6-13)20(12-17-18-9-10-19-17)15-3-2-4-16(21)11-15/h2-8,11,21H,9-10,12H2,1H3,(H,18,19)
#inchikey MRBDMNSDAVCSSF
#origInchi InChI=1S/C17H19N3O.CH4O3S/c1-13-5-7-14(8-6-13)20(12-17-18-9-10-19-17)15-3-2-4-16(21)11-15;1-5(2,3)4/h2-8,11,21H,9-10,12H2,1H3,(H,18,19);1H3,(H,2,3,4)
#Ion_Source LC-ESI
#Instrument qTof
#Compound_Source Commercial
#PI Dorrestein
#Data_Collector Garg_Neha
#Scan -1
#Precursor_MZ 282.16
#ExactMass 281.153
#Charge 1
#CAS_Number 65-28-1
#Pubmed_ID N/A
#Smiles C1(N(C2=CC=C(C=C2)C)CC3NCCN=3)(=CC(=CC=C1)O).CS(O)(=O)=O
#INCHI_AUX N/A
#Library_Class 1
#SpectrumID CCMSLIB00000078404
#IonMode Positive
#UpdateWorkflowName UPDATE-SINGLE-ANNOTATED-GOLD
#LibraryQualityString Gold
#TaskID 77f51c88eb8b467eb4a01dd2d0cb90d2
##Scan# 1056
#SpectrumFile Plate6_41_60_GD9_01_15776.mzXML
#LibraryName FDALibrary_2_04302014.mgf
#MQScore -1
#Organism FDALibrary_2_04302014
#TIC_Query 0
#RT_Query -1
#MZErrorPPM -1
#SharedPeaks 0
#MassDiff 0
#LibMZ -1
#SpecMZ 282.16
#SpecCharge 0
#internalFilename spec-00000.mgf

>collision 0
118.0642 2.73
120.0436 3.51
196.0744 0.88
212.1072 100.0
239.116 0.56
282.1603 47.39
