>compound Hoiamide A
>formula C44H71N5O10S3 
>ionization [M+H]+
>parentmass 926.445312
#inchi InChI=1S/C44H71N5O10S3/c1-14-16-23(6)33(51)25(8)36-24(7)29(57-13)17-30-45-28(18-60-30)38-48-44(12,20-61-38)42-49-43(11,19-62-42)41(56)47-31(22(5)15-2)34(52)26(9)39(54)58-35(21(3)4)37(53)46-32(27(10)50)40(55)59-36/h18,21-27,29,31-36,50-52H,14-17,19-20H2,1-13H3,(H,46,53)(H,47,56)/t22-,23+,24-,25-,26+,27+,29-,31-,32-,33-,34-,35-,36-,43+,44+/m0/s1
#inchikey AJORQYDPWJZVAU
#Ion_Source LC-ESI
#Instrument qToF
#Compound_Source Isolated
#PI Dorrestein/Gerwick
#Data_Collector Luzzatto/Garg
#Scan -1
#Precursor_MZ 926.458
#ExactMass 925.436
#Charge 1
#CAS_Number N/A
#Pubmed_ID 19716479
#Smiles N/A
#INCHI_AUX N/A
#Library_Class 2
#SpectrumID CCMSLIB00000070245
#IonMode Positive
#UpdateWorkflowName UPDATE-SINGLE-ANNOTATED-SILVER
#LibraryQualityString Silver
#TaskID 6c7cf0ddbcd944488b3f58728dc48405
##Scan# 3447
#SpectrumFile 1A1_HoiamideA_MH_926.mzXML
#LibraryName gnps_library.mgf
#MQScore -1
#Organism Dorrestein_TLK_Lib
#TIC_Query 0
#RT_Query -1
#MZErrorPPM -1
#SharedPeaks 0
#MassDiff 0
#LibMZ -1
#SpecMZ 926.458
#SpecCharge 0
#internalFilename spec-00000.mgf

>collision 0
359.1611 27.5
371.145 14.92
377.1706 49.0
391.1883 12.27
409.1974 39.25
458.1771 11.81
503.1953 20.65
508.2127 17.78
521.2059 30.88
531.226 12.82
537.1621 16.14
553.2333 50.3
554.235 17.3
575.216 18.0
613.3028 11.72
645.3289 13.4
651.305 14.89
657.2953 20.89
658.2969 19.31
663.3394 42.51
664.3435 12.73
675.3054 29.48
689.3211 34.17
690.3206 11.18
707.3329 57.22
708.3318 18.88
725.3446 14.65
757.2765 18.3
794.3262 69.46
795.3274 33.1
796.3244 18.33
826.3513 35.26
827.3537 19.18
830.4147 12.12
858.3901 19.03
862.4415 16.2
876.4021 93.06
877.4082 46.56
878.4065 22.84
880.4526 39.92
881.4533 21.41
890.4241 16.87
891.4262 11.05
894.4148 43.24
895.4175 22.26
908.4314 100.0
909.4328 58.25
910.4315 28.29
926.4436 1318.36
