>compound MLS000069491-01!
>formula C21H28O2
>ionization [M+H]+
>parentmass 313.21620658809053
#inchi InChI=1S/C21H28O2/c1-3-20-11-9-17-16-8-6-15(22)13-14(16)5-7-18(17)19(20)10-12-21(20,23)4-2/h2,13,16-19,23H,3,5-12H2,1H3/t16-,17+,18+,19-,20-,21-/m0/s1
#inchikey WWYNJERNGUHSAO
#Ion_Source LC-ESI
#Instrument qTof
#Compound_Source NIH Pharmacologically Active Library
#PI Dorrestein
#Data_Collector VP/LMS
#Scan -1
#Precursor_MZ 313.218
#ExactMass 312.209
#Charge 1
#CAS_Number N/A
#Pubmed_ID N/A
#Smiles CC[C@@]12CC[C@H]3[C@@H](CCC4=CC(=O)CC[C@H]34)[C@@H]2CC[C@@]1(O)C#C
#INCHI_AUX N/A
#Library_Class 1
#SpectrumID CCMSLIB00000084736
#IonMode Positive
#UpdateWorkflowName UPDATE-SINGLE-ANNOTATED-GOLD
#LibraryQualityString Gold
#TaskID d252d724072548979f1f6f1ced849daf
##Scan# 2235
#SpectrumFile p3-A02_GA2_01_18224.mzXML
#LibraryName Pharm_Active_Library.mgf
#MQScore -1
#Organism Pharm_Active_Library
#TIC_Query 0
#RT_Query -1
#MZErrorPPM -1
#SharedPeaks 0
#MassDiff 0
#LibMZ -1
#SpecMZ 313.218
#SpecCharge 0
#internalFilename spec-00000.mgf

>collision 0
91.0546 30.2
93.0718 12.27
103.0538 15.94
105.0709 48.13
107.0491 23.04
107.085 13.08
109.0648 100.0
115.0532 21.67
116.0609 13.26
117.0691 45.14
118.0775 11.27
119.0866 26.84
121.1014 10.71
123.08 18.99
128.0611 24.72
129.07 53.42
130.0768 13.2
131.0863 58.59
133.0647 15.88
133.1004 31.76
135.0803 28.46
135.1187 19.8
141.0699 15.63
142.0772 17.75
143.0855 33.81
145.1012 46.01
147.0804 14.69
147.1156 16.56
149.0965 24.22
154.0771 10.4
155.0864 20.05
156.0944 14.82
157.1009 28.95
159.0796 17.56
159.1169 29.45
161.0961 21.86
163.1109 11.08
167.0869 10.34
169.103 13.64
171.1187 31.51
173.132 12.89
175.1121 15.26
183.1168 17.68
185.1329 36.67
199.1476 21.67
227.179 23.54
245.1887 39.85
295.203 10.34
313.2141 14.07
