>compound MLS001333730-01!
>formula C29H31F2N3O
>ionization [M+H]+
>parentmass 476.250427
#inchi InChI=1S/C29H31F2N3O/c30-24-12-8-22(9-13-24)27(23-10-14-25(31)15-11-23)7-4-18-33-19-16-29(17-20-33)28(35)32-21-34(29)26-5-2-1-3-6-26/h1-3,5-6,8-15,27H,4,7,16-21H2,(H,32,35)
#inchikey QOYHHIBFXOOADH
#Ion_Source LC-ESI
#Instrument qTof
#Compound_Source NIH Pharmacologically Active Library
#PI Dorrestein
#Data_Collector VP/LMS
#Scan -1
#Precursor_MZ 476.25
#ExactMass 475.244
#Charge 1
#CAS_Number N/A
#Pubmed_ID N/A
#Smiles Fc1ccc(cc1)C(CCCN2CCC3(CC2)N(CNC3=O)c4ccccc4)c5ccc(F)cc5
#INCHI_AUX N/A
#Library_Class 1
#SpectrumID CCMSLIB00000085935
#IonMode Positive
#UpdateWorkflowName UPDATE-SINGLE-ANNOTATED-GOLD
#LibraryQualityString Gold
#TaskID d252d724072548979f1f6f1ced849daf
##Scan# 1982
#SpectrumFile p4-H03_GH3_01_18411.mzXML
#LibraryName Pharm_Active_Library.mgf
#MQScore -1
#Organism Pharm_Active_Library
#TIC_Query 0
#RT_Query -1
#MZErrorPPM -1
#SharedPeaks 0
#MassDiff 0
#LibMZ -1
#SpecMZ 476.25
#SpecCharge 0
#internalFilename spec-00000.mgf

>collision 0
103.0532 0.53
106.0666 18.28
109.0459 17.28
110.06 4.98
123.0618 1.01
130.0668 0.4
135.0604 1.22
146.0972 1.36
147.0614 17.08
149.0766 13.95
158.0964 0.4
178.1017 0.77
183.0597 0.37
203.0665 5.47
217.0823 1.35
243.0986 2.3
246.1291 7.34
274.1399 14.13
300.1555 2.37
324.1554 1.3
325.1398 0.43
326.1699 4.58
328.1866 1.29
342.1651 15.93
354.1667 2.1
371.1932 64.61
476.2509 34.32
