>compound MLS001148102-01!
>formula C25H29N3O2
>ionization [M+H]+
>parentmass 404.232208
#inchi InChI=1S/C25H29N3O2/c1-27-14-18(13-26-25(29)30-16-17-7-4-3-5-8-17)11-21-20-9-6-10-22-24(20)19(12-23(21)27)15-28(22)2/h3-10,15,18,21,23H,11-14,16H2,1-2H3,(H,26,29)/t18-,21+,23+/m0/s1
#inchikey WZHJKEUHNJHDLS
#Ion_Source LC-ESI
#Instrument qTof
#Compound_Source NIH Pharmacologically Active Library
#PI Dorrestein
#Data_Collector VP/LMS
#Scan -1
#Precursor_MZ 404.234
#ExactMass 403.226
#Charge 1
#CAS_Number N/A
#Pubmed_ID N/A
#Smiles CN1C[C@H](CNC(=O)OCc2ccccc2)C[C@H]3[C@H]1Cc4cn(C)c5cccc3c45
#INCHI_AUX N/A
#Library_Class 1
#SpectrumID CCMSLIB00000085003
#IonMode Positive
#UpdateWorkflowName UPDATE-SINGLE-ANNOTATED-GOLD
#LibraryQualityString Gold
#TaskID d252d724072548979f1f6f1ced849daf
##Scan# 1828
#SpectrumFile p3-D08_GD8_01_18265.mzXML
#LibraryName Pharm_Active_Library.mgf
#MQScore -1
#Organism Pharm_Active_Library
#TIC_Query 0
#RT_Query -1
#MZErrorPPM -1
#SharedPeaks 0
#MassDiff 0
#LibMZ -1
#SpecMZ 404.234
#SpecCharge 0
#internalFilename spec-00000.mgf

>collision 0
91.0555 65.31
144.082 4.91
158.0965 21.88
168.0816 26.99
169.0869 13.25
170.0974 7.2
181.0895 35.58
182.0962 26.13
183.1031 14.7
184.1108 10.25
194.096 11.26
195.1035 8.91
196.1117 20.1
206.0969 20.14
207.1031 10.31
208.1121 40.9
209.1186 22.55
210.1261 15.19
211.1248 13.62
213.1388 3.99
220.1122 27.13
221.1191 37.41
222.1274 36.94
224.13 3.59
225.1379 3.92
234.1277 15.12
237.1383 11.32
238.145 5.31
239.1536 15.56
251.154 25.11
258.1275 9.92
268.1794 13.86
269.1881 15.42
271.1341 4.45
272.1434 6.15
286.1578 3.63
296.1754 23.48
297.1473 5.29
300.1749 13.27
312.1721 51.63
313.1781 100.0
343.2166 7.33
360.2421 17.12
404.2323 108.64
