>compound MLS000028601-01!2-[2,2-DICYCLOHEXYLETHYL]PIPERIDINE MALEATE SALT
>formula C19H35N
>ionization [M+H]+
>parentmass 278.284698
#inchi InChI=1S/C19H35N/c1-3-9-16(10-4-1)19(17-11-5-2-6-12-17)15-18-13-7-8-14-20-18/h16-20H,1-15H2
#inchikey CYXKNKQEMFBLER
#origInchi InChI=1S/C19H35N.C4H4O4/c1-3-9-16(10-4-1)19(17-11-5-2-6-12-17)15-18-13-7-8-14-20-18;5-3(6)1-2-4(7)8/h16-20H,1-15H2;1-2H,(H,5,6)(H,7,8)/b;2-1-
#Ion_Source LC-ESI
#Instrument qTof
#Compound_Source NIH Pharmacologically Active Library
#PI Dorrestein
#Data_Collector VP/LMS
#Scan -1
#Precursor_MZ 278.29
#ExactMass 277.277
#Charge 1
#CAS_Number N/A
#Pubmed_ID N/A
#Smiles C(C(C1CCCCC1)C2CCCCC2)C3CCCCN3.OC(=O)/C=C\C(=O)O
#INCHI_AUX N/A
#Library_Class 1
#SpectrumID CCMSLIB00000085706
#IonMode Positive
#UpdateWorkflowName UPDATE-SINGLE-ANNOTATED-GOLD
#LibraryQualityString Gold
#TaskID d252d724072548979f1f6f1ced849daf
##Scan# 2113
#SpectrumFile p4-E06_GE6_01_18378.mzXML
#LibraryName Pharm_Active_Library.mgf
#MQScore -1
#Organism Pharm_Active_Library
#TIC_Query 0
#RT_Query -1
#MZErrorPPM -1
#SharedPeaks 0
#MassDiff 0
#LibMZ -1
#SpecMZ 278.29
#SpecCharge 0
#internalFilename spec-00000.mgf

>collision 0
91.0537 2.89
93.07 4.3
95.0854 64.65
97.1007 12.17
100.1121 0.73
107.0853 4.5
109.1013 65.6
111.1163 2.88
114.128 0.8
121.1007 3.85
123.1168 20.23
135.1168 5.31
137.1326 7.9
149.1332 3.04
151.149 2.33
154.1606 0.66
163.1467 1.8
165.1638 5.2
168.1748 7.25
177.1632 1.1
179.1792 2.43
182.1912 85.46
194.1905 1.2
196.2071 100.0
210.2215 2.69
261.2567 0.51
278.288 270.26
