>compound Cefoperazone (Cefobid)
>formula C25H27N9O8S2
>ionization [M+Na]+
>parentmass 668.132324
#inchi InChI=1S/C25H27N9O8S2/c1-3-32-8-9-33(21(39)20(32)38)24(42)27-15(12-4-6-14(35)7-5-12)18(36)26-16-19(37)34-17(23(40)41)13(10-43-22(16)34)11-44-25-28-29-30-31(25)2/h4-7,15-16,22,35H,3,8-11H2,1-2H3,(H,26,36)(H,27,42)(H,40,41)/t15-,16-,22-/m1/s1
#inchikey GCFBRXLSHGKWDP
#Ion_Source LC-ESI
#Instrument qTof
#Compound_Source Commercial
#PI Dorrestein
#Data_Collector Garg_Neha
#Scan -1
#Precursor_MZ 668.132
#ExactMass 645.142
#Charge 1
#CAS_Number 62893-19-0
#Pubmed_ID N/A
#Smiles C1(CS[C@]2(N(C=1C(=O)O)C([C@H]2NC(=O)[C@@H](C3=CC=C(C=C3)O)NC(N4C(C(N(CC4)CC)=O)=O)=O)=O)[H])CSC5=NN=NN5C
#INCHI_AUX N/A
#Library_Class 1
#SpectrumID CCMSLIB00000078201
#IonMode Positive
#UpdateWorkflowName UPDATE-SINGLE-ANNOTATED-GOLD
#LibraryQualityString Gold
#TaskID 77f51c88eb8b467eb4a01dd2d0cb90d2
##Scan# 1095
#SpectrumFile Plate3_41_60_GG11_01_16500.mzXML
#LibraryName FDALibrary_2_04302014.mgf
#MQScore -1
#Organism FDALibrary_2_04302014
#TIC_Query 0
#RT_Query -1
#MZErrorPPM -1
#SharedPeaks 0
#MassDiff 0
#LibMZ -1
#SpecMZ 668.132
#SpecCharge 0
#internalFilename spec-00000.mgf

>collision 0
148.0377 2.57
162.0522 2.82
165.0634 35.82
166.0674 3.57
173.9966 3.92
177.9947 17.55
180.0043 2.29
192.0091 3.85
231.0928 1.94
259.0724 2.6
259.105 1.94
273.0653 2.04
279.054 4.95
290.1125 2.32
295.0452 3.38
319.0837 6.24
323.0473 7.43
323.1034 4.42
324.0425 2.04
338.0567 2.66
344.082 2.23
345.0557 3.38
356.085 1.94
365.0886 2.82
366.0501 9.65
382.0424 5.73
388.0658 2.07
410.0412 8.93
411.0433 4.92
412.0485 3.2
424.1089 2.1
433.0879 2.16
462.1331 1.94
464.1251 2.35
480.1205 2.26
490.1174 3.73
508.1254 18.43
509.1304 2.41
526.0593 100.0
532.1375 2.01
550.1169 2.48
552.1155 15.14
553.1175 4.64
554.1151 2.29
668.1326 28.02
