>compound MLS001048852-01!(E)-1,3-bis(2,4-dimethoxyphenyl)prop-2-en-1-one
>formula C19H20O5
>ionization [M+H]+
>parentmass 329.139
#inchi InChI=1S/C19H20O5/c1-21-14-7-5-13(18(11-14)23-3)6-10-17(20)16-9-8-15(22-2)12-19(16)24-4/h5-12H,1-4H3/b10-6+
#inchikey SSDJNESHQBSBBC
#Ion_Source LC-ESI
#Instrument qTof
#Compound_Source NIH Natural Product Library
#PI Dorrestein
#Data_Collector VVP/LMS
#Scan -1
#Precursor_MZ 329.139
#ExactMass 328.131
#Charge 1
#CAS_Number N/A
#Pubmed_ID N/A
#Smiles COc1ccc(/C=C/C(=O)c2ccc(OC)cc2OC)c(OC)c1
#INCHI_AUX N/A
#Library_Class 1
#SpectrumID CCMSLIB00000080053
#IonMode Positive
#UpdateWorkflowName UPDATE-SINGLE-ANNOTATED-GOLD
#LibraryQualityString Gold
#TaskID b1d8e8f6646f4e71acdff9ca3d919d08
##Scan# 2328
#SpectrumFile p2-E03_GE3_01_18027.mzXML
#LibraryName NIH_Natural_Products_Library.mgf
#MQScore -1
#Organism NIH_Natural_Products_Library
#TIC_Query 0
#RT_Query -1
#MZErrorPPM -1
#SharedPeaks 0
#MassDiff 0
#LibMZ -1
#SpecMZ 329.139
#SpecCharge 0
#internalFilename spec-00000.mgf

>collision 0
103.0543 0.66
105.0334 0.8
105.0697 1.1
107.0123 3.49
107.0491 1.32
109.0646 2.46
119.0483 0.23
120.0577 0.47
121.0644 1.73
122.0365 16.1
125.0596 0.57
133.0284 3.24
135.0442 5.58
135.0793 1.56
137.0595 2.51
148.0522 11.06
150.0314 9.4
151.0748 3.39
165.0552 100.0
176.0466 7.26
191.0704 9.0
212.0838 0.32
240.0771 0.3
255.1015 0.27
268.072 0.22
271.096 0.5
281.081 0.24
283.0962 0.87
299.0908 0.8
314.1144 0.38
329.1374 0.0
