>compound MLS001141226-01!N-(pyridin-3-ylmethyl)-2-[(3,4,8,8-tetramethyl-2-oxo-9,10-dihydropyrano[2,3-h]chromen-5-yl)oxy]acetamide
>formula C24H26N2O5
>ionization [M+H]+
>parentmass 423.191101
#inchi InChI=1S/C24H26N2O5/c1-14-15(2)23(28)30-22-17-7-8-24(3,4)31-18(17)10-19(21(14)22)29-13-20(27)26-12-16-6-5-9-25-11-16/h5-6,9-11H,7-8,12-13H2,1-4H3,(H,26,27)
#inchikey MUVNCRDMSIAYKY
#Ion_Source LC-ESI
#Instrument qTof
#Compound_Source NIH Natural Product Library
#PI Dorrestein
#Data_Collector VVP/LMS
#Scan -1
#Precursor_MZ 423.192
#ExactMass 422.184
#Charge 1
#CAS_Number N/A
#Pubmed_ID N/A
#Smiles Cc1c(C)c2c(OCC(=O)NCc3cccnc3)cc4OC(C)(C)CCc4c2oc1=O
#INCHI_AUX N/A
#Library_Class 1
#SpectrumID CCMSLIB00000079737
#IonMode Positive
#UpdateWorkflowName UPDATE-SINGLE-ANNOTATED-GOLD
#LibraryQualityString Gold
#TaskID b1d8e8f6646f4e71acdff9ca3d919d08
##Scan# 1819
#SpectrumFile p1-D10_GD10_01_17918.mzXML
#LibraryName NIH_Natural_Products_Library.mgf
#MQScore -1
#Organism NIH_Natural_Products_Library
#TIC_Query 0
#RT_Query -1
#MZErrorPPM -1
#SharedPeaks 0
#MassDiff 0
#LibMZ -1
#SpecMZ 423.192
#SpecCharge 0
#internalFilename spec-00000.mgf

>collision 0
96.0442 4.75
106.065 0.66
107.0605 27.27
108.0443 9.66
117.0681 0.39
119.0605 41.69
120.0447 19.19
121.0762 33.11
135.0545 0.71
149.071 43.07
150.077 9.23
163.0749 1.08
173.0598 0.85
175.0743 1.39
177.0546 0.71
191.0702 4.44
203.0701 3.64
219.0661 20.25
231.066 11.44
247.0596 0.48
259.062 5.47
276.0866 0.58
323.1395 0.64
368.135 25.85
423.1957 7.96
