>compound MLS002153247-01!Meloxicam sodium salt hydrate
>formula C14H13N3O4S2
>ionization [M+H]+
>parentmass 352.04202434809054
#inchi InChI=1S/C14H13N3O4S2/c1-8-7-15-14(22-8)16-13(19)11-12(18)9-5-3-4-6-10(9)23(20,21)17(11)2/h3-7,18H,1-2H3,(H,15,16,19)/p-1
#inchikey ZRVUJXDFFKFLMG
#origInchi InChI=1S/C14H13N3O4S2.Na/c1-8-7-15-14(22-8)16-13(19)11-12(18)9-5-3-4-6-10(9)23(20,21)17(11)2;/h3-7,18H,1-2H3,(H,15,16,19);/q;+1/p-1
#Ion_Source LC-ESI
#Instrument qTof
#Compound_Source NIH Pharmacologically Active Library
#PI Dorrestein
#Data_Collector VP/LMS
#Scan -1
#Precursor_MZ 352.043
#ExactMass 351.034
#Charge 1
#CAS_Number N/A
#Pubmed_ID N/A
#Smiles CN1C(=C([O-])c2ccccc2S1(=O)=O)C(=O)Nc3ncc(C)s3.[Na+]
#INCHI_AUX N/A
#Library_Class 1
#SpectrumID CCMSLIB00000085709
#IonMode Positive
#UpdateWorkflowName UPDATE-SINGLE-ANNOTATED-GOLD
#LibraryQualityString Gold
#TaskID d252d724072548979f1f6f1ced849daf
##Scan# 2025
#SpectrumFile p4-E06_GE6_01_18378.mzXML
#LibraryName Pharm_Active_Library.mgf
#MQScore -1
#Organism Pharm_Active_Library
#TIC_Query 0
#RT_Query -1
#MZErrorPPM -1
#SharedPeaks 0
#MassDiff 0
#LibMZ -1
#SpecMZ 352.043
#SpecCharge 0
#internalFilename spec-00000.mgf

>collision 0
88.0227 0.43
90.0186 0.23
91.054 0.33
100.0224 0.27
105.0349 0.6
109.0106 1.82
113.0159 1.25
114.0002 3.49
115.0334 100.0
116.0346 6.96
118.032 0.26
118.0643 0.32
127.0326 1.36
132.0444 0.24
136.022 0.25
137.0051 2.24
141.0123 85.28
146.0596 1.56
151.9923 0.25
153.0002 8.19
164.0165 1.83
166.0318 0.36
168.9948 3.66
176.0164 0.28
182.0263 0.7
184.053 0.75
194.0286 0.72
210.0222 3.11
211.029 0.32
352.0437 0.0
