>compound Azlocillin sodium salt
>formula C20H23N5O6S
>ionization [M+H]+
>parentmass 462.145386
#inchi InChI=1S/C20H23N5O6S/c1-20(2)13(17(28)29)25-15(27)12(16(25)32-20)22-14(26)11(10-6-4-3-5-7-10)23-19(31)24-9-8-21-18(24)30/h3-7,11-13,16H,8-9H2,1-2H3,(H,21,30)(H,22,26)(H,23,31)(H,28,29)/t11-,12?,13?,16?/m1/s1
#inchikey JTWOMNBEOCYFNV
#origInchi InChI=1S/C20H23N5O6S.Na/c1-20(2)13(17(28)29)25-15(27)12(16(25)32-20)22-14(26)11(10-6-4-3-5-7-10)23-19(31)24-9-8-21-18(24)30;/h3-7,11-13,16H,8-9H2,1-2H3,(H,21,30)(H,22,26)(H,23,31)(H,28,29);/t11-,12?,13?,16?;/m1./s1
#Ion_Source LC-ESI
#Instrument qTof
#Compound_Source Commercial
#PI Dorrestein
#Data_Collector Garg_Neha
#Scan -1
#Precursor_MZ 462.144
#ExactMass 461.137
#Charge 1
#CAS_Number 37091-65-9 ,37091-66-0(free base)
#Pubmed_ID N/A
#Smiles N12(C(C(SC(C(C1=O)NC(=O)[C@@H](C3C=CC=CC=3)NC(=O)N4CCNC4=O)2)(C)C)C(=O)O).[Na]
#INCHI_AUX N/A
#Library_Class 1
#SpectrumID CCMSLIB00000078602
#IonMode Positive
#UpdateWorkflowName UPDATE-SINGLE-ANNOTATED-GOLD
#LibraryQualityString Gold
#TaskID 77f51c88eb8b467eb4a01dd2d0cb90d2
##Scan# 1097
#SpectrumFile Plate9_61_80_GC7_01_15756.mzXML
#LibraryName FDALibrary_2_04302014.mgf
#MQScore -1
#Organism FDALibrary_2_04302014
#TIC_Query 0
#RT_Query -1
#MZErrorPPM -1
#SharedPeaks 0
#MassDiff 0
#LibMZ -1
#SpecMZ 462.144
#SpecCharge 0
#internalFilename spec-00000.mgf

>collision 0
106.0651 2.69
114.0372 0.43
146.0607 0.2
164.0535 0.39
174.0562 0.65
175.0862 13.09
192.0482 1.13
218.0929 100.0
219.0948 12.98
220.0969 1.07
246.0874 31.39
247.0903 3.54
248.0915 0.45
303.1077 3.35
304.1098 0.79
376.0928 0.33
462.1442 10.56
