>compound MLS000069442-01!MEDROXYPROGESTERONE ACETATE520-85-4
>formula C24H34O4
>ionization [M+H]+
>parentmass 387.25298602009053
#inchi InChI=1S/C24H34O4/c1-14-12-18-19(22(4)9-6-17(27)13-21(14)22)7-10-23(5)20(18)8-11-24(23,15(2)25)28-16(3)26/h13-14,18-20H,6-12H2,1-5H3/t14-,18+,19-,20-,22+,23-,24-/m0/s1
#inchikey PSGAAPLEWMOORI
#Ion_Source LC-ESI
#Instrument qTof
#Compound_Source NIH Pharmacologically Active Library
#PI Dorrestein
#Data_Collector VP/LMS
#Scan -1
#Precursor_MZ 387.261
#ExactMass 386.246
#Charge 1
#CAS_Number N/A
#Pubmed_ID N/A
#Smiles C[C@H]1C[C@H]2[C@@H]3CC[C@](OC(=O)C)(C(=O)C)[C@@]3(C)CC[C@@H]2[C@@]4(C)CCC(=O)C=C14
#INCHI_AUX N/A
#Library_Class 1
#SpectrumID CCMSLIB00000086116
#IonMode Positive
#UpdateWorkflowName UPDATE-SINGLE-ANNOTATED-GOLD
#LibraryQualityString Gold
#TaskID d252d724072548979f1f6f1ced849daf
##Scan# 2405
#SpectrumFile p5-F02_GF2_01_18465.mzXML
#LibraryName Pharm_Active_Library.mgf
#MQScore -1
#Organism Pharm_Active_Library
#TIC_Query 0
#RT_Query -1
#MZErrorPPM -1
#SharedPeaks 0
#MassDiff 0
#LibMZ -1
#SpecMZ 387.261
#SpecCharge 0
#internalFilename spec-00000.mgf

>collision 0
93.0714 3.24
97.0647 18.03
105.0698 18.5
107.0849 6.23
109.0657 5.65
109.1013 5.84
117.0699 3.21
119.0858 16.65
123.0806 100.0
128.0605 3.3
129.0702 3.45
130.0772 3.09
131.0849 10.2
133.1007 11.38
135.1174 3.62
137.096 18.29
143.0855 6.34
145.1006 14.2
147.1166 24.22
155.0842 4.27
156.093 5.66
157.1011 9.22
159.1169 13.47
161.132 9.82
163.1113 3.55
169.1004 3.94
171.116 9.35
173.1322 16.3
175.112 4.2
175.1476 20.77
183.1168 7.91
185.1322 7.03
187.1103 3.18
187.1479 5.47
189.1284 4.72
197.133 7.88
199.1498 8.66
209.1333 3.4
211.1478 3.51
215.1411 10.09
225.1636 6.02
227.1801 5.41
251.18 5.28
265.1947 3.51
266.2028 5.62
267.2106 10.16
269.191 4.18
283.2082 4.16
284.2141 7.22
285.2228 14.38
309.2219 5.34
327.2325 3.64
387.2548 0.0
