>compound L-THYROXINE
>formula C15H11I4NO4 
>ionization [M+H]+
>parentmass 777.695862
#inchi InChI=1S/C15H11I4NO4/c16-8-4-7(5-9(17)13(8)21)24-14-10(18)1-6(2-11(14)19)3-12(20)15(22)23/h1-2,4-5,12,21H,3,20H2,(H,22,23)/t12-/m0/s1
#inchikey XUIIKFGFIJCVMT
#Ion_Source LC-ESI
#Instrument qTof
#Compound_Source Commercial
#PI Dorrestein
#Data_Collector Garg_Neha
#Scan -1
#Precursor_MZ 777.698
#ExactMass 776.687
#Charge 1
#CAS_Number N/A
#Pubmed_ID N/A
#Smiles N/A
#INCHI_AUX N/A
#Library_Class 1
#SpectrumID CCMSLIB00000077006
#IonMode Positive
#UpdateWorkflowName UPDATE-SINGLE-ANNOTATED-GOLD
#LibraryQualityString Gold
#TaskID 48f7f52fc6d249b5abbcc6e7b3df5969
##Scan# 1247
#SpectrumFile NCP002928_G2_H11_BA5_01_15699.mzXML
#LibraryName NIH_Clinical_Collection_2.mgf
#MQScore -1
#Organism NIHcollection2_04212014_2_mgf
#TIC_Query 0
#RT_Query -1
#MZErrorPPM -1
#SharedPeaks 0
#MassDiff 0
#LibMZ -1
#SpecMZ 777.698
#SpecCharge 0
#internalFilename spec-00000.mgf

>collision 0
197.0594 0.87
223.0615 1.92
224.0703 1.16
253.0505 0.45
309.9487 1.6
322.9555 1.79
323.9645 7.6
336.9343 0.47
337.944 1.68
349.9677 2.8
350.9754 12.44
379.9543 6.93
448.8545 1.99
449.8569 0.89
450.8664 3.61
461.8598 0.39
464.8443 0.89
477.8791 2.2
478.8642 1.24
488.8499 0.82
506.8554 1.03
563.7598 1.48
576.762 3.01
577.7709 2.55
587.7569 1.07
588.7645 0.42
591.7514 2.37
603.7762 0.67
604.7844 16.44
633.7625 8.93
718.656 3.76
731.6895 100.0
760.6668 7.4
762.6685 0.42
777.6959 132.8
