>compound TAXIFOLIN-(+)
>formula C15H12O7
>ionization [M+H]+
>parentmass 305.065155
#inchi InChI=1S/C15H12O7/c16-7-4-10(19)12-11(5-7)22-15(14(21)13(12)20)6-1-2-8(17)9(18)3-6/h1-5,14-19,21H/t14-,15+/m0/s1
#inchikey CXQWRCVTCMQVQX
#Ion_Source LC-ESI
#Instrument qTof
#Compound_Source Commercial
#PI Dorrestein
#Data_Collector Garg_Neha
#Scan -1
#Precursor_MZ 305.066
#ExactMass 304.058
#Charge 1
#CAS_Number N/A
#Pubmed_ID N/A
#Smiles O[C@@H]1[C@H](Oc2cc(O)cc(O)c2C1=O)c3ccc(O)c(O)c3
#INCHI_AUX N/A
#Library_Class 1
#SpectrumID CCMSLIB00000079029
#IonMode Positive
#UpdateWorkflowName UPDATE-SINGLE-ANNOTATED-GOLD
#LibraryQualityString Gold
#TaskID 278b19f5865741e282cec7349aa7e7a1
##Scan# 1089
#SpectrumFile NCP003352_G2_H11_BC7_01_15721.mzXML
#LibraryName NIHcollectionI_05062014.mgf
#MQScore -1
#Organism NIHcollectionI_05062014
#TIC_Query 0
#RT_Query -1
#MZErrorPPM -1
#SharedPeaks 0
#MassDiff 0
#LibMZ -1
#SpecMZ 305.066
#SpecCharge 0
#internalFilename spec-00000.mgf

>collision 0
107.05 3.79
123.0452 13.5
124.0501 2.07
125.0227 1.61
149.024 15.14
150.0675 1.87
151.039 2.07
152.0458 4.22
153.0186 32.69
159.0794 1.98
161.0238 4.3
167.0326 4.87
173.0598 1.53
178.064 2.86
179.0336 1.98
180.0418 4.25
185.0598 5.6
195.0655 64.53
213.0566 7.22
231.0656 21.71
241.0517 4.59
259.06 28.9
287.0537 17.27
305.0652 11.83
