>compound Naratriptan HCl
>formula C17H25N3O2S
>ionization [M+H]+
>parentmass 336.17402449209055
#inchi InChI=1S/C17H25N3O2S/c1-18-23(21,22)10-7-13-3-4-17-15(11-13)16(12-19-17)14-5-8-20(2)9-6-14/h3-4,11-12,14,18-19H,5-10H2,1-2H3
#inchikey AMKVXSZCKVJAGH
#origInchi InChI=1S/C17H25N3O2S.ClH/c1-18-23(21,22)10-7-13-3-4-17-15(11-13)16(12-19-17)14-5-8-20(2)9-6-14;/h3-4,11-12,14,18-19H,5-10H2,1-2H3;1H
#Ion_Source LC-ESI
#Instrument qTof
#Compound_Source Commercial
#PI Dorrestein
#Data_Collector Garg_Neha
#Scan -1
#Precursor_MZ 336.174
#ExactMass 335.167
#Charge 1
#CAS_Number 143388-64-1, 121679-13-8(free base)
#Pubmed_ID N/A
#Smiles C1(=CC=C2C(=C1)C(=CN2)C3CCN(CC3)C)CCS(=O)(=O)NC.Cl
#INCHI_AUX N/A
#Library_Class 1
#SpectrumID CCMSLIB00000078161
#IonMode Positive
#UpdateWorkflowName UPDATE-SINGLE-ANNOTATED-GOLD
#LibraryQualityString Gold
#TaskID 77f51c88eb8b467eb4a01dd2d0cb90d2
##Scan# 1045
#SpectrumFile Plate3_1_20_GG9_01_16498.mzXML
#LibraryName FDALibrary_2_04302014.mgf
#MQScore -1
#Organism FDALibrary_2_04302014
#TIC_Query 0
#RT_Query -1
#MZErrorPPM -1
#SharedPeaks 0
#MassDiff 0
#LibMZ -1
#SpecMZ 336.174
#SpecCharge 0
#internalFilename spec-00000.mgf

>collision 0
96.0808 15.49
98.0968 100.0
130.0657 5.78
132.082 6.14
142.065 1.88
144.0795 10.67
145.0885 3.86
156.0808 4.3
158.0976 1.84
167.0717 1.96
169.0885 3.38
170.0971 3.82
182.0976 5.26
184.113 10.21
185.1195 3.84
195.1028 3.55
196.1096 2.94
197.1184 2.86
210.1287 29.83
211.1316 7.51
214.1449 3.72
227.085 29.68
227.1543 3.63
241.1705 48.26
246.1362 2.36
274.1675 2.34
277.1005 5.03
305.1343 7.79
336.1778 1227.59
