>compound [(8R,9S,10R,13S,14S,17R)-17-acetyl-6,10,13-trimethyl-3-oxo-2,8,9,11,12,14,15,16-octahydro-1H-cyclopenta[a]phenanthren-17-yl] acetate
>formula C24H32O4
>ionization [M+H]+
>parentmass 385.23733595609053
#inchi InChI=1S/C24H32O4/c1-14-12-18-19(22(4)9-6-17(27)13-21(14)22)7-10-23(5)20(18)8-11-24(23,15(2)25)28-16(3)26/h12-13,18-20H,6-11H2,1-5H3/t18-,19+,20+,22-,23+,24+/m1/s1
#inchikey RQZAXGRLVPAYTJ
#Ion_Source LC-ESI
#Instrument qTof
#Compound_Source Commercial
#PI Dorrestein
#Data_Collector Garg_Neha
#Scan -1
#Precursor_MZ 385.237
#ExactMass 384.23
#Charge 1
#CAS_Number N/A
#Pubmed_ID N/A
#Smiles CC(=O)O[C@@]1(CC[C@H]2[C@@H]3C=C(C)C4=CC(=O)CC[C@]4(C)[C@H]3CC[C@@]21C)C(=O)C
#INCHI_AUX N/A
#Library_Class 1
#SpectrumID CCMSLIB00000079011
#IonMode Positive
#UpdateWorkflowName UPDATE-SINGLE-ANNOTATED-GOLD
#LibraryQualityString Gold
#TaskID 278b19f5865741e282cec7349aa7e7a1
##Scan# 2253
#SpectrumFile NCP003352_E2_F11_BC6_01_15720.mzXML
#LibraryName NIHcollectionI_05062014.mgf
#MQScore -1
#Organism NIHcollectionI_05062014
#TIC_Query 0
#RT_Query -1
#MZErrorPPM -1
#SharedPeaks 0
#MassDiff 0
#LibMZ -1
#SpecMZ 385.237
#SpecCharge 0
#internalFilename spec-00000.mgf

>collision 0
131.0857 1.17
133.1029 2.52
145.1016 2.14
147.1174 1.08
149.0961 1.07
156.0924 1.19
157.1022 1.76
159.1164 1.17
161.0967 2.5
169.1007 2.34
171.1178 1.79
173.0957 1.6
175.1122 5.25
183.1169 4.34
185.1326 1.56
187.1118 5.45
189.1274 1.62
197.1322 1.79
198.1397 2.11
209.1328 8.54
211.1471 7.2
221.1331 1.21
223.148 5.72
224.1559 22.74
239.1415 1.31
241.1579 3.34
249.1636 4.2
251.1436 1.08
255.1744 6.22
263.1792 1.92
265.1949 14.5
267.1743 54.56
281.1906 5.69
282.1978 14.49
307.2049 8.14
325.2162 100.0
385.2374 118.44
