>compound Piroxicam
>formula C15H13N3O4S 
>ionization [M+H]+
>parentmass 332.071
#inchi InChI=1S/C15H13N3O4S/c1-18-13(15(20)17-12-8-4-5-9-16-12)14(19)10-6-2-3-7-11(10)23(18,21)22/h2-9,19H,1H3,(H,16,17,20)
#inchikey QYSPLQLAKJAUJT
#Ion_Source LC-ESI
#Instrument qTof
#Compound_Source Isolated
#PI Sirenas
#Data_Collector Ed Esquenazi 
#Scan -1
#Precursor_MZ 332.071
#ExactMass 0.0
#Charge 1
#CAS_Number N/A
#Pubmed_ID N/A
#Smiles N/A
#INCHI_AUX N/A
#Library_Class 3
#SpectrumID CCMSLIB00000006205
#IonMode Positive
#UpdateWorkflowName UPDATE-SINGLE-ANNOTATED-BRONZE
#LibraryQualityString Bronze
#TaskID d19310cd93df49b68e9fcbec27720eb5
##Scan# 3
#SpectrumFile Piroxicam.mgf
#LibraryName fda_library.mgf
#MQScore -1
#Organism fda_library
#TIC_Query 0
#RT_Query -1
#MZErrorPPM -1
#SharedPeaks 0
#MassDiff 0
#LibMZ -1
#SpecMZ 332.071
#SpecCharge 0
#internalFilename spec-00000.mgf

>collision 0
105.0338 1.86
105.0444 2.09
107.0608 1.61
109.0102 2.1
121.0397 100.0
136.0874 1.09
137.0042 2.43
148.0501 0.86
149.0591 1.03
153.0 5.29
164.0155 1.1
164.082 2.82
182.0261 0.29
210.0236 1.36
332.071 0.0
