>compound MLS000876987-01!(3S,3'R)-4-methyl-3'-phenylspiro[1H-1,4-benzodiazepine-3,2'-oxirane]-2,5-dione
>formula C17H14N2O3
>ionization [M+H]+
>parentmass 295.108
#inchi InChI=1S/C17H14N2O3/c1-19-15(20)12-9-5-6-10-13(12)18-16(21)17(19)14(22-17)11-7-3-2-4-8-11/h2-10,14H,1H3,(H,18,21)/t14-,17+/m1/s1
#inchikey APLKWZASYUZSBL
#Ion_Source LC-ESI
#Instrument qTof
#Compound_Source NIH Natural Product Library
#PI Dorrestein
#Data_Collector VVP/LMS
#Scan -1
#Precursor_MZ 295.108
#ExactMass 294.1
#Charge 1
#CAS_Number N/A
#Pubmed_ID N/A
#Smiles CN1C(=O)c2ccccc2NC(=O)[C@@]31O[C@@H]3c4ccccc4
#INCHI_AUX N/A
#Library_Class 1
#SpectrumID CCMSLIB00000080312
#IonMode Positive
#UpdateWorkflowName UPDATE-SINGLE-ANNOTATED-GOLD
#LibraryQualityString Gold
#TaskID b1d8e8f6646f4e71acdff9ca3d919d08
##Scan# 1778
#SpectrumFile p2-B07_GB7_01_17995.mzXML
#LibraryName NIH_Natural_Products_Library.mgf
#MQScore -1
#Organism NIH_Natural_Products_Library
#TIC_Query 0
#RT_Query -1
#MZErrorPPM -1
#SharedPeaks 0
#MassDiff 0
#LibMZ -1
#SpecMZ 295.108
#SpecCharge 0
#internalFilename spec-00000.mgf

>collision 0
104.0503 1.18
105.034 0.58
118.0294 3.19
118.0645 0.71
120.0453 3.68
130.0282 1.56
146.0246 100.0
153.0688 1.28
159.0544 1.32
165.0692 1.54
177.0658 2.98
180.0805 4.89
190.0646 1.35
208.0777 3.51
295.108 0.0
