>compound MLS002172448-01!LY-367,265
>formula C24H25FN4O2S
>ionization [M+H]+
>parentmass 453.1755017120905
#inchi InChI=1S/C24H25FN4O2S/c25-19-6-7-20-21(16-26-22(20)15-19)17-8-11-27(12-9-17)13-14-28-23-5-1-3-18-4-2-10-29(24(18)23)32(28,30)31/h1,3,5-8,15-16,26H,2,4,9-14H2
#inchikey BJIPVHLRWSDKOS
#Ion_Source LC-ESI
#Instrument qTof
#Compound_Source NIH Pharmacologically Active Library
#PI Dorrestein
#Data_Collector VP/LMS
#Scan -1
#Precursor_MZ 453.186
#ExactMass 452.168
#Charge 1
#CAS_Number N/A
#Pubmed_ID N/A
#Smiles Fc1ccc2c(c[nH]c2c1)C3=CCN(CCN4c5cccc6CCCN(c56)S4(=O)=O)CC3
#INCHI_AUX N/A
#Library_Class 1
#SpectrumID CCMSLIB00000085564
#IonMode Positive
#UpdateWorkflowName UPDATE-SINGLE-ANNOTATED-GOLD
#LibraryQualityString Gold
#TaskID d252d724072548979f1f6f1ced849daf
##Scan# 1839
#SpectrumFile p4-C08_GC8_01_18356.mzXML
#LibraryName Pharm_Active_Library.mgf
#MQScore -1
#Organism Pharm_Active_Library
#TIC_Query 0
#RT_Query -1
#MZErrorPPM -1
#SharedPeaks 0
#MassDiff 0
#LibMZ -1
#SpecMZ 453.186
#SpecCharge 0
#internalFilename spec-00000.mgf

>collision 0
104.0494 0.24
117.0573 0.47
118.0639 0.38
119.0603 0.21
121.0768 0.82
130.0655 2.24
131.0612 9.3
132.0681 1.11
145.076 7.17
146.076 1.25
147.0917 3.29
148.0556 0.28
157.0756 0.85
158.0956 1.12
159.0929 100.0
171.0916 1.78
173.107 5.88
174.1027 2.78
185.063 3.17
185.1058 1.17
200.0863 14.13
202.1339 67.97
266.0938 11.45
453.1695 0.0
