>compound MLS001216204-01!
>formula C19H23N3O
>ionization [M+H]+
>parentmass 310.1913888080905
#inchi InChI=1S/C19H23N3O/c1-21(2)13-8-14-23-19-17-11-6-7-12-18(17)22(20-19)15-16-9-4-3-5-10-16/h3-7,9-12H,8,13-15H2,1-2H3
#inchikey CNBGNNVCVSKAQZ
#origInchi InChI=1S/C19H23N3O.ClH/c1-21(2)13-8-14-23-19-17-11-6-7-12-18(17)22(20-19)15-16-9-4-3-5-10-16;/h3-7,9-12H,8,13-15H2,1-2H3;1H
#Ion_Source LC-ESI
#Instrument qTof
#Compound_Source NIH Pharmacologically Active Library
#PI Dorrestein
#Data_Collector VP/LMS
#Scan -1
#Precursor_MZ 310.196
#ExactMass 309.184
#Charge 1
#CAS_Number N/A
#Pubmed_ID N/A
#Smiles CN(C)CCCOc1nn(Cc2ccccc2)c3ccccc13.Cl
#INCHI_AUX N/A
#Library_Class 1
#SpectrumID CCMSLIB00000085796
#IonMode Positive
#UpdateWorkflowName UPDATE-SINGLE-ANNOTATED-GOLD
#LibraryQualityString Gold
#TaskID d252d724072548979f1f6f1ced849daf
##Scan# 1701
#SpectrumFile p4-F07_GF7_01_18391.mzXML
#LibraryName Pharm_Active_Library.mgf
#MQScore -1
#Organism Pharm_Active_Library
#TIC_Query 0
#RT_Query -1
#MZErrorPPM -1
#SharedPeaks 0
#MassDiff 0
#LibMZ -1
#SpecMZ 310.196
#SpecCharge 0
#internalFilename spec-00000.mgf

>collision 0
91.0552 7.18
118.0413 17.46
145.0747 5.18
146.0472 68.36
173.0712 1.63
174.0779 100.0
265.1333 16.52
310.1914 0.0
