>compound MLS001332489-01!H-7
>formula C14H17N3O2S
>ionization [M+H]+
>parentmass 292.110046
#inchi InChI=1S/C14H17N3O2S/c1-11-9-16-7-8-17(11)20(18,19)14-4-2-3-12-10-15-6-5-13(12)14/h2-6,10-11,16H,7-9H2,1H3
#inchikey BDVFVCGFMNCYPV
#Ion_Source LC-ESI
#Instrument qTof
#Compound_Source NIH Pharmacologically Active Library
#PI Dorrestein
#Data_Collector VP/LMS
#Scan -1
#Precursor_MZ 292.114
#ExactMass 291.104
#Charge 1
#CAS_Number N/A
#Pubmed_ID N/A
#Smiles CC1CNCCN1S(=O)(=O)c2cccc3cnccc23
#INCHI_AUX N/A
#Library_Class 3
#SpectrumID CCMSLIB00000084897
#IonMode Positive
#UpdateWorkflowName UPDATE-SINGLE-ANNOTATED-BRONZE
#LibraryQualityString Bronze
#TaskID d252d724072548979f1f6f1ced849daf
##Scan# 1201
#SpectrumFile p3-C04_GC4_01_18249.mzXML
#LibraryName Pharm_Active_Library.mgf
#MQScore -1
#Organism Pharm_Active_Library
#TIC_Query 0
#RT_Query -1
#MZErrorPPM -1
#SharedPeaks 0
#MassDiff 0
#LibMZ -1
#SpecMZ 292.114
#SpecCharge 0
#internalFilename spec-00000.mgf

>collision 0
46.0179 14.47
90.0197 10.0
99.0453 28.51
99.0917 50.43
105.0558 38.51
109.1017 11.06
120.0468 12.34
123.1171 16.81
128.0503 31.28
129.0579 96.81
130.0632 81.49
144.0427 20.85
145.0506 81.91
146.0587 100.0
156.0549 44.26
157.0553 14.47
161.0432 16.81
171.046 11.06
194.0282 28.94
209.0397 15.32
213.1264 11.7
235.0542 41.91
292.11 41.49
