>compound MLS001158199-01!(3R)-N-[(2S)-1-[(2S)-2-(hydroxymethyl)pyrrolidin-1-yl]-4-methylsulfanyl-1-oxobutan-2-yl]-5-oxo-3,9b-dihydro-2H-[1,3]thiazolo[2,3-a]isoindole-3-carboxamide
>formula C21H27N3O4S2
>ionization [M+H]+
>parentmass 450.152
#inchi InChI=1S/C21H27N3O4S2/c1-29-10-8-16(20(28)23-9-4-5-13(23)11-25)22-18(26)17-12-30-21-15-7-3-2-6-14(15)19(27)24(17)21/h2-3,6-7,13,16-17,21,25H,4-5,8-12H2,1H3,(H,22,26)/t13-,16-,17-,21?/m0/s1
#inchikey MJRBGADEELXFRE
#Ion_Source LC-ESI
#Instrument qTof
#Compound_Source NIH Natural Product Library
#PI Dorrestein
#Data_Collector VVP/LMS
#Scan -1
#Precursor_MZ 450.152
#ExactMass 449.144
#Charge 1
#CAS_Number N/A
#Pubmed_ID N/A
#Smiles CSCC[C@H](NC(=O)[C@@H]1CSC2N1C(=O)c3ccccc23)C(=O)N4CCC[C@H]4CO
#INCHI_AUX N/A
#Library_Class 1
#SpectrumID CCMSLIB00000079702
#IonMode Positive
#UpdateWorkflowName UPDATE-SINGLE-ANNOTATED-GOLD
#LibraryQualityString Gold
#TaskID b1d8e8f6646f4e71acdff9ca3d919d08
##Scan# 1863
#SpectrumFile p1-A10_GA10_01_17882.mzXML
#LibraryName NIH_Natural_Products_Library.mgf
#MQScore -1
#Organism NIH_Natural_Products_Library
#TIC_Query 0
#RT_Query -1
#MZErrorPPM -1
#SharedPeaks 0
#MassDiff 0
#LibMZ -1
#SpecMZ 450.152
#SpecCharge 0
#internalFilename spec-00000.mgf

>collision 0
104.037 0.7
135.0011 0.43
155.0727 0.41
158.0351 0.92
159.0346 0.59
162.0126 2.31
162.9975 1.26
163.9977 0.52
164.9921 0.43
166.0174 0.44
186.966 0.45
187.9918 0.55
190.0039 100.0
191.0066 11.99
191.9995 4.96
193.0063 0.44
212.0703 0.46
217.9946 12.66
218.9951 1.63
245.0353 0.44
273.0287 2.15
275.0182 0.73
321.0237 0.71
450.15 0.0
