>compound MLS000756699-01!
>formula C22H26O5
>ionization [M+H]+
>parentmass 371.186462
#inchi InChI=1S/C22H26O5/c1-6-7-13-10-15(23)26-21-16(13)20-14(8-9-22(4,5)27-20)19-17(21)18(24)11(2)12(3)25-19/h8-12,18,24H,6-7H2,1-5H3
#inchikey NIDRYBLTWYFCFV
#Ion_Source LC-ESI
#Instrument qTof
#Compound_Source NIH Natural Product Library
#PI Dorrestein
#Data_Collector VVP/LMS
#Scan -1
#Precursor_MZ 371.186
#ExactMass 370.178
#Charge 1
#CAS_Number N/A
#Pubmed_ID N/A
#Smiles CCCc1cc(=O)oc2c3C(O)C(C)C(C)Oc3c4C=CC(C)(C)Oc4c12
#INCHI_AUX N/A
#Library_Class 1
#SpectrumID CCMSLIB00000080054
#IonMode Positive
#UpdateWorkflowName UPDATE-SINGLE-ANNOTATED-GOLD
#LibraryQualityString Gold
#TaskID b1d8e8f6646f4e71acdff9ca3d919d08
##Scan# 2748
#SpectrumFile p2-E03_GE3_01_18027.mzXML
#LibraryName NIH_Natural_Products_Library.mgf
#MQScore -1
#Organism NIH_Natural_Products_Library
#TIC_Query 0
#RT_Query -1
#MZErrorPPM -1
#SharedPeaks 0
#MassDiff 0
#LibMZ -1
#SpecMZ 371.186
#SpecCharge 0
#internalFilename spec-00000.mgf

>collision 0
105.0693 3.33
135.044 3.93
137.0595 6.09
141.0707 3.25
161.0599 3.36
185.0953 4.13
199.0761 5.68
213.092 5.57
215.1047 3.43
227.0708 4.3
227.1076 7.88
239.1075 5.28
241.0845 6.32
241.1222 7.32
243.1026 4.18
253.086 3.81
253.1201 4.05
255.1015 14.62
255.1361 7.87
257.1153 4.02
267.1007 8.09
267.1375 3.8
269.0814 3.36
269.1169 7.96
281.1172 10.51
283.0944 13.44
283.132 9.7
285.1128 5.63
293.1191 3.84
293.1509 4.89
295.0961 4.45
295.1324 4.57
296.1396 3.99
297.113 4.75
309.1126 9.42
311.1279 31.97
311.1635 11.69
323.1275 5.74
324.1336 4.89
325.1794 21.53
335.1673 6.1
353.1757 100.0
371.186 2.67
