>compound Felodipine (Plendil)
>formula C18H19Cl2NO4
>ionization [M+H]+
>parentmass 384.076
#inchi InChI=1S/C18H19Cl2NO4/c1-5-25-18(23)14-10(3)21-9(2)13(17(22)24-4)15(14)11-7-6-8-12(19)16(11)20/h6-8,15,21H,5H2,1-4H3
#inchikey RZTAMFZIAATZDJ
#Ion_Source LC-ESI
#Instrument qTof
#Compound_Source Commercial
#PI Dorrestein
#Data_Collector Garg_Neha
#Scan -1
#Precursor_MZ 384.076
#ExactMass 383.069
#Charge 1
#CAS_Number 72509-76-3
#Pubmed_ID N/A
#Smiles C1(=C(NC(=C(C1C2=CC=CC(=C2Cl)Cl)C(OC)=O)C)C)C(OCC)=O
#INCHI_AUX N/A
#Library_Class 1
#SpectrumID CCMSLIB00000078328
#IonMode Positive
#UpdateWorkflowName UPDATE-SINGLE-ANNOTATED-GOLD
#LibraryQualityString Gold
#TaskID 77f51c88eb8b467eb4a01dd2d0cb90d2
##Scan# 2265
#SpectrumFile Plate5_41_60_GH8_01_16510.mzXML
#LibraryName FDALibrary_2_04302014.mgf
#MQScore -1
#Organism FDALibrary_2_04302014
#TIC_Query 0
#RT_Query -1
#MZErrorPPM -1
#SharedPeaks 0
#MassDiff 0
#LibMZ -1
#SpecMZ 384.076
#SpecCharge 0
#internalFilename spec-00000.mgf

>collision 0
160.0402 1.05
178.0487 1.3
192.0652 0.9
208.9938 1.58
210.0761 5.58
215.0509 1.12
228.0207 0.93
236.9855 1.17
238.108 5.83
242.0356 2.96
243.0446 7.0
250.0174 1.7
252.0106 1.06
260.0467 1.39
270.0307 4.15
272.0259 0.9
278.0122 12.5
281.0113 0.86
288.042 12.36
290.0369 3.33
291.0451 1.14
302.058 11.13
306.008 13.15
308.0053 6.77
322.0058 1.61
324.0173 21.48
326.0145 15.45
327.018 1.37
338.0345 100.0
341.0337 5.09
342.0307 2.56
352.0503 67.32
355.0481 6.02
356.044 2.05
384.0743 0.0
