>compound 501-36-0
>formula C14H12O3
>ionization [M+H]+
>parentmass 229.08699
#inchi InChI=1S/C14H12O3/c15-12-5-3-10(4-6-12)1-2-11-7-13(16)9-14(17)8-11/h1-9,15-17H/b2-1+
#inchikey LUKBXSAWLPMMSZ
#Ion_Source LC-ESI
#Instrument qTof
#Compound_Source Commercial
#PI Dorrestein
#Data_Collector Garg_Neha
#Scan -1
#Precursor_MZ 229.086
#ExactMass 228.079
#Charge 1
#CAS_Number N/A
#Pubmed_ID N/A
#Smiles Oc1ccc(/C=C/c2cc(O)cc(O)c2)cc1
#INCHI_AUX N/A
#Library_Class 1
#SpectrumID CCMSLIB00000079075
#IonMode Positive
#UpdateWorkflowName UPDATE-SINGLE-ANNOTATED-GOLD
#LibraryQualityString Gold
#TaskID 278b19f5865741e282cec7349aa7e7a1
##Scan# 1142
#SpectrumFile NCP003432_E2_F11_BD2_01_15724.mzXML
#LibraryName NIHcollectionI_05062014.mgf
#MQScore -1
#Organism NIHcollectionI_05062014
#TIC_Query 0
#RT_Query -1
#MZErrorPPM -1
#SharedPeaks 0
#MassDiff 0
#LibMZ -1
#SpecMZ 229.086
#SpecCharge 0
#internalFilename spec-00000.mgf

>collision 0
91.0529 5.72
92.996 4.29
107.0492 66.19
108.0552 9.4
119.049 22.37
128.0625 4.39
133.0656 8.89
135.044 100.0
136.0509 16.75
141.0689 5.11
145.0661 13.07
154.076 4.9
155.0846 10.11
160.0517 4.8
165.0699 50.36
181.0643 10.21
182.0726 14.61
183.0808 16.85
187.0754 7.87
201.0911 6.33
211.0751 28.7
229.0859 509.19
