>compound MLS001401409-01!Amlodipine
>formula C20H25ClN2O5
>ionization [M+H]+
>parentmass 409.15247603209053
#inchi InChI=1S/C20H25ClN2O5/c1-4-28-20(25)18-15(11-27-10-9-22)23-12(2)16(19(24)26-3)17(18)13-7-5-6-8-14(13)21/h5-8,17,25H,4,9-11,22H2,1-3H3/b20-18+
#inchikey VNTNQZVUQJROCO
#Ion_Source LC-ESI
#Instrument qTof
#Compound_Source NIH Pharmacologically Active Library
#PI Dorrestein
#Data_Collector VP/LMS
#Scan -1
#Precursor_MZ 409.147
#ExactMass 408.145
#Charge 1
#CAS_Number N/A
#Pubmed_ID N/A
#Smiles CCO/C(=C\1/C(C(=C(C)N=C1COCCN)C(=O)OC)c2ccccc2Cl)/O
#INCHI_AUX N/A
#Library_Class 1
#SpectrumID CCMSLIB00000085294
#IonMode Positive
#UpdateWorkflowName UPDATE-SINGLE-ANNOTATED-GOLD
#LibraryQualityString Gold
#TaskID d252d724072548979f1f6f1ced849daf
##Scan# 1785
#SpectrumFile p3-G11_GG11_01_18304.mzXML
#LibraryName Pharm_Active_Library.mgf
#MQScore -1
#Organism Pharm_Active_Library
#TIC_Query 0
#RT_Query -1
#MZErrorPPM -1
#SharedPeaks 0
#MassDiff 0
#LibMZ -1
#SpecMZ 409.147
#SpecCharge 0
#internalFilename spec-00000.mgf

>collision 0
124.0391 6.49
137.0133 17.55
142.0635 24.08
143.0705 15.54
148.0383 7.88
149.014 30.71
163.0295 10.9
165.0094 45.42
170.0599 51.5
176.0329 31.22
177.0112 7.21
178.0401 28.34
181.0875 9.19
184.0747 10.27
196.0755 14.89
197.0814 11.62
202.0851 6.31
204.0575 14.91
206.0368 100.0
208.0604 89.52
218.0612 6.08
220.0528 75.24
224.0691 16.02
225.0781 12.3
226.0832 7.01
232.0521 35.62
233.0602 9.62
234.0549 6.56
238.0627 47.47
240.1019 9.73
243.0446 6.26
244.0526 18.56
248.0468 22.28
260.0465 28.25
261.0524 7.66
270.0316 8.79
288.042 16.54
303.091 12.55
306.0527 11.24
334.0857 53.93
377.1266 11.49
409.1561 0.0
