>compound MLS002172495-01!2-Chloro-N6-cyclopentyladenosine hemihydrate
>formula C15H20ClN5O4
>ionization [M+H]+
>parentmass 370.12765825209055
#inchi InChI=1S/C15H20ClN5O4/c16-15-19-12(18-7-3-1-2-4-7)9-13(20-15)21(6-17-9)14-11(24)10(23)8(5-22)25-14/h6-8,10-11,14,22-24H,1-5H2,(H,18,19,20)/t8-,10-,11-,14-/m1/s1
#inchikey XSMYYYQVWPZWIZ
#origInchi InChI=1S/C15H20ClN5O4.H2O/c16-15-19-12(18-7-3-1-2-4-7)9-13(20-15)21(6-17-9)14-11(24)10(23)8(5-22)25-14;/h6-8,10-11,14,22-24H,1-5H2,(H,18,19,20);1H2/t8-,10-,11-,14-;/m1./s1
#Ion_Source LC-ESI
#Instrument qTof
#Compound_Source NIH Pharmacologically Active Library
#PI Dorrestein
#Data_Collector VP/LMS
#Scan -1
#Precursor_MZ 370.129
#ExactMass 369.12
#Charge 1
#CAS_Number N/A
#Pubmed_ID N/A
#Smiles OC[C@H]1O[C@H]([C@H](O)[C@@H]1O)n2cnc3c(NC4CCCC4)nc(Cl)nc23.O
#INCHI_AUX N/A
#Library_Class 1
#SpectrumID CCMSLIB00000085906
#IonMode Positive
#UpdateWorkflowName UPDATE-SINGLE-ANNOTATED-GOLD
#LibraryQualityString Gold
#TaskID d252d724072548979f1f6f1ced849daf
##Scan# 1664
#SpectrumFile p4-G09_GG9_01_18405.mzXML
#LibraryName Pharm_Active_Library.mgf
#MQScore -1
#Organism Pharm_Active_Library
#TIC_Query 0
#RT_Query -1
#MZErrorPPM -1
#SharedPeaks 0
#MassDiff 0
#LibMZ -1
#SpecMZ 370.129
#SpecCharge 0
#internalFilename spec-00000.mgf

>collision 0
107.0341 0.58
134.046 29.94
152.9961 0.31
170.0225 100.0
238.0852 73.19
370.1277 0.0
