>compound MLS001032299-01!
>formula C26H28N2O5
>ionization [M+H]+
>parentmass 449.208
#inchi InChI=1S/C26H28N2O5/c1-14-8-21(24-15(2)16(3)26(31)33-22(24)9-14)32-17(4)25(30)27-11-18-10-19(13-27)20-6-5-7-23(29)28(20)12-18/h5-9,17-19H,10-13H2,1-4H3/t17?,18-,19+/m1/s1
#inchikey PTWGDMBYDPBAFW
#Ion_Source LC-ESI
#Instrument qTof
#Compound_Source NIH Natural Product Library
#PI Dorrestein
#Data_Collector VVP/LMS
#Scan -1
#Precursor_MZ 449.208
#ExactMass 448.2
#Charge 1
#CAS_Number N/A
#Pubmed_ID N/A
#Smiles CC(Oc1cc(C)cc2oc(=O)c(C)c(C)c12)C(=O)N3C[C@H]4C[C@@H](C3)c5cccc(=O)n5C4
#INCHI_AUX N/A
#Library_Class 1
#SpectrumID CCMSLIB00000080340
#IonMode Positive
#UpdateWorkflowName UPDATE-SINGLE-ANNOTATED-GOLD
#LibraryQualityString Gold
#TaskID b1d8e8f6646f4e71acdff9ca3d919d08
##Scan# 1800
#SpectrumFile p2-E07_GE7_01_18031.mzXML
#LibraryName NIH_Natural_Products_Library.mgf
#MQScore -1
#Organism NIH_Natural_Products_Library
#TIC_Query 0
#RT_Query -1
#MZErrorPPM -1
#SharedPeaks 0
#MassDiff 0
#LibMZ -1
#SpecMZ 449.208
#SpecCharge 0
#internalFilename spec-00000.mgf

>collision 0
109.0899 3.59
130.1115 1.19
132.127 1.5
133.0971 2.08
134.1051 6.16
135.114 1.39
143.1179 0.96
146.1094 17.99
147.1167 18.24
148.1246 16.17
149.1266 2.0
150.1376 0.71
172.1329 4.31
173.1416 19.74
187.1442 1.06
189.1652 100.0
190.1707 29.96
191.1804 30.13
203.1676 3.02
204.1609 0.72
217.1681 5.19
232.1781 1.69
247.2172 1.32
449.1982 0.0
