>compound MLS001140567-01!1-[2-[(6-oxo-7,8,9,10-tetrahydrobenzo[c]chromen-3-yl)oxy]acetyl]piperidine-4-carboxamide
>formula C21H24N2O5
>ionization [M+H]+
>parentmass 385.175171
#inchi InChI=1S/C21H24N2O5/c22-20(25)13-7-9-23(10-8-13)19(24)12-27-14-5-6-16-15-3-1-2-4-17(15)21(26)28-18(16)11-14/h5-6,11,13H,1-4,7-10,12H2,(H2,22,25)
#inchikey YYGSCYQUDZCDBG
#Ion_Source LC-ESI
#Instrument qTof
#Compound_Source NIH Natural Product Library
#PI Dorrestein
#Data_Collector VVP/LMS
#Scan -1
#Precursor_MZ 385.176
#ExactMass 384.169
#Charge 1
#CAS_Number N/A
#Pubmed_ID N/A
#Smiles NC(=O)C1CCN(CC1)C(=O)COc2ccc3c4CCCCc4c(=O)oc3c2
#INCHI_AUX N/A
#Library_Class 1
#SpectrumID CCMSLIB00000079666
#IonMode Positive
#UpdateWorkflowName UPDATE-SINGLE-ANNOTATED-GOLD
#LibraryQualityString Gold
#TaskID b1d8e8f6646f4e71acdff9ca3d919d08
##Scan# 1796
#SpectrumFile p1-E09_GE9_01_17929.mzXML
#LibraryName NIH_Natural_Products_Library.mgf
#MQScore -1
#Organism NIH_Natural_Products_Library
#TIC_Query 0
#RT_Query -1
#MZErrorPPM -1
#SharedPeaks 0
#MassDiff 0
#LibMZ -1
#SpecMZ 385.176
#SpecCharge 0
#internalFilename spec-00000.mgf

>collision 0
96.0809 9.77
98.0587 6.71
99.0672 4.61
107.0485 3.55
110.0602 4.95
112.0754 18.67
115.0541 4.85
124.0751 8.66
125.0841 11.59
127.0865 51.72
128.0621 5.9
131.0484 2.91
135.0437 3.89
141.1037 24.54
143.0855 25.69
145.0633 6.52
145.1021 4.27
159.0453 3.62
159.0793 4.11
171.0805 37.59
172.0835 3.31
173.0966 6.96
183.0811 9.49
187.076 3.93
188.0829 6.49
199.0753 14.47
201.0899 58.58
202.0948 7.51
216.078 9.34
229.0862 100.0
230.0904 11.62
241.0856 3.52
257.0813 15.58
269.1154 3.99
270.1135 19.04
297.1108 3.46
298.1087 11.47
312.1599 27.26
340.1555 65.47
368.149 17.47
385.1781 11.31
