>compound MLS001140206-01!(2S)-N-(1,3-benzodioxol-5-yl)-5-oxo-1-(3-oxo-1H-2-benzofuran-1-yl)pyrrolidine-2-carboxamide
>formula C20H16N2O6
>ionization [M+H]+
>parentmass 381.109
#inchi InChI=1S/C20H16N2O6/c23-17-8-6-14(18(24)21-11-5-7-15-16(9-11)27-10-26-15)22(17)19-12-3-1-2-4-13(12)20(25)28-19/h1-5,7,9,14,19H,6,8,10H2,(H,21,24)/t14-,19?/m0/s1
#inchikey CBLWRCYSLTYXQV
#Ion_Source LC-ESI
#Instrument qTof
#Compound_Source NIH Natural Product Library
#PI Dorrestein
#Data_Collector VVP/LMS
#Scan -1
#Precursor_MZ 381.109
#ExactMass 380.101
#Charge 1
#CAS_Number N/A
#Pubmed_ID N/A
#Smiles O=C(Nc1ccc2OCOc2c1)[C@@H]3CCC(=O)N3C4OC(=O)c5ccccc45
#INCHI_AUX N/A
#Library_Class 1
#SpectrumID CCMSLIB00000080123
#IonMode Positive
#UpdateWorkflowName UPDATE-SINGLE-ANNOTATED-GOLD
#LibraryQualityString Gold
#TaskID b1d8e8f6646f4e71acdff9ca3d919d08
##Scan# 1732
#SpectrumFile p2-D04_GD4_01_18016.mzXML
#LibraryName NIH_Natural_Products_Library.mgf
#MQScore -1
#Organism NIH_Natural_Products_Library
#TIC_Query 0
#RT_Query -1
#MZErrorPPM -1
#SharedPeaks 0
#MassDiff 0
#LibMZ -1
#SpecMZ 381.109
#SpecCharge 0
#internalFilename spec-00000.mgf

>collision 0
105.0342 15.34
133.03 100.0
142.0646 0.62
170.0594 1.22
198.056 0.93
224.0719 0.66
252.0663 10.59
381.109 0.0
