>compound Tretinoin (Aberela)
>formula C20H28O2
>ionization [M+H]+
>parentmass 301.215485
#inchi InChI=1S/C20H28O2/c1-15(8-6-9-16(2)14-19(21)22)11-12-18-17(3)10-7-13-20(18,4)5/h6,8-9,11-12,14H,7,10,13H2,1-5H3,(H,21,22)/b9-6+,12-11+,15-8+,16-14+
#inchikey SHGAZHPCJJPHSC
#Ion_Source LC-ESI
#Instrument qTof
#Compound_Source Commercial
#PI Dorrestein
#Data_Collector Garg_Neha
#Scan -1
#Precursor_MZ 301.216
#ExactMass 300.209
#Charge 1
#CAS_Number 302-79-4
#Pubmed_ID N/A
#Smiles C1CCC(=C(C1(C)C)/C=C/C(=C/C=C/C(=C/C(O)=O)C)C)C
#INCHI_AUX N/A
#Library_Class 1
#SpectrumID CCMSLIB00000078225
#IonMode Positive
#UpdateWorkflowName UPDATE-SINGLE-ANNOTATED-GOLD
#LibraryQualityString Gold
#TaskID 77f51c88eb8b467eb4a01dd2d0cb90d2
##Scan# 3532
#SpectrumFile Plate3_61_88_GH1_01_16501.mzXML
#LibraryName FDALibrary_2_04302014.mgf
#MQScore -1
#Organism FDALibrary_2_04302014
#TIC_Query 0
#RT_Query -1
#MZErrorPPM -1
#SharedPeaks 0
#MassDiff 0
#LibMZ -1
#SpecMZ 301.216
#SpecCharge 0
#internalFilename spec-00000.mgf

>collision 0
95.0856 9.22
105.0698 12.29
107.0854 8.58
119.0854 10.7
123.1177 100.0
127.0754 6.36
145.1023 22.14
147.1173 8.26
159.1152 35.81
161.098 30.72
173.0961 7.94
175.1479 8.9
179.1071 28.6
187.1118 10.59
191.1078 7.63
201.164 40.25
205.123 56.67
213.1259 7.94
219.1368 7.94
231.1399 9.22
245.1555 9.85
255.2105 5.72
283.207 22.35
301.2148 81.67
