>compound MLS002695918-01!70356-09-1
>formula C20H22O3
>ionization [M+H]+
>parentmass 311.1641710160905
#inchi InChI=1S/C20H22O3/c1-20(2,3)16-9-5-14(6-10-16)18(21)13-19(22)15-7-11-17(23-4)12-8-15/h5-12H,13H2,1-4H3
#inchikey XNEFYCZVKIDDMS
#Ion_Source LC-ESI
#Instrument qTof
#Compound_Source NIH Pharmacologically Active Library
#PI Dorrestein
#Data_Collector VP/LMS
#Scan -1
#Precursor_MZ 311.168
#ExactMass 310.157
#Charge 1
#CAS_Number N/A
#Pubmed_ID N/A
#Smiles COc1ccc(cc1)C(=O)CC(=O)c2ccc(cc2)C(C)(C)C
#INCHI_AUX N/A
#Library_Class 1
#SpectrumID CCMSLIB00000085805
#IonMode Positive
#UpdateWorkflowName UPDATE-SINGLE-ANNOTATED-GOLD
#LibraryQualityString Gold
#TaskID d252d724072548979f1f6f1ced849daf
##Scan# 3002
#SpectrumFile p4-F08_GF8_01_18392.mzXML
#LibraryName Pharm_Active_Library.mgf
#MQScore -1
#Organism Pharm_Active_Library
#TIC_Query 0
#RT_Query -1
#MZErrorPPM -1
#SharedPeaks 0
#MassDiff 0
#LibMZ -1
#SpecMZ 311.168
#SpecCharge 0
#internalFilename spec-00000.mgf

>collision 0
91.0542 2.13
92.025 2.15
93.0685 0.33
94.0423 0.73
103.0537 1.17
105.0701 8.81
107.0487 4.75
109.0649 1.32
115.0534 1.16
117.069 3.56
118.0768 6.03
131.0491 0.95
131.0846 1.68
133.1 3.29
135.0443 73.06
146.0723 25.59
150.066 7.44
161.0961 100.0
203.1048 1.18
311.1605 0.96
