>compound MLS001142422-01!
>formula C25H25FN4O4
>ionization [M+H]+
>parentmass 465.194
#inchi InChI=1S/C25H25FN4O4/c1-14(22(31)27-13-15-4-6-16(26)7-5-15)30-23(32)25(2)21-18(10-11-29(25)24(30)33)19-12-17(34-3)8-9-20(19)28-21/h4-9,12,14,28H,10-11,13H2,1-3H3,(H,27,31)/t14-,25-/m0/s1
#inchikey HEJJJSNFWORZEC
#Ion_Source LC-ESI
#Instrument qTof
#Compound_Source NIH Natural Product Library
#PI Dorrestein
#Data_Collector VVP/LMS
#Scan -1
#Precursor_MZ 465.194
#ExactMass 464.186
#Charge 1
#CAS_Number N/A
#Pubmed_ID N/A
#Smiles COc1ccc2[nH]c3c(CCN4C(=O)N([C@@H](C)C(=O)NCc5ccc(F)cc5)C(=O)[C@@]43C)c2c1
#INCHI_AUX N/A
#Library_Class 1
#SpectrumID CCMSLIB00000080554
#IonMode Positive
#UpdateWorkflowName UPDATE-SINGLE-ANNOTATED-GOLD
#LibraryQualityString Gold
#TaskID b1d8e8f6646f4e71acdff9ca3d919d08
##Scan# 2200
#SpectrumFile p2-E10_GE10_01_18034.mzXML
#LibraryName NIH_Natural_Products_Library.mgf
#MQScore -1
#Organism NIH_Natural_Products_Library
#TIC_Query 0
#RT_Query -1
#MZErrorPPM -1
#SharedPeaks 0
#MassDiff 0
#LibMZ -1
#SpecMZ 465.194
#SpecCharge 0
#internalFilename spec-00000.mgf

>collision 0
109.0456 59.69
110.0475 5.56
131.0747 1.38
159.0677 4.06
173.0817 4.65
174.0914 18.32
186.0901 1.86
198.0912 5.65
199.0878 4.23
200.0951 3.42
213.1024 13.97
214.1094 5.26
215.1178 30.69
216.1189 3.23
226.0741 1.47
241.097 28.28
243.1133 4.09
265.0877 0.93
267.1116 1.29
268.11 2.31
269.093 3.9
270.0881 3.49
280.1102 1.54
284.1395 100.0
286.1425 1.1
296.1026 2.57
306.124 1.86
307.1241 2.39
308.1275 1.31
311.1262 1.27
312.1342 14.28
314.1403 1.12
323.1552 3.29
324.1593 1.23
341.1261 4.45
349.1352 4.2
356.1469 1.13
392.1744 12.53
393.1784 3.8
420.172 3.51
465.1931 0.0
