>compound MLS001148629-01!
>formula C27H25F2N3OS
>ionization [M+H]+
>parentmass 478.175293
#inchi InChI=1S/C27H25F2N3OS/c1-18-24(26(33)32-16-17-34-27(32)30-18)12-15-31-13-10-21(11-14-31)25(19-2-6-22(28)7-3-19)20-4-8-23(29)9-5-20/h2-9,16-17H,10-15H2,1H3
#inchikey JUQLTPCYUFPYKE
#Ion_Source LC-ESI
#Instrument qTof
#Compound_Source NIH Pharmacologically Active Library
#PI Dorrestein
#Data_Collector VP/LMS
#Scan -1
#Precursor_MZ 478.177
#ExactMass 477.169
#Charge 1
#CAS_Number N/A
#Pubmed_ID N/A
#Smiles Cc1nc2sccn2c(=O)c1CCN3CCC(=C(c4ccc(F)cc4)c5ccc(F)cc5)CC3
#INCHI_AUX N/A
#Library_Class 1
#SpectrumID CCMSLIB00000085045
#IonMode Positive
#UpdateWorkflowName UPDATE-SINGLE-ANNOTATED-GOLD
#LibraryQualityString Gold
#TaskID d252d724072548979f1f6f1ced849daf
##Scan# 1946
#SpectrumFile p3-E02_GE2_01_18271.mzXML
#LibraryName Pharm_Active_Library.mgf
#MQScore -1
#Organism Pharm_Active_Library
#TIC_Query 0
#RT_Query -1
#MZErrorPPM -1
#SharedPeaks 0
#MassDiff 0
#LibMZ -1
#SpecMZ 478.177
#SpecCharge 0
#internalFilename spec-00000.mgf

>collision 0
98.0036 0.27
125.0166 18.08
126.0183 1.28
126.9958 5.03
138.0371 0.44
150.0251 0.3
151.0314 1.18
165.0472 5.24
166.0505 0.47
193.0437 100.0
194.0456 20.6
478.1753 6.78
