>compound (5S,8R,9S,10S,13S,14S,17S)-17-hydroxy-10,13,17-trimethyl-2,4,5,6,7,8,9,11,12,14,15,16-dodecahydro-1H-cyclopenta[a]phenanthren-3-one
>formula C20H32O2
>ionization [M+H]+
>parentmass 305.248474
#inchi InChI=1S/C20H32O2/c1-18-9-6-14(21)12-13(18)4-5-15-16(18)7-10-19(2)17(15)8-11-20(19,3)22/h13,15-17,22H,4-12H2,1-3H3/t13-,15+,16-,17-,18-,19-,20-/m0/s1
#inchikey WYZDXEKUWRCKOB
#Ion_Source LC-ESI
#Instrument qTof
#Compound_Source Commercial
#PI Dorrestein
#Data_Collector Garg_Neha
#Scan -1
#Precursor_MZ 305.247
#ExactMass 304.24
#Charge 1
#CAS_Number N/A
#Pubmed_ID N/A
#Smiles C[C@]1(O)CC[C@H]2[C@@H]3CC[C@H]4CC(=O)CC[C@]4(C)[C@H]3CC[C@@]21C
#INCHI_AUX N/A
#Library_Class 1
#SpectrumID CCMSLIB00000079028
#IonMode Positive
#UpdateWorkflowName UPDATE-SINGLE-ANNOTATED-GOLD
#LibraryQualityString Gold
#TaskID 278b19f5865741e282cec7349aa7e7a1
##Scan# 1858
#SpectrumFile NCP003352_G2_H11_BC7_01_15721.mzXML
#LibraryName NIHcollectionI_05062014.mgf
#MQScore -1
#Organism NIHcollectionI_05062014
#TIC_Query 0
#RT_Query -1
#MZErrorPPM -1
#SharedPeaks 0
#MassDiff 0
#LibMZ -1
#SpecMZ 305.247
#SpecCharge 0
#internalFilename spec-00000.mgf

>collision 0
95.087 4.65
105.0683 3.69
107.0855 16.44
109.1005 2.63
119.0869 5.51
121.1014 10.42
131.087 3.34
133.1018 8.09
135.1176 5.31
145.1011 13.66
147.1178 16.69
157.1012 6.42
159.1179 19.07
161.1325 12.7
173.1326 11.43
187.1491 4.35
189.1635 6.93
227.1794 14.31
229.1935 48.31
233.1906 2.68
247.2072 9.1
269.2266 100.0
287.2346 58.17
305.2473 340.36
