>compound MLS001333607-01!Quinidine hydrochloride monohydrate6151-40-2
>formula C20H24N2O2
>ionization [M+H]+
>parentmass 325.190521
#inchi InChI=1S/C20H24N2O2/c1-3-13-12-22-9-7-14(13)10-19(22)20(23)16-6-8-21-18-5-4-15(24-2)11-17(16)18/h3-6,8,11,13-14,19-20,23H,1,7,9-10,12H2,2H3/t13-,14-,19+,20-/m0/s1
#inchikey LOUPRKONTZGTKE
#origInchi InChI=1S/C20H24N2O2.ClH.H2O/c1-3-13-12-22-9-7-14(13)10-19(22)20(23)16-6-8-21-18-5-4-15(24-2)11-17(16)18;;/h3-6,8,11,13-14,19-20,23H,1,7,9-10,12H2,2H3;1H;1H2/t13-,14-,19+,20-;;/m0../s1
#Ion_Source LC-ESI
#Instrument qTof
#Compound_Source NIH Pharmacologically Active Library
#PI Dorrestein
#Data_Collector VP/LMS
#Scan -1
#Precursor_MZ 325.194
#ExactMass 324.184
#Charge 1
#CAS_Number N/A
#Pubmed_ID N/A
#Smiles COc1ccc2nccc([C@H](O)[C@H]3C[C@@H]4CCN3C[C@@H]4C=C)c2c1.O.Cl
#INCHI_AUX N/A
#Library_Class 1
#SpectrumID CCMSLIB00000085149
#IonMode Positive
#UpdateWorkflowName UPDATE-SINGLE-ANNOTATED-GOLD
#LibraryQualityString Gold
#TaskID d252d724072548979f1f6f1ced849daf
##Scan# 1267
#SpectrumFile p3-F05_GF5_01_18286.mzXML
#LibraryName Pharm_Active_Library.mgf
#MQScore -1
#Organism Pharm_Active_Library
#TIC_Query 0
#RT_Query -1
#MZErrorPPM -1
#SharedPeaks 0
#MassDiff 0
#LibMZ -1
#SpecMZ 325.194
#SpecCharge 0
#internalFilename spec-00000.mgf

>collision 0
108.0807 7.68
110.0957 10.15
117.0565 16.24
136.1114 12.08
144.0817 8.36
145.0523 12.23
154.065 10.05
155.0727 12.71
157.0527 7.93
158.0587 16.96
160.0751 100.0
166.0634 7.93
166.1221 20.15
167.0723 9.81
169.052 10.25
170.0589 7.3
171.0672 7.73
172.075 77.67
174.0544 12.61
182.0607 9.91
183.0672 11.89
184.0758 61.19
188.0707 9.57
189.0783 23.88
196.0768 13.24
197.083 8.31
198.0912 30.11
199.0865 20.4
213.1015 9.04
225.1042 8.84
239.118 8.55
251.1181 16.19
253.132 46.69
265.1327 11.84
279.1488 19.33
307.1791 92.03
325.1909 229.19
