>compound MLS000877035-01!methyl 2-[[3-[(3,3-dimethyloxiran-2-yl)methyl]-4-hydroxyphenyl]methyl]-4-hydroxy-3-(4-hydroxyphenyl)-5-oxofuran-2-carboxylate
>formula C24H24O8
>ionization [M+H]+
>parentmass 441.155
#inchi InChI=1S/C24H24O8/c1-23(2)18(31-23)11-15-10-13(4-9-17(15)26)12-24(22(29)30-3)19(20(27)21(28)32-24)14-5-7-16(25)8-6-14/h4-10,18,25-27H,11-12H2,1-3H3
#inchikey FWHAYHIGJSFGKO
#Ion_Source LC-ESI
#Instrument qTof
#Compound_Source NIH Natural Product Library
#PI Dorrestein
#Data_Collector VVP/LMS
#Scan -1
#Precursor_MZ 441.155
#ExactMass 440.147
#Charge 1
#CAS_Number N/A
#Pubmed_ID N/A
#Smiles COC(=O)C1(Cc2ccc(O)c(CC3OC3(C)C)c2)OC(=O)C(=C1c4ccc(O)cc4)O
#INCHI_AUX N/A
#Library_Class 3
#SpectrumID CCMSLIB00000079530
#IonMode Positive
#UpdateWorkflowName UPDATE-SINGLE-ANNOTATED-BRONZE
#LibraryQualityString Bronze
#TaskID b1d8e8f6646f4e71acdff9ca3d919d08
##Scan# 1988
#SpectrumFile p1-G07_GG7_01_17951.mzXML
#LibraryName NIH_Natural_Products_Library.mgf
#MQScore -1
#Organism NIH_Natural_Products_Library
#TIC_Query 0
#RT_Query -1
#MZErrorPPM -1
#SharedPeaks 0
#MassDiff 0
#LibMZ -1
#SpecMZ 441.155
#SpecCharge 0
#internalFilename spec-00000.mgf

>collision 0
107.0491 18.94
119.0491 10.52
121.0278 15.84
131.0498 49.26
145.0648 16.83
145.1012 25.25
147.0441 11.14
153.0708 9.65
155.0855 61.7
158.0732 56.75
159.0437 37.62
161.0968 10.77
173.097 100.0
175.039 14.54
191.1071 65.16
203.0347 18.25
207.081 17.7
219.0809 13.92
225.0908 11.08
235.075 53.34
237.0907 39.48
247.0765 22.4
248.0835 17.51
249.0904 16.52
251.0693 15.84
253.0855 14.85
263.0707 30.51
265.0856 41.15
266.0562 9.96
275.0698 20.85
279.0658 12.5
281.0823 34.16
291.0651 16.27
293.0812 40.28
305.0809 12.81
309.0729 16.27
317.1187 12.44
335.1265 41.15
441.1555 0.0
