>compound Aerucyclamide A
>formula C24H34N6O4S2 
>ionization [M+H]+
>parentmass 535.2155720200906
#inchi InChI=1S/C24H34N6O4S2/c1-6-11(3)17-23-30-19(13(5)34-23)22(33)25-8-16-26-14(9-35-16)20(31)29-18(12(4)7-2)24-27-15(10-36-24)21(32)28-17/h9,11-13,15,17-19H,6-8,10H2,1-5H3,(H,25,33)(H,28,32)(H,29,31)/t11-,12-,13+,15+,17-,18+,19-/m0/s1
#inchikey VJFRQMMMXJJUSM
#Ion_Source LC-ESI
#Instrument LCQ
#Compound_Source Crude
#PI Gerwick
#Data_Collector E Briand
#Scan -1
#Precursor_MZ 535.19
#ExactMass 535.216
#Charge 1
#CAS_Number N/A
#Pubmed_ID 18558743
#Smiles N/A
#INCHI_AUX N/A
#Library_Class 2
#SpectrumID CCMSLIB00000071750
#IonMode Positive
#UpdateWorkflowName UPDATE-SINGLE-ANNOTATED-SILVER
#LibraryQualityString Silver
#TaskID 6e221885dc494bf18708e4b1149ba4da
##Scan# 507
#SpectrumFile AerucyclamideA_MSMS.mzXML
#LibraryName gnps_library.mgf
#MQScore -1
#Organism GNPS_Standard_Enora
#TIC_Query 0
#RT_Query -1
#MZErrorPPM -1
#SharedPeaks 0
#MassDiff 0
#LibMZ -1
#SpecMZ 535.19
#SpecCharge 0
#internalFilename spec-00000.mgf

>collision 0
225.0702 3.38
269.0169 6.57
270.0205 0.92
282.9738 0.61
293.1679 0.72
321.0217 0.55
337.1765 1.53
354.2176 1.12
361.1797 1.01
377.169 0.64
378.116 2.18
382.0674 1.19
390.0517 2.38
404.1085 0.72
405.0578 0.54
406.0437 3.93
407.1332 0.96
416.1615 0.75
420.2169 0.82
422.0281 3.78
424.0909 12.27
425.1548 2.86
432.0755 3.11
433.0497 1.16
439.0878 0.81
446.2359 2.26
450.0487 32.14
460.2021 0.82
461.0975 4.16
462.1248 1.1
464.1714 2.26
473.2008 2.07
489.2233 0.92
491.1557 7.01
507.1029 8.4
535.2152 0.0
