>compound NCGC00160334-01!3-(4-Methoxy-benzylidene)-2,3,11,11a-tetrahydro-6H-pyrazino[1,2-b]isoquinoline-1,4-dione
>formula C20H18N2O3
>ionization [M+H]+
>parentmass 335.14
#inchi InChI=1S/C20H18N2O3/c1-25-16-8-6-13(7-9-16)10-17-20(24)22-12-15-5-3-2-4-14(15)11-18(22)19(23)21-17/h2-10,18H,11-12H2,1H3,(H,21,23)/b17-10-/t18-/m0/s1
#inchikey GYNFYIJDZOWNDK
#Ion_Source LC-ESI
#Instrument qTOF
#Compound_Source Prestwick Phytochem Lib
#PI Dorrestein
#Data_Collector VVP/LMS
#Scan -1
#Precursor_MZ 335.14
#ExactMass 334.132
#Charge 1
#CAS_Number N/A
#Pubmed_ID N/A
#Smiles [H][C@@]12CC3=C(CN1C(=O)\C(NC2=O)=C\C4=CC=C(OC)C=C4)C=CC=C3
#INCHI_AUX N/A
#Library_Class 1
#SpectrumID CCMSLIB00000078750
#IonMode Positive
#UpdateWorkflowName UPDATE-SINGLE-ANNOTATED-GOLD
#LibraryQualityString Gold
#TaskID 67c915c6594c435cadc1fe2b5358144d
##Scan# 2174
#SpectrumFile p1-B03_GB3_01_17887.mzXML
#LibraryName phytochem_lib.mgf
#MQScore -1
#Organism phytochem_lib
#TIC_Query 0
#RT_Query -1
#MZErrorPPM -1
#SharedPeaks 0
#MassDiff 0
#LibMZ -1
#SpecMZ 335.14
#SpecCharge 0
#internalFilename spec-00000.mgf

>collision 0
103.0537 10.77
105.0691 6.49
115.056 10.93
117.0573 14.07
118.0397 2.67
121.0652 66.06
128.0499 4.45
130.0648 100.0
132.0807 65.06
133.0526 24.06
146.0596 6.33
148.0754 49.63
158.0602 6.85
160.0757 10.15
161.0486 3.24
171.0932 7.95
176.0695 10.04
199.0863 55.75
215.0816 3.77
247.1076 2.77
262.1305 3.97
307.1455 11.72
335.1433 0.0
