>compound 29094-61-9
>formula C21H27N5O4S 
>ionization [M+H]+
>parentmass 446.187134
#inchi InChI=1S/C21H27N5O4S/c1-15-13-24-19(14-23-15)20(27)22-12-11-16-7-9-18(10-8-16)31(29,30)26-21(28)25-17-5-3-2-4-6-17/h7-10,13-14,17H,2-6,11-12H2,1H3,(H,22,27)(H2,25,26,28)
#inchikey ZJJXGWJIGJFDTL
#Ion_Source LC-ESI
#Instrument qTof
#Compound_Source Commercial
#PI Dorrestein
#Data_Collector Garg_Neha
#Scan -1
#Precursor_MZ 446.188
#ExactMass 445.178
#Charge 1
#CAS_Number N/A
#Pubmed_ID N/A
#Smiles N/A
#INCHI_AUX N/A
#Library_Class 1
#SpectrumID CCMSLIB00000077062
#IonMode Positive
#UpdateWorkflowName UPDATE-SINGLE-ANNOTATED-GOLD
#LibraryQualityString Gold
#TaskID 48f7f52fc6d249b5abbcc6e7b3df5969
##Scan# 1330
#SpectrumFile NCP003017_E2_F11_BA8_01_15703.mzXML
#LibraryName NIH_Clinical_Collection_2.mgf
#MQScore -1
#Organism NIHcollection2_04212014_2_mgf
#TIC_Query 0
#RT_Query -1
#MZErrorPPM -1
#SharedPeaks 0
#MassDiff 0
#LibMZ -1
#SpecMZ 446.188
#SpecCharge 0
#internalFilename spec-00000.mgf

>collision 0
103.055 2.64
107.0502 0.82
119.0486 0.32
121.0635 0.88
131.0603 1.24
139.021 1.12
148.0214 0.76
149.0072 0.53
149.0616 0.28
166.0329 2.6
167.0167 19.83
183.0909 0.86
184.0435 1.48
211.0877 1.26
222.1043 1.73
225.0898 0.46
238.0982 1.87
240.1134 3.14
258.069 1.39
268.056 0.44
286.0649 10.52
304.0759 6.81
306.078 0.49
321.1035 100.0
446.1871 1.72
