>compound (4R)-4-[(5S,8R,9S,10S,13R,14S,17R)-10,13-dimethyl-3,7,12-trioxo-1,2,4,5,6,8,9,11,14,15,16,17-dodecahydrocyclopenta[a]phenanthren-17-yl]pentanoic acid
>formula C24H34O5
>ionization [M+H]+
>parentmass 403.2479006400905
#inchi InChI=1S/C24H34O5/c1-13(4-7-21(28)29)16-5-6-17-22-18(12-20(27)24(16,17)3)23(2)9-8-15(25)10-14(23)11-19(22)26/h13-14,16-18,22H,4-12H2,1-3H3,(H,28,29)/t13-,14+,16-,17+,18+,22+,23+,24-/m1/s1
#inchikey OHXPGWPVLFPUSM
#Ion_Source LC-ESI
#Instrument qTof
#Compound_Source Commercial
#PI Dorrestein
#Data_Collector Garg_Neha
#Scan -1
#Precursor_MZ 403.248
#ExactMass 402.241
#Charge 1
#CAS_Number N/A
#Pubmed_ID N/A
#Smiles C[C@H](CCC(=O)O)[C@H]1CC[C@H]2[C@H]3[C@H](CC(=O)[C@]12C)[C@@]4(C)CCC(=O)C[C@H]4CC3=O
#INCHI_AUX N/A
#Library_Class 1
#SpectrumID CCMSLIB00000079041
#IonMode Positive
#UpdateWorkflowName UPDATE-SINGLE-ANNOTATED-GOLD
#LibraryQualityString Gold
#TaskID 278b19f5865741e282cec7349aa7e7a1
##Scan# 1270
#SpectrumFile NCP003432_A2_B11_BC8_01_15722.mzXML
#LibraryName NIHcollectionI_05062014.mgf
#MQScore -1
#Organism NIHcollectionI_05062014
#TIC_Query 0
#RT_Query -1
#MZErrorPPM -1
#SharedPeaks 0
#MassDiff 0
#LibMZ -1
#SpecMZ 403.248
#SpecCharge 0
#internalFilename spec-00000.mgf

>collision 0
93.0711 3.93
131.0867 5.01
145.103 6.82
157.101 3.8
159.1172 8.91
161.0966 3.34
171.1165 4.91
173.0965 4.91
183.1184 3.8
185.1333 4.82
195.1182 6.42
197.134 9.7
209.131 5.08
211.1128 4.42
211.1483 9.14
213.1287 4.13
223.1109 3.57
225.1261 4.29
227.1447 8.19
235.1491 4.19
241.1223 8.19
251.1416 6.13
257.1518 5.73
261.1628 4.55
263.1796 6.75
281.1878 3.31
291.1744 5.57
303.2089 8.09
309.1834 5.34
321.2221 19.36
331.2077 7.08
339.2326 48.36
349.2169 31.88
367.2269 87.19
385.2375 100.0
403.2454 3.74
