>compound Exemestane
>formula C20H24O2
>ionization [M+H]+
>parentmass 297.185394
#inchi InChI=1S/C20H24O2/c1-12-10-14-15-4-5-18(22)20(15,3)9-7-16(14)19(2)8-6-13(21)11-17(12)19/h6,8,11,14-16H,1,4-5,7,9-10H2,2-3H3/t14-,15-,16+,19+,20+/m0/s1
#inchikey BFYIZQONLCFLEV
#Ion_Source LC-ESI
#Instrument qTof
#Compound_Source Commercial
#PI Dorrestein
#Data_Collector Garg_Neha
#Scan -1
#Precursor_MZ 297.185
#ExactMass 296.178
#Charge 1
#CAS_Number 107868-30-4
#Pubmed_ID N/A
#Smiles C1(C=C[C@@]2([C@@]3(CC[C@]4(C(CC[C@@]([C@](CC(C(=C1)2)=C)3[H])4[H])=O)C)[H])C)=O
#INCHI_AUX N/A
#Library_Class 1
#SpectrumID CCMSLIB00000078039
#IonMode Positive
#UpdateWorkflowName UPDATE-SINGLE-ANNOTATED-GOLD
#LibraryQualityString Gold
#TaskID 77f51c88eb8b467eb4a01dd2d0cb90d2
##Scan# 1555
#SpectrumFile Plate1_21_40_GG2_01_16489.mzXML
#LibraryName FDALibrary_2_04302014.mgf
#MQScore -1
#Organism FDALibrary_2_04302014
#TIC_Query 0
#RT_Query -1
#MZErrorPPM -1
#SharedPeaks 0
#MassDiff 0
#LibMZ -1
#SpecMZ 297.185
#SpecCharge 0
#internalFilename spec-00000.mgf

>collision 0
91.055 4.98
93.07 6.31
103.0531 3.11
105.0697 19.2
107.0852 9.88
119.0853 10.39
121.0651 29.85
121.1017 50.92
129.0703 4.86
131.0852 9.23
132.0571 3.11
133.0661 8.34
133.103 8.13
135.0807 17.01
137.0971 3.67
143.0857 8.2
145.0644 4.79
145.1015 22.38
147.0809 22.1
147.1159 7.45
149.0965 100.0
159.0793 6.26
161.096 11.19
163.1122 13.88
171.0798 4.04
171.1169 14.2
173.0948 7.43
185.0953 28.33
186.1039 4.37
187.1113 6.12
189.1269 19.13
197.0953 7.1
201.1274 5.56
208.0894 3.6
213.127 4.72
223.1109 8.27
225.1277 3.78
237.1272 4.63
239.1434 13.08
251.1434 3.01
253.1595 6.77
254.1652 4.67
279.173 89.54
297.1854 334.03
