>compound Tropisetron
>formula C17H20N2O2
>ionization [M+H]+
>parentmass 285.160858
#inchi InChI=1S/C17H20N2O2/c1-19-11-6-7-12(19)9-13(8-11)21-17(20)15-10-18-16-5-3-2-4-14(15)16/h2-5,10-13,15H,6-9H2,1H3/t11-,12+,13?,15?
#inchikey RIJFNUHYNBVLOZ
#origInchi InChI=1S/C17H20N2O2.ClH/c1-19-11-6-7-12(19)9-13(8-11)21-17(20)15-10-18-16-5-3-2-4-14(15)16;/h2-5,10-13,15H,6-9H2,1H3;1H/t11-,12+,13?,15?;
#Ion_Source LC-ESI
#Instrument qTof
#Compound_Source Commercial
#PI Dorrestein
#Data_Collector Garg_Neha
#Scan -1
#Precursor_MZ 285.16
#ExactMass 284.152
#Charge 1
#CAS_Number 105826-92-4
#Pubmed_ID N/A
#Smiles C1(=CC=C2C(=C1)C(C=N2)C(OC3C[C@@]4(CC[C@@](N4C)(C3)[H])[H])=O).Cl
#INCHI_AUX N/A
#Library_Class 1
#SpectrumID CCMSLIB00000078335
#IonMode Positive
#UpdateWorkflowName UPDATE-SINGLE-ANNOTATED-GOLD
#LibraryQualityString Gold
#TaskID 77f51c88eb8b467eb4a01dd2d0cb90d2
##Scan# 1066
#SpectrumFile Plate5_41_60_GH8_01_16510.mzXML
#LibraryName FDALibrary_2_04302014.mgf
#MQScore -1
#Organism FDALibrary_2_04302014
#TIC_Query 0
#RT_Query -1
#MZErrorPPM -1
#SharedPeaks 0
#MassDiff 0
#LibMZ -1
#SpecMZ 285.16
#SpecCharge 0
#internalFilename spec-00000.mgf

>collision 0
91.0544 6.29
93.0689 11.17
96.0808 0.58
124.1118 100.0
142.1215 2.57
285.1609 451.39
