>compound MLS001066408-01!
>formula C10H9NO2
>ionization [M+H]+
>parentmass 176.071
#inchi InChI=1S/C10H9NO2/c12-10(13)5-7-6-11-9-4-2-1-3-8(7)9/h1-4,6,11H,5H2,(H,12,13)
#inchikey SEOVTRFCIGRIMH
#Ion_Source LC-ESI
#Instrument qTof
#Compound_Source NIH Natural Product Library
#PI Dorrestein
#Data_Collector VVP/LMS
#Scan -1
#Precursor_MZ 176.071
#ExactMass 175.063
#Charge 1
#CAS_Number N/A
#Pubmed_ID N/A
#Smiles OC(=O)Cc1c[nH]c2ccccc12
#INCHI_AUX N/A
#Library_Class 1
#SpectrumID CCMSLIB00000079553
#IonMode Positive
#UpdateWorkflowName UPDATE-SINGLE-ANNOTATED-GOLD
#LibraryQualityString Gold
#TaskID b1d8e8f6646f4e71acdff9ca3d919d08
##Scan# 1634
#SpectrumFile p1-B08_GB8_01_17892.mzXML
#LibraryName NIH_Natural_Products_Library.mgf
#MQScore -1
#Organism NIH_Natural_Products_Library
#TIC_Query 0
#RT_Query -1
#MZErrorPPM -1
#SharedPeaks 0
#MassDiff 0
#LibMZ -1
#SpecMZ 176.071
#SpecCharge 0
#internalFilename spec-00000.mgf

>collision 0
102.0467 8.28
103.0554 44.53
117.0585 6.56
130.0657 100.0
176.071 0.0
