>compound Naftifine HCl
>formula C21H21N
>ionization [M+H]+
>parentmass 288.176453
#inchi InChI=1S/C21H21N/c1-22(16-8-11-18-9-3-2-4-10-18)17-20-14-7-13-19-12-5-6-15-21(19)20/h2-15H,16-17H2,1H3/b11-8+
#inchikey OZGNYLLQHRPOBR
#origInchi InChI=1S/C21H21N.ClH/c1-22(16-8-11-18-9-3-2-4-10-18)17-20-14-7-13-19-12-5-6-15-21(19)20;/h2-15H,16-17H2,1H3;1H/b11-8+;
#Ion_Source LC-ESI
#Instrument qTof
#Compound_Source Commercial
#PI Dorrestein
#Data_Collector Garg_Neha
#Scan -1
#Precursor_MZ 288.175
#ExactMass 287.167
#Charge 1
#CAS_Number 65473-14-5 ,65472-88-0(free base)
#Pubmed_ID N/A
#Smiles C1(C=CC=C2C=CC=CC=12)CN(C/C=C/C3C=CC=CC=3)C.Cl
#INCHI_AUX N/A
#Library_Class 1
#SpectrumID CCMSLIB00000078592
#IonMode Positive
#UpdateWorkflowName UPDATE-SINGLE-ANNOTATED-GOLD
#LibraryQualityString Gold
#TaskID 77f51c88eb8b467eb4a01dd2d0cb90d2
##Scan# 1217
#SpectrumFile Plate9_41_60_GC6_01_15755.mzXML
#LibraryName FDALibrary_2_04302014.mgf
#MQScore -1
#Organism FDALibrary_2_04302014
#TIC_Query 0
#RT_Query -1
#MZErrorPPM -1
#SharedPeaks 0
#MassDiff 0
#LibMZ -1
#SpecMZ 288.175
#SpecCharge 0
#internalFilename spec-00000.mgf

>collision 0
91.0541 1.42
115.0545 23.37
117.0716 64.72
141.071 100.0
170.0964 12.2
288.1765 52.63
