>compound MLS000574930-01!
>formula C19H22O7
>ionization [M+H]+
>parentmass 363.144
#inchi InChI=1S/C19H22O7/c1-8-4-12(21)26-17(8)18(3)6-11-19(7-20)10(5-13(22)25-11)9(2)14(23)15(24)16(18)19/h4,9-11,17,20,24H,5-7H2,1-3H3/t9-,10+,11-,17+,18+,19-/m1/s1
#inchikey SRNFRTSVHROPLE
#Ion_Source LC-ESI
#Instrument qTof
#Compound_Source NIH Natural Product Library
#PI Dorrestein
#Data_Collector VVP/LMS
#Scan -1
#Precursor_MZ 363.144
#ExactMass 362.137
#Charge 1
#CAS_Number N/A
#Pubmed_ID N/A
#Smiles C[C@@H]1[C@@H]2CC(=O)O[C@@H]3C[C@](C)([C@H]4OC(=O)C=C4C)C(=C(O)C1=O)[C@@]32CO
#INCHI_AUX N/A
#Library_Class 3
#SpectrumID CCMSLIB00000079376
#IonMode Positive
#UpdateWorkflowName UPDATE-SINGLE-ANNOTATED-BRONZE
#LibraryQualityString Bronze
#TaskID b1d8e8f6646f4e71acdff9ca3d919d08
##Scan# 1375
#SpectrumFile p1-C05_GC5_01_17901.mzXML
#LibraryName NIH_Natural_Products_Library.mgf
#MQScore -1
#Organism NIH_Natural_Products_Library
#TIC_Query 0
#RT_Query -1
#MZErrorPPM -1
#SharedPeaks 0
#MassDiff 0
#LibMZ -1
#SpecMZ 363.144
#SpecCharge 0
#internalFilename spec-00000.mgf

>collision 0
131.0854 5.07
145.0999 13.8
155.0845 9.47
158.0719 6.71
159.0809 14.99
173.058 9.77
173.0947 27.29
174.1035 5.97
185.0966 7.01
187.0753 13.2
188.0812 13.94
189.0897 10.37
197.0964 6.86
201.0906 100.0
213.0901 5.59
219.1023 19.31
225.0919 7.9
225.1279 4.33
229.0861 22.22
230.0919 21.85
233.0801 15.59
235.1104 10.66
238.0989 5.15
239.1053 11.11
240.1153 5.29
247.0977 24.83
248.1032 9.25
249.0909 4.33
253.1243 12.38
263.1056 13.65
267.1016 4.77
281.1149 11.63
285.1106 6.26
363.144 0.0
