>compound Moxifloxacin hydrochloride
>formula C21H24FN3O4
>ionization [M+H]+
>parentmass 402.18236092009056
#inchi InChI=1S/C21H24FN3O4/c1-29-20-17-13(19(26)14(21(27)28)9-25(17)12-4-5-12)7-15(22)18(20)24-8-11-3-2-6-23-16(11)10-24/h7,9,11-12,16,23H,2-6,8,10H2,1H3,(H,27,28)/t11-,16+/m0/s1
#inchikey FABPRXSRWADJSP
#origInchi InChI=1S/C21H24FN3O4.ClH/c1-29-20-17-13(19(26)14(21(27)28)9-25(17)12-4-5-12)7-15(22)18(20)24-8-11-3-2-6-23-16(11)10-24;/h7,9,11-12,16,23H,2-6,8,10H2,1H3,(H,27,28);1H/t11-,16+;/m0./s1
#Ion_Source LC-ESI
#Instrument qTof
#Compound_Source Commercial
#PI Dorrestein
#Data_Collector Garg_Neha
#Scan -1
#Precursor_MZ 402.182
#ExactMass 401.175
#Charge 1
#CAS_Number 186826-86-8, 151096-09-2 (free base)
#Pubmed_ID N/A
#Smiles C1(=C(C(=C2C(=C1)C(C(=CN2C3CC3)C(O)=O)=O)OC)N4C[C@@]5([C@](C4)(CCCN5)[H])[H])F.Cl
#INCHI_AUX N/A
#Library_Class 1
#SpectrumID CCMSLIB00000078158
#IonMode Positive
#UpdateWorkflowName UPDATE-SINGLE-ANNOTATED-GOLD
#LibraryQualityString Gold
#TaskID 77f51c88eb8b467eb4a01dd2d0cb90d2
##Scan# 1067
#SpectrumFile Plate3_1_20_GG9_01_16498.mzXML
#LibraryName FDALibrary_2_04302014.mgf
#MQScore -1
#Organism FDALibrary_2_04302014
#TIC_Query 0
#RT_Query -1
#MZErrorPPM -1
#SharedPeaks 0
#MassDiff 0
#LibMZ -1
#SpecMZ 402.182
#SpecCharge 0
#internalFilename spec-00000.mgf

>collision 0
203.0617 2.37
205.042 2.87
205.0763 2.61
207.0558 4.61
215.0623 3.34
216.0693 3.32
217.042 3.6
217.0759 5.73
219.0577 7.71
220.0642 7.22
221.0712 2.45
230.0849 2.9
231.0583 3.48
231.0927 10.5
232.0658 3.91
233.0726 4.83
234.0795 6.59
243.0933 3.38
245.0723 9.45
246.0796 8.34
247.0876 8.55
248.0934 3.47
249.1028 3.33
259.0865 4.77
260.0597 22.75
261.1032 24.35
270.1156 2.55
285.102 2.74
287.0824 5.67
298.1116 7.06
302.1296 4.11
305.0924 6.74
323.1266 3.21
323.1626 3.39
338.1875 2.56
341.1533 9.44
343.1658 3.2
358.1937 35.68
364.1661 22.81
382.1764 4.21
384.1733 100.0
402.1852 229.54
