>compound MLS001146883-01!
>formula C8H13N3O4S
>ionization [M+H]+
>parentmass 248.06995334809054
#inchi InChI=1S/C8H13N3O4S/c1-3-16(14,15)5-4-10-7(2)9-6-8(10)11(12)13/h6H,3-5H2,1-2H3
#inchikey HJLSLZFTEKNLFI
#Ion_Source LC-ESI
#Instrument qTof
#Compound_Source NIH Pharmacologically Active Library
#PI Dorrestein
#Data_Collector VP/LMS
#Scan -1
#Precursor_MZ 248.072
#ExactMass 247.063
#Charge 1
#CAS_Number N/A
#Pubmed_ID N/A
#Smiles CCS(=O)(=O)CCn1c(C)ncc1[N+](=O)[O-]
#INCHI_AUX N/A
#Library_Class 3
#SpectrumID CCMSLIB00000085778
#IonMode Positive
#UpdateWorkflowName UPDATE-SINGLE-ANNOTATED-BRONZE
#LibraryQualityString Bronze
#TaskID d252d724072548979f1f6f1ced849daf
##Scan# 1221
#SpectrumFile p4-F04_GF4_01_18388.mzXML
#LibraryName Pharm_Active_Library.mgf
#MQScore -1
#Organism Pharm_Active_Library
#TIC_Query 0
#RT_Query -1
#MZErrorPPM -1
#SharedPeaks 0
#MassDiff 0
#LibMZ -1
#SpecMZ 248.072
#SpecCharge 0
#internalFilename spec-00000.mgf

>collision 0
95.0588 7.69
107.059 18.55
108.0698 4.43
109.075 17.74
110.0336 4.71
111.0419 26.52
112.062 25.88
121.0732 3.26
125.0695 14.84
128.0446 100.0
154.0605 7.6
178.0808 3.17
248.07 0.0
