>compound SUMATRIPTAN SUCCINATE
>formula C14H21N3O2S
>ionization [M+H]+
>parentmass 296.143463
#inchi InChI=1S/C14H21N3O2S/c1-15-20(18,19)10-11-4-5-14-13(8-11)12(9-16-14)6-7-17(2)3/h4-5,8-9,15-16H,6-7,10H2,1-3H3
#inchikey KQKPFRSPSRPDEB
#Ion_Source LC-ESI
#Instrument qTof
#Compound_Source Commercial
#PI Dorrestein
#Data_Collector Garg_Neha
#Scan -1
#Precursor_MZ 296.143
#ExactMass 295.135
#Charge 1
#CAS_Number N/A
#Pubmed_ID N/A
#Smiles CNS(=O)(=O)Cc1ccc2[nH]cc(CCN(C)C)c2c1
#INCHI_AUX N/A
#Library_Class 1
#SpectrumID CCMSLIB00000079111
#IonMode Positive
#UpdateWorkflowName UPDATE-SINGLE-ANNOTATED-GOLD
#LibraryQualityString Gold
#TaskID 278b19f5865741e282cec7349aa7e7a1
##Scan# 994
#SpectrumFile NCP003512_C2_D11_BD5_01_15729.mzXML
#LibraryName NIHcollectionI_05062014.mgf
#MQScore -1
#Organism NIHcollectionI_05062014
#TIC_Query 0
#RT_Query -1
#MZErrorPPM -1
#SharedPeaks 0
#MassDiff 0
#LibMZ -1
#SpecMZ 296.143
#SpecCharge 0
#internalFilename spec-00000.mgf

>collision 0
130.067 6.3
142.0666 1.98
156.0814 30.28
157.089 100.0
158.0953 26.86
174.0908 2.1
180.0482 1.9
201.1396 31.31
251.0851 74.91
296.1435 375.61
