>compound MLS000697566-01!
>formula C21H20O10
>ionization [M+H]+
>parentmass 433.113
#inchi InChI=1S/C21H20O10/c22-6-8-4-10-14(11(24)5-8)18(27)15-9(16(10)25)2-1-3-12(15)30-21-20(29)19(28)17(26)13(7-23)31-21/h1-5,13,17,19-24,26,28-29H,6-7H2/t13?,17-,19-,20+,21-/m1/s1
#inchikey KIZBWUUJNJEYCM
#Ion_Source LC-ESI
#Instrument qTof
#Compound_Source NIH Natural Product Library
#PI Dorrestein
#Data_Collector VVP/LMS
#Scan -1
#Precursor_MZ 433.113
#ExactMass 432.106
#Charge 1
#CAS_Number N/A
#Pubmed_ID N/A
#Smiles OCC1O[C@@H](Oc2cccc3C(=O)c4cc(CO)cc(O)c4C(=O)c23)[C@@H](O)[C@H](O)[C@@H]1O
#INCHI_AUX N/A
#Library_Class 1
#SpectrumID CCMSLIB00000079814
#IonMode Positive
#UpdateWorkflowName UPDATE-SINGLE-ANNOTATED-GOLD
#LibraryQualityString Gold
#TaskID b1d8e8f6646f4e71acdff9ca3d919d08
##Scan# 1860
#SpectrumFile p1-D11_GD11_01_17919.mzXML
#LibraryName NIH_Natural_Products_Library.mgf
#MQScore -1
#Organism NIH_Natural_Products_Library
#TIC_Query 0
#RT_Query -1
#MZErrorPPM -1
#SharedPeaks 0
#MassDiff 0
#LibMZ -1
#SpecMZ 433.113
#SpecCharge 0
#internalFilename spec-00000.mgf

>collision 0
246.0372 2.7
261.0819 100.0
262.0846 18.43
263.0892 3.84
263.1288 2.7
280.0957 19.15
290.078 3.6
300.0847 2.64
308.087 6.6
433.113 0.0
