>compound MLS001401386-01!pioglitazone hydrochloride112529-15-4
>formula C19H20N2O3S
>ionization [M+H]+
>parentmass 357.125641
#inchi InChI=1S/C19H20N2O3S/c1-2-13-3-6-15(20-12-13)9-10-24-16-7-4-14(5-8-16)11-17-18(22)21-19(23)25-17/h3-8,12,17H,2,9-11H2,1H3,(H,21,22,23)
#inchikey HYAFETHFCAUJAY
#origInchi InChI=1S/C19H20N2O3S.ClH/c1-2-13-3-6-15(20-12-13)9-10-24-16-7-4-14(5-8-16)11-17-18(22)21-19(23)25-17;/h3-8,12,17H,2,9-11H2,1H3,(H,21,22,23);1H
#Ion_Source LC-ESI
#Instrument qTof
#Compound_Source NIH Pharmacologically Active Library
#PI Dorrestein
#Data_Collector VP/LMS
#Scan -1
#Precursor_MZ 357.132
#ExactMass 356.119
#Charge 1
#CAS_Number N/A
#Pubmed_ID N/A
#Smiles CCc1ccc(CCOc2ccc(CC3SC(=O)NC3=O)cc2)nc1.Cl
#INCHI_AUX N/A
#Library_Class 1
#SpectrumID CCMSLIB00000085815
#IonMode Positive
#UpdateWorkflowName UPDATE-SINGLE-ANNOTATED-GOLD
#LibraryQualityString Gold
#TaskID d252d724072548979f1f6f1ced849daf
##Scan# 1517
#SpectrumFile p4-F09_GF9_01_18393.mzXML
#LibraryName Pharm_Active_Library.mgf
#MQScore -1
#Organism Pharm_Active_Library
#TIC_Query 0
#RT_Query -1
#MZErrorPPM -1
#SharedPeaks 0
#MassDiff 0
#LibMZ -1
#SpecMZ 357.132
#SpecCharge 0
#internalFilename spec-00000.mgf

>collision 0
91.0542 0.63
92.0507 0.29
93.0561 0.49
95.0492 0.58
104.048 0.64
106.0646 4.58
107.0483 0.33
107.0714 1.01
118.0651 6.52
119.073 40.27
120.078 9.58
124.0748 0.35
134.0963 100.0
135.102 27.9
227.1304 0.23
273.136 0.22
357.1229 17.1
