>compound Amprenavir (Agenerase)
>formula C25H35N3O6S
>ionization [M+H]+
>parentmass 506.231323
#inchi InChI=1S/C25H35N3O6S/c1-18(2)15-28(35(31,32)22-10-8-20(26)9-11-22)16-24(29)23(14-19-6-4-3-5-7-19)27-25(30)34-21-12-13-33-17-21/h3-11,18,21,23-24,29H,12-17,26H2,1-2H3,(H,27,30)/t21-,23-,24+/m0/s1
#inchikey YMARZQAQMVYCKC
#Ion_Source LC-ESI
#Instrument qTof
#Compound_Source Commercial
#PI Dorrestein
#Data_Collector Garg_Neha
#Scan -1
#Precursor_MZ 506.232
#ExactMass 505.225
#Charge 1
#CAS_Number 161814-49-9
#Pubmed_ID N/A
#Smiles C1=C(C=CC(=C1)S(N(C[C@H]([C@@H](NC(O[C@@H]2COCC2)=O)CC3=CC=CC=C3)O)CC(C)C)(=O)=O)N
#INCHI_AUX N/A
#Library_Class 1
#SpectrumID CCMSLIB00000078220
#IonMode Positive
#UpdateWorkflowName UPDATE-SINGLE-ANNOTATED-GOLD
#LibraryQualityString Gold
#TaskID 77f51c88eb8b467eb4a01dd2d0cb90d2
##Scan# 1398
#SpectrumFile Plate3_61_88_GH1_01_16501.mzXML
#LibraryName FDALibrary_2_04302014.mgf
#MQScore -1
#Organism FDALibrary_2_04302014
#TIC_Query 0
#RT_Query -1
#MZErrorPPM -1
#SharedPeaks 0
#MassDiff 0
#LibMZ -1
#SpecMZ 506.232
#SpecCharge 0
#internalFilename spec-00000.mgf

>collision 0
92.0507 0.9
100.1134 1.06
108.045 6.77
120.0812 3.44
129.0703 6.93
131.0864 0.95
134.0975 1.21
146.0587 0.96
146.0968 3.18
156.012 50.79
158.0953 0.71
164.0697 1.86
164.1057 0.89
172.0751 0.88
176.1424 0.64
189.102 4.67
200.1427 1.58
202.1583 6.41
203.1643 1.55
207.1133 0.74
208.0975 7.71
217.168 0.57
219.1876 0.96
234.1117 1.07
237.1963 0.81
241.1008 12.95
245.1659 100.0
246.1682 16.61
261.1599 10.45
263.176 7.04
264.1814 1.98
278.1397 4.5
333.2155 1.92
351.2282 3.93
357.1615 1.66
362.1169 2.4
374.1906 2.73
375.1881 1.53
392.1999 17.17
393.2036 4.53
418.181 78.51
506.2313 24.28
