>compound MLS002153882-01!Ipratropium bromide22254-24-6
>formula C20H30NO3
>ionization [M+H]+
>parentmass 333.22984527209053
#inchi InChI=1S/C20H30NO3/c1-14(2)21(3)16-9-10-17(21)12-18(11-16)24-20(23)19(13-22)15-7-5-4-6-8-15/h4-8,14,16-19,22H,9-13H2,1-3H3/q+1/t16-,17-,18?,19?,21?/m1/s1
#inchikey OEXHQOGQTVQTAT
#origInchi InChI=1S/C20H30NO3.BrH/c1-14(2)21(3)16-9-10-17(21)12-18(11-16)24-20(23)19(13-22)15-7-5-4-6-8-15;/h4-8,14,16-19,22H,9-13H2,1-3H3;1H/q+1;/p-1/t16-,17-,18?,19?,21?;/m1./s1
#Ion_Source LC-ESI
#Instrument qTof
#Compound_Source NIH Pharmacologically Active Library
#PI Dorrestein
#Data_Collector VP/LMS
#Scan -1
#Precursor_MZ 332.224
#ExactMass 332.223
#Charge 1
#CAS_Number N/A
#Pubmed_ID N/A
#Smiles CC(C)[N+]1(C)[C@@H]2CC[C@@H]1CC(C2)OC(=O)C(CO)c3ccccc3.[Br-]
#INCHI_AUX N/A
#Library_Class 1
#SpectrumID CCMSLIB00000085708
#IonMode Positive
#UpdateWorkflowName UPDATE-SINGLE-ANNOTATED-GOLD
#LibraryQualityString Gold
#TaskID d252d724072548979f1f6f1ced849daf
##Scan# 1299
#SpectrumFile p4-E06_GE6_01_18378.mzXML
#LibraryName Pharm_Active_Library.mgf
#MQScore -1
#Organism Pharm_Active_Library
#TIC_Query 0
#RT_Query -1
#MZErrorPPM -1
#SharedPeaks 0
#MassDiff 0
#LibMZ -1
#SpecMZ 332.224
#SpecCharge 0
#internalFilename spec-00000.mgf

>collision 0
91.0544 7.6
93.0699 12.0
95.0859 2.87
96.0811 14.28
98.0964 0.85
103.0544 5.42
108.0789 0.85
109.0891 1.04
112.1121 0.34
121.0644 8.46
122.0949 1.03
124.1125 76.09
131.0484 0.5
138.1266 1.08
140.106 5.53
142.1229 1.89
149.0614 0.33
152.1426 5.78
166.1593 93.62
184.1688 1.21
272.1624 0.26
290.1747 55.23
333.2298 0.0
