>compound Venlafaxine
>formula C17H27NO2
>ionization [M+H]+
>parentmass 278.2114555560905
#inchi InChI=1S/C17H27NO2/c1-18(2)13-16(17(19)11-5-4-6-12-17)14-7-9-15(20-3)10-8-14/h7-10,16,19H,4-6,11-13H2,1-3H3
#inchikey PNVNVHUZROJLTJ
#origInchi InChI=1S/C17H27NO2.ClH/c1-18(2)13-16(17(19)11-5-4-6-12-17)14-7-9-15(20-3)10-8-14;/h7-10,16,19H,4-6,11-13H2,1-3H3;1H
#Ion_Source LC-ESI
#Instrument qTof
#Compound_Source Commercial
#PI Dorrestein
#Data_Collector Garg_Neha
#Scan -1
#Precursor_MZ 278.211
#ExactMass 277.204
#Charge 1
#CAS_Number 99300-78-4, 93413-69-5 (free base)
#Pubmed_ID N/A
#Smiles C1(CCCCC1(C(CN(C)C)C2=CC=C(C=C2)OC)O).Cl
#INCHI_AUX N/A
#Library_Class 1
#SpectrumID CCMSLIB00000078150
#IonMode Positive
#UpdateWorkflowName UPDATE-SINGLE-ANNOTATED-GOLD
#LibraryQualityString Gold
#TaskID 77f51c88eb8b467eb4a01dd2d0cb90d2
##Scan# 1092
#SpectrumFile Plate2_61_88_GG8_01_16496.mzXML
#LibraryName FDALibrary_2_04302014.mgf
#MQScore -1
#Organism FDALibrary_2_04302014
#TIC_Query 0
#RT_Query -1
#MZErrorPPM -1
#SharedPeaks 0
#MassDiff 0
#LibMZ -1
#SpecMZ 278.211
#SpecCharge 0
#internalFilename spec-00000.mgf

>collision 0
91.0556 1.08
103.054 0.24
105.0707 0.54
107.0856 0.56
115.0558 0.31
119.0855 0.57
121.0652 32.15
132.0574 1.28
135.0803 1.97
141.0709 0.51
144.0575 0.75
145.0648 0.81
145.1014 0.29
147.0814 19.17
155.0855 0.25
158.0724 1.1
159.0804 5.7
161.0961 0.86
173.0963 7.69
187.1117 0.66
215.1445 29.13
233.1525 0.32
278.2147 105.94
