>compound MLS001140564-01!1-[2-(6-oxobenzo[c]chromen-3-yl)oxyacetyl]piperidine-4-carboxamide
>formula C21H20N2O5
>ionization [M+H]+
>parentmass 381.145294
#inchi InChI=1S/C21H20N2O5/c22-20(25)13-7-9-23(10-8-13)19(24)12-27-14-5-6-16-15-3-1-2-4-17(15)21(26)28-18(16)11-14/h1-6,11,13H,7-10,12H2,(H2,22,25)
#inchikey JQLPMTBMSSQHKI
#Ion_Source LC-ESI
#Instrument qTof
#Compound_Source NIH Natural Product Library
#PI Dorrestein
#Data_Collector VVP/LMS
#Scan -1
#Precursor_MZ 381.145
#ExactMass 380.137
#Charge 1
#CAS_Number N/A
#Pubmed_ID N/A
#Smiles NC(=O)C1CCN(CC1)C(=O)COc2ccc3c(c2)oc(=O)c4ccccc43
#INCHI_AUX N/A
#Library_Class 1
#SpectrumID CCMSLIB00000080108
#IonMode Positive
#UpdateWorkflowName UPDATE-SINGLE-ANNOTATED-GOLD
#LibraryQualityString Gold
#TaskID b1d8e8f6646f4e71acdff9ca3d919d08
##Scan# 1791
#SpectrumFile p2-B04_GB4_01_17992.mzXML
#LibraryName NIH_Natural_Products_Library.mgf
#MQScore -1
#Organism NIH_Natural_Products_Library
#TIC_Query 0
#RT_Query -1
#MZErrorPPM -1
#SharedPeaks 0
#MassDiff 0
#LibMZ -1
#SpecMZ 381.145
#SpecCharge 0
#internalFilename spec-00000.mgf

>collision 0
96.0812 3.45
97.0881 2.05
98.0615 3.5
110.0591 3.61
111.0669 2.53
112.0767 11.12
115.0545 3.61
124.0766 7.86
125.0841 8.96
126.0914 5.11
139.0543 25.41
140.0598 4.36
141.0697 7.05
141.1018 17.71
143.049 2.1
152.0612 4.39
153.0708 22.66
154.0721 5.49
155.0494 3.31
167.0502 75.37
168.0524 10.74
169.0656 14.83
170.0718 5.01
195.0437 29.23
197.0602 44.52
198.0639 5.57
212.0463 9.23
223.0515 26.92
224.0537 4.33
225.056 100.0
226.0584 14.83
237.0917 2.18
253.0505 5.95
267.0872 2.99
279.0967 2.29
282.0741 5.33
294.074 10.44
295.0866 3.07
308.1286 17.17
309.1356 4.04
336.1241 21.1
363.1343 2.31
381.1453 1.88
