>compound MLS002207223-01!Picrotin
>formula C15H18O7
>ionization [M+Na]+
>parentmass 333.0944736160905
#inchi InChI=1S/C15H18O7/c1-12(2,18)6-7-10(16)20-8(6)9-13(3)14(7,19)4-5-15(13,22-5)11(17)21-9/h5-9,18-19H,4H2,1-3H3
#inchikey RYEFFICCPKWYML
#Ion_Source LC-ESI
#Instrument qTof
#Compound_Source NIH Pharmacologically Active Library
#PI Dorrestein
#Data_Collector VP/LMS
#Scan -1
#Precursor_MZ 333.098
#ExactMass 310.105
#Charge 1
#CAS_Number N/A
#Pubmed_ID N/A
#Smiles CC(C)(O)C1C2OC(=O)C1C3(O)CC4OC45C(=O)OC2C53C
#INCHI_AUX N/A
#Library_Class 3
#SpectrumID CCMSLIB00000085676
#IonMode Positive
#UpdateWorkflowName UPDATE-SINGLE-ANNOTATED-BRONZE
#LibraryQualityString Bronze
#TaskID d252d724072548979f1f6f1ced849daf
##Scan# 1407
#SpectrumFile p4-E02_GE2_01_18374.mzXML
#LibraryName Pharm_Active_Library.mgf
#MQScore -1
#Organism Pharm_Active_Library
#TIC_Query 0
#RT_Query -1
#MZErrorPPM -1
#SharedPeaks 0
#MassDiff 0
#LibMZ -1
#SpecMZ 333.098
#SpecCharge 0
#internalFilename spec-00000.mgf

>collision 0
89.0355 4.43
103.0507 5.15
185.0932 27.42
200.1188 21.24
333.0945 0.0
