>compound MLS001335881-01!METYRAPONE
>formula C14H14N2O
>ionization [M+H]+
>parentmass 227.116821
#inchi InChI=1S/C14H14N2O/c1-14(2,12-6-4-8-16-10-12)13(17)11-5-3-7-15-9-11/h3-10H,1-2H3
#inchikey FJLBFSROUSIWMA
#Ion_Source LC-ESI
#Instrument qTof
#Compound_Source NIH Pharmacologically Active Library
#PI Dorrestein
#Data_Collector VP/LMS
#Scan -1
#Precursor_MZ 227.114
#ExactMass 226.111
#Charge 1
#CAS_Number N/A
#Pubmed_ID N/A
#Smiles CC(C)(C(=O)c1cccnc1)c2cccnc2
#INCHI_AUX N/A
#Library_Class 1
#SpectrumID CCMSLIB00000085326
#IonMode Positive
#UpdateWorkflowName UPDATE-SINGLE-ANNOTATED-GOLD
#LibraryQualityString Gold
#TaskID d252d724072548979f1f6f1ced849daf
##Scan# 1201
#SpectrumFile p3-H05_GH5_01_18310.mzXML
#LibraryName Pharm_Active_Library.mgf
#MQScore -1
#Organism Pharm_Active_Library
#TIC_Query 0
#RT_Query -1
#MZErrorPPM -1
#SharedPeaks 0
#MassDiff 0
#LibMZ -1
#SpecMZ 227.114
#SpecCharge 0
#internalFilename spec-00000.mgf

>collision 0
93.0553 1.26
106.0651 58.67
118.0647 2.02
120.0807 100.0
121.0872 23.81
168.0676 1.43
227.1168 2.38
