>compound EXEMESTANE
>formula C20H24O2
>ionization [M+H]+
>parentmass 297.186615
#inchi InChI=1S/C20H24O2/c1-12-10-14-15-4-5-18(22)20(15,3)9-7-16(14)19(2)8-6-13(21)11-17(12)19/h6,8,11,14-16H,1,4-5,7,9-10H2,2-3H3/t14-,15-,16-,19+,20-/m0/s1
#inchikey BFYIZQONLCFLEV
#Ion_Source LC-ESI
#Instrument qTof
#Compound_Source Commercial
#PI Dorrestein
#Data_Collector Garg_Neha
#Scan -1
#Precursor_MZ 297.185
#ExactMass 296.178
#Charge 1
#CAS_Number N/A
#Pubmed_ID N/A
#Smiles C[C@@]12CC[C@H]3[C@@H](CC(=C)C4=CC(=O)C=C[C@]34C)[C@@H]2CCC1=O
#INCHI_AUX N/A
#Library_Class 1
#SpectrumID CCMSLIB00000079118
#IonMode Positive
#UpdateWorkflowName UPDATE-SINGLE-ANNOTATED-GOLD
#LibraryQualityString Gold
#TaskID 278b19f5865741e282cec7349aa7e7a1
##Scan# 1561
#SpectrumFile NCP003512_E2_F11_BD6_01_15730.mzXML
#LibraryName NIHcollectionI_05062014.mgf
#MQScore -1
#Organism NIHcollectionI_05062014
#TIC_Query 0
#RT_Query -1
#MZErrorPPM -1
#SharedPeaks 0
#MassDiff 0
#LibMZ -1
#SpecMZ 297.185
#SpecCharge 0
#internalFilename spec-00000.mgf

>collision 0
91.0535 2.1
93.0692 5.87
97.0645 2.05
105.0697 8.45
107.0849 8.52
117.0685 2.18
119.085 3.76
121.0647 23.65
121.1009 44.41
129.0684 3.7
131.0845 8.39
133.0638 3.61
133.1009 4.51
135.0804 15.73
142.0772 1.89
143.0857 3.89
145.0649 5.44
145.1013 14.08
147.0805 12.15
147.116 4.89
149.0965 83.84
159.08 5.69
161.0958 4.45
161.1326 2.15
163.1121 8.82
171.0807 3.32
171.117 11.02
173.0957 7.3
175.1119 3.18
185.0961 13.18
187.1118 4.05
189.1274 9.22
197.0959 2.26
199.1115 3.66
201.1285 5.09
211.111 2.16
223.1125 5.39
227.1428 2.35
239.1438 9.61
253.1587 8.24
269.1898 1.96
279.1762 100.0
297.1872 228.14
