>compound MLS001146904-01!52-86-8
>formula C21H23ClFNO2
>ionization [M+H]+
>parentmass 376.146698
#inchi InChI=1S/C21H23ClFNO2/c22-18-7-5-17(6-8-18)21(26)11-14-24(15-12-21)13-1-2-20(25)16-3-9-19(23)10-4-16/h3-10,26H,1-2,11-15H2
#inchikey LNEPOXFFQSENCJ
#Ion_Source LC-ESI
#Instrument qTof
#Compound_Source NIH Pharmacologically Active Library
#PI Dorrestein
#Data_Collector VP/LMS
#Scan -1
#Precursor_MZ 376.152
#ExactMass 375.14
#Charge 1
#CAS_Number N/A
#Pubmed_ID N/A
#Smiles OC1(CCN(CCCC(=O)c2ccc(F)cc2)CC1)c3ccc(Cl)cc3
#INCHI_AUX N/A
#Library_Class 1
#SpectrumID CCMSLIB00000084896
#IonMode Positive
#UpdateWorkflowName UPDATE-SINGLE-ANNOTATED-GOLD
#LibraryQualityString Gold
#TaskID d252d724072548979f1f6f1ced849daf
##Scan# 1718
#SpectrumFile p3-C04_GC4_01_18249.mzXML
#LibraryName Pharm_Active_Library.mgf
#MQScore -1
#Organism Pharm_Active_Library
#TIC_Query 0
#RT_Query -1
#MZErrorPPM -1
#SharedPeaks 0
#MassDiff 0
#LibMZ -1
#SpecMZ 376.152
#SpecCharge 0
#internalFilename spec-00000.mgf

>collision 0
95.0293 3.51
109.0448 0.95
113.0397 0.41
123.0257 74.65
135.0602 1.1
147.0604 0.55
163.0559 0.81
165.0722 100.0
194.0973 0.93
358.1372 6.5
376.1474 2.92
