>compound MLS001401449-01!Nifekalant hydrochloride
>formula C19H27N5O5
>ionization [M+H]+
>parentmass 406.20816
#inchi InChI=1S/C19H27N5O5/c1-21-17(14-18(26)22(2)19(21)27)20-9-11-23(12-13-25)10-3-4-15-5-7-16(8-6-15)24(28)29/h5-8,14,20,25H,3-4,9-13H2,1-2H3
#inchikey OEBPANQZQGQPHF
#origInchi InChI=1S/C19H27N5O5.ClH/c1-21-17(14-18(26)22(2)19(21)27)20-9-11-23(12-13-25)10-3-4-15-5-7-16(8-6-15)24(28)29;/h5-8,14,20,25H,3-4,9-13H2,1-2H3;1H
#Ion_Source LC-ESI
#Instrument qTof
#Compound_Source NIH Pharmacologically Active Library
#PI Dorrestein
#Data_Collector VP/LMS
#Scan -1
#Precursor_MZ 406.211
#ExactMass 405.201
#Charge 1
#CAS_Number N/A
#Pubmed_ID N/A
#Smiles Cn1c(NCCN(CCO)CCCc2ccc(cc2)[N+](=O)[O-])cc(=O)n(C)c1=O.Cl
#INCHI_AUX N/A
#Library_Class 1
#SpectrumID CCMSLIB00000085893
#IonMode Positive
#UpdateWorkflowName UPDATE-SINGLE-ANNOTATED-GOLD
#LibraryQualityString Gold
#TaskID d252d724072548979f1f6f1ced849daf
##Scan# 1333
#SpectrumFile p4-G08_GG8_01_18404.mzXML
#LibraryName Pharm_Active_Library.mgf
#MQScore -1
#Organism Pharm_Active_Library
#TIC_Query 0
#RT_Query -1
#MZErrorPPM -1
#SharedPeaks 0
#MassDiff 0
#LibMZ -1
#SpecMZ 406.211
#SpecCharge 0
#internalFilename spec-00000.mgf

>collision 0
96.0457 0.31
97.0768 0.49
100.074 0.87
102.0916 17.02
106.0414 10.53
112.0757 0.37
115.0542 0.92
115.0991 0.33
117.0698 4.06
118.0775 3.2
119.0482 0.42
125.0706 2.02
133.0659 0.53
136.04 22.28
147.0677 2.28
148.1112 0.96
164.0701 2.29
174.126 0.28
181.0859 0.28
182.0926 8.43
190.1225 0.27
193.1083 0.5
205.1461 3.19
207.1121 6.53
233.1269 0.5
235.1069 0.38
237.1363 4.59
251.1398 100.0
406.21 0.86
