>compound Gemfibrozil
>formula C15H22O3 
>ionization [M+H]+
>parentmass 251.164
#inchi InChI=1S/C15H22O3/c1-11-6-7-12(2)13(10-11)18-9-5-8-15(3,4)14(16)17/h6-7,10H,5,8-9H2,1-4H3,(H,16,17)
#inchikey HEMJJKBWTPKOJG
#Ion_Source LC-ESI
#Instrument qTof
#Compound_Source Isolated
#PI Sirenas
#Data_Collector Ed Esquenazi 
#Scan -1
#Precursor_MZ 251.164
#ExactMass 0.0
#Charge 1
#CAS_Number N/A
#Pubmed_ID N/A
#Smiles N/A
#INCHI_AUX N/A
#Library_Class 3
#SpectrumID CCMSLIB00000004573
#IonMode Positive
#UpdateWorkflowName UPDATE-SINGLE-ANNOTATED-BRONZE
#LibraryQualityString Bronze
#TaskID d19310cd93df49b68e9fcbec27720eb5
##Scan# 4
#SpectrumFile Gemfibrozil.mgf
#LibraryName fda_library.mgf
#MQScore -1
#Organism fda_library
#TIC_Query 0
#RT_Query -1
#MZErrorPPM -1
#SharedPeaks 0
#MassDiff 0
#LibMZ -1
#SpecMZ 251.164
#SpecCharge 0
#internalFilename spec-00000.mgf

>collision 0
101.096 6.13
107.084 0.52
108.0578 2.52
111.08 1.18
123.0801 54.83
129.0903 100.0
133.1008 0.68
135.0805 0.73
146.0719 0.98
161.0963 1.87
251.164 0.0
