>compound NCGC00160297-01!5-[2-(6-Hydroxy-4,7-dimethoxy-benzofuran-5-yl)-2-oxo-ethyl]-4-methoxy-6,6-dimethyl-5,6,7,8-tetrahydro-[1,3]dioxolo[4,5-g]isoquinolin-6-ium
>formula C25H28NO8+
>ionization [M+H]+
>parentmass 471.1887683080905
#inchi InChI=1S/C25H27NO8/c1-26(2)8-6-13-10-17-23(34-12-33-17)24(30-4)18(13)15(26)11-16(27)19-20(28)25(31-5)22-14(7-9-32-22)21(19)29-3/h7,9-10,15H,6,8,11-12H2,1-5H3/p+1
#inchikey XTRKZMFPKIQAIJ
#Ion_Source LC-ESI
#Instrument qTOF
#Compound_Source Prestwick Phytochem Lib
#PI Dorrestein
#Data_Collector VVP/LMS
#Scan -1
#Precursor_MZ 470.181
#ExactMass 470.181
#Charge 1
#CAS_Number N/A
#Pubmed_ID N/A
#Smiles COC1=C2OC=CC2=C(OC)C(C(=O)CC3C4=C(OC)C5=C(OCO5)C=C4CC[N+]3(C)C)=C1O
#INCHI_AUX N/A
#Library_Class 1
#SpectrumID CCMSLIB00000078684
#IonMode Positive
#UpdateWorkflowName UPDATE-SINGLE-ANNOTATED-GOLD
#LibraryQualityString Gold
#TaskID 67c915c6594c435cadc1fe2b5358144d
##Scan# 1857
#SpectrumFile p1-A02_GA2_01_17875.mzXML
#LibraryName phytochem_lib.mgf
#MQScore -1
#Organism phytochem_lib
#TIC_Query 0
#RT_Query -1
#MZErrorPPM -1
#SharedPeaks 0
#MassDiff 0
#LibMZ -1
#SpecMZ 470.181
#SpecCharge 0
#internalFilename spec-00000.mgf

>collision 0
133.0282 1.5
133.0635 1.4
144.0808 0.97
146.0372 0.88
147.0427 0.84
147.0804 1.31
160.0755 1.19
161.0836 2.29
173.0603 0.9
174.0917 0.93
175.0979 2.26
176.106 17.73
188.0692 1.04
189.0779 2.57
190.0849 0.8
190.9973 26.26
191.0702 8.92
193.0115 1.85
193.0491 0.76
193.0849 1.01
200.0459 0.83
202.086 4.16
203.0941 12.33
204.101 10.8
206.0208 44.22
208.0382 3.42
215.0696 6.9
218.0822 7.91
219.0874 9.22
221.0455 100.0
223.0582 4.2
232.0957 1.76
234.113 37.19
249.076 2.76
250.1455 6.82
470.1837 2.67
471.1882 1.54
