>compound Griseofulvin
>formula C17H17ClO6 
>ionization [M+H]+
>parentmass 353.078918
#inchi InChI=1S/C17H17ClO6/c1-8-5-9(19)6-12(23-4)17(8)16(20)13-10(21-2)7-11(22-3)14(18)15(13)24-17/h6-8H,5H2,1-4H3/t8-,17+/m1/s1
#inchikey DDUHZTYCFQRHIY
#Ion_Source LC-ESI
#Instrument qTof
#Compound_Source Commercial
#PI Dorrestein
#Data_Collector Garg_Neha
#Scan -1
#Precursor_MZ 353.081
#ExactMass 352.071
#Charge 1
#CAS_Number N/A
#Pubmed_ID N/A
#Smiles N/A
#INCHI_AUX N/A
#Library_Class 1
#SpectrumID CCMSLIB00000077081
#IonMode Positive
#UpdateWorkflowName UPDATE-SINGLE-ANNOTATED-GOLD
#LibraryQualityString Gold
#TaskID 48f7f52fc6d249b5abbcc6e7b3df5969
##Scan# 1388
#SpectrumFile NCP003106_A2_B11_BB2_01_15705.mzXML
#LibraryName NIH_Clinical_Collection_2.mgf
#MQScore -1
#Organism NIHcollection2_04212014_2_mgf
#TIC_Query 0
#RT_Query -1
#MZErrorPPM -1
#SharedPeaks 0
#MassDiff 0
#LibMZ -1
#SpecMZ 353.081
#SpecCharge 0
#internalFilename spec-00000.mgf

>collision 0
133.0286 1.24
137.0585 2.43
150.0316 3.32
156.9676 1.38
165.0553 100.0
171.9933 3.54
183.065 1.4
197.0361 1.38
199.9883 6.56
215.0107 85.46
224.0241 1.64
250.0398 1.44
253.0261 2.07
255.0051 2.21
257.0557 2.31
270.0279 7.63
278.0315 2.75
285.0526 34.34
293.0566 2.83
306.0271 2.11
311.0657 4.23
321.0512 7.88
335.0698 1.32
353.0789 176.51
