>compound MLS001140359-01!1-[2-(4,7-dimethyl-2-oxochromen-5-yl)oxyacetyl]piperidine-4-carboxamide
>formula C19H22N2O5
>ionization [M+H]+
>parentmass 359.161041
#inchi InChI=1S/C19H22N2O5/c1-11-7-14(18-12(2)9-17(23)26-15(18)8-11)25-10-16(22)21-5-3-13(4-6-21)19(20)24/h7-9,13H,3-6,10H2,1-2H3,(H2,20,24)
#inchikey FXEKRKUZKLMXEX
#Ion_Source LC-ESI
#Instrument qTof
#Compound_Source NIH Natural Product Library
#PI Dorrestein
#Data_Collector VVP/LMS
#Scan -1
#Precursor_MZ 359.161
#ExactMass 358.153
#Charge 1
#CAS_Number N/A
#Pubmed_ID N/A
#Smiles Cc1cc(OCC(=O)N2CCC(CC2)C(=O)N)c3c(C)cc(=O)oc3c1
#INCHI_AUX N/A
#Library_Class 1
#SpectrumID CCMSLIB00000079990
#IonMode Positive
#UpdateWorkflowName UPDATE-SINGLE-ANNOTATED-GOLD
#LibraryQualityString Gold
#TaskID b1d8e8f6646f4e71acdff9ca3d919d08
##Scan# 1611
#SpectrumFile p2-F02_GF2_01_18038.mzXML
#LibraryName NIH_Natural_Products_Library.mgf
#MQScore -1
#Organism NIH_Natural_Products_Library
#TIC_Query 0
#RT_Query -1
#MZErrorPPM -1
#SharedPeaks 0
#MassDiff 0
#LibMZ -1
#SpecMZ 359.161
#SpecCharge 0
#internalFilename spec-00000.mgf

>collision 0
96.0818 13.73
97.0531 2.86
97.0867 2.95
98.0599 12.81
110.0605 6.5
112.0764 26.36
115.0528 3.69
117.065 11.2
118.0731 3.59
119.0479 4.1
119.0838 5.94
124.0731 8.99
127.0869 53.5
128.0616 4.52
129.0704 12.17
131.0838 3.96
133.0647 5.39
139.0882 3.55
144.0569 3.36
145.0652 30.65
146.0696 5.62
147.0792 15.39
148.0877 4.79
159.0808 5.53
161.0578 7.7
162.0664 10.65
163.0694 3.73
167.0869 3.18
169.1004 8.62
170.0198 3.18
173.0598 14.7
175.0745 48.02
176.0791 10.6
190.0621 19.86
191.0681 12.63
203.0704 100.0
204.0727 8.8
213.0515 5.53
231.0644 21.01
314.1381 16.13
341.1479 3.36
342.1336 13.59
359.161 5.62
