>compound MLS001076858-01!
>formula C21H21N3O2S
>ionization [M+H]+
>parentmass 380.143
#inchi InChI=1S/C21H21N3O2S/c25-19(10-9-15-5-2-1-3-6-15)22-21(27)23-12-16-11-17(14-23)18-7-4-8-20(26)24(18)13-16/h1-10,16-17H,11-14H2,(H,22,25,27)/b10-9+/t16-,17-/m1/s1
#inchikey BYHZMBFSYXBJLB
#Ion_Source LC-ESI
#Instrument qTof
#Compound_Source NIH Natural Product Library
#PI Dorrestein
#Data_Collector VVP/LMS
#Scan -1
#Precursor_MZ 380.143
#ExactMass 379.135
#Charge 1
#CAS_Number N/A
#Pubmed_ID N/A
#Smiles O=C(NC(=S)N1C[C@H]2C[C@H](C1)c3cccc(=O)n3C2)/C=C/c4ccccc4
#INCHI_AUX N/A
#Library_Class 1
#SpectrumID CCMSLIB00000079651
#IonMode Positive
#UpdateWorkflowName UPDATE-SINGLE-ANNOTATED-GOLD
#LibraryQualityString Gold
#TaskID b1d8e8f6646f4e71acdff9ca3d919d08
##Scan# 1817
#SpectrumFile p1-D09_GD9_01_17917.mzXML
#LibraryName NIH_Natural_Products_Library.mgf
#MQScore -1
#Organism NIH_Natural_Products_Library
#TIC_Query 0
#RT_Query -1
#MZErrorPPM -1
#SharedPeaks 0
#MassDiff 0
#LibMZ -1
#SpecMZ 380.143
#SpecCharge 0
#internalFilename spec-00000.mgf

>collision 0
103.0559 50.79
130.0658 3.63
131.0491 96.23
133.0504 9.46
146.06 9.25
148.0757 33.58
156.0815 6.17
159.0682 4.52
174.0908 18.51
380.1466 1.37
