>compound Vincristine
>formula C46H56N4O10 
>ionization [M+H]+
>parentmass 825.4069204440905
#inchi InChI=1S/C46H56N4O10/c1-7-42(55)22-28-23-45(40(53)58-5,36-30(14-18-48(24-28)25-42)29-12-9-10-13-33(29)47-36)32-20-31-34(21-35(32)57-4)50(26-51)38-44(31)16-19-49-17-11-15-43(8-2,37(44)49)39(60-27(3)52)46(38,56)41(54)59-6/h9-13,15,20-21,26,28,37-39,47,55-56H,7-8,14,16-19,22-25H2,1-6H3/t28-,37+,38-,39-,42+,43-,44-,45+,46+/m1/s1
#inchikey OGWKCGZFUXNPDA
#Ion_Source LC-ESI
#Instrument qTof
#Compound_Source Isolated
#PI Sirenas
#Data_Collector Ed Esquenazi 
#Scan -1
#Precursor_MZ 825.409
#ExactMass 0.0
#Charge 1
#CAS_Number N/A
#Pubmed_ID N/A
#Smiles N/A
#INCHI_AUX N/A
#Library_Class 3
#SpectrumID CCMSLIB00000005529
#IonMode Positive
#UpdateWorkflowName UPDATE-SINGLE-ANNOTATED-BRONZE
#LibraryQualityString Bronze
#TaskID d19310cd93df49b68e9fcbec27720eb5
##Scan# 3
#SpectrumFile Vincristine.mgf
#LibraryName fda_library.mgf
#MQScore -1
#Organism fda_library
#TIC_Query 0
#RT_Query -1
#MZErrorPPM -1
#SharedPeaks 0
#MassDiff 0
#LibMZ -1
#SpecMZ 825.409
#SpecCharge 0
#internalFilename spec-00000.mgf

>collision 0
122.0968 8.72
124.1117 2.8
126.1282 1.15
136.1121 1.51
138.1269 3.44
140.1061 1.88
154.1223 1.33
156.1391 1.08
224.1284 8.67
353.1843 3.43
520.2612 1.61
538.2684 1.21
556.2806 1.07
598.296 4.41
616.2988 0.94
634.3113 1.48
659.3636 1.09
677.3684 1.43
687.3525 5.2
705.365 24.59
715.3468 1.34
723.3747 13.73
733.3588 4.91
747.3757 8.84
765.3869 100.0
783.3985 8.77
807.3965 60.54
825.409 336.77
