>compound NCGC00095464-02!LEOIDIN
>formula C18H14Cl2O7
>ionization [M+H]+
>parentmass 413.019
#inchi InChI=1S/C18H14Cl2O7/c1-5-9-16(11(20)13(22)10(5)19)26-14-6(2)8(17(23)25-4)12(21)7(3)15(14)27-18(9)24/h21-22H,1-4H3
#inchikey RCLFRVZNHRFQGE
#Ion_Source LC-ESI
#Instrument qTOF
#Compound_Source Prestwick Phytochem Lib
#PI Dorrestein
#Data_Collector VVP/LMS
#Scan -1
#Precursor_MZ 413.019
#ExactMass 412.012
#Charge 1
#CAS_Number N/A
#Pubmed_ID N/A
#Smiles COC(=O)C1=C(O)C(=C2OC(=O)C3=C(C)C(=C(O)C(=C3OC2=C1C)Cl)Cl)C
#INCHI_AUX N/A
#Library_Class 1
#SpectrumID CCMSLIB00000078754
#IonMode Positive
#UpdateWorkflowName UPDATE-SINGLE-ANNOTATED-GOLD
#LibraryQualityString Gold
#TaskID 67c915c6594c435cadc1fe2b5358144d
##Scan# 2709
#SpectrumFile p1-D03_GD3_01_17911.mzXML
#LibraryName phytochem_lib.mgf
#MQScore -1
#Organism phytochem_lib
#TIC_Query 0
#RT_Query -1
#MZErrorPPM -1
#SharedPeaks 0
#MassDiff 0
#LibMZ -1
#SpecMZ 413.019
#SpecCharge 0
#internalFilename spec-00000.mgf

>collision 0
149.017 10.52
184.9917 9.11
206.011 6.13
212.986 13.34
228.9804 4.06
240.9798 24.19
256.9756 3.81
268.9773 18.14
281.9936 4.06
296.9724 32.15
298.9676 13.5
324.9644 100.0
326.9612 60.4
328.9612 4.81
342.9768 6.38
352.9991 12.59
413.019 0.0
