>compound MLS001333159-01!Flunixin meglumine42461-84-7
>formula C14H11F3N2O2
>ionization [M+H]+
>parentmass 297.084381
#inchi InChI=1S/C14H11F3N2O2/c1-8-10(14(15,16)17)5-2-6-11(8)19-12-9(13(20)21)4-3-7-18-12/h2-7H,1H3,(H,18,19)(H,20,21)
#inchikey NOOCSNJCXJYGPE
#origInchi InChI=1S/C14H11F3N2O2.C7H17NO5/c1-8-10(14(15,16)17)5-2-6-11(8)19-12-9(13(20)21)4-3-7-18-12;1-8-2-4(10)6(12)7(13)5(11)3-9/h2-7H,1H3,(H,18,19)(H,20,21);4-13H,2-3H2,1H3/t;4-,5+,6+,7+/m.0/s1
#Ion_Source LC-ESI
#Instrument qTof
#Compound_Source NIH Pharmacologically Active Library
#PI Dorrestein
#Data_Collector VP/LMS
#Scan -1
#Precursor_MZ 297.086
#ExactMass 296.077
#Charge 1
#CAS_Number N/A
#Pubmed_ID N/A
#Smiles Cc1c(Nc2ncccc2C(=O)O)cccc1C(F)(F)F.CNC[C@@H]([C@H]([C@@H]([C@@H](CO)O)O)O)O
#INCHI_AUX N/A
#Library_Class 1
#SpectrumID CCMSLIB00000085241
#IonMode Positive
#UpdateWorkflowName UPDATE-SINGLE-ANNOTATED-GOLD
#LibraryQualityString Gold
#TaskID d252d724072548979f1f6f1ced849daf
##Scan# 1993
#SpectrumFile p3-G05_GG5_01_18298.mzXML
#LibraryName Pharm_Active_Library.mgf
#MQScore -1
#Organism Pharm_Active_Library
#TIC_Query 0
#RT_Query -1
#MZErrorPPM -1
#SharedPeaks 0
#MassDiff 0
#LibMZ -1
#SpecMZ 297.086
#SpecCharge 0
#internalFilename spec-00000.mgf

>collision 0
99.0214 0.65
119.0275 1.13
139.0344 2.5
159.0408 13.24
181.0755 9.62
182.0823 5.03
184.055 8.36
185.0567 1.16
191.0594 2.11
209.0698 5.93
210.0775 19.38
211.0669 9.5
212.0682 1.85
214.0485 0.8
216.049 1.36
219.0535 1.97
230.0632 0.86
231.0719 3.98
232.0585 1.04
234.0514 1.98
236.0553 19.2
239.0609 18.13
240.0634 2.5
241.0561 3.81
244.0434 0.69
251.0768 2.1
252.0631 1.13
258.0587 1.95
259.0673 28.44
261.0641 1.65
263.042 2.16
264.0513 81.95
278.0645 1.93
279.075 100.0
297.0844 14.21
