>compound MLS001332533-01!82640-04-8
>formula C28H27NO4S
>ionization [M+H]+
>parentmass 474.17453
#inchi InChI=1S/C28H27NO4S/c30-21-8-4-20(5-9-21)28-26(24-13-10-22(31)18-25(24)34-28)27(32)19-6-11-23(12-7-19)33-17-16-29-14-2-1-3-15-29/h4-13,18,30-31H,1-3,14-17H2
#inchikey GZUITABIAKMVPG
#origInchi InChI=1S/C28H27NO4S.ClH/c30-21-8-4-20(5-9-21)28-26(24-13-10-22(31)18-25(24)34-28)27(32)19-6-11-23(12-7-19)33-17-16-29-14-2-1-3-15-29;/h4-13,18,30-31H,1-3,14-17H2;1H
#Ion_Source LC-ESI
#Instrument qTof
#Compound_Source NIH Pharmacologically Active Library
#PI Dorrestein
#Data_Collector VP/LMS
#Scan -1
#Precursor_MZ 474.177
#ExactMass 473.166
#Charge 1
#CAS_Number N/A
#Pubmed_ID N/A
#Smiles Oc1ccc(cc1)c2sc3cc(O)ccc3c2C(=O)c4ccc(OCCN5CCCCC5)cc4.Cl
#INCHI_AUX N/A
#Library_Class 1
#SpectrumID CCMSLIB00000085407
#IonMode Positive
#UpdateWorkflowName UPDATE-SINGLE-ANNOTATED-GOLD
#LibraryQualityString Gold
#TaskID d252d724072548979f1f6f1ced849daf
##Scan# 1685
#SpectrumFile p4-A06_GA6_01_18331.mzXML
#LibraryName Pharm_Active_Library.mgf
#MQScore -1
#Organism Pharm_Active_Library
#TIC_Query 0
#RT_Query -1
#MZErrorPPM -1
#SharedPeaks 0
#MassDiff 0
#LibMZ -1
#SpecMZ 474.177
#SpecCharge 0
#internalFilename spec-00000.mgf

>collision 0
103.0193 1.32
121.0301 0.99
147.0459 15.13
197.0612 11.34
213.0371 4.27
214.0408 0.7
224.0289 0.79
225.0588 0.66
241.0318 3.24
242.0377 0.98
252.0239 0.54
253.0273 0.87
266.0404 0.56
269.0285 50.4
270.0312 9.84
284.0832 0.57
287.0549 1.81
288.0588 0.88
304.055 0.85
305.0638 3.3
315.0494 0.62
316.0551 0.67
317.0631 1.64
318.0689 0.78
319.0402 0.55
328.0539 0.72
332.0516 0.69
333.0583 3.71
334.0654 0.81
343.0393 0.94
344.053 1.13
345.0576 3.89
360.0473 1.1
361.0537 6.22
362.0604 6.97
374.0612 0.99
389.0807 1.59
474.1755 139.49
