>compound 2-[2,3-dichloro-4-(2-methylidenebutanoyl)phenoxy]acetic acid
>formula C13H12Cl2O4 
>ionization [M+H]+
>parentmass 303.01854067609054
#inchi InChI=1S/C13H12Cl2O4/c1-3-7(2)13(18)8-4-5-9(12(15)11(8)14)19-6-10(16)17/h4-5H,2-3,6H2,1H3,(H,16,17)
#inchikey AVOLMBLBETYQHX
#Ion_Source LC-ESI
#Instrument qTof
#Compound_Source Commercial
#PI Dorrestein
#Data_Collector Garg_Neha
#Scan -1
#Precursor_MZ 303.019
#ExactMass 302.011
#Charge 1
#CAS_Number N/A
#Pubmed_ID N/A
#Smiles N/A
#INCHI_AUX N/A
#Library_Class 1
#SpectrumID CCMSLIB00000076981
#IonMode Positive
#UpdateWorkflowName UPDATE-SINGLE-ANNOTATED-GOLD
#LibraryQualityString Gold
#TaskID 48f7f52fc6d249b5abbcc6e7b3df5969
##Scan# 1670
#SpectrumFile NCP002928_C2_D11_BA3_01_15697.mzXML
#LibraryName NIH_Clinical_Collection_2.mgf
#MQScore -1
#Organism NIHcollection2_04212014_2_mgf
#TIC_Query 0
#RT_Query -1
#MZErrorPPM -1
#SharedPeaks 0
#MassDiff 0
#LibMZ -1
#SpecMZ 303.019
#SpecCharge 0
#internalFilename spec-00000.mgf

>collision 0
129.0709 3.96
130.0765 5.12
141.0699 5.21
151.0309 3.57
159.0806 3.84
165.0111 4.44
165.0476 6.27
166.0173 4.14
172.9559 14.7
176.0378 11.78
179.0251 34.87
184.9908 3.38
193.0055 4.96
193.0415 4.96
194.0496 41.94
195.021 11.62
207.0225 5.35
211.0076 9.86
211.9797 4.92
215.0015 4.94
227.0027 5.67
228.9826 15.85
229.018 14.96
242.997 7.75
244.005 14.93
250.0376 3.13
253.0272 42.85
257.0129 100.0
268.0491 38.12
303.0155 2.15
