>compound MLS002154228-01!PHENETHYLBIGUANIDE HYDROCHLORIDE
>formula C10H15N5
>ionization [M+H]+
>parentmass 206.14002193209052
#inchi InChI=1S/C10H15N5/c11-9(12)15-10(13)14-7-6-8-4-2-1-3-5-8/h1-5H,6-7H2,(H6,11,12,13,14,15)
#inchikey ICFJFFQQTFMIBG
#origInchi InChI=1S/C10H15N5.ClH/c11-9(12)15-10(13)14-7-6-8-4-2-1-3-5-8;/h1-5H,6-7H2,(H6,11,12,13,14,15);1H
#Ion_Source LC-ESI
#Instrument qTof
#Compound_Source NIH Pharmacologically Active Library
#PI Dorrestein
#Data_Collector VP/LMS
#Scan -1
#Precursor_MZ 206.141
#ExactMass 205.133
#Charge 1
#CAS_Number N/A
#Pubmed_ID N/A
#Smiles NC(=N)N=C(N)NCCc1ccccc1.Cl
#INCHI_AUX N/A
#Library_Class 1
#SpectrumID CCMSLIB00000085420
#IonMode Positive
#UpdateWorkflowName UPDATE-SINGLE-ANNOTATED-GOLD
#LibraryQualityString Gold
#TaskID d252d724072548979f1f6f1ced849daf
##Scan# 1069
#SpectrumFile p4-A07_GA7_01_18324.mzXML
#LibraryName Pharm_Active_Library.mgf
#MQScore -1
#Organism Pharm_Active_Library
#TIC_Query 0
#RT_Query -1
#MZErrorPPM -1
#SharedPeaks 0
#MassDiff 0
#LibMZ -1
#SpecMZ 206.141
#SpecCharge 0
#internalFilename spec-00000.mgf

>collision 0
103.0555 29.14
105.0706 100.0
130.0649 3.6
147.0914 2.15
164.1195 4.39
206.14 0.0
