>compound MLS001049004-01!2,3-dihydroxy-N,N'-diphenylbutanediamide
>formula C16H16N2O4
>ionization [M+H]+
>parentmass 301.119
#inchi InChI=1S/C16H16N2O4/c19-13(15(21)17-11-7-3-1-4-8-11)14(20)16(22)18-12-9-5-2-6-10-12/h1-10,13-14,19-20H,(H,17,21)(H,18,22)
#inchikey RMACBBOFZDWABJ
#Ion_Source LC-ESI
#Instrument qTof
#Compound_Source NIH Natural Product Library
#PI Dorrestein
#Data_Collector VVP/LMS
#Scan -1
#Precursor_MZ 301.119
#ExactMass 300.111
#Charge 1
#CAS_Number N/A
#Pubmed_ID N/A
#Smiles OC(C(O)C(=O)Nc1ccccc1)C(=O)Nc2ccccc2
#INCHI_AUX N/A
#Library_Class 1
#SpectrumID CCMSLIB00000080513
#IonMode Positive
#UpdateWorkflowName UPDATE-SINGLE-ANNOTATED-GOLD
#LibraryQualityString Gold
#TaskID b1d8e8f6646f4e71acdff9ca3d919d08
##Scan# 1698
#SpectrumFile p2-A10_GA10_01_17986.mzXML
#LibraryName NIH_Natural_Products_Library.mgf
#MQScore -1
#Organism NIH_Natural_Products_Library
#TIC_Query 0
#RT_Query -1
#MZErrorPPM -1
#SharedPeaks 0
#MassDiff 0
#LibMZ -1
#SpecMZ 301.119
#SpecCharge 0
#internalFilename spec-00000.mgf

>collision 0
105.0336 5.1
106.0659 7.15
107.072 1.28
116.0495 2.86
120.0454 100.0
126.0341 1.39
132.0455 1.55
134.0605 25.48
135.0663 3.44
144.0438 1.59
150.0556 1.86
162.055 9.9
180.0658 10.44
301.119 0.0
