>compound Avobenzone (Parsol 1789)
>formula C20H22O3
>ionization [M+H]+
>parentmass 311.164307
#inchi InChI=1S/C20H22O3/c1-20(2,3)16-9-5-14(6-10-16)18(21)13-19(22)15-7-11-17(23-4)12-8-15/h5-12H,13H2,1-4H3
#inchikey XNEFYCZVKIDDMS
#Ion_Source LC-ESI
#Instrument qTof
#Compound_Source Commercial
#PI Dorrestein
#Data_Collector Garg_Neha
#Scan -1
#Precursor_MZ 311.164
#ExactMass 310.157
#Charge 1
#CAS_Number 70356-09-1
#Pubmed_ID N/A
#Smiles C1=C(C=CC(=C1)C(CC(C2=CC=C(C=C2)C(C)(C)C)=O)=O)OC
#INCHI_AUX N/A
#Library_Class 1
#SpectrumID CCMSLIB00000078337
#IonMode Positive
#UpdateWorkflowName UPDATE-SINGLE-ANNOTATED-GOLD
#LibraryQualityString Gold
#TaskID 77f51c88eb8b467eb4a01dd2d0cb90d2
##Scan# 3563
#SpectrumFile Plate5_41_60_GH8_01_16510.mzXML
#LibraryName FDALibrary_2_04302014.mgf
#MQScore -1
#Organism FDALibrary_2_04302014
#TIC_Query 0
#RT_Query -1
#MZErrorPPM -1
#SharedPeaks 0
#MassDiff 0
#LibMZ -1
#SpecMZ 311.164
#SpecCharge 0
#internalFilename spec-00000.mgf

>collision 0
91.0532 1.44
105.034 2.59
107.0472 1.33
109.066 1.95
133.1028 1.56
135.0435 61.8
146.0716 6.82
161.0952 100.0
203.1056 3.96
311.1643 375.24
