>compound MLS002473044-01!1,5,8-trihydroxy-3-methoxyxanthen-9-one
>formula C14H10O6
>ionization [M+H]+
>parentmass 275.055664
#inchi InChI=1S/C14H10O6/c1-19-6-4-9(17)11-10(5-6)20-14-8(16)3-2-7(15)12(14)13(11)18/h2-5,15-17H,1H3
#inchikey JDIORNFCMMYMLF
#Ion_Source LC-ESI
#Instrument qTof
#Compound_Source NIH Natural Product Library
#PI Dorrestein
#Data_Collector VVP/LMS
#Scan -1
#Precursor_MZ 275.056
#ExactMass 274.048
#Charge 1
#CAS_Number N/A
#Pubmed_ID N/A
#Smiles COc1cc(O)c2c(=O)c3c(O)ccc(O)c3oc2c1
#INCHI_AUX N/A
#Library_Class 1
#SpectrumID CCMSLIB00000080414
#IonMode Positive
#UpdateWorkflowName UPDATE-SINGLE-ANNOTATED-GOLD
#LibraryQualityString Gold
#TaskID b1d8e8f6646f4e71acdff9ca3d919d08
##Scan# 2174
#SpectrumFile p2-E08_GE8_01_18032.mzXML
#LibraryName NIH_Natural_Products_Library.mgf
#MQScore -1
#Organism NIH_Natural_Products_Library
#TIC_Query 0
#RT_Query -1
#MZErrorPPM -1
#SharedPeaks 0
#MassDiff 0
#LibMZ -1
#SpecMZ 275.056
#SpecCharge 0
#internalFilename spec-00000.mgf

>collision 0
102.0463 4.27
115.0532 5.45
117.0699 3.19
123.0076 4.73
136.0159 3.29
150.0306 6.53
153.0175 3.7
158.0362 21.7
159.0421 7.35
171.0447 3.55
176.0468 9.46
177.0165 5.35
178.026 3.75
186.0311 35.48
193.0488 13.73
205.0495 4.16
214.0254 33.32
218.0221 3.65
219.0641 4.83
229.0489 30.75
231.0287 18.41
232.0356 100.0
242.0213 5.14
246.0152 3.24
260.0316 16.97
275.0542 89.0
