>compound MLS001148387-01!
>formula C7H5N3O2
>ionization [M+H]+
>parentmass 164.044144
#inchi InChI=1S/C7H5N3O2/c11-10(12)6-2-1-5-4-8-9-7(5)3-6/h1-4H,(H,8,9)
#inchikey ORZRMRUXSPNQQL
#Ion_Source LC-ESI
#Instrument qTof
#Compound_Source NIH Pharmacologically Active Library
#PI Dorrestein
#Data_Collector VP/LMS
#Scan -1
#Precursor_MZ 164.044
#ExactMass 163.038
#Charge 1
#CAS_Number N/A
#Pubmed_ID N/A
#Smiles [O-][N+](=O)c1ccc2c[nH]nc2c1
#INCHI_AUX N/A
#Library_Class 1
#SpectrumID CCMSLIB00000085213
#IonMode Positive
#UpdateWorkflowName UPDATE-SINGLE-ANNOTATED-GOLD
#LibraryQualityString Gold
#TaskID d252d724072548979f1f6f1ced849daf
##Scan# 1641
#SpectrumFile p3-G02_GG2_01_18295.mzXML
#LibraryName Pharm_Active_Library.mgf
#MQScore -1
#Organism Pharm_Active_Library
#TIC_Query 0
#RT_Query -1
#MZErrorPPM -1
#SharedPeaks 0
#MassDiff 0
#LibMZ -1
#SpecMZ 164.044
#SpecCharge 0
#internalFilename spec-00000.mgf

>collision 0
91.042 15.4
101.0254 12.37
103.0278 9.6
106.0518 15.15
118.0517 100.0
164.0441 12.25
