>compound MILRINONE
>formula C12H9N3O
>ionization [M+H]+
>parentmass 212.083099
#inchi InChI=1S/C12H9N3O/c1-8-11(9-2-4-14-5-3-9)6-10(7-13)12(16)15-8/h2-6H,1H3,(H,15,16)
#inchikey PZRHRDRVRGEVNW
#Ion_Source LC-ESI
#Instrument qTof
#Compound_Source Commercial
#PI Dorrestein
#Data_Collector Garg_Neha
#Scan -1
#Precursor_MZ 212.082
#ExactMass 211.075
#Charge 1
#CAS_Number N/A
#Pubmed_ID N/A
#Smiles Cc1nc(O)c(C#N)cc1c2ccncc2
#INCHI_AUX N/A
#Library_Class 1
#SpectrumID CCMSLIB00000079129
#IonMode Positive
#UpdateWorkflowName UPDATE-SINGLE-ANNOTATED-GOLD
#LibraryQualityString Gold
#TaskID 278b19f5865741e282cec7349aa7e7a1
##Scan# 1046
#SpectrumFile NCP003512_E2_F11_BD6_01_15730.mzXML
#LibraryName NIHcollectionI_05062014.mgf
#MQScore -1
#Organism NIHcollectionI_05062014
#TIC_Query 0
#RT_Query -1
#MZErrorPPM -1
#SharedPeaks 0
#MassDiff 0
#LibMZ -1
#SpecMZ 212.082
#SpecCharge 0
#internalFilename spec-00000.mgf

>collision 0
148.0637 100.0
168.0689 5.28
169.0774 6.61
183.0798 7.43
184.0868 12.54
185.0695 5.7
194.073 5.41
195.0558 5.57
196.0632 8.54
211.0742 28.02
212.0831 321.99
