>compound N-methyl-3-phenyl-3-[4-(trifluoromethyl)phenoxy]propan-1-amine
>formula C17H18F3NO 
>ionization [M+H]+
>parentmass 310.142303
#inchi InChI=1S/C17H18F3NO/c1-21-12-11-16(13-5-3-2-4-6-13)22-15-9-7-14(8-10-15)17(18,19)20/h2-10,16,21H,11-12H2,1H3
#inchikey RTHCYVBBDHJXIQ
#Ion_Source LC-ESI
#Instrument qTof
#Compound_Source Commercial
#PI Dorrestein
#Data_Collector Garg_Neha
#Scan -1
#Precursor_MZ 310.143
#ExactMass 309.134
#Charge 1
#CAS_Number N/A
#Pubmed_ID N/A
#Smiles N/A
#INCHI_AUX N/A
#Library_Class 1
#SpectrumID CCMSLIB00000077145
#IonMode Positive
#UpdateWorkflowName UPDATE-SINGLE-ANNOTATED-GOLD
#LibraryQualityString Gold
#TaskID 48f7f52fc6d249b5abbcc6e7b3df5969
##Scan# 1286
#SpectrumFile NCP003195_E2E6F2F6G2G6H2H6_BB7_01_15711.mzXML
#LibraryName NIH_Clinical_Collection_2.mgf
#MQScore -1
#Organism NIHcollection2_04212014_2_mgf
#TIC_Query 0
#RT_Query -1
#MZErrorPPM -1
#SharedPeaks 0
#MassDiff 0
#LibMZ -1
#SpecMZ 310.143
#SpecCharge 0
#internalFilename spec-00000.mgf

>collision 0
115.0537 4.61
129.0689 12.08
240.0758 3.17
267.0842 2.79
277.0358 100.0
278.0403 29.91
310.1423 14.27
