>compound Dapoxetine
>formula C21H23NO
>ionization [M+H]+
>parentmass 306.18524080809055
#inchi InChI=1S/C21H23NO/c1-22(2)20(18-10-4-3-5-11-18)15-16-23-21-14-8-12-17-9-6-7-13-19(17)21/h3-14,20H,15-16H2,1-2H3/t20-/m0/s1
#inchikey USRHYDPUVLEVMC
#Ion_Source DI-ESI
#Instrument qTof
#Compound_Source Commercial
#PI Norberto Lopes
#Data_Collector Norberto Lopes
#Scan -1
#Precursor_MZ 306.18
#ExactMass 305.178
#Charge 1
#CAS_Number 119356-77-3
#Pubmed_ID N/A
#Smiles CN(C)[C@H](C1=CC=CC=C1)CCOC2=C3C(C=CC=C3)=CC=C2
#INCHI_AUX N/A
#Library_Class 3
#SpectrumID CCMSLIB00000081577
#IonMode Positive
#UpdateWorkflowName UPDATE-SINGLE-ANNOTATED-BRONZE
#LibraryQualityString Bronze
#TaskID 4a07f16a650f4095b43fe6b0b09ff8bb
##Scan# 1
#SpectrumFile gnps_Dapoxetine_pos_MplusH.mgf
#LibraryName gnps_library.mgf
#MQScore -1
#Organism batch_27_05
#TIC_Query 0
#RT_Query -1
#MZErrorPPM -1
#SharedPeaks 0
#MassDiff 0
#LibMZ -1
#SpecMZ 306.18
#SpecCharge 0
#internalFilename spec-00000.mgf

>collision 0
157.0648 100.0
159.0674 1.85
235.0986 0.3
263.1289 1.2
306.1852 0.0
