>compound MLS000028619-01!BUTACAINE149-16-6
>formula C18H30N2O2
>ionization [M+H]+
>parentmass 307.237122
#inchi InChI=1S/C18H30N2O2/c1-3-5-12-20(13-6-4-2)14-7-15-22-18(21)16-8-10-17(19)11-9-16/h8-11H,3-7,12-15,19H2,1-2H3
#inchikey HQFWVSGBVLEQGA
#Ion_Source LC-ESI
#Instrument qTof
#Compound_Source NIH Pharmacologically Active Library
#PI Dorrestein
#Data_Collector VP/LMS
#Scan -1
#Precursor_MZ 307.243
#ExactMass 306.231
#Charge 1
#CAS_Number N/A
#Pubmed_ID N/A
#Smiles CCCCN(CCCC)CCCOC(=O)c1ccc(N)cc1
#INCHI_AUX N/A
#Library_Class 1
#SpectrumID CCMSLIB00000086158
#IonMode Positive
#UpdateWorkflowName UPDATE-SINGLE-ANNOTATED-GOLD
#LibraryQualityString Gold
#TaskID d252d724072548979f1f6f1ced849daf
##Scan# 1551
#SpectrumFile p5-G04_GG4_01_18473.mzXML
#LibraryName Pharm_Active_Library.mgf
#MQScore -1
#Organism Pharm_Active_Library
#TIC_Query 0
#RT_Query -1
#MZErrorPPM -1
#SharedPeaks 0
#MassDiff 0
#LibMZ -1
#SpecMZ 307.243
#SpecCharge 0
#internalFilename spec-00000.mgf

>collision 0
92.0499 4.18
100.1119 12.31
114.1275 1.1
120.045 100.0
128.1435 2.39
129.1502 0.25
137.0469 1.4
138.0543 0.41
142.1586 14.8
160.0759 0.32
170.1901 7.26
178.0864 18.79
188.2009 6.49
307.2374 0.75
