>compound Glimepiride
>formula C24H34N4O5S 
>ionization [M+H]+
>parentmass 491.2322676400905
#inchi InChI=1S/C24H34N4O5S/c1-4-21-17(3)15-28(22(21)29)24(31)25-14-13-18-7-11-20(12-8-18)34(32,33)27-23(30)26-19-9-5-16(2)6-10-19/h7-8,11-12,16,19H,4-6,9-10,13-15H2,1-3H3,(H,25,31)(H2,26,27,30)
#inchikey WIGIZIANZCJQQY
#Ion_Source LC-ESI
#Instrument qTof
#Compound_Source Isolated
#PI Sirenas
#Data_Collector Ed Esquenazi 
#Scan -1
#Precursor_MZ 491.236
#ExactMass 0.0
#Charge 1
#CAS_Number N/A
#Pubmed_ID N/A
#Smiles N/A
#INCHI_AUX N/A
#Library_Class 3
#SpectrumID CCMSLIB00000005742
#IonMode Positive
#UpdateWorkflowName UPDATE-SINGLE-ANNOTATED-BRONZE
#LibraryQualityString Bronze
#TaskID d19310cd93df49b68e9fcbec27720eb5
##Scan# 3
#SpectrumFile Glimepiride.mgf
#LibraryName fda_library.mgf
#MQScore -1
#Organism fda_library
#TIC_Query 0
#RT_Query -1
#MZErrorPPM -1
#SharedPeaks 0
#MassDiff 0
#LibMZ -1
#SpecMZ 491.236
#SpecCharge 0
#internalFilename spec-00000.mgf

>collision 0
103.0544 12.18
106.066 0.26
108.0801 3.0
109.0646 3.6
118.0667 1.05
119.0484 0.69
121.0646 1.16
124.0757 5.41
126.0916 100.0
128.0493 0.33
146.0601 3.48
152.0709 12.91
181.097 12.89
271.1418 0.64
491.2323 0.0
