>compound Cleviprex (Clevidipine)
>formula C21H23Cl2NO6
>ionization [M+H]+
>parentmass 456.098
#inchi InChI=1S/C21H23Cl2NO6/c1-5-7-15(25)29-10-30-21(27)17-12(3)24-11(2)16(20(26)28-4)18(17)13-8-6-9-14(22)19(13)23/h6,8-9,18,24H,5,7,10H2,1-4H3
#inchikey KPBZROQVTHLCDU
#Ion_Source LC-ESI
#Instrument qTof
#Compound_Source Commercial
#PI Dorrestein
#Data_Collector Garg_Neha
#Scan -1
#Precursor_MZ 456.098
#ExactMass 455.09
#Charge 1
#CAS_Number 167221-71-8
#Pubmed_ID N/A
#Smiles CCCC(OCOC(C1=C(NC(=C(C1C2=CC=CC(=C2Cl)Cl)C(OC)=O)C)C)=O)=O
#INCHI_AUX N/A
#Library_Class 1
#SpectrumID CCMSLIB00000078425
#IonMode Positive
#UpdateWorkflowName UPDATE-SINGLE-ANNOTATED-GOLD
#LibraryQualityString Gold
#TaskID 77f51c88eb8b467eb4a01dd2d0cb90d2
##Scan# 2578
#SpectrumFile Plate6_61_80_GD10_01_15777.mzXML
#LibraryName FDALibrary_2_04302014.mgf
#MQScore -1
#Organism FDALibrary_2_04302014
#TIC_Query 0
#RT_Query -1
#MZErrorPPM -1
#SharedPeaks 0
#MassDiff 0
#LibMZ -1
#SpecMZ 456.098
#SpecCharge 0
#internalFilename spec-00000.mgf

>collision 0
210.9823 0.52
215.0479 0.55
216.0534 0.48
242.0369 1.1
243.0443 1.65
250.0155 0.77
251.0237 0.41
252.0117 0.51
262.0183 0.5
263.0236 0.5
265.0011 0.53
268.0973 1.54
270.0302 2.0
272.0299 0.82
278.013 4.3
279.0158 1.61
281.0152 0.73
282.0083 0.51
288.9802 0.52
302.0578 9.7
303.0614 2.29
306.009 6.59
307.0133 1.78
308.006 5.35
309.0099 1.54
310.1249 1.33
324.0164 0.64
326.0089 0.49
336.0216 1.34
338.0359 100.0
339.0399 16.85
340.0331 62.81
341.036 8.52
354.0295 1.99
358.0339 0.54
456.1012 0.0
