>compound MLS002473308-01!
>formula C16H10N2O2
>ionization [M+H]+
>parentmass 263.079712
#inchi InChI=1S/C16H10N2O2/c19-15-10-6-2-4-8-12(10)17-14(15)13-9-5-1-3-7-11(9)18-16(13)20/h1-8,18,20H
#inchikey JNLNPCNGMHKCKO
#Ion_Source LC-ESI
#Instrument qTof
#Compound_Source NIH Pharmacologically Active Library
#PI Dorrestein
#Data_Collector VP/LMS
#Scan -1
#Precursor_MZ 263.084
#ExactMass 262.074
#Charge 1
#CAS_Number N/A
#Pubmed_ID N/A
#Smiles Oc1[nH]c2ccccc2c1C3=Nc4ccccc4C3=O
#INCHI_AUX N/A
#Library_Class 1
#SpectrumID CCMSLIB00000084905
#IonMode Positive
#UpdateWorkflowName UPDATE-SINGLE-ANNOTATED-GOLD
#LibraryQualityString Gold
#TaskID d252d724072548979f1f6f1ced849daf
##Scan# 2257
#SpectrumFile p3-C05_GC5_01_18250.mzXML
#LibraryName Pharm_Active_Library.mgf
#MQScore -1
#Organism Pharm_Active_Library
#TIC_Query 0
#RT_Query -1
#MZErrorPPM -1
#SharedPeaks 0
#MassDiff 0
#LibMZ -1
#SpecMZ 263.084
#SpecCharge 0
#internalFilename spec-00000.mgf

>collision 0
106.0269 3.62
132.0447 14.59
139.0549 4.2
152.0619 4.9
160.039 4.9
165.0698 53.82
177.059 4.32
180.0806 22.18
190.0653 100.0
192.08 8.46
193.0884 31.17
194.0731 4.5
206.085 34.38
208.0757 8.52
209.07 5.37
215.0604 6.07
216.068 15.82
217.077 56.28
219.0924 85.99
221.082 15.29
234.0793 43.72
235.0864 53.06
236.0716 12.14
245.0721 24.4
263.0804 81.32
