>compound MLS000736975-01!
>formula C29H45NO3
>ionization [M+H]+
>parentmass 456.347443
#inchi InChI=1S/C29H45NO3/c1-17-8-13-29(30-16-17)18(2)26-25(33-29)15-24-22-7-6-20-14-21(32-19(3)31)9-11-27(20,4)23(22)10-12-28(24,26)5/h6,17-18,21-26,30H,7-16H2,1-5H3
#inchikey MCQNPWNREVNWDQ
#Ion_Source LC-ESI
#Instrument qTof
#Compound_Source NIH Natural Product Library
#PI Dorrestein
#Data_Collector VVP/LMS
#Scan -1
#Precursor_MZ 456.348
#ExactMass 455.34
#Charge 1
#CAS_Number N/A
#Pubmed_ID N/A
#Smiles CC1C2C(CC3C4CC=C5CC(CCC5(C)C4CCC23C)OC(=O)C)OC61CCC(C)CN6
#INCHI_AUX N/A
#Library_Class 1
#SpectrumID CCMSLIB00000079498
#IonMode Positive
#UpdateWorkflowName UPDATE-SINGLE-ANNOTATED-GOLD
#LibraryQualityString Gold
#TaskID b1d8e8f6646f4e71acdff9ca3d919d08
##Scan# 2387
#SpectrumFile p1-B07_GB7_01_17891.mzXML
#LibraryName NIH_Natural_Products_Library.mgf
#MQScore -1
#Organism NIH_Natural_Products_Library
#TIC_Query 0
#RT_Query -1
#MZErrorPPM -1
#SharedPeaks 0
#MassDiff 0
#LibMZ -1
#SpecMZ 456.348
#SpecCharge 0
#internalFilename spec-00000.mgf

>collision 0
105.0694 10.08
107.0852 11.14
109.1012 17.99
117.0704 2.88
119.0855 6.95
121.1008 11.38
123.1169 3.25
129.0704 6.0
131.0865 12.86
133.1013 22.94
135.1157 3.05
141.0705 4.79
142.0778 9.67
143.0852 11.16
145.1009 18.5
147.1175 34.2
149.1332 7.5
155.084 4.36
157.1017 100.0
159.1161 22.08
161.1328 5.52
171.118 13.21
173.133 6.37
183.1165 4.11
185.1329 7.59
187.1492 2.84
199.1483 2.3
213.1624 2.96
225.1618 5.29
238.1732 3.03
253.195 92.58
378.3146 30.82
396.3268 6.48
438.3352 62.15
456.3474 187.5
