>compound MLS001160080-01!2-[2-(4-butyl-7-methyl-2-oxochromen-5-yl)oxypropanoylamino]-3-(5-hydroxy-1H-indol-3-yl)propanoic acid
>formula C28H30N2O7
>ionization [M+H]+
>parentmass 507.213
#inchi InChI=1S/C28H30N2O7/c1-4-5-6-17-12-25(32)37-24-10-15(2)9-23(26(17)24)36-16(3)27(33)30-22(28(34)35)11-18-14-29-21-8-7-19(31)13-20(18)21/h7-10,12-14,16,22,29,31H,4-6,11H2,1-3H3,(H,30,33)(H,34,35)
#inchikey QPOOMJOQGJEDNY
#Ion_Source LC-ESI
#Instrument qTof
#Compound_Source NIH Natural Product Library
#PI Dorrestein
#Data_Collector VVP/LMS
#Scan -1
#Precursor_MZ 507.213
#ExactMass 506.205
#Charge 1
#CAS_Number N/A
#Pubmed_ID N/A
#Smiles CCCCc1cc(=O)oc2cc(C)cc(OC(C)C(=O)NC(Cc3c[nH]c4ccc(O)cc34)C(=O)O)c12
#INCHI_AUX N/A
#Library_Class 1
#SpectrumID CCMSLIB00000080555
#IonMode Positive
#UpdateWorkflowName UPDATE-SINGLE-ANNOTATED-GOLD
#LibraryQualityString Gold
#TaskID b1d8e8f6646f4e71acdff9ca3d919d08
##Scan# 2013
#SpectrumFile p2-E10_GE10_01_18034.mzXML
#LibraryName NIH_Natural_Products_Library.mgf
#MQScore -1
#Organism NIH_Natural_Products_Library
#TIC_Query 0
#RT_Query -1
#MZErrorPPM -1
#SharedPeaks 0
#MassDiff 0
#LibMZ -1
#SpecMZ 507.213
#SpecCharge 0
#internalFilename spec-00000.mgf

>collision 0
105.0701 3.98
118.0634 5.74
121.0641 3.79
131.0451 6.13
131.0853 4.19
133.0639 4.92
134.0594 16.39
146.06 100.0
148.0757 8.19
151.041 15.39
158.0599 17.51
159.0772 5.43
160.0765 11.05
161.061 6.65
162.0551 27.01
170.0584 5.95
171.0653 10.41
173.0817 10.53
175.0845 23.28
177.0537 16.75
179.07 6.04
183.0644 5.77
184.0756 28.01
185.0788 7.86
186.0538 30.74
186.0898 19.7
187.0965 4.73
189.0504 5.13
189.0905 6.46
190.0596 5.46
200.0668 5.68
201.1005 10.53
203.066 13.51
204.0638 44.04
211.0823 3.64
212.0681 7.04
213.0899 10.08
215.0779 3.88
217.0819 5.92
217.122 4.13
229.0923 6.92
230.1006 9.29
231.0994 57.78
233.1146 54.93
259.1306 22.09
260.1306 4.83
507.2061 0.0
