>compound Dasatinib (BMS-354825)
>formula C22H26ClN7O2S
>ionization [M+H]+
>parentmass 488.163483
#inchi InChI=1S/C22H26ClN7O2S/c1-14-4-3-5-16(23)20(14)28-21(32)17-13-24-22(33-17)27-18-12-19(26-15(2)25-18)30-8-6-29(7-9-30)10-11-31/h3-5,12-13,31H,6-11H2,1-2H3,(H,28,32)(H,24,25,26,27)
#inchikey ZBNZXTGUTAYRHI
#Ion_Source LC-ESI
#Instrument qTof
#Compound_Source Commercial
#PI Dorrestein
#Data_Collector Garg_Neha
#Scan -1
#Precursor_MZ 488.163
#ExactMass 487.156
#Charge 1
#CAS_Number 302962-49-8, 854001-07-3 (HCl)
#Pubmed_ID N/A
#Smiles N1=C(N=C(C=C1NC2=NC=C(S2)C(NC3=C(C=CC=C3C)Cl)=O)N4CCN(CC4)CCO)C
#INCHI_AUX N/A
#Library_Class 1
#SpectrumID CCMSLIB00000078000
#IonMode Positive
#UpdateWorkflowName UPDATE-SINGLE-ANNOTATED-GOLD
#LibraryQualityString Gold
#TaskID 77f51c88eb8b467eb4a01dd2d0cb90d2
##Scan# 1143
#SpectrumFile Plate1_1_20_GG1_01_16488.mzXML
#LibraryName FDALibrary_2_04302014.mgf
#MQScore -1
#Organism FDALibrary_2_04302014
#TIC_Query 0
#RT_Query -1
#MZErrorPPM -1
#SharedPeaks 0
#MassDiff 0
#LibMZ -1
#SpecMZ 488.163
#SpecCharge 0
#internalFilename spec-00000.mgf

>collision 0
193.0529 4.5
219.0681 1.32
232.0643 28.3
234.0789 3.58
258.0801 8.52
260.0614 5.68
260.0936 1.47
261.0608 0.78
317.0257 0.94
319.1343 16.58
320.1356 3.19
343.0379 1.37
347.1293 2.17
348.1285 0.87
360.068 5.58
365.119 1.75
375.0826 0.78
377.0799 0.84
386.0804 1.48
387.0812 2.8
391.1351 0.81
401.0973 100.0
402.0981 23.88
403.0939 34.91
404.0942 6.48
427.1123 18.38
429.1125 8.41
430.1119 2.2
488.1678 247.66
