>compound MLS001159046-01!2-[[2-(4,7-dimethyl-2-oxochromen-5-yl)oxyacetyl]amino]benzamide
>formula C20H18N2O5
>ionization [M+H]+
>parentmass 367.129
#inchi InChI=1S/C20H18N2O5/c1-11-7-15(19-12(2)9-18(24)27-16(19)8-11)26-10-17(23)22-14-6-4-3-5-13(14)20(21)25/h3-9H,10H2,1-2H3,(H2,21,25)(H,22,23)
#inchikey ACEWQEJAZMGQGK
#Ion_Source LC-ESI
#Instrument qTof
#Compound_Source NIH Natural Product Library
#PI Dorrestein
#Data_Collector VVP/LMS
#Scan -1
#Precursor_MZ 367.129
#ExactMass 366.122
#Charge 1
#CAS_Number N/A
#Pubmed_ID N/A
#Smiles Cc1cc(OCC(=O)Nc2ccccc2C(=O)N)c3c(C)cc(=O)oc3c1
#INCHI_AUX N/A
#Library_Class 1
#SpectrumID CCMSLIB00000080351
#IonMode Positive
#UpdateWorkflowName UPDATE-SINGLE-ANNOTATED-GOLD
#LibraryQualityString Gold
#TaskID b1d8e8f6646f4e71acdff9ca3d919d08
##Scan# 1965
#SpectrumFile p2-F07_GF7_01_18043.mzXML
#LibraryName NIH_Natural_Products_Library.mgf
#MQScore -1
#Organism NIH_Natural_Products_Library
#TIC_Query 0
#RT_Query -1
#MZErrorPPM -1
#SharedPeaks 0
#MassDiff 0
#LibMZ -1
#SpecMZ 367.129
#SpecCharge 0
#internalFilename spec-00000.mgf

>collision 0
104.0506 26.17
105.034 7.67
105.0564 15.85
117.0698 4.48
119.0372 53.32
120.044 19.33
130.03 5.61
132.0452 29.05
133.0527 20.54
144.0558 2.93
145.0633 9.6
147.044 4.48
147.0803 17.04
148.0393 16.01
161.0481 100.0
162.0669 17.45
175.0754 22.44
190.0639 24.47
191.0696 3.91
196.075 3.4
198.0537 2.75
203.0708 48.46
206.0967 2.91
219.0649 3.14
230.0985 3.11
245.0784 3.29
248.107 7.33
258.0914 4.61
260.1068 3.14
276.1017 16.65
289.0742 2.73
304.0995 27.41
332.0922 20.48
350.1017 4.97
367.1299 0.0
