>compound MLS000563041-01!5,7-dihydroxy-2-(4-hydroxyphenyl)-6-[(2S,3R,4R,5S,6R)-3,4,5-trihydroxy-6-(hydroxymethyl)oxan-2-yl]chromen-4-one
>formula C21H20O10
>ionization [M+H]+
>parentmass 433.113
#inchi InChI=1S/C21H20O10/c22-7-14-17(26)19(28)20(29)21(31-14)16-11(25)6-13-15(18(16)27)10(24)5-12(30-13)8-1-3-9(23)4-2-8/h1-6,14,17,19-23,25-29H,7H2/t14-,17-,19+,20-,21+/m1/s1
#inchikey MYXNWGACZJSMBT
#Ion_Source LC-ESI
#Instrument qTof
#Compound_Source NIH Natural Product Library
#PI Dorrestein
#Data_Collector VVP/LMS
#Scan -1
#Precursor_MZ 433.113
#ExactMass 432.106
#Charge 1
#CAS_Number N/A
#Pubmed_ID N/A
#Smiles OC[C@H]1O[C@H]([C@H](O)[C@@H](O)[C@@H]1O)c2c(O)cc3oc(cc(=O)c3c2O)c4ccc(O)cc4
#INCHI_AUX N/A
#Library_Class 3
#SpectrumID CCMSLIB00000079731
#IonMode Positive
#UpdateWorkflowName UPDATE-SINGLE-ANNOTATED-BRONZE
#LibraryQualityString Bronze
#TaskID b1d8e8f6646f4e71acdff9ca3d919d08
##Scan# 1522
#SpectrumFile p1-D10_GD10_01_17918.mzXML
#LibraryName NIH_Natural_Products_Library.mgf
#MQScore -1
#Organism NIH_Natural_Products_Library
#TIC_Query 0
#RT_Query -1
#MZErrorPPM -1
#SharedPeaks 0
#MassDiff 0
#LibMZ -1
#SpecMZ 433.113
#SpecCharge 0
#internalFilename spec-00000.mgf

>collision 0
137.0242 4.83
149.0244 7.2
153.0195 4.83
165.0176 15.72
166.0259 6.72
215.0328 12.59
271.0257 5.02
278.0781 6.16
283.0598 100.0
294.0541 5.02
297.0748 6.34
307.0619 9.85
309.0381 7.58
309.0752 14.58
313.0699 72.06
320.0706 6.25
321.0752 7.29
323.0923 27.27
337.0723 34.94
338.0786 9.94
351.0711 7.39
433.113 0.0
