>compound MLS001032320-01!N-(3-morpholin-4-ylpropyl)-3-(3,5,9-trimethyl-7-oxofuro[3,2-g]chromen-6-yl)propanamide
>formula C24H30N2O5
>ionization [M+H]+
>parentmass 427.223663
#inchi InChI=1S/C24H30N2O5/c1-15-14-30-22-17(3)23-20(13-19(15)22)16(2)18(24(28)31-23)5-6-21(27)25-7-4-8-26-9-11-29-12-10-26/h13-14H,4-12H2,1-3H3,(H,25,27)
#inchikey PFJYOZMBJAREMV
#Ion_Source LC-ESI
#Instrument qTof
#Compound_Source NIH Natural Product Library
#PI Dorrestein
#Data_Collector VVP/LMS
#Scan -1
#Precursor_MZ 427.223
#ExactMass 426.215
#Charge 1
#CAS_Number N/A
#Pubmed_ID N/A
#Smiles Cc1coc2c(C)c3oc(=O)c(CCC(=O)NCCCN4CCOCC4)c(C)c3cc12
#INCHI_AUX N/A
#Library_Class 1
#SpectrumID CCMSLIB00000080313
#IonMode Positive
#UpdateWorkflowName UPDATE-SINGLE-ANNOTATED-GOLD
#LibraryQualityString Gold
#TaskID b1d8e8f6646f4e71acdff9ca3d919d08
##Scan# 1734
#SpectrumFile p2-B07_GB7_01_17995.mzXML
#LibraryName NIH_Natural_Products_Library.mgf
#MQScore -1
#Organism NIH_Natural_Products_Library
#TIC_Query 0
#RT_Query -1
#MZErrorPPM -1
#SharedPeaks 0
#MassDiff 0
#LibMZ -1
#SpecMZ 427.223
#SpecCharge 0
#internalFilename spec-00000.mgf

>collision 0
129.0696 0.36
141.0707 0.33
142.0783 0.7
153.0706 0.49
154.0791 0.64
157.0998 0.62
167.0861 0.32
169.0996 0.46
170.0718 0.44
182.0736 0.36
185.0974 1.34
197.0964 0.48
199.1127 0.31
212.0838 0.45
213.0923 9.83
227.1068 0.85
241.0883 100.0
255.1033 21.06
283.0984 35.96
340.1567 52.3
409.2146 0.3
427.2237 5.46
