>compound MLS001140668-01!
>formula C32H27ClN4O5
>ionization [M+H]+
>parentmass 583.175
#inchi InChI=1S/C32H27ClN4O5/c33-20-7-5-6-19(16-20)28-27-23(21-8-1-3-10-24(21)34-27)17-26-30(39)37(32(42)36(26)28)25-11-4-2-9-22(25)29(38)35-14-12-18(13-15-35)31(40)41/h1-11,16,18,26,28,34H,12-15,17H2,(H,40,41)/t26-,28?/m0/s1
#inchikey CBXGQKNSTJDJQF
#Ion_Source LC-ESI
#Instrument qTof
#Compound_Source NIH Natural Product Library
#PI Dorrestein
#Data_Collector VVP/LMS
#Scan -1
#Precursor_MZ 583.175
#ExactMass 582.167
#Charge 1
#CAS_Number N/A
#Pubmed_ID N/A
#Smiles OC(=O)C1CCN(CC1)C(=O)c2ccccc2N3C(=O)[C@@H]4Cc5c([nH]c6ccccc56)C(N4C3=O)c7cccc(Cl)c7
#INCHI_AUX N/A
#Library_Class 1
#SpectrumID CCMSLIB00000079961
#IonMode Positive
#UpdateWorkflowName UPDATE-SINGLE-ANNOTATED-GOLD
#LibraryQualityString Gold
#TaskID b1d8e8f6646f4e71acdff9ca3d919d08
##Scan# 2268
#SpectrumFile p2-C02_GC2_01_18002.mzXML
#LibraryName NIH_Natural_Products_Library.mgf
#MQScore -1
#Organism NIH_Natural_Products_Library
#TIC_Query 0
#RT_Query -1
#MZErrorPPM -1
#SharedPeaks 0
#MassDiff 0
#LibMZ -1
#SpecMZ 583.175
#SpecCharge 0
#internalFilename spec-00000.mgf

>collision 0
120.0444 3.91
144.0443 2.59
146.0237 35.06
156.0686 6.16
163.0495 3.87
184.0632 49.19
217.0887 20.2
218.0971 100.0
219.0994 19.6
242.0372 37.49
243.0405 5.89
251.0499 6.44
252.0581 47.45
253.0647 30.08
254.0576 16.83
256.0651 3.32
257.0822 2.39
264.0585 59.0
265.0608 12.75
266.055 13.45
267.0556 3.55
270.0315 20.21
271.0856 4.1
272.0924 5.94
273.0966 3.23
292.0526 26.59
293.0546 3.48
294.0503 8.1
307.063 29.93
308.0649 5.0
329.0795 14.02
357.1021 3.0
358.1095 4.27
375.1115 12.79
376.1208 12.8
377.1211 2.74
383.0942 6.88
393.077 3.45
394.0826 2.65
411.0896 86.27
412.0916 23.1
414.0894 7.62
426.0994 12.8
436.0806 2.6
454.0948 63.35
457.0933 6.3
583.1707 0.0
