>compound Nelarabine (Arranon)
>formula C11H15N5O5
>ionization [M+H]+
>parentmass 298.114471
#inchi InChI=1S/C11H15N5O5/c1-20-9-5-8(14-11(12)15-9)16(3-13-5)10-7(19)6(18)4(2-17)21-10/h3-4,6-7,10,17-19H,2H2,1H3,(H2,12,14,15)/t4-,6-,7+,10-/m1/s1
#inchikey IXOXBSCIXZEQEQ
#Ion_Source LC-ESI
#Instrument qTof
#Compound_Source Commercial
#PI Dorrestein
#Data_Collector Garg_Neha
#Scan -1
#Precursor_MZ 298.115
#ExactMass 297.107
#Charge 1
#CAS_Number 121032-29-9
#Pubmed_ID N/A
#Smiles N1C(=NC2=C(C=1OC)N=CN2[C@H]3[C@H]([C@@H]([C@H](O3)CO)O)O)N
#INCHI_AUX N/A
#Library_Class 1
#SpectrumID CCMSLIB00000078051
#IonMode Positive
#UpdateWorkflowName UPDATE-SINGLE-ANNOTATED-GOLD
#LibraryQualityString Gold
#TaskID 77f51c88eb8b467eb4a01dd2d0cb90d2
##Scan# 983
#SpectrumFile Plate1_41_60_GG3_01_16490.mzXML
#LibraryName FDALibrary_2_04302014.mgf
#MQScore -1
#Organism FDALibrary_2_04302014
#TIC_Query 0
#RT_Query -1
#MZErrorPPM -1
#SharedPeaks 0
#MassDiff 0
#LibMZ -1
#SpecMZ 298.115
#SpecCharge 0
#internalFilename spec-00000.mgf

>collision 0
107.0237 0.89
135.0294 2.09
149.0457 16.35
151.0501 2.44
166.0728 100.0
298.1145 19.84
