>compound MLS000697602-01!
>formula C20H16O6
>ionization [M+H]+
>parentmass 353.1019646840905
#inchi InChI=1S/C20H16O6/c1-20(2)4-3-10-5-11(6-15(23)19(10)26-20)13-9-25-16-8-12(21)7-14(22)17(16)18(13)24/h3-9,21-23H,1-2H3
#inchikey LWZACZCRAUQSLH
#Ion_Source LC-ESI
#Instrument qTof
#Compound_Source NIH Natural Product Library
#PI Dorrestein
#Data_Collector VVP/LMS
#Scan -1
#Precursor_MZ 353.103
#ExactMass 352.095
#Charge 1
#CAS_Number N/A
#Pubmed_ID N/A
#Smiles CC1(C)Oc2c(O)cc(cc2C=C1)c3coc4cc(O)cc(O)c4c3=O
#INCHI_AUX N/A
#Library_Class 1
#SpectrumID CCMSLIB00000080538
#IonMode Positive
#UpdateWorkflowName UPDATE-SINGLE-ANNOTATED-GOLD
#LibraryQualityString Gold
#TaskID b1d8e8f6646f4e71acdff9ca3d919d08
##Scan# 2206
#SpectrumFile p2-D10_GD10_01_18022.mzXML
#LibraryName NIH_Natural_Products_Library.mgf
#MQScore -1
#Organism NIH_Natural_Products_Library
#TIC_Query 0
#RT_Query -1
#MZErrorPPM -1
#SharedPeaks 0
#MassDiff 0
#LibMZ -1
#SpecMZ 353.103
#SpecCharge 0
#internalFilename spec-00000.mgf

>collision 0
121.0287 4.68
130.0775 3.52
149.0224 3.63
153.0198 100.0
153.0689 17.33
155.0871 5.84
181.0655 8.63
184.0517 5.18
187.0748 6.06
203.0337 4.24
209.0579 5.73
227.0696 7.76
229.0493 4.75
237.0546 4.17
243.0666 8.63
255.0652 11.28
264.0786 3.99
266.0587 6.02
267.065 4.82
270.0546 4.68
279.1009 7.61
283.0606 8.45
289.0863 4.06
291.0665 4.75
298.0466 5.0
303.0649 4.57
307.0943 15.59
309.0757 3.48
311.054 20.27
317.0808 8.7
319.0588 8.23
320.0662 4.42
335.0887 23.53
337.0721 3.59
338.0754 5.73
353.102 26.5
