>compound 4'-Methoxy-7-O-(6''-acetyl)-??-D-glucopyranosyl-8,3'-dihydroxyflavanone
>formula C24H26O12
>ionization [M+H]+
>parentmass 507.1497027240905
#inchi InChI=1S/C24H26O12/c1-10(25)33-9-18-19(28)21(30)22(31)24(36-18)35-16-6-4-12-13(26)8-17(34-23(12)20(16)29)11-3-5-15(32-2)14(27)7-11/h3-7,17-19,21-22,24,27-31H,8-9H2,1-2H3/t17?,18-,19-,21+,22-,24-/m1/s1
#inchikey BQZBPAFALHFIMA
#Ion_Source LC-ESI
#Instrument qTof
#Compound_Source Isolated
#PI Norberto Lopes
#Data_Collector Denise Silva
#Scan -1
#Precursor_MZ 507.1
#ExactMass 506.142
#Charge 1
#CAS_Number 1499726-69-0
#Pubmed_ID N/A
#Smiles O=C1C2=CC=C(O[C@H]3[C@H](O)[C@@H](O)[C@H](O)[C@@H](COC(C)=O)O3)C(O)=C2OC(C4=CC(O)=C(OC)C=C4)C1
#INCHI_AUX N/A
#Library_Class 3
#SpectrumID CCMSLIB00000081764
#IonMode Positive
#UpdateWorkflowName UPDATE-SINGLE-ANNOTATED-BRONZE
#LibraryQualityString Bronze
#TaskID 445bf109b7eb4fc091fb6c19942b2a28
##Scan# 1
#SpectrumFile gnps_4_methoxy_7_O_6_acetyl_beta_D_glucopyranosyl_8_3_dihydroxyflavanone_pos_MplusH.mgf
#LibraryName gnps_library.mgf
#MQScore -1
#Organism batch_27_05_V03
#TIC_Query 0
#RT_Query -1
#MZErrorPPM -1
#SharedPeaks 0
#MassDiff 0
#LibMZ -1
#SpecMZ 507.1
#SpecCharge 0
#internalFilename spec-00000.mgf

>collision 0
301.0755 34.15
303.0897 100.0
304.0956 19.51
507.1497 0.0
