>compound Etomidate
>formula C14H16N2O2 
>ionization [M+H]+
>parentmass 245.127136
#inchi InChI=1S/C14H16N2O2/c1-3-18-14(17)13-9-15-10-16(13)11(2)12-7-5-4-6-8-12/h4-11H,3H2,1-2H3/t11-/m1/s1
#inchikey NPUKDXXFDDZOKR
#Ion_Source LC-ESI
#Instrument qTof
#Compound_Source Commercial
#PI Dorrestein
#Data_Collector Garg_Neha
#Scan -1
#Precursor_MZ 245.13
#ExactMass 244.121
#Charge 1
#CAS_Number N/A
#Pubmed_ID N/A
#Smiles N/A
#INCHI_AUX N/A
#Library_Class 1
#SpectrumID CCMSLIB00000077095
#IonMode Positive
#UpdateWorkflowName UPDATE-SINGLE-ANNOTATED-GOLD
#LibraryQualityString Gold
#TaskID 48f7f52fc6d249b5abbcc6e7b3df5969
##Scan# 1205
#SpectrumFile NCP003106_C2_D11_BB3_01_15706.mzXML
#LibraryName NIH_Clinical_Collection_2.mgf
#MQScore -1
#Organism NIHcollection2_04212014_2_mgf
#TIC_Query 0
#RT_Query -1
#MZErrorPPM -1
#SharedPeaks 0
#MassDiff 0
#LibMZ -1
#SpecMZ 245.13
#SpecCharge 0
#internalFilename spec-00000.mgf

>collision 0
95.0249 41.59
97.0284 0.27
103.0552 3.1
105.0705 36.09
113.0343 3.6
141.0676 100.0
143.0714 0.68
245.1271 0.72
