>compound Flunixin meglumin
>formula C14H11F3N2O2
>ionization [M+H]+
>parentmass 297.085754
#inchi InChI=1S/C14H11F3N2O2/c1-8-10(14(15,16)17)5-2-6-11(8)19-12-9(13(20)21)4-3-7-18-12/h2-7H,1H3,(H,18,19)(H,20,21)
#inchikey NOOCSNJCXJYGPE
#origInchi InChI=1S/C14H11F3N2O2.C7H17NO5/c1-8-10(14(15,16)17)5-2-6-11(8)19-12-9(13(20)21)4-3-7-18-12;1-8-2-4(10)6(12)7(13)5(11)3-9/h2-7H,1H3,(H,18,19)(H,20,21);4-13H,2-3H2,1H3/t;4-,5+,6+,7+/m.0/s1
#Ion_Source LC-ESI
#Instrument qTof
#Compound_Source Commercial
#PI Dorrestein
#Data_Collector Garg_Neha
#Scan -1
#Precursor_MZ 297.085
#ExactMass 296.077
#Charge 1
#CAS_Number 42461-84-7
#Pubmed_ID N/A
#Smiles C1(C(=CC=CN=1)C(=O)O)NC2(C(=C(C=CC=2)C(F)(F)F)C).N(C[C@H](O)[C@@H](O)[C@H](O)[C@H](O)CO)C
#INCHI_AUX N/A
#Library_Class 1
#SpectrumID CCMSLIB00000078439
#IonMode Positive
#UpdateWorkflowName UPDATE-SINGLE-ANNOTATED-GOLD
#LibraryQualityString Gold
#TaskID 77f51c88eb8b467eb4a01dd2d0cb90d2
##Scan# 1381
#SpectrumFile Plate7_1_20_GD2_01_15767.mzXML
#LibraryName FDALibrary_2_04302014.mgf
#MQScore -1
#Organism FDALibrary_2_04302014
#TIC_Query 0
#RT_Query -1
#MZErrorPPM -1
#SharedPeaks 0
#MassDiff 0
#LibMZ -1
#SpecMZ 297.085
#SpecCharge 0
#internalFilename spec-00000.mgf

>collision 0
211.0681 2.02
231.0721 1.06
236.0571 0.83
239.06 5.45
241.0579 0.95
244.0449 0.25
259.0665 8.61
261.0643 0.42
264.0504 21.03
277.0765 1.96
279.0739 100.0
297.0858 153.23
