>compound Phenytoin (Lepitoin)
>formula C15H12N2O2
>ionization [M+H]+
>parentmass 253.096481
#inchi InChI=1S/C15H12N2O2/c18-13-15(17-14(19)16-13,11-7-3-1-4-8-11)12-9-5-2-6-10-12/h1-10H,(H2,16,17,18,19)
#inchikey CXOFVDLJLONNDW
#Ion_Source LC-ESI
#Instrument qTof
#Compound_Source Commercial
#PI Dorrestein
#Data_Collector Garg_Neha
#Scan -1
#Precursor_MZ 253.097
#ExactMass 252.09
#Charge 1
#CAS_Number 57-41-0
#Pubmed_ID N/A
#Smiles C1(NC(NC1=O)=O)(C2=CC=CC=C2)C3=CC=CC=C3
#INCHI_AUX N/A
#Library_Class 1
#SpectrumID CCMSLIB00000078503
#IonMode Positive
#UpdateWorkflowName UPDATE-SINGLE-ANNOTATED-GOLD
#LibraryQualityString Gold
#TaskID 77f51c88eb8b467eb4a01dd2d0cb90d2
##Scan# 1214
#SpectrumFile Plate8_1_20_GC9_01_15762.mzXML
#LibraryName FDALibrary_2_04302014.mgf
#MQScore -1
#Organism FDALibrary_2_04302014
#TIC_Query 0
#RT_Query -1
#MZErrorPPM -1
#SharedPeaks 0
#MassDiff 0
#LibMZ -1
#SpecMZ 253.097
#SpecCharge 0
#internalFilename spec-00000.mgf

>collision 0
104.0489 8.0
182.0961 100.0
225.1018 38.35
253.0965 24.1
