>compound MLS001142426-01!
>formula C25H25N3O4
>ionization [M+H]+
>parentmass 432.1917827320906
#inchi InChI=1S/C25H25N3O4/c1-30-15-9-10-22(31-2)19(12-15)24-23-18(17-7-3-4-8-20(17)27-23)13-21(28-24)25(29)26-14-16-6-5-11-32-16/h3-4,7-10,12-13,16,28H,5-6,11,14H2,1-2H3,(H,26,29)
#inchikey CXAAMKKGUZWBKP
#Ion_Source LC-ESI
#Instrument qTof
#Compound_Source NIH Natural Product Library
#PI Dorrestein
#Data_Collector VVP/LMS
#Scan -1
#Precursor_MZ 432.192
#ExactMass 431.185
#Charge 1
#CAS_Number N/A
#Pubmed_ID N/A
#Smiles COc1ccc(OC)c(c1)c2[nH]c(cc3c4ccccc4nc23)C(=O)NCC5CCCO5
#INCHI_AUX N/A
#Library_Class 1
#SpectrumID CCMSLIB00000080580
#IonMode Positive
#UpdateWorkflowName UPDATE-SINGLE-ANNOTATED-GOLD
#LibraryQualityString Gold
#TaskID b1d8e8f6646f4e71acdff9ca3d919d08
##Scan# 2324
#SpectrumFile p2-H10_GH10_01_18070.mzXML
#LibraryName NIH_Natural_Products_Library.mgf
#MQScore -1
#Organism NIH_Natural_Products_Library
#TIC_Query 0
#RT_Query -1
#MZErrorPPM -1
#SharedPeaks 0
#MassDiff 0
#LibMZ -1
#SpecMZ 432.192
#SpecCharge 0
#internalFilename spec-00000.mgf

>collision 0
128.0495 1.2
155.0613 46.55
216.0808 1.86
229.0759 1.24
231.0911 0.9
232.0987 3.11
233.0836 6.69
242.0837 2.39
243.0917 6.61
248.1072 4.98
257.0707 3.52
259.0863 4.89
260.0947 7.25
270.0786 3.5
271.0868 15.16
272.0948 32.19
273.0675 53.06
275.1172 6.42
276.103 25.76
285.1021 3.75
288.0905 53.99
300.0766 2.36
303.1149 100.0
315.0997 1.59
321.1251 51.93
330.1242 10.69
331.1091 11.89
349.1194 8.91
414.1807 1.44
432.1929 19.87
