>compound MLS001140284-01!(2S)-1-[(2S)-2-[(5-chloro-1-methylindole-2-carbonyl)amino]-4-methylpentanoyl]pyrrolidine-2-carboxylic acid
>formula C21H26ClN3O4
>ionization [M+H]+
>parentmass 420.169
#inchi InChI=1S/C21H26ClN3O4/c1-12(2)9-15(20(27)25-8-4-5-17(25)21(28)29)23-19(26)18-11-13-10-14(22)6-7-16(13)24(18)3/h6-7,10-12,15,17H,4-5,8-9H2,1-3H3,(H,23,26)(H,28,29)/t15-,17-/m0/s1
#inchikey OPHAWRYOHOYBLZ
#Ion_Source LC-ESI
#Instrument qTof
#Compound_Source NIH Natural Product Library
#PI Dorrestein
#Data_Collector VVP/LMS
#Scan -1
#Precursor_MZ 420.169
#ExactMass 419.161
#Charge 1
#CAS_Number N/A
#Pubmed_ID N/A
#Smiles CC(C)C[C@H](NC(=O)c1cc2cc(Cl)ccc2n1C)C(=O)N3CCC[C@H]3C(=O)O
#INCHI_AUX N/A
#Library_Class 1
#SpectrumID CCMSLIB00000079876
#IonMode Positive
#UpdateWorkflowName UPDATE-SINGLE-ANNOTATED-GOLD
#LibraryQualityString Gold
#TaskID b1d8e8f6646f4e71acdff9ca3d919d08
##Scan# 2319
#SpectrumFile p1-C12_GC12_01_17908.mzXML
#LibraryName NIH_Natural_Products_Library.mgf
#MQScore -1
#Organism NIH_Natural_Products_Library
#TIC_Query 0
#RT_Query -1
#MZErrorPPM -1
#SharedPeaks 0
#MassDiff 0
#LibMZ -1
#SpecMZ 420.169
#SpecCharge 0
#internalFilename spec-00000.mgf

>collision 0
104.0488 0.3
105.0575 0.26
111.0065 0.29
112.0079 0.23
113.015 0.38
123.0004 5.52
124.0024 0.47
124.9971 1.91
128.0507 0.23
140.0263 0.93
150.0106 0.5
152.9946 0.36
164.0252 1.54
168.0226 0.53
178.0421 2.03
181.0241 0.25
192.022 100.0
193.0248 10.65
194.0189 39.09
234.1052 2.12
277.1094 1.75
278.1121 0.59
420.169 0.0
