>compound 15-Acetoxyeremantholide B
>formula C22H28O8
>ionization [M+H]+
>parentmass 421.18569430809055
#inchi InChI=1S/C22H28O8/c1-6-11(2)22(26)21(5)18-15(28-19(21)25)7-13(10-27-12(3)23)14-8-17(24)20(4,29-14)9-16(18)30-22/h7-8,11,15-16,18,26H,6,9-10H2,1-5H3/b13-7-/t11?,15-,16+,18+,20-,21-,22-/m1/s1
#inchikey UNFGCPCUYMXWDG
#Ion_Source DI-ESI
#Instrument qTof
#Compound_Source Isolated
#PI Norberto Lopes
#Data_Collector DeniseSilva
#Scan -1
#Precursor_MZ 421.18
#ExactMass 420.178
#Charge 1
#CAS_Number 221320-16-7
#Pubmed_ID  
#Smiles O=C1C=C(/C(COC(C)=O)=C\2)O[C@]1(C)C[C@]3([H])O[C@](O)(C(CC)C)[C@]4(C)[C@@]3([H])[C@]2([H])OC4=O
#INCHI_AUX  
#Library_Class 3
#SpectrumID CCMSLIB00000081289
#IonMode Positive
#UpdateWorkflowName UPDATE-SINGLE-ANNOTATED-BRONZE
#LibraryQualityString Bronze
#TaskID d848fe73287d4f4c89d2f3a432c128c3
##Scan# 1
#SpectrumFile gnps_15_AcetoxyeremantholideB_pos_MplusH.mgf
#LibraryName gnps_library.mgf
#MQScore -1
#Organism gnps_library
#TIC_Query 0
#RT_Query -1
#MZErrorPPM -1
#SharedPeaks 0
#MassDiff 0
#LibMZ -1
#SpecMZ 421.18
#SpecCharge 0
#internalFilename spec-00000.mgf

>collision 0
135.1168 2.79
147.0805 1.26
153.1257 8.55
175.0745 3.51
181.1221 6.34
197.0797 25.37
203.0693 49.62
205.1224 1.46
207.102 4.49
213.0916 1.46
215.1048 7.41
225.1115 8.09
231.1035 7.11
233.1189 4.4
249.1109 1.98
257.1545 1.77
259.0964 10.78
271.1689 2.99
277.1066 25.42
281.1538 4.3
289.182 1.45
299.1642 20.25
315.1565 5.15
317.176 100.0
343.1563 6.6
361.1636 75.6
403.1747 8.59
421.19 0.0
