>compound MLS000863596-01!(2Z)-6-hydroxy-2-[(4-hydroxy-3-methoxyphenyl)methylidene]-1-benzofuran-3-one
>formula C16H12O5
>ionization [M+H]+
>parentmass 285.0757499360905
#inchi InChI=1S/C16H12O5/c1-20-14-6-9(2-5-12(14)18)7-15-16(19)11-4-3-10(17)8-13(11)21-15/h2-8,17-18H,1H3/b15-7-
#inchikey HPSPCMSCDNHZJM
#Ion_Source LC-ESI
#Instrument qTof
#Compound_Source NIH Natural Product Library
#PI Dorrestein
#Data_Collector VVP/LMS
#Scan -1
#Precursor_MZ 285.076
#ExactMass 284.068
#Charge 1
#CAS_Number N/A
#Pubmed_ID N/A
#Smiles COc1cc(/C=C/2\Oc3cc(O)ccc3C2=O)ccc1O
#INCHI_AUX N/A
#Library_Class 1
#SpectrumID CCMSLIB00000080392
#IonMode Positive
#UpdateWorkflowName UPDATE-SINGLE-ANNOTATED-GOLD
#LibraryQualityString Gold
#TaskID b1d8e8f6646f4e71acdff9ca3d919d08
##Scan# 1872
#SpectrumFile p2-B08_GB8_01_17996.mzXML
#LibraryName NIH_Natural_Products_Library.mgf
#MQScore -1
#Organism NIH_Natural_Products_Library
#TIC_Query 0
#RT_Query -1
#MZErrorPPM -1
#SharedPeaks 0
#MassDiff 0
#LibMZ -1
#SpecMZ 285.076
#SpecCharge 0
#internalFilename spec-00000.mgf

>collision 0
105.0349 4.73
115.0542 10.09
134.0364 54.99
137.0231 50.05
141.0691 19.4
157.0633 4.78
163.0385 4.05
168.057 12.93
169.0663 12.83
185.0598 22.66
186.0691 7.47
196.0516 7.94
197.0599 48.37
198.0672 9.52
199.0398 4.78
202.026 4.21
213.0563 40.06
225.0565 73.34
226.0605 9.52
241.0512 20.82
242.0575 24.29
243.0663 7.57
251.034 3.68
254.0582 14.98
267.0651 4.57
269.0467 100.0
270.0516 57.31
285.0791 23.13
