>compound Idebenone
>formula C19H30O5
>ionization [M+H]+
>parentmass 339.217072
#inchi InChI=1S/C19H30O5/c1-14-15(12-10-8-6-4-5-7-9-11-13-20)17(22)19(24-3)18(23-2)16(14)21/h20H,4-13H2,1-3H3
#inchikey JGPMMRGNQUBGND
#Ion_Source LC-ESI
#Instrument qTof
#Compound_Source Commercial
#PI Dorrestein
#Data_Collector Garg_Neha
#Scan -1
#Precursor_MZ 339.217
#ExactMass 338.209
#Charge 1
#CAS_Number 58186-27-9
#Pubmed_ID N/A
#Smiles C1(C(=C(C(C(=C1C)CCCCCCCCCCO)=O)OC)OC)=O
#INCHI_AUX N/A
#Library_Class 1
#SpectrumID CCMSLIB00000078528
#IonMode Positive
#UpdateWorkflowName UPDATE-SINGLE-ANNOTATED-GOLD
#LibraryQualityString Gold
#TaskID 77f51c88eb8b467eb4a01dd2d0cb90d2
##Scan# 2196
#SpectrumFile Plate8_61_80_GD1_01_15765.mzXML
#LibraryName FDALibrary_2_04302014.mgf
#MQScore -1
#Organism FDALibrary_2_04302014
#TIC_Query 0
#RT_Query -1
#MZErrorPPM -1
#SharedPeaks 0
#MassDiff 0
#LibMZ -1
#SpecMZ 339.217
#SpecCharge 0
#internalFilename spec-00000.mgf

>collision 0
136.0526 1.21
137.0597 0.97
137.1325 1.88
139.0743 0.99
145.1012 1.73
151.0757 4.76
153.0538 1.25
154.0634 7.31
155.0685 1.57
161.0595 1.24
166.0616 1.41
167.0711 4.12
169.0868 5.46
171.0651 1.49
173.0591 1.38
177.0546 1.82
177.0911 1.92
179.0702 0.95
181.0857 5.62
182.0572 5.12
183.065 6.86
191.0701 3.44
191.1072 1.19
193.0858 1.98
197.082 100.0
205.0874 1.55
207.1015 3.11
209.0807 3.06
211.0968 1.64
219.1003 1.51
223.0964 6.05
233.1177 1.61
237.1129 1.04
261.1851 9.98
271.1694 1.74
275.1638 1.23
289.1796 23.43
293.2107 10.08
303.1953 2.02
307.1905 10.98
321.2062 62.17
339.2173 40.88
