>compound MLS001333214-01!(-)Scopolamine methyl nitrate6106-46-3
>formula C18H24NO4
>ionization [M+H]+
>parentmass 319.1778097000905
#inchi InChI=1S/C18H24NO4/c1-19(2)14-8-12(9-15(19)17-16(14)23-17)22-18(21)13(10-20)11-6-4-3-5-7-11/h3-7,12-17,20H,8-10H2,1-2H3/q+1/t12?,13-,14?,15?,16?,17?/m1/s1
#inchikey LZCOQTDXKCNBEE
#origInchi InChI=1S/C18H24NO4.NO3/c1-19(2)14-8-12(9-15(19)17-16(14)23-17)22-18(21)13(10-20)11-6-4-3-5-7-11;2-1(3)4/h3-7,12-17,20H,8-10H2,1-2H3;/q+1;-1/t12?,13-,14?,15?,16?,17?;/m1./s1
#Ion_Source LC-ESI
#Instrument qTof
#Compound_Source NIH Pharmacologically Active Library
#PI Dorrestein
#Data_Collector VP/LMS
#Scan -1
#Precursor_MZ 318.17
#ExactMass 318.171
#Charge 1
#CAS_Number N/A
#Pubmed_ID N/A
#Smiles C[N+]1(C)C2CC(CC1C3OC32)OC(=O)[C@H](CO)c4ccccc4.[O-][N+](=O)[O-]
#INCHI_AUX N/A
#Library_Class 1
#SpectrumID CCMSLIB00000085669
#IonMode Positive
#UpdateWorkflowName UPDATE-SINGLE-ANNOTATED-GOLD
#LibraryQualityString Gold
#TaskID d252d724072548979f1f6f1ced849daf
##Scan# 1201
#SpectrumFile p4-D11_GD11_01_18371.mzXML
#LibraryName Pharm_Active_Library.mgf
#MQScore -1
#Organism Pharm_Active_Library
#TIC_Query 0
#RT_Query -1
#MZErrorPPM -1
#SharedPeaks 0
#MassDiff 0
#LibMZ -1
#SpecMZ 318.17
#SpecCharge 0
#internalFilename spec-00000.mgf

>collision 0
91.0548 1.12
93.068 1.0
94.0649 2.61
96.0803 0.45
103.0546 1.57
107.072 0.89
108.0806 1.33
109.0651 0.59
109.0887 0.78
121.0665 1.25
122.0964 3.84
124.1119 1.92
134.096 0.54
136.0739 0.78
137.082 0.69
152.1074 100.0
319.1778 0.0
