>compound MLS001333720-01!NEOSTIGMINE METHYL SULFATE
>formula C12H19N2O2
>ionization [M+H]+
>parentmass 224.15192930009053
#inchi InChI=1S/C12H19N2O2/c1-13(2)12(15)16-11-8-6-7-10(9-11)14(3,4)5/h6-9H,1-5H3/q+1
#inchikey ALWKGYPQUAPLQC
#origInchi InChI=1S/C12H19N2O2.CH4O4S/c1-13(2)12(15)16-11-8-6-7-10(9-11)14(3,4)5;1-5-6(2,3)4/h6-9H,1-5H3;1H3,(H,2,3,4)/q+1;/p-1
#Ion_Source LC-ESI
#Instrument qTof
#Compound_Source NIH Pharmacologically Active Library
#PI Dorrestein
#Data_Collector VP/LMS
#Scan -1
#Precursor_MZ 223.144
#ExactMass 223.145
#Charge 1
#CAS_Number N/A
#Pubmed_ID N/A
#Smiles CN(C)C(=O)Oc1cccc(c1)[N+](C)(C)C.COS(=O)(=O)[O-]
#INCHI_AUX N/A
#Library_Class 1
#SpectrumID CCMSLIB00000085220
#IonMode Positive
#UpdateWorkflowName UPDATE-SINGLE-ANNOTATED-GOLD
#LibraryQualityString Gold
#TaskID d252d724072548979f1f6f1ced849daf
##Scan# 1124
#SpectrumFile p3-G03_GG3_01_18296.mzXML
#LibraryName Pharm_Active_Library.mgf
#MQScore -1
#Organism Pharm_Active_Library
#TIC_Query 0
#RT_Query -1
#MZErrorPPM -1
#SharedPeaks 0
#MassDiff 0
#LibMZ -1
#SpecMZ 223.144
#SpecCharge 0
#internalFilename spec-00000.mgf

>collision 0
108.057 1.42
122.0962 4.07
134.097 2.24
135.0669 3.06
135.1029 2.69
136.075 11.81
137.0825 8.64
150.0901 42.21
151.0975 27.96
163.123 1.31
166.1232 1.98
180.1263 1.25
208.1192 100.0
223.1429 32.9
224.1519 0.0
