>compound MLS001165768-01!FINASTERIDE98319-26-7
>formula C23H36N2O2
>ionization [M+H]+
>parentmass 373.285919
#inchi InChI=1S/C23H36N2O2/c1-21(2,3)25-20(27)17-8-7-15-14-6-9-18-23(5,13-11-19(26)24-18)16(14)10-12-22(15,17)4/h11,13-18H,6-10,12H2,1-5H3,(H,24,26)(H,25,27)/t14-,15-,16-,17+,18+,22-,23+/m0/s1
#inchikey DBEPLOCGEIEOCV
#Ion_Source LC-ESI
#Instrument qTof
#Compound_Source NIH Pharmacologically Active Library
#PI Dorrestein
#Data_Collector VP/LMS
#Scan -1
#Precursor_MZ 373.289
#ExactMass 372.278
#Charge 1
#CAS_Number N/A
#Pubmed_ID N/A
#Smiles CC(C)(C)NC(=O)[C@H]1CC[C@H]2[C@@H]3CC[C@H]4NC(=O)C=C[C@]4(C)[C@H]3CC[C@]12C
#INCHI_AUX N/A
#Library_Class 1
#SpectrumID CCMSLIB00000084792
#IonMode Positive
#UpdateWorkflowName UPDATE-SINGLE-ANNOTATED-GOLD
#LibraryQualityString Gold
#TaskID d252d724072548979f1f6f1ced849daf
##Scan# 2145
#SpectrumFile p3-A09_GA9_01_18230.mzXML
#LibraryName Pharm_Active_Library.mgf
#MQScore -1
#Organism Pharm_Active_Library
#TIC_Query 0
#RT_Query -1
#MZErrorPPM -1
#SharedPeaks 0
#MassDiff 0
#LibMZ -1
#SpecMZ 373.289
#SpecCharge 0
#internalFilename spec-00000.mgf

>collision 0
91.0543 0.96
95.085 1.72
105.0699 1.48
107.0855 1.91
108.0447 2.08
110.0602 2.07
119.0863 1.93
121.1013 1.62
122.0604 2.75
131.0855 1.29
133.1018 2.33
134.0595 1.56
135.1178 1.06
136.0754 1.93
143.0863 1.41
145.101 2.78
147.1177 2.71
148.0757 2.29
150.0913 1.68
157.1031 1.39
159.1173 2.05
161.1342 1.32
171.1161 1.26
173.1332 5.56
175.1477 3.32
176.1069 1.75
178.159 1.28
185.1323 2.3
187.1489 3.44
189.1637 2.01
190.1224 0.97
197.1341 1.11
213.1638 1.17
215.1423 1.68
216.1403 1.58
220.1707 1.13
227.1784 0.97
232.1704 2.97
237.1654 1.27
246.186 6.37
255.1745 0.96
258.1864 1.34
272.2006 3.28
282.1859 4.81
300.197 4.85
305.259 26.26
317.2243 100.0
373.2865 88.64
