>compound Haloperidol (Haldol)
>formula C21H23ClFNO2
>ionization [M+H]+
>parentmass 376.148804
#inchi InChI=1S/C21H23ClFNO2/c22-18-7-5-17(6-8-18)21(26)11-14-24(15-12-21)13-1-2-20(25)16-3-9-19(23)10-4-16/h3-10,26H,1-2,11-15H2
#inchikey LNEPOXFFQSENCJ
#Ion_Source LC-ESI
#Instrument qTof
#Compound_Source Commercial
#PI Dorrestein
#Data_Collector Garg_Neha
#Scan -1
#Precursor_MZ 376.147
#ExactMass 375.14
#Charge 1
#CAS_Number 52-86-8
#Pubmed_ID N/A
#Smiles C1(=CC=C(C=C1)C(=O)CCCN2CCC(CC2)(C3=CC=C(C=C3)Cl)O)F
#INCHI_AUX N/A
#Library_Class 1
#SpectrumID CCMSLIB00000078346
#IonMode Positive
#UpdateWorkflowName UPDATE-SINGLE-ANNOTATED-GOLD
#LibraryQualityString Gold
#TaskID 77f51c88eb8b467eb4a01dd2d0cb90d2
##Scan# 1166
#SpectrumFile Plate5_61_88_GH9_01_16511.mzXML
#LibraryName FDALibrary_2_04302014.mgf
#MQScore -1
#Organism FDALibrary_2_04302014
#TIC_Query 0
#RT_Query -1
#MZErrorPPM -1
#SharedPeaks 0
#MassDiff 0
#LibMZ -1
#SpecMZ 376.147
#SpecCharge 0
#internalFilename spec-00000.mgf

>collision 0
95.0273 0.39
123.0242 39.75
165.071 100.0
206.0971 1.73
358.1365 9.83
376.1488 124.12
