>compound MLS001049080-01!2-[6-(cyclohexylamino)purin-9-yl]-5-(hydroxymethyl)oxolane-3,4-diol
>formula C16H23N5O4
>ionization [M+H]+
>parentmass 350.182831
#inchi InChI=1S/C16H23N5O4/c22-6-10-12(23)13(24)16(25-10)21-8-19-11-14(17-7-18-15(11)21)20-9-4-2-1-3-5-9/h7-10,12-13,16,22-24H,1-6H2,(H,17,18,20)
#inchikey SZBULDQSDUXAPJ
#Ion_Source LC-ESI
#Instrument qTof
#Compound_Source NIH Natural Product Library
#PI Dorrestein
#Data_Collector VVP/LMS
#Scan -1
#Precursor_MZ 350.183
#ExactMass 349.175
#Charge 1
#CAS_Number N/A
#Pubmed_ID N/A
#Smiles OCC1OC(C(O)C1O)n2cnc3c(NC4CCCCC4)ncnc23
#INCHI_AUX N/A
#Library_Class 1
#SpectrumID CCMSLIB00000080074
#IonMode Positive
#UpdateWorkflowName UPDATE-SINGLE-ANNOTATED-GOLD
#LibraryQualityString Gold
#TaskID b1d8e8f6646f4e71acdff9ca3d919d08
##Scan# 1430
#SpectrumFile p2-G03_GG3_01_18051.mzXML
#LibraryName NIH_Natural_Products_Library.mgf
#MQScore -1
#Organism NIH_Natural_Products_Library
#TIC_Query 0
#RT_Query -1
#MZErrorPPM -1
#SharedPeaks 0
#MassDiff 0
#LibMZ -1
#SpecMZ 350.183
#SpecCharge 0
#internalFilename spec-00000.mgf

>collision 0
119.035 4.15
136.0629 100.0
152.0957 0.2
218.1416 75.43
260.1537 0.29
350.1828 0.4
