>compound FAMCICLOVIR
>formula C14H19N5O4
>ionization [M+H]+
>parentmass 322.15098054009053
#inchi InChI=1S/C14H19N5O4/c1-9(20)22-6-11(7-23-10(2)21)3-4-19-8-17-12-5-16-14(15)18-13(12)19/h5,8,11H,3-4,6-7H2,1-2H3,(H2,15,16,18)
#inchikey GGXKWVWZWMLJEH
#Ion_Source LC-ESI
#Instrument qTof
#Compound_Source Commercial
#PI Dorrestein
#Data_Collector Garg_Neha
#Scan -1
#Precursor_MZ 322.151
#ExactMass 321.144
#Charge 1
#CAS_Number N/A
#Pubmed_ID N/A
#Smiles CC(=O)OCC(CCn1cnc2cnc(N)nc12)COC(=O)C
#INCHI_AUX N/A
#Library_Class 1
#SpectrumID CCMSLIB00000079001
#IonMode Positive
#UpdateWorkflowName UPDATE-SINGLE-ANNOTATED-GOLD
#LibraryQualityString Gold
#TaskID 278b19f5865741e282cec7349aa7e7a1
##Scan# 1013
#SpectrumFile NCP003352_C2_D11_BC5_01_15719.mzXML
#LibraryName NIHcollectionI_05062014.mgf
#MQScore -1
#Organism NIHcollectionI_05062014
#TIC_Query 0
#RT_Query -1
#MZErrorPPM -1
#SharedPeaks 0
#MassDiff 0
#LibMZ -1
#SpecMZ 322.151
#SpecCharge 0
#internalFilename spec-00000.mgf

>collision 0
109.0511 1.71
119.0358 0.96
121.0509 0.87
127.0754 0.68
136.0631 100.0
145.0865 3.72
148.0631 9.87
160.0838 0.83
174.079 0.95
175.0997 2.54
185.0831 1.39
186.0783 2.48
190.1102 1.29
193.108 0.52
202.1099 30.63
220.1209 9.97
238.1312 2.6
262.133 26.17
280.1431 20.88
322.1555 331.84
