>compound 2-[4-[3-(2-chlorophenothiazin-10-yl)propyl]piperazin-1-yl]ethanol
>formula C21H26ClN3OS 
>ionization [M+H]+
>parentmass 404.157532
#inchi InChI=1S/C21H26ClN3OS/c22-17-6-7-21-19(16-17)25(18-4-1-2-5-20(18)27-21)9-3-8-23-10-12-24(13-11-23)14-15-26/h1-2,4-7,16,26H,3,8-15H2
#inchikey RGCVKNLCSQQDEP
#Ion_Source LC-ESI
#Instrument qTof
#Compound_Source Commercial
#PI Dorrestein
#Data_Collector Garg_Neha
#Scan -1
#Precursor_MZ 404.158
#ExactMass 403.148
#Charge 1
#CAS_Number N/A
#Pubmed_ID N/A
#Smiles N/A
#INCHI_AUX N/A
#Library_Class 1
#SpectrumID CCMSLIB00000076970
#IonMode Positive
#UpdateWorkflowName UPDATE-SINGLE-ANNOTATED-GOLD
#LibraryQualityString Gold
#TaskID 48f7f52fc6d249b5abbcc6e7b3df5969
##Scan# 1214
#SpectrumFile NCP002928_A2_B11_BA2_01_15696.mzXML
#LibraryName NIH_Clinical_Collection_2.mgf
#MQScore -1
#Organism NIHcollection2_04212014_2_mgf
#TIC_Query 0
#RT_Query -1
#MZErrorPPM -1
#SharedPeaks 0
#MassDiff 0
#LibMZ -1
#SpecMZ 404.158
#SpecCharge 0
#internalFilename spec-00000.mgf

>collision 0
97.0766 0.89
98.0839 7.9
100.0755 9.71
112.0994 0.94
113.106 1.68
125.1089 0.68
128.0934 3.35
141.1024 0.56
141.1394 2.27
143.1181 100.0
171.1491 86.55
211.0455 2.95
212.0522 0.38
214.0418 8.26
238.0683 0.84
239.0769 11.71
246.0138 22.13
274.0439 3.02
404.1581 266.33
