>compound Atazanavir sulfate
>formula C38H52N6O7
>ionization [M+H]+
>parentmass 705.3970244560905
#inchi InChI=1S/C38H52N6O7/c1-37(2,3)31(41-35(48)50-7)33(46)40-29(22-25-14-10-9-11-15-25)30(45)24-44(43-34(47)32(38(4,5)6)42-36(49)51-8)23-26-17-19-27(20-18-26)28-16-12-13-21-39-28/h9-21,29-32,45H,22-24H2,1-8H3,(H,40,46)(H,41,48)(H,42,49)(H,43,47)/t29-,30-,31+,32+/m0/s1
#inchikey AXRYRYVKAWYZBR
#origInchi InChI=1S/C38H52N6O7.H2O4S/c1-37(2,3)31(41-35(48)50-7)33(46)40-29(22-25-14-10-9-11-15-25)30(45)24-44(43-34(47)32(38(4,5)6)42-36(49)51-8)23-26-17-19-27(20-18-26)28-16-12-13-21-39-28;1-5(2,3)4/h9-21,29-32,45H,22-24H2,1-8H3,(H,40,46)(H,41,48)(H,42,49)(H,43,47);(H2,1,2,3,4)/t29-,30-,31+,32+;/m0./s1
#Ion_Source LC-ESI
#Instrument qTof
#Compound_Source Commercial
#PI Dorrestein
#Data_Collector Garg_Neha
#Scan -1
#Precursor_MZ 705.397
#ExactMass 704.39
#Charge 1
#CAS_Number 229975-97-7
#Pubmed_ID N/A
#Smiles O(C(N[C@H](C(N[C@H]([C@H](CN(NC([C@@H](NC(OC)=O)C(C)(C)C)=O)CC1=CC=C(C=C1)C2=NC=CC=C2)O)CC3=CC=CC=C3)=O)C(C)(C)C)=O)C.S(=O)(=O)(O)O
#INCHI_AUX N/A
#Library_Class 1
#SpectrumID CCMSLIB00000078153
#IonMode Positive
#UpdateWorkflowName UPDATE-SINGLE-ANNOTATED-GOLD
#LibraryQualityString Gold
#TaskID 77f51c88eb8b467eb4a01dd2d0cb90d2
##Scan# 1312
#SpectrumFile Plate2_61_88_GG8_01_16496.mzXML
#LibraryName FDALibrary_2_04302014.mgf
#MQScore -1
#Organism FDALibrary_2_04302014
#TIC_Query 0
#RT_Query -1
#MZErrorPPM -1
#SharedPeaks 0
#MassDiff 0
#LibMZ -1
#SpecMZ 705.397
#SpecCharge 0
#internalFilename spec-00000.mgf

>collision 0
112.0762 0.5
120.0807 1.95
129.0691 0.69
139.0541 0.5
141.0689 0.66
144.1021 32.79
146.0963 1.85
148.112 0.38
162.091 0.51
164.107 0.49
166.0644 1.13
167.0729 11.63
168.0823 100.0
169.0847 27.02
172.0971 0.68
185.1068 0.46
192.1006 0.54
212.1168 0.43
250.1076 0.52
287.1545 0.56
311.1657 0.45
313.1696 0.58
328.1807 2.04
329.1781 1.05
335.1965 59.39
337.2022 1.46
346.1894 0.79
363.2171 2.01
364.2181 0.52
371.2088 0.54
424.2368 1.08
425.2374 0.49
441.2644 0.42
499.2649 0.74
502.2756 0.62
516.2933 1.04
517.2953 0.75
534.3055 10.02
535.3085 4.09
536.312 0.92
612.3512 1.05
613.3543 0.62
673.3701 0.55
687.3854 2.92
688.3877 1.06
705.3973 108.33
