>compound MLS001140999-01!4-[[[2-(6-chloro-2-oxo-4-phenylchromen-7-yl)oxyacetyl]amino]methyl]cyclohexane-1-carboxylic acid
>formula C25H24ClNO6
>ionization [M+H]+
>parentmass 470.137
#inchi InChI=1S/C25H24ClNO6/c26-20-10-19-18(16-4-2-1-3-5-16)11-24(29)33-21(19)12-22(20)32-14-23(28)27-13-15-6-8-17(9-7-15)25(30)31/h1-5,10-12,15,17H,6-9,13-14H2,(H,27,28)(H,30,31)/t15-,17-
#inchikey HAVINGMAQNEKHR
#Ion_Source LC-ESI
#Instrument qTof
#Compound_Source NIH Natural Product Library
#PI Dorrestein
#Data_Collector VVP/LMS
#Scan -1
#Precursor_MZ 470.137
#ExactMass 469.129
#Charge 1
#CAS_Number N/A
#Pubmed_ID N/A
#Smiles OC(=O)[C@H]1CC[C@H](CNC(=O)COc2cc3oc(=O)cc(c4ccccc4)c3cc2Cl)CC1
#INCHI_AUX N/A
#Library_Class 1
#SpectrumID CCMSLIB00000080239
#IonMode Positive
#UpdateWorkflowName UPDATE-SINGLE-ANNOTATED-GOLD
#LibraryQualityString Gold
#TaskID b1d8e8f6646f4e71acdff9ca3d919d08
##Scan# 2176
#SpectrumFile p2-H05_GH5_01_18065.mzXML
#LibraryName NIH_Natural_Products_Library.mgf
#MQScore -1
#Organism NIH_Natural_Products_Library
#TIC_Query 0
#RT_Query -1
#MZErrorPPM -1
#SharedPeaks 0
#MassDiff 0
#LibMZ -1
#SpecMZ 470.137
#SpecCharge 0
#internalFilename spec-00000.mgf

>collision 0
112.0874 2.01
227.1166 2.46
229.13 8.46
231.1206 3.51
244.1244 3.8
245.1346 2.07
257.1376 3.99
259.1375 1.88
272.131 4.21
273.1408 100.0
274.1425 13.69
275.1384 25.6
276.1394 3.73
286.1487 8.91
287.1425 9.58
288.1397 3.1
313.1475 14.04
315.1507 6.35
330.1841 23.72
342.1841 6.35
470.137 0.0
