>compound Protionamide (Prothionamide)
>formula C9H12N2S
>ionization [M+H]+
>parentmass 181.079117
#inchi InChI=1S/C9H12N2S/c1-2-3-8-6-7(9(10)12)4-5-11-8/h4-6H,2-3H2,1H3,(H2,10,12)
#inchikey VRDIULHPQTYCLN
#Ion_Source LC-ESI
#Instrument qTof
#Compound_Source Commercial
#PI Dorrestein
#Data_Collector Garg_Neha
#Scan -1
#Precursor_MZ 181.079
#ExactMass 180.072
#Charge 1
#CAS_Number 14222-60-7
#Pubmed_ID N/A
#Smiles C1(=NC=CC(=C1)C(N)=S)CCC
#INCHI_AUX N/A
#Library_Class 1
#SpectrumID CCMSLIB00000078325
#IonMode Positive
#UpdateWorkflowName UPDATE-SINGLE-ANNOTATED-GOLD
#LibraryQualityString Gold
#TaskID 77f51c88eb8b467eb4a01dd2d0cb90d2
##Scan# 988
#SpectrumFile Plate5_21_40_GH7_01_16509.mzXML
#LibraryName FDALibrary_2_04302014.mgf
#MQScore -1
#Organism FDALibrary_2_04302014
#TIC_Query 0
#RT_Query -1
#MZErrorPPM -1
#SharedPeaks 0
#MassDiff 0
#LibMZ -1
#SpecMZ 181.079
#SpecCharge 0
#internalFilename spec-00000.mgf

>collision 0
118.0534 11.87
119.0588 14.01
125.0289 20.8
136.0231 3.91
147.0898 31.86
148.0985 27.06
152.0389 18.29
154.0675 100.0
181.0791 771.83
