>compound MLS001157830-01!(2R)-2-[[2-[[2-(7-hydroxy-4-methyl-2-oxochromen-3-yl)acetyl]amino]acetyl]amino]-3-phenylpropanoic acid
>formula C23H22N2O7
>ionization [M+H]+
>parentmass 439.151
#inchi InChI=1S/C23H22N2O7/c1-13-16-8-7-15(26)10-19(16)32-23(31)17(13)11-20(27)24-12-21(28)25-18(22(29)30)9-14-5-3-2-4-6-14/h2-8,10,18,26H,9,11-12H2,1H3,(H,24,27)(H,25,28)(H,29,30)/t18-/m1/s1
#inchikey JTQLALMTODKNTM
#Ion_Source LC-ESI
#Instrument qTof
#Compound_Source NIH Natural Product Library
#PI Dorrestein
#Data_Collector VVP/LMS
#Scan -1
#Precursor_MZ 439.151
#ExactMass 438.143
#Charge 1
#CAS_Number N/A
#Pubmed_ID N/A
#Smiles Cc1c(CC(=O)NCC(=O)N[C@H](Cc2ccccc2)C(=O)O)c(=O)oc3cc(O)ccc13
#INCHI_AUX N/A
#Library_Class 1
#SpectrumID CCMSLIB00000080394
#IonMode Positive
#UpdateWorkflowName UPDATE-SINGLE-ANNOTATED-GOLD
#LibraryQualityString Gold
#TaskID b1d8e8f6646f4e71acdff9ca3d919d08
##Scan# 1708
#SpectrumFile p2-C08_GC8_01_18008.mzXML
#LibraryName NIH_Natural_Products_Library.mgf
#MQScore -1
#Organism NIH_Natural_Products_Library
#TIC_Query 0
#RT_Query -1
#MZErrorPPM -1
#SharedPeaks 0
#MassDiff 0
#LibMZ -1
#SpecMZ 439.151
#SpecCharge 0
#internalFilename spec-00000.mgf

>collision 0
103.0545 1.01
105.0708 0.88
116.0625 0.85
133.0651 1.71
144.0584 0.61
161.0606 5.75
162.0636 1.99
189.0565 100.0
190.0598 15.84
217.0506 10.61
218.0524 1.78
439.151 0.0
