>compound MLS002153205-01!
>formula C14H16ClN3O4S2
>ionization [M+H]+
>parentmass 390.0343521240905
#inchi InChI=1S/C14H16ClN3O4S2/c15-10-5-11-13(6-12(10)23(16,19)20)24(21,22)18-14(17-11)9-4-7-1-2-8(9)3-7/h1-2,5-9,14,17-18H,3-4H2,(H2,16,19,20)/t7-,8+,9?,14?/m0/s1
#inchikey BOCUKUHCLICSIY
#Ion_Source LC-ESI
#Instrument qTof
#Compound_Source NIH Pharmacologically Active Library
#PI Dorrestein
#Data_Collector VP/LMS
#Scan -1
#Precursor_MZ 390.037
#ExactMass 389.027
#Charge 1
#CAS_Number N/A
#Pubmed_ID N/A
#Smiles NS(=O)(=O)c1cc2c(NC(NS2(=O)=O)C3C[C@@H]4C[C@H]3C=C4)cc1Cl
#INCHI_AUX N/A
#Library_Class 3
#SpectrumID CCMSLIB00000085855
#IonMode Positive
#UpdateWorkflowName UPDATE-SINGLE-ANNOTATED-BRONZE
#LibraryQualityString Bronze
#TaskID d252d724072548979f1f6f1ced849daf
##Scan# 1919
#SpectrumFile p4-G03_GG3_01_18399.mzXML
#LibraryName Pharm_Active_Library.mgf
#MQScore -1
#Organism Pharm_Active_Library
#TIC_Query 0
#RT_Query -1
#MZErrorPPM -1
#SharedPeaks 0
#MassDiff 0
#LibMZ -1
#SpecMZ 390.037
#SpecCharge 0
#internalFilename spec-00000.mgf

>collision 0
105.0699 33.77
106.0649 18.74
117.0569 29.68
120.079 24.86
121.0869 26.53
128.0508 9.09
143.058 10.02
143.965 8.91
151.0188 15.03
152.0261 15.77
155.9789 11.13
155.9858 9.09
157.0177 10.02
163.0163 15.77
164.0258 15.77
166.0196 9.46
179.0085 19.29
179.0363 30.98
181.033 16.88
186.9757 15.21
187.9534 13.54
194.0057 9.46
195.0048 20.59
195.0395 9.65
197.0035 9.28
204.9849 41.19
206.9792 15.4
212.0055 9.28
213.0547 10.02
220.9768 30.43
245.0098 10.39
258.9967 33.77
260.99 23.38
306.9573 100.0
307.964 20.96
323.9959 10.58
390.0344 0.0
