>compound Methocarbamol
>formula C11H15NO5 
>ionization [M+H]+
>parentmass 242.103561
#inchi InChI=1S/C11H15NO5/c1-15-9-4-2-3-5-10(9)16-6-8(13)7-17-11(12)14/h2-5,8,13H,6-7H2,1H3,(H2,12,14)
#inchikey GNXFOGHNGIVQEH
#Ion_Source LC-ESI
#Instrument qTof
#Compound_Source Isolated
#PI Sirenas
#Data_Collector Ed Esquenazi 
#Scan -1
#Precursor_MZ 242.102
#ExactMass 0.0
#Charge 1
#CAS_Number N/A
#Pubmed_ID N/A
#Smiles N/A
#INCHI_AUX N/A
#Library_Class 3
#SpectrumID CCMSLIB00000005476
#IonMode Positive
#UpdateWorkflowName UPDATE-SINGLE-ANNOTATED-BRONZE
#LibraryQualityString Bronze
#TaskID d19310cd93df49b68e9fcbec27720eb5
##Scan# 1
#SpectrumFile Methocarbamol.mgf
#LibraryName fda_library.mgf
#MQScore -1
#Organism fda_library
#TIC_Query 0
#RT_Query -1
#MZErrorPPM -1
#SharedPeaks 0
#MassDiff 0
#LibMZ -1
#SpecMZ 242.102
#SpecCharge 0
#internalFilename spec-00000.mgf

>collision 0
103.0543 0.56
105.0695 1.34
107.048 0.74
118.05 100.0
120.0569 0.33
121.0651 1.93
122.0363 1.34
123.0442 2.77
125.0594 16.64
135.0802 6.1
137.0591 3.09
145.0634 0.24
148.0515 0.76
149.0596 0.48
151.0752 11.64
163.0751 28.9
181.0865 3.61
199.0965 10.33
224.0918 2.56
242.1041 0.63
