>compound MLS001140686-01!(2S)-1-[(2S)-2-[[(2S)-2-(2,4-dioxo-1H-quinazolin-3-yl)-3-phenylpropanoyl]amino]-3-methylbutanoyl]pyrrolidine-2-carboxylic acid
>formula C27H30N4O6
>ionization [M+H]+
>parentmass 507.224
#inchi InChI=1S/C27H30N4O6/c1-16(2)22(25(34)30-14-8-13-20(30)26(35)36)29-23(32)21(15-17-9-4-3-5-10-17)31-24(33)18-11-6-7-12-19(18)28-27(31)37/h3-7,9-12,16,20-22H,8,13-15H2,1-2H3,(H,28,37)(H,29,32)(H,35,36)/t20-,21-,22-/m0/s1
#inchikey SYRLGRSPYCBUON
#Ion_Source LC-ESI
#Instrument qTof
#Compound_Source NIH Natural Product Library
#PI Dorrestein
#Data_Collector VVP/LMS
#Scan -1
#Precursor_MZ 507.224
#ExactMass 506.217
#Charge 1
#CAS_Number N/A
#Pubmed_ID N/A
#Smiles CC(C)[C@H](NC(=O)[C@H](Cc1ccccc1)n2c(=O)[nH]c3ccccc3c2=O)C(=O)N4CCC[C@H]4C(=O)O
#INCHI_AUX N/A
#Library_Class 1
#SpectrumID CCMSLIB00000079654
#IonMode Positive
#UpdateWorkflowName UPDATE-SINGLE-ANNOTATED-GOLD
#LibraryQualityString Gold
#TaskID b1d8e8f6646f4e71acdff9ca3d919d08
##Scan# 1970
#SpectrumFile p1-D09_GD9_01_17917.mzXML
#LibraryName NIH_Natural_Products_Library.mgf
#MQScore -1
#Organism NIH_Natural_Products_Library
#TIC_Query 0
#RT_Query -1
#MZErrorPPM -1
#SharedPeaks 0
#MassDiff 0
#LibMZ -1
#SpecMZ 507.224
#SpecCharge 0
#internalFilename spec-00000.mgf

>collision 0
103.056 3.44
120.0437 0.62
131.0491 0.72
146.0256 10.04
163.0517 5.97
180.0769 0.49
222.0901 0.56
237.1011 0.6
247.0865 1.87
248.0945 0.36
265.0986 100.0
266.1008 19.72
275.0808 1.66
276.0906 0.47
293.0921 15.36
294.0955 3.59
507.224 0.0
