>compound Racecadotril
>formula C21H23NO4S 
>ionization [M+H]+
>parentmass 386.143
#inchi InChI=1S/C21H23NO4S/c1-16(23)27-15-19(12-17-8-4-2-5-9-17)21(25)22-13-20(24)26-14-18-10-6-3-7-11-18/h2-11,19H,12-15H2,1H3,(H,22,25)
#inchikey ODUOJXZPIYUATO
#Ion_Source LC-ESI
#Instrument qTof
#Compound_Source Isolated
#PI Sirenas
#Data_Collector Ed Esquenazi 
#Scan -1
#Precursor_MZ 386.143
#ExactMass 0.0
#Charge 1
#CAS_Number N/A
#Pubmed_ID N/A
#Smiles N/A
#INCHI_AUX N/A
#Library_Class 3
#SpectrumID CCMSLIB00000005133
#IonMode Positive
#UpdateWorkflowName UPDATE-SINGLE-ANNOTATED-BRONZE
#LibraryQualityString Bronze
#TaskID d19310cd93df49b68e9fcbec27720eb5
##Scan# 6
#SpectrumFile Racecadotril.mgf
#LibraryName fda_library.mgf
#MQScore -1
#Organism fda_library
#TIC_Query 0
#RT_Query -1
#MZErrorPPM -1
#SharedPeaks 0
#MassDiff 0
#LibMZ -1
#SpecMZ 386.143
#SpecCharge 0
#internalFilename spec-00000.mgf

>collision 0
115.0539 17.06
117.0698 58.36
127.0555 0.92
129.0699 20.42
131.0476 0.88
143.0496 1.48
145.0649 100.0
157.065 42.22
179.085 7.9
181.1013 1.89
191.0843 5.61
192.093 1.59
205.1018 0.4
207.116 16.74
217.1009 5.46
220.0901 1.0
223.1109 1.62
235.1117 29.54
386.142 0.0
