>compound Ketotifen fumarate (Zaditor)
>formula C19H19NOS
>ionization [M+H]+
>parentmass 310.1260116800905
#inchi InChI=1S/C19H19NOS/c1-20-9-6-13(7-10-20)18-15-5-3-2-4-14(15)12-17(21)19-16(18)8-11-22-19/h2-5,8,11H,6-7,9-10,12H2,1H3
#inchikey ZCVMWBYGMWKGHF
#origInchi InChI=1S/C19H19NOS.C4H4O4/c1-20-9-6-13(7-10-20)18-15-5-3-2-4-14(15)12-17(21)19-16(18)8-11-22-19;5-3(6)1-2-4(7)8/h2-5,8,11H,6-7,9-10,12H2,1H3;1-2H,(H,5,6)(H,7,8)/b;2-1+
#Ion_Source LC-ESI
#Instrument qTof
#Compound_Source Commercial
#PI Dorrestein
#Data_Collector Garg_Neha
#Scan -1
#Precursor_MZ 310.126
#ExactMass 309.119
#Charge 1
#CAS_Number 34580-14-8
#Pubmed_ID N/A
#Smiles C12(C(CC3=C(C(C=1C=CS2)=C4CCN(CC4)C)C=CC=C3)=O).C(/C=C/C(O)=O)(O)=O
#INCHI_AUX N/A
#Library_Class 1
#SpectrumID CCMSLIB00000078392
#IonMode Positive
#UpdateWorkflowName UPDATE-SINGLE-ANNOTATED-GOLD
#LibraryQualityString Gold
#TaskID 77f51c88eb8b467eb4a01dd2d0cb90d2
##Scan# 1063
#SpectrumFile Plate6_21_40_GD8_01_15775.mzXML
#LibraryName FDALibrary_2_04302014.mgf
#MQScore -1
#Organism FDALibrary_2_04302014
#TIC_Query 0
#RT_Query -1
#MZErrorPPM -1
#SharedPeaks 0
#MassDiff 0
#LibMZ -1
#SpecMZ 310.126
#SpecCharge 0
#internalFilename spec-00000.mgf

>collision 0
111.0259 4.78
117.0699 3.67
123.0259 3.61
129.0694 12.35
135.0257 4.99
141.0699 13.7
155.0855 11.33
157.0649 3.31
165.0684 4.8
178.0766 10.99
179.0848 7.35
184.033 12.52
185.0415 20.3
190.0769 11.3
191.0845 5.35
197.0419 25.0
198.0465 5.4
199.058 5.35
204.092 5.45
205.101 34.76
206.107 11.87
208.0324 5.11
209.0406 4.88
210.0472 6.07
211.0559 12.28
213.0364 86.58
214.0404 10.28
215.0847 9.9
216.0925 11.09
221.0416 19.25
222.0485 12.66
223.0563 13.64
224.0632 10.7
225.0731 7.94
227.0501 3.48
234.049 36.88
235.0555 17.58
236.0606 4.97
237.035 8.94
237.0733 7.19
238.0433 4.88
239.0544 6.97
239.0889 8.02
247.0561 3.57
249.0733 22.96
250.044 18.61
251.0498 3.8
252.055 3.36
253.0661 6.59
265.0681 7.42
267.0839 6.76
292.1149 5.95
310.1273 1059.46
