>compound MLS001076522-01!REV 5901
>formula C22H25NO2
>ionization [M+H]+
>parentmass 336.194397
#inchi InChI=1S/C22H25NO2/c1-2-3-4-12-22(24)18-9-7-10-20(15-18)25-16-19-14-13-17-8-5-6-11-21(17)23-19/h5-11,13-15,22,24H,2-4,12,16H2,1H3
#inchikey JRLOEMCOOZSCQP
#Ion_Source LC-ESI
#Instrument qTof
#Compound_Source NIH Pharmacologically Active Library
#PI Dorrestein
#Data_Collector VP/LMS
#Scan -1
#Precursor_MZ 336.201
#ExactMass 335.189
#Charge 1
#CAS_Number N/A
#Pubmed_ID N/A
#Smiles CCCCCC(O)c1cccc(OCc2ccc3ccccc3n2)c1
#INCHI_AUX N/A
#Library_Class 1
#SpectrumID CCMSLIB00000085761
#IonMode Positive
#UpdateWorkflowName UPDATE-SINGLE-ANNOTATED-GOLD
#LibraryQualityString Gold
#TaskID d252d724072548979f1f6f1ced849daf
##Scan# 2422
#SpectrumFile p4-F03_GF3_01_18387.mzXML
#LibraryName Pharm_Active_Library.mgf
#MQScore -1
#Organism Pharm_Active_Library
#TIC_Query 0
#RT_Query -1
#MZErrorPPM -1
#SharedPeaks 0
#MassDiff 0
#LibMZ -1
#SpecMZ 336.201
#SpecCharge 0
#internalFilename spec-00000.mgf

>collision 0
89.0383 0.31
107.0494 2.84
115.055 29.77
117.0564 1.99
128.0496 8.28
130.0649 0.87
133.065 1.22
140.0495 17.84
142.0661 82.41
143.0746 100.0
160.0757 7.16
218.0958 1.34
220.1115 2.82
230.0959 1.62
233.0835 3.21
236.107 6.17
246.0905 4.72
248.107 14.21
264.1008 1.5
274.1226 1.26
318.1856 16.0
336.1954 5.76
