>compound MLS001141013-01!1-[(2S)-2-amino-3-phenylpropanoyl]-N-[(2S)-1-[(4-methoxyphenyl)methylamino]-1-oxopropan-2-yl]piperidine-4-carboxamide
>formula C26H34N4O4
>ionization [M+H]+
>parentmass 467.2652820200905
#inchi InChI=1S/C26H34N4O4/c1-18(24(31)28-17-20-8-10-22(34-2)11-9-20)29-25(32)21-12-14-30(15-13-21)26(33)23(27)16-19-6-4-3-5-7-19/h3-11,18,21,23H,12-17,27H2,1-2H3,(H,28,31)(H,29,32)/t18-,23-/m0/s1
#inchikey APPHUGXGULEGGN
#Ion_Source LC-ESI
#Instrument qTof
#Compound_Source NIH Natural Product Library
#PI Dorrestein
#Data_Collector VVP/LMS
#Scan -1
#Precursor_MZ 467.266
#ExactMass 466.258
#Charge 1
#CAS_Number N/A
#Pubmed_ID N/A
#Smiles COc1ccc(CNC(=O)[C@H](C)NC(=O)C2CCN(CC2)C(=O)[C@@H](N)Cc3ccccc3)cc1
#INCHI_AUX N/A
#Library_Class 1
#SpectrumID CCMSLIB00000080532
#IonMode Positive
#UpdateWorkflowName UPDATE-SINGLE-ANNOTATED-GOLD
#LibraryQualityString Gold
#TaskID b1d8e8f6646f4e71acdff9ca3d919d08
##Scan# 1541
#SpectrumFile p2-C10_GC10_01_18010.mzXML
#LibraryName NIH_Natural_Products_Library.mgf
#MQScore -1
#Organism NIH_Natural_Products_Library
#TIC_Query 0
#RT_Query -1
#MZErrorPPM -1
#SharedPeaks 0
#MassDiff 0
#LibMZ -1
#SpecMZ 467.266
#SpecCharge 0
#internalFilename spec-00000.mgf

>collision 0
97.0504 0.26
103.0547 4.31
105.0322 0.31
112.0772 42.52
120.0824 44.28
121.0667 100.0
148.1125 0.41
183.1133 8.82
209.1294 3.76
302.1892 2.45
320.1996 10.53
330.1835 2.12
467.269 0.77
