>compound Prasugrel
>formula C20H20FNO3S 
>ionization [M+H]+
>parentmass 374.123
#inchi InChI=1S/C20H20FNO3S/c1-12(23)25-18-10-14-11-22(9-8-17(14)26-18)19(20(24)13-6-7-13)15-4-2-3-5-16(15)21/h2-5,10,13,19H,6-9,11H2,1H3
#inchikey DTGLZDAWLRGWQN
#Ion_Source LC-ESI
#Instrument qTof
#Compound_Source Isolated
#PI Sirenas
#Data_Collector Ed Esquenazi 
#Scan -1
#Precursor_MZ 374.123
#ExactMass 0.0
#Charge 1
#CAS_Number N/A
#Pubmed_ID N/A
#Smiles N/A
#INCHI_AUX N/A
#Library_Class 3
#SpectrumID CCMSLIB00000006115
#IonMode Positive
#UpdateWorkflowName UPDATE-SINGLE-ANNOTATED-BRONZE
#LibraryQualityString Bronze
#TaskID d19310cd93df49b68e9fcbec27720eb5
##Scan# 3
#SpectrumFile Prasugrel.mgf
#LibraryName fda_library.mgf
#MQScore -1
#Organism fda_library
#TIC_Query 0
#RT_Query -1
#MZErrorPPM -1
#SharedPeaks 0
#MassDiff 0
#LibMZ -1
#SpecMZ 374.123
#SpecCharge 0
#internalFilename spec-00000.mgf

>collision 0
109.0449 33.85
121.0448 1.46
127.0539 0.36
129.0698 8.29
133.0448 0.57
134.0525 3.24
135.0601 13.46
136.0323 0.52
147.06 4.13
149.0764 100.0
159.0612 1.05
161.0635 0.21
162.0468 1.98
176.0861 2.04
177.0714 54.39
178.1025 0.52
206.0975 4.71
374.1239 0.0
