>compound Dibucaine (Cinchocaine) HCl
>formula C20H29N3O2
>ionization [M+H]+
>parentmass 344.235107
#inchi InChI=1S/C20H29N3O2/c1-4-7-14-25-19-15-17(16-10-8-9-11-18(16)22-19)20(24)21-12-13-23(5-2)6-3/h8-11,15H,4-7,12-14H2,1-3H3,(H,21,24)
#inchikey PUFQVTATUTYEAL
#origInchi InChI=1S/C20H29N3O2.ClH/c1-4-7-14-25-19-15-17(16-10-8-9-11-18(16)22-19)20(24)21-12-13-23(5-2)6-3;/h8-11,15H,4-7,12-14H2,1-3H3,(H,21,24);1H
#Ion_Source LC-ESI
#Instrument qTof
#Compound_Source Commercial
#PI Dorrestein
#Data_Collector Garg_Neha
#Scan -1
#Precursor_MZ 344.233
#ExactMass 343.226
#Charge 1
#CAS_Number 61-12-1, 85-79-0 (free base)
#Pubmed_ID N/A
#Smiles C12(=C(C=C(N=C1C=CC=C2)OCCCC)C(NCCN(CC)CC)=O).Cl
#INCHI_AUX N/A
#Library_Class 1
#SpectrumID CCMSLIB00000078632
#IonMode Positive
#UpdateWorkflowName UPDATE-SINGLE-ANNOTATED-GOLD
#LibraryQualityString Gold
#TaskID 77f51c88eb8b467eb4a01dd2d0cb90d2
##Scan# 1170
#SpectrumFile Plate10_21_40_GC2_01_15744.mzXML
#LibraryName FDALibrary_2_04302014.mgf
#MQScore -1
#Organism FDALibrary_2_04302014
#TIC_Query 0
#RT_Query -1
#MZErrorPPM -1
#SharedPeaks 0
#MassDiff 0
#LibMZ -1
#SpecMZ 344.233
#SpecCharge 0
#internalFilename spec-00000.mgf

>collision 0
116.0501 1.65
130.065 0.26
144.0445 7.44
153.0434 0.33
158.0598 0.74
171.0552 4.97
172.0396 16.55
182.0963 0.53
187.0876 1.18
200.1064 1.13
215.0826 73.36
227.1169 1.56
228.1021 5.64
243.1477 0.65
245.1286 0.32
253.1334 0.71
271.1451 100.0
288.1707 0.77
344.2357 94.76
