>compound EthinylEstradiol
>formula C20H24O2 
>ionization [M+H]+
>parentmass 297.183807
#inchi InChI=1S/C20H24O2/c1-3-20(22)11-9-18-17-6-4-13-12-14(21)5-7-15(13)16(17)8-10-19(18,20)2/h1,5,7,12,16-18,21-22H,4,6,8-11H2,2H3/t16-,17-,18+,19+,20+/m1/s1
#inchikey BFPYWIDHMRZLRN
#Ion_Source LC-ESI
#Instrument qTof
#Compound_Source Isolated
#PI Sirenas
#Data_Collector Ed Esquenazi 
#Scan -1
#Precursor_MZ 297.184
#ExactMass 0.0
#Charge 1
#CAS_Number N/A
#Pubmed_ID N/A
#Smiles N/A
#INCHI_AUX N/A
#Library_Class 3
#SpectrumID CCMSLIB00000004895
#IonMode Positive
#UpdateWorkflowName UPDATE-SINGLE-ANNOTATED-BRONZE
#LibraryQualityString Bronze
#TaskID d19310cd93df49b68e9fcbec27720eb5
##Scan# 4
#SpectrumFile EthinylEstradiol.mgf
#LibraryName fda_library.mgf
#MQScore -1
#Organism fda_library
#TIC_Query 0
#RT_Query -1
#MZErrorPPM -1
#SharedPeaks 0
#MassDiff 0
#LibMZ -1
#SpecMZ 297.184
#SpecCharge 0
#internalFilename spec-00000.mgf

>collision 0
107.0477 100.0
109.0652 9.99
129.0703 35.51
131.0861 14.68
133.0655 95.12
133.1002 57.0
145.1018 28.3
147.0803 39.96
157.065 20.36
159.0786 30.25
159.1149 28.65
171.1171 13.93
183.0796 19.77
209.0943 49.55
253.1588 24.01
279.173 96.73
297.1838 479.86
