>compound Elvitegravir (GS-9137)
>formula C23H23ClFNO5
>ionization [M+H]+
>parentmass 448.133423
#inchi InChI=1S/C23H23ClFNO5/c1-12(2)19(11-27)26-10-16(23(29)30)22(28)15-8-14(20(31-3)9-18(15)26)7-13-5-4-6-17(24)21(13)25/h4-6,8-10,12,19,27H,7,11H2,1-3H3,(H,29,30)/t19-/m1/s1
#inchikey JUZYLCPPVHEVSV
#Ion_Source LC-ESI
#Instrument qTof
#Compound_Source Commercial
#PI Dorrestein
#Data_Collector Garg_Neha
#Scan -1
#Precursor_MZ 448.132
#ExactMass 447.125
#Charge 1
#CAS_Number 697761-98-1, 697762-15-5 (sodium salt)
#Pubmed_ID N/A
#Smiles C1=CC(=C(C(=C1)Cl)F)CC2=CC3=C(C=C2OC)N(C=C(C3=O)C(O)=O)[C@@H](C(C)C)CO
#INCHI_AUX N/A
#Library_Class 1
#SpectrumID CCMSLIB00000078379
#IonMode Positive
#UpdateWorkflowName UPDATE-SINGLE-ANNOTATED-GOLD
#LibraryQualityString Gold
#TaskID 77f51c88eb8b467eb4a01dd2d0cb90d2
##Scan# 2272
#SpectrumFile Plate6_21_40_GD8_01_15775.mzXML
#LibraryName FDALibrary_2_04302014.mgf
#MQScore -1
#Organism FDALibrary_2_04302014
#TIC_Query 0
#RT_Query -1
#MZErrorPPM -1
#SharedPeaks 0
#MassDiff 0
#LibMZ -1
#SpecMZ 448.132
#SpecCharge 0
#internalFilename spec-00000.mgf

>collision 0
275.0271 0.54
316.0514 1.43
317.0555 0.38
318.0508 0.54
344.0485 100.0
345.0513 17.72
346.0451 22.56
347.0468 5.36
362.0583 29.14
364.0555 9.83
365.0577 1.57
412.1107 0.3
430.1212 59.53
448.1334 197.68
