>compound ESMOLOL HYDROCHLORIDE
>formula C16H25NO4
>ionization [M+H]+
>parentmass 296.186
#inchi InChI=1S/C16H25NO4/c1-12(2)17-10-14(18)11-21-15-7-4-13(5-8-15)6-9-16(19)20-3/h4-5,7-8,12,14,17-18H,6,9-11H2,1-3H3
#inchikey AQNDDEOPVVGCPG
#Ion_Source LC-ESI
#Instrument qTof
#Compound_Source Commercial
#PI Dorrestein
#Data_Collector Garg_Neha
#Scan -1
#Precursor_MZ 296.186
#ExactMass 295.178
#Charge 1
#CAS_Number N/A
#Pubmed_ID N/A
#Smiles COC(=O)CCc1ccc(OCC(O)CNC(C)C)cc1
#INCHI_AUX N/A
#Library_Class 1
#SpectrumID CCMSLIB00000078947
#IonMode Positive
#UpdateWorkflowName UPDATE-SINGLE-ANNOTATED-GOLD
#LibraryQualityString Gold
#TaskID 278b19f5865741e282cec7349aa7e7a1
##Scan# 1069
#SpectrumFile NCP003272_E2_F11_BC2_01_15715.mzXML
#LibraryName NIHcollectionI_05062014.mgf
#MQScore -1
#Organism NIHcollectionI_05062014
#TIC_Query 0
#RT_Query -1
#MZErrorPPM -1
#SharedPeaks 0
#MassDiff 0
#LibMZ -1
#SpecMZ 296.186
#SpecCharge 0
#internalFilename spec-00000.mgf

>collision 0
91.0541 0.61
98.0966 3.78
103.0539 0.5
105.0692 2.44
107.0494 3.31
115.0552 1.11
116.1071 10.06
117.0692 1.34
119.0501 15.35
121.0654 1.98
131.0855 0.81
133.0653 19.14
135.0796 0.47
136.0515 0.45
137.0608 1.05
144.0574 1.17
145.0657 100.0
151.0758 3.19
159.0805 4.58
161.0597 4.62
162.0922 7.6
163.0758 10.31
175.0744 0.92
177.0918 1.5
180.1032 0.84
193.0861 6.36
219.1021 36.91
236.1265 0.96
254.1386 17.13
261.1486 0.55
278.1742 7.96
296.186 0.0
