>compound Sarafloxacin HCl
>formula C20H17F2N3O3
>ionization [M+H]+
>parentmass 386.130981
#inchi InChI=1S/C20H17F2N3O3/c21-12-1-3-13(4-2-12)25-11-15(20(27)28)19(26)14-9-16(22)18(10-17(14)25)24-7-5-23-6-8-24/h1-4,9-11,23H,5-8H2,(H,27,28)
#inchikey XBHBWNFJWIASRO
#origInchi InChI=1S/C20H17F2N3O3.ClH/c21-12-1-3-13(4-2-12)25-11-15(20(27)28)19(26)14-9-16(22)18(10-17(14)25)24-7-5-23-6-8-24;/h1-4,9-11,23H,5-8H2,(H,27,28);1H
#Ion_Source LC-ESI
#Instrument qTof
#Compound_Source Commercial
#PI Dorrestein
#Data_Collector Garg_Neha
#Scan -1
#Precursor_MZ 386.131
#ExactMass 385.124
#Charge 1
#CAS_Number 91296-87-6
#Pubmed_ID N/A
#Smiles C1(=CN(C2=C(C1=O)C=C(C(=C2)N3CCNCC3)F)C4=CC=C(C=C4)F)C(=O)O.Cl
#INCHI_AUX N/A
#Library_Class 1
#SpectrumID CCMSLIB00000078367
#IonMode Positive
#UpdateWorkflowName UPDATE-SINGLE-ANNOTATED-GOLD
#LibraryQualityString Gold
#TaskID 77f51c88eb8b467eb4a01dd2d0cb90d2
##Scan# 1037
#SpectrumFile Plate6_1_20_GD7_01_15774.mzXML
#LibraryName FDALibrary_2_04302014.mgf
#MQScore -1
#Organism FDALibrary_2_04302014
#TIC_Query 0
#RT_Query -1
#MZErrorPPM -1
#SharedPeaks 0
#MassDiff 0
#LibMZ -1
#SpecMZ 386.131
#SpecCharge 0
#internalFilename spec-00000.mgf

>collision 0
238.0659 0.93
250.0899 0.63
256.0559 1.29
258.07 1.83
267.0915 1.29
271.0758 2.53
272.0745 3.23
273.0812 3.32
274.0867 1.18
279.0912 4.62
281.0868 3.49
285.0827 11.62
292.0883 1.4
293.0956 3.25
294.1014 2.56
299.0991 100.0
300.1003 15.74
301.1021 2.53
311.098 1.29
313.1021 1.3
320.0819 0.65
320.119 0.63
322.1334 6.14
325.1124 0.61
340.1264 0.85
341.1336 0.59
342.1412 44.12
348.1126 2.28
368.1202 13.41
386.1313 192.21
