>compound MLS002154056-01!Dioxybenzone131-53-3
>formula C14H12O4
>ionization [M+H]+
>parentmass 245.08083531609054
#inchi InChI=1S/C14H12O4/c1-18-9-6-7-11(13(16)8-9)14(17)10-4-2-3-5-12(10)15/h2-8,15-16H,1H3
#inchikey MEZZCSHVIGVWFI
#Ion_Source LC-ESI
#Instrument qTof
#Compound_Source NIH Pharmacologically Active Library
#PI Dorrestein
#Data_Collector VP/LMS
#Scan -1
#Precursor_MZ 245.086
#ExactMass 244.074
#Charge 1
#CAS_Number N/A
#Pubmed_ID N/A
#Smiles COc1ccc(C(=O)c2ccccc2O)c(O)c1
#INCHI_AUX N/A
#Library_Class 1
#SpectrumID CCMSLIB00000085563
#IonMode Positive
#UpdateWorkflowName UPDATE-SINGLE-ANNOTATED-GOLD
#LibraryQualityString Gold
#TaskID d252d724072548979f1f6f1ced849daf
##Scan# 2114
#SpectrumFile p4-C08_GC8_01_18356.mzXML
#LibraryName Pharm_Active_Library.mgf
#MQScore -1
#Organism Pharm_Active_Library
#TIC_Query 0
#RT_Query -1
#MZErrorPPM -1
#SharedPeaks 0
#MassDiff 0
#LibMZ -1
#SpecMZ 245.086
#SpecCharge 0
#internalFilename spec-00000.mgf

>collision 0
93.0351 6.36
95.0507 10.21
108.0209 12.81
121.029 100.0
123.0422 4.71
128.0619 5.17
136.017 3.68
151.0397 86.78
184.052 2.36
245.0808 0.0
