>compound SR 57227A
>formula C10H14ClN3
>ionization [M+H]+
>parentmass 212.095718
#inchi InChI=1S/C10H14ClN3/c11-9-2-1-3-10(13-9)14-6-4-8(12)5-7-14/h1-3,8H,4-7,12H2
#inchikey WPVVMKYQOMJPIN
#Ion_Source LC-ESI
#Instrument qTof
#Compound_Source Commercial
#PI Dorrestein
#Data_Collector Garg_Neha
#Scan -1
#Precursor_MZ 212.095
#ExactMass 211.088
#Charge 1
#CAS_Number N/A
#Pubmed_ID N/A
#Smiles NC1CCN(CC1)c2cccc(Cl)n2
#INCHI_AUX N/A
#Library_Class 1
#SpectrumID CCMSLIB00000079207
#IonMode Positive
#UpdateWorkflowName UPDATE-SINGLE-ANNOTATED-GOLD
#LibraryQualityString Gold
#TaskID 278b19f5865741e282cec7349aa7e7a1
##Scan# 1057
#SpectrumFile NCP003592_G2_H11_BE3_01_15737.mzXML
#LibraryName NIHcollectionI_05062014.mgf
#MQScore -1
#Organism NIHcollectionI_05062014
#TIC_Query 0
#RT_Query -1
#MZErrorPPM -1
#SharedPeaks 0
#MassDiff 0
#LibMZ -1
#SpecMZ 212.095
#SpecCharge 0
#internalFilename spec-00000.mgf

>collision 0
104.0508 0.65
105.0446 3.14
111.9954 3.39
114.0101 0.8
131.0609 4.4
132.0678 3.87
139.006 1.27
141.0221 88.78
153.0224 2.16
165.0209 0.68
167.038 12.29
179.0374 0.95
180.0451 1.06
195.0694 100.0
212.0957 26.31
