>compound ESCITALOPRAM OXALATE
>formula C20H21FN2O
>ionization [M+H]+
>parentmass 325.171
#inchi InChI=1S/C20H21FN2O/c1-23(2)11-3-10-20(17-5-7-18(21)8-6-17)19-9-4-15(13-22)12-16(19)14-24-20/h4-9,12H,3,10-11,14H2,1-2H3/t20-/m0/s1
#inchikey WSEQXVZVJXJVFP
#Ion_Source LC-ESI
#Instrument qTof
#Compound_Source Commercial
#PI Dorrestein
#Data_Collector Garg_Neha
#Scan -1
#Precursor_MZ 325.171
#ExactMass 324.164
#Charge 1
#CAS_Number N/A
#Pubmed_ID N/A
#Smiles CN(C)CCC[C@]1(OCc2cc(C#N)ccc21)c3ccc(F)cc3
#INCHI_AUX N/A
#Library_Class 1
#SpectrumID CCMSLIB00000078913
#IonMode Positive
#UpdateWorkflowName UPDATE-SINGLE-ANNOTATED-GOLD
#LibraryQualityString Gold
#TaskID 278b19f5865741e282cec7349aa7e7a1
##Scan# 1153
#SpectrumFile NCP003272_A2_B11_BB8_01_15713.mzXML
#LibraryName NIHcollectionI_05062014.mgf
#MQScore -1
#Organism NIHcollectionI_05062014
#TIC_Query 0
#RT_Query -1
#MZErrorPPM -1
#SharedPeaks 0
#MassDiff 0
#LibMZ -1
#SpecMZ 325.171
#SpecCharge 0
#internalFilename spec-00000.mgf

>collision 0
109.0455 69.38
116.0497 14.94
129.0696 1.77
130.0651 1.61
140.05 3.64
142.0646 1.13
154.0649 1.89
156.0807 5.82
159.0604 0.89
166.0654 19.07
168.0799 1.83
184.0754 1.27
190.0649 1.15
215.0857 4.62
218.0602 2.07
221.0645 14.13
222.0714 9.65
227.0732 13.23
233.0753 3.26
234.0722 59.38
236.0882 4.68
238.0662 9.82
240.081 3.03
241.0885 4.9
242.0975 11.28
245.0759 1.16
247.0802 41.4
250.1029 6.73
261.0947 4.13
262.1035 100.0
280.1137 15.82
307.1597 7.71
325.171 0.0
