>compound Nabumetone
>formula C15H16O2
>ionization [M+H]+
>parentmass 229.120605
#inchi InChI=1S/C15H16O2/c1-11(16)3-4-12-5-6-14-10-15(17-2)8-7-13(14)9-12/h5-10H,3-4H2,1-2H3
#inchikey BLXXJMDCKKHMKV
#Ion_Source LC-ESI
#Instrument qTof
#Compound_Source Commercial
#PI Dorrestein
#Data_Collector Garg_Neha
#Scan -1
#Precursor_MZ 229.122
#ExactMass 228.115
#Charge 1
#CAS_Number 42924-53-8
#Pubmed_ID N/A
#Smiles C1(=CC=C2C(=C1)C=CC(=C2)CCC(C)=O)OC
#INCHI_AUX N/A
#Library_Class 1
#SpectrumID CCMSLIB00000078641
#IonMode Positive
#UpdateWorkflowName UPDATE-SINGLE-ANNOTATED-GOLD
#LibraryQualityString Gold
#TaskID 77f51c88eb8b467eb4a01dd2d0cb90d2
##Scan# 1759
#SpectrumFile Plate10_21_40_GC2_01_15744.mzXML
#LibraryName FDALibrary_2_04302014.mgf
#MQScore -1
#Organism FDALibrary_2_04302014
#TIC_Query 0
#RT_Query -1
#MZErrorPPM -1
#SharedPeaks 0
#MassDiff 0
#LibMZ -1
#SpecMZ 229.122
#SpecCharge 0
#internalFilename spec-00000.mgf

>collision 0
127.0557 0.79
128.062 4.88
155.0857 0.4
156.0567 3.32
171.0808 100.0
185.0971 0.95
229.1206 4.14
