>compound MLS001160369-01!2-[(8,8-dimethyl-2-oxo-4-propyl-9,10-dihydropyrano[2,3-h]chromen-5-yl)oxy]-N-(3-imidazol-1-ylpropyl)acetamide
>formula C25H31N3O5
>ionization [M+H]+
>parentmass 454.2323
#inchi InChI=1S/C25H31N3O5/c1-4-6-17-13-22(30)32-24-18-7-8-25(2,3)33-19(18)14-20(23(17)24)31-15-21(29)27-9-5-11-28-12-10-26-16-28/h10,12-14,16H,4-9,11,15H2,1-3H3,(H,27,29)
#inchikey GQJAOXUTBHOMQE
#Ion_Source LC-ESI
#Instrument qTof
#Compound_Source NIH Natural Product Library
#PI Dorrestein
#Data_Collector VVP/LMS
#Scan -1
#Precursor_MZ 454.234
#ExactMass 453.226
#Charge 1
#CAS_Number N/A
#Pubmed_ID N/A
#Smiles CCCc1cc(=O)oc2c3CCC(C)(C)Oc3cc(OCC(=O)NCCCn4ccnc4)c12
#INCHI_AUX N/A
#Library_Class 1
#SpectrumID CCMSLIB00000079541
#IonMode Positive
#UpdateWorkflowName UPDATE-SINGLE-ANNOTATED-GOLD
#LibraryQualityString Gold
#TaskID b1d8e8f6646f4e71acdff9ca3d919d08
##Scan# 1784
#SpectrumFile p1-H07_GH7_01_17963.mzXML
#LibraryName NIH_Natural_Products_Library.mgf
#MQScore -1
#Organism NIH_Natural_Products_Library
#TIC_Query 0
#RT_Query -1
#MZErrorPPM -1
#SharedPeaks 0
#MassDiff 0
#LibMZ -1
#SpecMZ 454.234
#SpecCharge 0
#internalFilename spec-00000.mgf

>collision 0
95.0595 2.45
98.06 0.98
99.0676 29.59
135.0799 0.97
161.0613 1.08
171.0775 0.85
175.0746 1.0
177.053 1.23
189.0535 1.62
189.0897 2.86
199.0743 1.4
203.0332 1.18
203.0694 4.22
205.0863 1.49
216.1013 1.45
217.085 21.21
227.0697 2.01
231.064 2.85
233.0799 5.1
244.0953 3.1
245.0803 55.9
247.085 1.66
255.0635 1.61
256.0951 1.29
272.0899 5.51
273.0753 21.68
284.0889 0.91
284.1293 1.02
288.1223 2.68
301.1423 17.97
302.1011 1.15
312.1232 2.11
313.1183 1.12
329.1348 2.17
330.133 100.0
386.1956 51.46
398.1707 11.82
454.2323 8.5
