>compound Ifosfamide
>formula C7H15Cl2N2O2P 
>ionization [M+H]+
>parentmass 261.0320961620905
#inchi InChI=1S/C7H15Cl2N2O2P/c8-2-4-10-14(12)11(6-3-9)5-1-7-13-14/h1-7H2,(H,10,12)
#inchikey HOMGKSMUEGBAAB
#Ion_Source LC-ESI
#Instrument qTof
#Compound_Source Isolated
#PI Sirenas
#Data_Collector Ed Esquenazi 
#Scan -1
#Precursor_MZ 261.03
#ExactMass 0.0
#Charge 1
#CAS_Number N/A
#Pubmed_ID N/A
#Smiles N/A
#INCHI_AUX N/A
#Library_Class 3
#SpectrumID CCMSLIB00000004304
#IonMode Positive
#UpdateWorkflowName UPDATE-SINGLE-ANNOTATED-BRONZE
#LibraryQualityString Bronze
#TaskID d19310cd93df49b68e9fcbec27720eb5
##Scan# 3
#SpectrumFile Ifosfamide.mgf
#LibraryName fda_library.mgf
#MQScore -1
#Organism fda_library
#TIC_Query 0
#RT_Query -1
#MZErrorPPM -1
#SharedPeaks 0
#MassDiff 0
#LibMZ -1
#SpecMZ 261.03
#SpecCharge 0
#internalFilename spec-00000.mgf

>collision 0
106.0053 19.67
115.9655 4.34
118.0055 19.63
123.972 13.85
125.9501 41.68
127.9671 8.01
135.9701 3.8
141.9802 9.31
153.9815 100.0
261.0321 0.0
