>compound MLS001333570-01!55297-96-6
>formula C28H47NO4S
>ionization [M+H]+
>parentmass 494.328186
#inchi InChI=1S/C28H47NO4S/c1-8-26(6)17-22(33-23(31)18-34-16-15-29(9-2)10-3)27(7)19(4)11-13-28(20(5)25(26)32)14-12-21(30)24(27)28/h8,19-20,22,24-25,32H,1,9-18H2,2-7H3/t19?,20-,22+,24-,25-,26+,27-,28-/m0/s1
#inchikey UURAUHCOJAIIRQ
#origInchi InChI=1S/C28H47NO4S.C4H4O4/c1-8-26(6)17-22(33-23(31)18-34-16-15-29(9-2)10-3)27(7)19(4)11-13-28(20(5)25(26)32)14-12-21(30)24(27)28;5-3(6)1-2-4(7)8/h8,19-20,22,24-25,32H,1,9-18H2,2-7H3;1-2H,(H,5,6)(H,7,8)/b;2-1+/t19?,20-,22+,24-,25-,26+,27-,28-;/m0./s1
#Ion_Source LC-ESI
#Instrument qTof
#Compound_Source NIH Pharmacologically Active Library
#PI Dorrestein
#Data_Collector VP/LMS
#Scan -1
#Precursor_MZ 494.322
#ExactMass 493.323
#Charge 1
#CAS_Number N/A
#Pubmed_ID N/A
#Smiles CCN(CC)CCSCC(=O)O[C@@H]1C[C@@](C)(C=C)[C@@H](O)[C@H](C)[C@@]2(CCC(=O)[C@H]23)CCC(C)[C@]31C.OC(=O)/C=C/C(=O)O
#INCHI_AUX N/A
#Library_Class 1
#SpectrumID CCMSLIB00000085378
#IonMode Positive
#UpdateWorkflowName UPDATE-SINGLE-ANNOTATED-GOLD
#LibraryQualityString Gold
#TaskID d252d724072548979f1f6f1ced849daf
##Scan# 1784
#SpectrumFile p3-H11_GH11_01_18316.mzXML
#LibraryName Pharm_Active_Library.mgf
#MQScore -1
#Organism Pharm_Active_Library
#TIC_Query 0
#RT_Query -1
#MZErrorPPM -1
#SharedPeaks 0
#MassDiff 0
#LibMZ -1
#SpecMZ 494.322
#SpecCharge 0
#internalFilename spec-00000.mgf

>collision 0
95.0856 2.87
100.1125 2.29
101.0054 1.79
105.07 5.59
107.0855 5.09
109.1011 3.22
119.0168 57.44
119.0858 8.15
121.1014 7.03
123.0804 1.82
131.0851 3.59
133.1011 11.27
135.0804 2.5
135.1167 3.53
143.0852 2.71
145.1012 7.7
147.0801 1.99
147.1173 7.78
149.0962 9.03
149.1313 2.64
155.0855 2.03
157.1015 4.18
159.1167 10.4
161.0958 2.76
161.1323 5.77
163.1122 20.71
169.1006 2.4
171.1171 4.23
173.1319 6.69
175.1117 5.7
175.1484 5.24
177.1272 6.88
183.1166 3.8
185.1318 4.39
187.1477 5.13
189.1265 2.7
191.1425 1.96
192.1065 100.0
197.1327 3.12
199.148 2.73
201.1639 2.84
203.1427 3.47
211.1484 2.92
215.1427 2.65
217.1588 2.29
225.1639 1.68
227.1792 3.0
229.159 1.63
245.1901 3.06
267.2101 3.25
285.2217 3.5
494.3295 0.36
