>compound MLS002153524-01!Capsazepine138977-28-3
>formula C19H21ClN2O2S
>ionization [M+H]+
>parentmass 377.107
#inchi InChI=1S/C19H21ClN2O2S/c20-16-5-3-13(4-6-16)7-8-21-19(25)22-9-1-2-14-10-17(23)18(24)11-15(14)12-22/h3-6,10-11,23-24H,1-2,7-9,12H2,(H,21,25)
#inchikey DRCMAZOSEIMCHM
#Ion_Source LC-ESI
#Instrument qTof
#Compound_Source NIH Pharmacologically Active Library
#PI Dorrestein
#Data_Collector VP/LMS
#Scan -1
#Precursor_MZ 377.107
#ExactMass 376.101
#Charge 1
#CAS_Number N/A
#Pubmed_ID N/A
#Smiles Oc1cc2CCCN(Cc2cc1O)C(=S)NCCc3ccc(Cl)cc3
#INCHI_AUX N/A
#Library_Class 1
#SpectrumID CCMSLIB00000085034
#IonMode Positive
#UpdateWorkflowName UPDATE-SINGLE-ANNOTATED-GOLD
#LibraryQualityString Gold
#TaskID d252d724072548979f1f6f1ced849daf
##Scan# 2158
#SpectrumFile p3-D11_GD11_01_18268.mzXML
#LibraryName Pharm_Active_Library.mgf
#MQScore -1
#Organism Pharm_Active_Library
#TIC_Query 0
#RT_Query -1
#MZErrorPPM -1
#SharedPeaks 0
#MassDiff 0
#LibMZ -1
#SpecMZ 377.107
#SpecCharge 0
#internalFilename spec-00000.mgf

>collision 0
91.0529 1.53
103.0536 5.44
105.0701 0.62
115.053 0.86
117.0681 3.6
119.0476 0.81
119.0841 0.72
133.0637 0.85
135.0793 4.73
137.0594 100.0
145.064 4.92
148.0501 0.78
163.0748 5.02
180.1005 2.94
377.107 0.0
