>compound MLS001165709-01!LEVOFLOXACIN
>formula C18H20FN3O4
>ionization [M+H]+
>parentmass 362.149597
#inchi InChI=1S/C18H20FN3O4/c1-10-9-26-17-14-11(16(23)12(18(24)25)8-22(10)14)7-13(19)15(17)21-5-3-20(2)4-6-21/h7-8,10H,3-6,9H2,1-2H3,(H,24,25)/t10-/m0/s1
#inchikey GSDSWSVVBLHKDQ
#Ion_Source LC-ESI
#Instrument qTof
#Compound_Source NIH Pharmacologically Active Library
#PI Dorrestein
#Data_Collector VP/LMS
#Scan -1
#Precursor_MZ 362.154
#ExactMass 361.144
#Charge 1
#CAS_Number N/A
#Pubmed_ID N/A
#Smiles C[C@H]1COc2c(N3CCN(C)CC3)c(F)cc4c(=O)c(cn1c24)C(=O)O
#INCHI_AUX N/A
#Library_Class 1
#SpectrumID CCMSLIB00000084770
#IonMode Positive
#UpdateWorkflowName UPDATE-SINGLE-ANNOTATED-GOLD
#LibraryQualityString Gold
#TaskID d252d724072548979f1f6f1ced849daf
##Scan# 1300
#SpectrumFile p3-A06_GA6_01_18228.mzXML
#LibraryName Pharm_Active_Library.mgf
#MQScore -1
#Organism Pharm_Active_Library
#TIC_Query 0
#RT_Query -1
#MZErrorPPM -1
#SharedPeaks 0
#MassDiff 0
#LibMZ -1
#SpecMZ 362.154
#SpecCharge 0
#internalFilename spec-00000.mgf

>collision 0
122.0407 1.16
150.0356 1.67
151.0406 0.66
158.0237 0.98
165.044 0.86
171.0542 1.64
178.0293 2.19
179.037 3.8
180.0456 1.36
188.0498 1.32
191.0601 0.91
192.0455 1.91
193.0406 3.55
195.0547 1.29
199.0502 3.07
200.0577 1.07
202.0663 0.93
203.06 1.66
204.0446 2.51
205.0416 8.53
205.0761 5.44
207.0565 1.09
213.0642 0.83
219.0565 14.24
221.0721 19.4
231.0564 1.26
233.0742 3.45
234.0796 1.55
235.0887 0.85
241.0966 1.64
247.0861 6.77
261.1037 100.0
268.1077 0.74
273.1021 1.68
275.1188 0.98
298.1548 0.94
301.1208 3.06
316.1439 3.69
318.1613 37.52
344.1384 3.03
362.1483 2.93
