>compound Clozapine (Clozaril)
>formula C18H19ClN4
>ionization [M+H]+
>parentmass 327.136444
#inchi InChI=1S/C18H19ClN4/c1-22-8-10-23(11-9-22)18-14-4-2-3-5-15(14)20-16-7-6-13(19)12-17(16)21-18/h2-7,12,20H,8-11H2,1H3
#inchikey QZUDBNBUXVUHMW
#Ion_Source LC-ESI
#Instrument qTof
#Compound_Source Commercial
#PI Dorrestein
#Data_Collector Garg_Neha
#Scan -1
#Precursor_MZ 327.137
#ExactMass 326.13
#Charge 1
#CAS_Number 5786-21-0
#Pubmed_ID N/A
#Smiles N1C2=C(C(=NC3=C1C=CC(=C3)Cl)N4CCN(CC4)C)C=CC=C2
#INCHI_AUX N/A
#Library_Class 1
#SpectrumID CCMSLIB00000078475
#IonMode Positive
#UpdateWorkflowName UPDATE-SINGLE-ANNOTATED-GOLD
#LibraryQualityString Gold
#TaskID 77f51c88eb8b467eb4a01dd2d0cb90d2
##Scan# 1063
#SpectrumFile Plate7_41_60_GD4_01_15769.mzXML
#LibraryName FDALibrary_2_04302014.mgf
#MQScore -1
#Organism FDALibrary_2_04302014
#TIC_Query 0
#RT_Query -1
#MZErrorPPM -1
#SharedPeaks 0
#MassDiff 0
#LibMZ -1
#SpecMZ 327.137
#SpecCharge 0
#internalFilename spec-00000.mgf

>collision 0
192.0677 27.37
227.035 18.48
270.0787 100.0
281.0711 2.7
296.0959 23.1
327.1364 165.78
