>compound MLS001148655-01!
>formula C20H21NO4
>ionization [M+H]+
>parentmass 340.155304
#inchi InChI=1S/C20H21NO4/c1-22-17-6-5-13(10-18(17)23-2)9-16-15-12-20(25-4)19(24-3)11-14(15)7-8-21-16/h5-8,10-12H,9H2,1-4H3
#inchikey XQYZDYMELSJDRZ
#origInchi InChI=1S/C20H21NO4.ClH/c1-22-17-6-5-13(10-18(17)23-2)9-16-15-12-20(25-4)19(24-3)11-14(15)7-8-21-16;/h5-8,10-12H,9H2,1-4H3;1H
#Ion_Source LC-ESI
#Instrument qTof
#Compound_Source NIH Pharmacologically Active Library
#PI Dorrestein
#Data_Collector VP/LMS
#Scan -1
#Precursor_MZ 340.161
#ExactMass 339.147
#Charge 1
#CAS_Number N/A
#Pubmed_ID N/A
#Smiles COc1ccc(Cc2nccc3cc(OC)c(OC)cc23)cc1OC.Cl
#INCHI_AUX N/A
#Library_Class 1
#SpectrumID CCMSLIB00000085463
#IonMode Positive
#UpdateWorkflowName UPDATE-SINGLE-ANNOTATED-GOLD
#LibraryQualityString Gold
#TaskID d252d724072548979f1f6f1ced849daf
##Scan# 1476
#SpectrumFile p4-B04_GB4_01_18340.mzXML
#LibraryName Pharm_Active_Library.mgf
#MQScore -1
#Organism Pharm_Active_Library
#TIC_Query 0
#RT_Query -1
#MZErrorPPM -1
#SharedPeaks 0
#MassDiff 0
#LibMZ -1
#SpecMZ 340.161
#SpecCharge 0
#internalFilename spec-00000.mgf

>collision 0
115.0535 2.15
123.044 2.68
128.0489 2.67
140.0481 0.98
142.0652 1.64
144.0447 0.99
156.0442 5.41
158.06 6.05
159.0667 3.79
170.0598 2.7
171.0683 41.17
175.0746 2.79
186.0552 6.18
187.0627 8.15
188.0689 2.92
189.0776 0.95
202.0872 81.24
204.0664 1.24
238.0857 0.91
240.1017 1.76
250.0859 1.09
251.0938 0.96
252.1019 3.96
254.1175 1.16
263.0944 0.96
264.1021 2.81
266.0816 1.04
266.1176 3.38
267.0876 1.0
278.1191 1.61
279.0891 1.04
280.098 13.62
281.1023 3.32
282.1129 4.48
292.0967 1.27
294.0769 1.37
294.1132 4.36
295.0827 1.21
296.129 16.75
308.0938 14.16
309.0988 7.06
310.1068 5.41
324.1251 100.0
325.1291 25.7
340.1561 51.01
