>compound MLS000737289-01!
>formula C10H13NO2
>ionization [M+H]+
>parentmass 180.102
#inchi InChI=1S/C10H13NO2/c1-2-3-7-13-10(12)9-5-4-6-11-8-9/h4-6,8H,2-3,7H2,1H3
#inchikey DQULIMIQTCDUAN
#Ion_Source LC-ESI
#Instrument qTof
#Compound_Source NIH Natural Product Library
#PI Dorrestein
#Data_Collector VVP/LMS
#Scan -1
#Precursor_MZ 180.102
#ExactMass 179.095
#Charge 1
#CAS_Number N/A
#Pubmed_ID N/A
#Smiles CCCCOC(=O)c1cccnc1
#INCHI_AUX N/A
#Library_Class 1
#SpectrumID CCMSLIB00000080264
#IonMode Positive
#UpdateWorkflowName UPDATE-SINGLE-ANNOTATED-GOLD
#LibraryQualityString Gold
#TaskID b1d8e8f6646f4e71acdff9ca3d919d08
##Scan# 1942
#SpectrumFile p2-C06_GC6_01_18006.mzXML
#LibraryName NIH_Natural_Products_Library.mgf
#MQScore -1
#Organism NIH_Natural_Products_Library
#TIC_Query 0
#RT_Query -1
#MZErrorPPM -1
#SharedPeaks 0
#MassDiff 0
#LibMZ -1
#SpecMZ 180.102
#SpecCharge 0
#internalFilename spec-00000.mgf

>collision 0
96.0455 2.53
106.03 2.84
122.0226 6.61
124.0405 100.0
180.102 0.0
