>compound Amfebutamone (Bupropion)
>formula C13H18ClNO
>ionization [M+H]+
>parentmass 240.115417
#inchi InChI=1S/C13H18ClNO/c1-9(15-13(2,3)4)12(16)10-6-5-7-11(14)8-10/h5-9,15H,1-4H3
#inchikey SNPPWIUOZRMYNY
#origInchi InChI=1S/C13H18ClNO.ClH/c1-9(15-13(2,3)4)12(16)10-6-5-7-11(14)8-10;/h5-9,15H,1-4H3;1H
#Ion_Source LC-ESI
#Instrument qTof
#Compound_Source Commercial
#PI Dorrestein
#Data_Collector Garg_Neha
#Scan -1
#Precursor_MZ 240.115
#ExactMass 239.108
#Charge 1
#CAS_Number 31677-93-7
#Pubmed_ID N/A
#Smiles C1(=CC=CC(=C1)Cl)C(=O)C(C)NC(C)(C)C.Cl
#INCHI_AUX N/A
#Library_Class 1
#SpectrumID CCMSLIB00000078471
#IonMode Positive
#UpdateWorkflowName UPDATE-SINGLE-ANNOTATED-GOLD
#LibraryQualityString Gold
#TaskID 77f51c88eb8b467eb4a01dd2d0cb90d2
##Scan# 1055
#SpectrumFile Plate7_41_60_GD4_01_15769.mzXML
#LibraryName FDALibrary_2_04302014.mgf
#MQScore -1
#Organism FDALibrary_2_04302014
#TIC_Query 0
#RT_Query -1
#MZErrorPPM -1
#SharedPeaks 0
#MassDiff 0
#LibMZ -1
#SpecMZ 240.115
#SpecCharge 0
#internalFilename spec-00000.mgf

>collision 0
103.054 4.15
130.0651 27.68
131.0731 64.67
132.0573 1.19
139.0306 25.14
151.0178 2.3
166.0418 55.32
167.0258 21.27
184.0538 100.0
240.115 38.91
