>compound Celecoxib
>formula C17H14F3N3O2S 
>ionization [M+H]+
>parentmass 382.082916
#inchi InChI=1S/C17H14F3N3O2S/c1-11-2-4-12(5-3-11)15-10-16(17(18,19)20)22-23(15)13-6-8-14(9-7-13)26(21,24)25/h2-10H,1H3,(H2,21,24,25)
#inchikey RZEKVGVHFLEQIL
#Ion_Source LC-ESI
#Instrument qTof
#Compound_Source Isolated
#PI Sirenas
#Data_Collector Ed Esquenazi 
#Scan -1
#Precursor_MZ 382.085
#ExactMass 0.0
#Charge 1
#CAS_Number N/A
#Pubmed_ID N/A
#Smiles N/A
#INCHI_AUX N/A
#Library_Class 3
#SpectrumID CCMSLIB00000005556
#IonMode Positive
#UpdateWorkflowName UPDATE-SINGLE-ANNOTATED-BRONZE
#LibraryQualityString Bronze
#TaskID d19310cd93df49b68e9fcbec27720eb5
##Scan# 3
#SpectrumFile Celecoxib.mgf
#LibraryName fda_library.mgf
#MQScore -1
#Organism fda_library
#TIC_Query 0
#RT_Query -1
#MZErrorPPM -1
#SharedPeaks 0
#MassDiff 0
#LibMZ -1
#SpecMZ 382.085
#SpecCharge 0
#internalFilename spec-00000.mgf

>collision 0
115.0546 9.27
116.062 7.68
117.0699 10.3
118.0655 8.3
125.0194 2.28
131.0735 6.8
140.0494 1.96
153.0528 3.02
156.0118 4.09
160.0544 2.97
165.0391 10.34
180.0616 7.35
191.0727 1.91
193.0888 3.08
207.104 14.7
208.1107 5.8
216.08 2.33
231.0915 5.64
232.099 6.56
233.1066 23.11
235.0789 3.04
240.0613 2.89
247.065 4.26
254.0779 2.52
261.0823 12.59
262.0893 10.95
267.0728 20.31
269.0872 1.86
275.0793 5.91
280.0807 7.03
281.0879 57.31
282.0965 99.37
287.0791 22.16
300.087 35.3
301.0946 40.7
302.1019 27.56
342.0703 7.41
362.0771 100.0
382.082 10.73
