>compound Eplerenone
>formula C24H30O6 
>ionization [M+H]+
>parentmass 415.210876
#inchi InChI=1S/C24H30O6/c1-21-7-4-14(25)10-13(21)11-15(20(27)28-3)19-16-5-8-23(9-6-18(26)30-23)22(16,2)12-17-24(19,21)29-17/h10,15-17,19H,4-9,11-12H2,1-3H3/t15-,16+,17-,19+,21+,22+,23-,24-/m1/s1
#inchikey JUKPWJGBANNWMW
#Ion_Source LC-ESI
#Instrument qTof
#Compound_Source Isolated
#PI Sirenas
#Data_Collector Ed Esquenazi 
#Scan -1
#Precursor_MZ 415.212
#ExactMass 0.0
#Charge 1
#CAS_Number N/A
#Pubmed_ID N/A
#Smiles N/A
#INCHI_AUX N/A
#Library_Class 3
#SpectrumID CCMSLIB00000004470
#IonMode Positive
#UpdateWorkflowName UPDATE-SINGLE-ANNOTATED-BRONZE
#LibraryQualityString Bronze
#TaskID d19310cd93df49b68e9fcbec27720eb5
##Scan# 2
#SpectrumFile Eplerenone.mgf
#LibraryName fda_library.mgf
#MQScore -1
#Organism fda_library
#TIC_Query 0
#RT_Query -1
#MZErrorPPM -1
#SharedPeaks 0
#MassDiff 0
#LibMZ -1
#SpecMZ 415.212
#SpecCharge 0
#internalFilename spec-00000.mgf

>collision 0
105.0689 0.98
107.0491 1.22
111.0441 4.01
119.0856 1.34
121.0653 20.67
135.0803 1.77
143.0851 1.99
147.0802 1.99
157.1007 1.35
159.0805 1.65
161.0957 2.23
163.076 100.0
171.0806 3.82
175.1128 1.78
181.1002 1.49
185.0961 2.19
189.0918 1.74
199.1117 0.98
203.107 6.67
221.118 11.23
239.1435 4.28
267.1395 1.82
275.1428 1.03
277.1581 3.39
279.1373 1.13
291.1739 2.34
295.1692 3.79
297.1467 1.67
299.1632 2.75
301.1583 4.01
305.1534 1.11
309.1869 2.87
311.1627 0.95
319.1689 12.2
323.164 1.68
329.1532 1.85
337.1804 20.9
347.1656 3.89
351.1966 1.11
355.1909 12.36
357.1714 2.38
365.1749 5.55
369.2076 1.64
379.189 3.67
383.1854 6.46
397.2009 8.2
415.2116 16.8
