>compound NCGC00160240-01!PERFAMINE
>formula C18H19NO4
>ionization [M+H]+
>parentmass 314.138977
#inchi InChI=1S/C18H19NO4/c1-11(2)7-9-18(22-4)14(20)6-5-12-15(21-3)13-8-10-23-17(13)19-16(12)18/h5-8,10H,9H2,1-4H3
#inchikey AOCCRKXUBBAOQI
#Ion_Source LC-ESI
#Instrument qTOF
#Compound_Source Prestwick Phytochem Lib
#PI Dorrestein
#Data_Collector VVP/LMS
#Scan -1
#Precursor_MZ 314.139
#ExactMass 314.139
#Charge 1
#CAS_Number N/A
#Pubmed_ID N/A
#Smiles COC1=C2C=COC2=NC3=C1C=CC(=O)C3(C\C=C(\C)C)OC
#INCHI_AUX N/A
#Library_Class 3
#SpectrumID CCMSLIB00000078746
#IonMode Positive
#UpdateWorkflowName UPDATE-SINGLE-ANNOTATED-BRONZE
#LibraryQualityString Bronze
#TaskID 67c915c6594c435cadc1fe2b5358144d
##Scan# 2110
#SpectrumFile p1-B03_GB3_01_17887.mzXML
#LibraryName phytochem_lib.mgf
#MQScore -1
#Organism phytochem_lib
#TIC_Query 0
#RT_Query -1
#MZErrorPPM -1
#SharedPeaks 0
#MassDiff 0
#LibMZ -1
#SpecMZ 314.139
#SpecCharge 0
#internalFilename spec-00000.mgf

>collision 0
132.0462 0.66
156.045 1.61
157.052 0.79
160.0385 1.32
162.019 0.33
174.0547 0.51
184.0388 3.23
185.0462 1.42
186.0534 1.88
188.0348 10.56
200.0704 0.69
202.0499 1.75
212.0345 0.61
212.0712 0.39
214.0489 0.51
216.03 41.27
225.0425 0.81
228.0673 0.62
230.0447 0.6
231.0535 100.0
238.0848 0.52
240.0646 0.9
246.0761 21.12
252.0654 4.08
266.0815 0.38
282.1118 1.02
314.139 0.2
