>compound Lacidipine (Lacipil, Motens)
>formula C26H33NO6
>ionization [M+H]+
>parentmass 456.237732
#inchi InChI=1S/C26H33NO6/c1-8-31-24(29)21-16(3)27-17(4)22(25(30)32-9-2)23(21)19-13-11-10-12-18(19)14-15-20(28)33-26(5,6)7/h10-15,23,27H,8-9H2,1-7H3/b15-14+
#inchikey GKQPCPXONLDCMU
#Ion_Source LC-ESI
#Instrument qTof
#Compound_Source Commercial
#PI Dorrestein
#Data_Collector Garg_Neha
#Scan -1
#Precursor_MZ 456.238
#ExactMass 455.231
#Charge 1
#CAS_Number 103890-78-4
#Pubmed_ID N/A
#Smiles C1=CC=CC(=C1C2C(=C(NC(=C2C(OCC)=O)C)C)C(OCC)=O)/C=C/C(=O)OC(C)(C)C
#INCHI_AUX N/A
#Library_Class 1
#SpectrumID CCMSLIB00000078377
#IonMode Positive
#UpdateWorkflowName UPDATE-SINGLE-ANNOTATED-GOLD
#LibraryQualityString Gold
#TaskID 77f51c88eb8b467eb4a01dd2d0cb90d2
##Scan# 2920
#SpectrumFile Plate6_1_20_GD7_01_15774.mzXML
#LibraryName FDALibrary_2_04302014.mgf
#MQScore -1
#Organism FDALibrary_2_04302014
#TIC_Query 0
#RT_Query -1
#MZErrorPPM -1
#SharedPeaks 0
#MassDiff 0
#LibMZ -1
#SpecMZ 456.238
#SpecCharge 0
#internalFilename spec-00000.mgf

>collision 0
194.0963 1.88
234.0918 2.36
236.1053 5.98
237.1129 2.03
238.0833 4.08
240.1007 11.23
246.0913 2.36
254.1166 2.05
262.0877 6.18
263.0897 2.38
264.1003 9.23
265.1048 1.96
266.0803 1.7
268.132 18.19
280.0961 9.89
281.0997 2.56
282.1127 7.88
290.0812 5.47
291.0903 1.68
292.1348 1.92
308.0891 5.76
308.1285 4.57
309.1369 2.01
310.1431 16.62
311.1427 3.64
336.1204 2.05
352.1154 1.77
354.1341 100.0
356.1395 4.48
380.149 3.35
382.1633 20.08
383.1641 8.89
384.1685 2.3
398.1582 7.11
400.1751 51.09
401.1773 16.64
402.1829 2.14
410.1966 23.35
456.2384 14.65
