>compound Ciprofloxacin (Cipro)
>formula C17H18FN3O3
>ionization [M+H]+
>parentmass 332.139984
#inchi InChI=1S/C17H18FN3O3/c18-13-7-11-14(8-15(13)20-5-3-19-4-6-20)21(10-1-2-10)9-12(16(11)22)17(23)24/h7-10,19H,1-6H2,(H,23,24)
#inchikey MYSWGUAQZAJSOK
#Ion_Source LC-ESI
#Instrument qTof
#Compound_Source Commercial
#PI Dorrestein
#Data_Collector Garg_Neha
#Scan -1
#Precursor_MZ 332.141
#ExactMass 331.133
#Charge 1
#CAS_Number 85721-33-1
#Pubmed_ID N/A
#Smiles C1(=C(C=C2C(=C1)C(C(=CN2C3CC3)C(O)=O)=O)N4CCNCC4)F
#INCHI_AUX N/A
#Library_Class 1
#SpectrumID CCMSLIB00000078397
#IonMode Positive
#UpdateWorkflowName UPDATE-SINGLE-ANNOTATED-GOLD
#LibraryQualityString Gold
#TaskID 77f51c88eb8b467eb4a01dd2d0cb90d2
##Scan# 1011
#SpectrumFile Plate6_21_40_GD8_01_15775.mzXML
#LibraryName FDALibrary_2_04302014.mgf
#MQScore -1
#Organism FDALibrary_2_04302014
#TIC_Query 0
#RT_Query -1
#MZErrorPPM -1
#SharedPeaks 0
#MassDiff 0
#LibMZ -1
#SpecMZ 332.141
#SpecCharge 0
#internalFilename spec-00000.mgf

>collision 0
51.0089 6.14
122.0598 5.59
168.0833 5.81
174.0783 9.65
176.0705 6.8
184.0692 5.15
187.061 5.15
189.0477 6.69
189.0816 10.09
191.0576 6.14
197.0962 5.04
203.0601 35.96
204.0686 34.54
205.0754 29.82
212.0735 5.48
215.0599 6.91
217.0785 6.58
225.1048 10.86
229.077 10.64
230.0821 11.73
231.0922 33.44
239.107 10.09
245.1066 97.04
246.1117 13.93
250.1362 6.25
257.1062 7.79
268.1435 15.57
269.1462 6.8
286.1351 5.15
288.1498 100.0
314.132 37.61
332.14 379.39
