>compound Ramipril (Altace)
>formula C23H32N2O5
>ionization [M+Na]+
>parentmass 439.220612
#inchi InChI=1S/C23H32N2O5/c1-3-30-23(29)18(13-12-16-8-5-4-6-9-16)24-15(2)21(26)25-19-11-7-10-17(19)14-20(25)22(27)28/h4-6,8-9,15,17-20,24H,3,7,10-14H2,1-2H3,(H,27,28)/t15-,17-,18-,19-,20+/m0/s1
#inchikey HDACQVRGBOVJII
#Ion_Source LC-ESI
#Instrument qTof
#Compound_Source Commercial
#PI Dorrestein
#Data_Collector Garg_Neha
#Scan -1
#Precursor_MZ 439.22
#ExactMass 416.231
#Charge 1
#CAS_Number 87333-19-5
#Pubmed_ID N/A
#Smiles C1=CC=CC=C1CC[C@@H](C(=O)OCC)N[C@H](C(N2[C@H](C[C@H]3[C@H](CCC3)2)C(O)=O)=O)C
#INCHI_AUX N/A
#Library_Class 1
#SpectrumID CCMSLIB00000078294
#IonMode Positive
#UpdateWorkflowName UPDATE-SINGLE-ANNOTATED-GOLD
#LibraryQualityString Gold
#TaskID 77f51c88eb8b467eb4a01dd2d0cb90d2
##Scan# 1156
#SpectrumFile Plate4_61_88_GH5_01_16506.mzXML
#LibraryName FDALibrary_2_04302014.mgf
#MQScore -1
#Organism FDALibrary_2_04302014
#TIC_Query 0
#RT_Query -1
#MZErrorPPM -1
#SharedPeaks 0
#MassDiff 0
#LibMZ -1
#SpecMZ 439.22
#SpecCharge 0
#internalFilename spec-00000.mgf

>collision 0
110.0929 9.72
138.0903 10.32
160.111 18.83
204.1117 8.5
228.1014 9.31
234.1474 20.65
243.0376 9.11
256.1303 63.97
283.2025 10.53
302.1356 100.0
303.1308 21.46
439.2206 759.72
