>compound Reserpine
>formula C33H40N2O9
>ionization [M+H]+
>parentmass 609.282532
#inchi InChI=1S/C33H40N2O9/c1-38-19-7-8-20-21-9-10-35-16-18-13-27(44-32(36)17-11-25(39-2)30(41-4)26(12-17)40-3)31(42-5)28(33(37)43-6)22(18)15-24(35)29(21)34-23(20)14-19/h7-8,11-12,14,18,22,24,27-28,31,34H,9-10,13,15-16H2,1-6H3/t18-,22+,24-,27-,28+,31+/m1/s1
#inchikey QEVHRUUCFGRFIF
#Ion_Source LC-ESI
#Instrument qTof
#Compound_Source Commercial
#PI Dorrestein
#Data_Collector Garg_Neha
#Scan -1
#Precursor_MZ 609.281
#ExactMass 608.273
#Charge 1
#CAS_Number 50-55-5, 1407-38-1, 8048-25-7, 16994-56-2 (HCl)
#Pubmed_ID N/A
#Smiles C12=C([C@@]3(N(CC1)C[C@@]4([C@](C3)([C@@H]([C@H]([C@@H](C4)OC(=O)C5=CC(=C(C(=C5)OC)OC)OC)OC)C(OC)=O)[H])[H])[H])NC6=C2C=CC(=C6)OC
#INCHI_AUX N/A
#Library_Class 1
#SpectrumID CCMSLIB00000078194
#IonMode Positive
#UpdateWorkflowName UPDATE-SINGLE-ANNOTATED-GOLD
#LibraryQualityString Gold
#TaskID 77f51c88eb8b467eb4a01dd2d0cb90d2
##Scan# 1233
#SpectrumFile Plate3_21_40_GG10_01_16499.mzXML
#LibraryName FDALibrary_2_04302014.mgf
#MQScore -1
#Organism FDALibrary_2_04302014
#TIC_Query 0
#RT_Query -1
#MZErrorPPM -1
#SharedPeaks 0
#MassDiff 0
#LibMZ -1
#SpecMZ 609.281
#SpecCharge 0
#internalFilename spec-00000.mgf

>collision 0
131.0731 1.44
139.0752 1.0
143.0727 0.96
144.0808 0.9
148.0768 1.63
152.0471 2.05
159.0687 2.35
160.0756 2.19
161.0827 1.4
167.071 1.6
174.0923 62.19
186.091 1.03
190.0859 1.14
192.1023 7.7
195.0667 100.0
200.107 2.72
204.1025 2.37
236.1287 11.78
262.1218 0.9
276.1385 1.58
288.1382 1.13
304.1332 1.67
322.1453 0.93
333.1589 1.51
336.1594 5.22
348.1593 1.55
365.1869 13.43
366.1886 3.29
368.1853 2.63
397.214 32.48
434.1804 1.08
448.1982 14.07
449.2011 3.84
577.2545 1.66
578.2588 1.43
609.2852 147.14
