>compound (2R)-N-methyl-1-phenyl-N-prop-2-ynylpropan-2-amine
>formula C13H17N
>ionization [M+H]+
>parentmass 188.144257
#inchi InChI=1S/C13H17N/c1-4-10-14(3)12(2)11-13-8-6-5-7-9-13/h1,5-9,12H,10-11H2,2-3H3/t12-/m1/s1
#inchikey MEZLKOACVSPNER
#Ion_Source LC-ESI
#Instrument qTof
#Compound_Source Commercial
#PI Dorrestein
#Data_Collector Garg_Neha
#Scan -1
#Precursor_MZ 188.143
#ExactMass 187.136
#Charge 1
#CAS_Number N/A
#Pubmed_ID N/A
#Smiles C[C@H](Cc1ccccc1)N(C)CC#C
#INCHI_AUX N/A
#Library_Class 1
#SpectrumID CCMSLIB00000079182
#IonMode Positive
#UpdateWorkflowName UPDATE-SINGLE-ANNOTATED-GOLD
#LibraryQualityString Gold
#TaskID 278b19f5865741e282cec7349aa7e7a1
##Scan# 1025
#SpectrumFile NCP003592_E2_F11_BE2_01_15736.mzXML
#LibraryName NIHcollectionI_05062014.mgf
#MQScore -1
#Organism NIHcollectionI_05062014
#TIC_Query 0
#RT_Query -1
#MZErrorPPM -1
#SharedPeaks 0
#MassDiff 0
#LibMZ -1
#SpecMZ 188.143
#SpecCharge 0
#internalFilename spec-00000.mgf

>collision 0
91.055 48.74
96.0804 0.5
119.086 100.0
148.1108 0.82
188.1443 146.09
