>compound Vorinostat
>formula C14H20N2O3 
>ionization [M+H]+
>parentmass 265.156
#inchi InChI=1S/C14H20N2O3/c17-13(15-12-8-4-3-5-9-12)10-6-1-2-7-11-14(18)16-19/h3-5,8-9,19H,1-2,6-7,10-11H2,(H,15,17)(H,16,18)
#inchikey WAEXFXRVDQXREF
#Ion_Source LC-ESI
#Instrument qTof
#Compound_Source Isolated
#PI Sirenas
#Data_Collector Ed Esquenazi 
#Scan -1
#Precursor_MZ 265.156
#ExactMass 0.0
#Charge 1
#CAS_Number N/A
#Pubmed_ID N/A
#Smiles N/A
#INCHI_AUX N/A
#Library_Class 3
#SpectrumID CCMSLIB00000006061
#IonMode Positive
#UpdateWorkflowName UPDATE-SINGLE-ANNOTATED-BRONZE
#LibraryQualityString Bronze
#TaskID d19310cd93df49b68e9fcbec27720eb5
##Scan# 2
#SpectrumFile Vorinostat.mgf
#LibraryName fda_library.mgf
#MQScore -1
#Organism fda_library
#TIC_Query 0
#RT_Query -1
#MZErrorPPM -1
#SharedPeaks 0
#MassDiff 0
#LibMZ -1
#SpecMZ 265.156
#SpecCharge 0
#internalFilename spec-00000.mgf

>collision 0
102.0906 2.28
104.0476 2.39
106.0633 0.27
108.0796 4.26
109.064 3.77
110.095 0.85
111.0789 30.36
118.0624 0.77
119.0709 1.24
120.0427 28.15
121.0629 12.84
126.0895 6.7
130.063 0.38
132.0784 3.0
139.0735 60.05
158.0939 0.32
186.1254 2.47
196.1092 0.25
265.156 0.0
