>compound MLS002207247-01!(8R,9S,10R,13S,14S)-10,13-dimethyl-7,8,9,11,12,14,15,16-octahydro-6H-cyclopenta[a]phenanthrene-3,17-dione
>formula C19H24O2
>ionization [M+H]+
>parentmass 285.185
#inchi InChI=1S/C19H24O2/c1-18-9-7-13(20)11-12(18)3-4-14-15-5-6-17(21)19(15,2)10-8-16(14)18/h7,9,11,14-16H,3-6,8,10H2,1-2H3/t14-,15-,16-,18-,19-/m0/s1
#inchikey LUJVUUWNAPIQQI
#Ion_Source LC-ESI
#Instrument qTof
#Compound_Source NIH Natural Product Library
#PI Dorrestein
#Data_Collector VVP/LMS
#Scan -1
#Precursor_MZ 285.185
#ExactMass 284.178
#Charge 1
#CAS_Number N/A
#Pubmed_ID N/A
#Smiles C[C@@]12CC[C@H]3[C@@H](CCC4=CC(=O)C=C[C@]34C)[C@@H]2CCC1=O
#INCHI_AUX N/A
#Library_Class 1
#SpectrumID CCMSLIB00000079965
#IonMode Positive
#UpdateWorkflowName UPDATE-SINGLE-ANNOTATED-GOLD
#LibraryQualityString Gold
#TaskID b1d8e8f6646f4e71acdff9ca3d919d08
##Scan# 2050
#SpectrumFile p2-D02_GD2_01_18014.mzXML
#LibraryName NIH_Natural_Products_Library.mgf
#MQScore -1
#Organism NIH_Natural_Products_Library
#TIC_Query 0
#RT_Query -1
#MZErrorPPM -1
#SharedPeaks 0
#MassDiff 0
#LibMZ -1
#SpecMZ 285.185
#SpecCharge 0
#internalFilename spec-00000.mgf

>collision 0
103.0553 4.26
105.07 5.69
107.0485 1.91
107.0856 1.93
115.0538 1.58
116.0636 2.15
117.0689 2.12
119.0862 2.44
121.0658 100.0
130.0758 2.82
131.0865 4.96
132.0567 1.83
133.1011 2.47
135.0796 6.5
141.0703 0.97
144.0563 1.55
144.0931 1.53
145.0654 1.85
145.1008 4.64
147.0805 4.42
147.1153 4.97
159.081 2.15
159.1179 1.98
161.0943 2.47
175.1122 0.88
177.1278 1.39
285.1797 0.0
