>compound Loratadine 79794-75-5
>formula C22H23ClN2O2
>ionization [M+H]+
>parentmass 383.152435
#inchi InChI=1S/C22H23ClN2O2/c1-2-27-22(26)25-12-9-15(10-13-25)20-19-8-7-18(23)14-17(19)6-5-16-4-3-11-24-21(16)20/h3-4,7-8,11,14H,2,5-6,9-10,12-13H2,1H3
#inchikey JCCNYMKQOSZNPW
#Ion_Source LC-ESI
#Instrument qTof
#Compound_Source Commercial
#PI Dorrestein
#Data_Collector Garg_Neha
#Scan -1
#Precursor_MZ 383.152
#ExactMass 382.145
#Charge 1
#CAS_Number N/A
#Pubmed_ID N/A
#Smiles CCOC(=O)N1CCC(=C2c3ccc(Cl)cc3CCc4cccnc24)CC1
#INCHI_AUX N/A
#Library_Class 1
#SpectrumID CCMSLIB00000079159
#IonMode Positive
#UpdateWorkflowName UPDATE-SINGLE-ANNOTATED-GOLD
#LibraryQualityString Gold
#TaskID 278b19f5865741e282cec7349aa7e7a1
##Scan# 1741
#SpectrumFile NCP003592_A2_B11_BD8_01_15734.mzXML
#LibraryName NIHcollectionI_05062014.mgf
#MQScore -1
#Organism NIHcollectionI_05062014
#TIC_Query 0
#RT_Query -1
#MZErrorPPM -1
#SharedPeaks 0
#MassDiff 0
#LibMZ -1
#SpecMZ 383.152
#SpecCharge 0
#internalFilename spec-00000.mgf

>collision 0
124.0767 14.29
180.9848 16.02
206.0934 16.88
227.0486 100.0
229.0519 33.33
278.1794 19.05
311.1316 21.21
337.1111 47.62
338.106 29.44
383.1524 284.85
