>compound MLS001163874-01!19-Norethindrone68-22-4
>formula C20H26O2
>ionization [M+H]+
>parentmass 299.201477
#inchi InChI=1S/C20H26O2/c1-3-20(22)11-9-18-17-6-4-13-12-14(21)5-7-15(13)16(17)8-10-19(18,20)2/h1,12,15-18,22H,4-11H2,2H3/t15-,16+,17+,18-,19-,20-/m0/s1
#inchikey VIKNJXKGJWUCNN
#Ion_Source LC-ESI
#Instrument qTof
#Compound_Source NIH Pharmacologically Active Library
#PI Dorrestein
#Data_Collector VP/LMS
#Scan -1
#Precursor_MZ 299.199
#ExactMass 298.193
#Charge 1
#CAS_Number N/A
#Pubmed_ID N/A
#Smiles C[C@@]12CC[C@H]3[C@@H](CCC4=CC(=O)CC[C@H]34)[C@@H]2CC[C@@]1(O)C#C
#INCHI_AUX N/A
#Library_Class 1
#SpectrumID CCMSLIB00000085239
#IonMode Positive
#UpdateWorkflowName UPDATE-SINGLE-ANNOTATED-GOLD
#LibraryQualityString Gold
#TaskID d252d724072548979f1f6f1ced849daf
##Scan# 2081
#SpectrumFile p3-G05_GG5_01_18298.mzXML
#LibraryName Pharm_Active_Library.mgf
#MQScore -1
#Organism Pharm_Active_Library
#TIC_Query 0
#RT_Query -1
#MZErrorPPM -1
#SharedPeaks 0
#MassDiff 0
#LibMZ -1
#SpecMZ 299.199
#SpecCharge 0
#internalFilename spec-00000.mgf

>collision 0
91.0537 27.65
93.0693 16.49
95.0863 12.09
103.0542 17.76
105.0699 64.71
107.0491 36.34
107.0845 13.74
109.0651 100.0
109.1011 26.88
115.054 34.47
117.0701 64.54
119.0849 48.93
123.0791 11.21
128.0612 70.42
129.0701 64.82
130.077 21.99
131.0853 53.22
133.1004 33.1
135.0803 42.06
141.0698 27.32
142.077 23.53
143.0853 82.3
145.1002 64.05
147.0803 15.56
147.1173 17.54
149.0953 22.21
154.0786 11.27
155.0853 36.78
156.0927 19.35
157.1011 37.82
159.0811 12.48
159.1157 17.92
161.0961 24.85
161.1323 17.26
167.0845 21.99
169.1014 38.43
171.1168 33.7
175.1129 18.97
179.0854 12.09
185.1314 30.07
191.0856 12.64
193.1004 15.34
206.1091 10.89
213.1639 27.27
221.1324 10.89
231.1752 39.64
299.2036 23.42
