>compound Minoxidil
>formula C9H15N5O
>ionization [M+H]+
>parentmass 210.135818
#inchi InChI=1S/C9H15N5O/c10-7-6-8(12-9(11)14(7)15)13-4-2-1-3-5-13/h6H,1-5,10H2,(H2,11,12)
#inchikey ZFMITUMMTDLWHR
#Ion_Source LC-ESI
#Instrument qTof
#Compound_Source Commercial
#PI Dorrestein
#Data_Collector Garg_Neha
#Scan -1
#Precursor_MZ 210.135
#ExactMass 209.128
#Charge 1
#CAS_Number 38304-91-5, 16317-69-4
#Pubmed_ID N/A
#Smiles C1CCN(CC1)C2=CC(=[N+](C(=N2)N)[O-])N
#INCHI_AUX N/A
#Library_Class 1
#SpectrumID CCMSLIB00000078127
#IonMode Positive
#UpdateWorkflowName UPDATE-SINGLE-ANNOTATED-GOLD
#LibraryQualityString Gold
#TaskID 77f51c88eb8b467eb4a01dd2d0cb90d2
##Scan# 1047
#SpectrumFile Plate2_41_60_GG7_01_16495.mzXML
#LibraryName FDALibrary_2_04302014.mgf
#MQScore -1
#Organism FDALibrary_2_04302014
#TIC_Query 0
#RT_Query -1
#MZErrorPPM -1
#SharedPeaks 0
#MassDiff 0
#LibMZ -1
#SpecMZ 210.135
#SpecCharge 0
#internalFilename spec-00000.mgf

>collision 0
110.0586 8.66
124.0743 4.35
125.0701 3.49
137.0829 24.54
141.1022 2.45
147.0675 6.26
161.0815 2.13
164.0933 93.49
178.1088 6.58
192.1243 55.0
193.1321 100.0
210.1352 359.57
