>compound MLS001201813-01!1-(2-Methyl-5-nitro-imidazol-1-yl)-propan-2-ol
>formula C7H11N3O3
>ionization [M+H]+
>parentmass 186.089
#inchi InChI=1S/C7H11N3O3/c1-5(11)4-9-6(2)8-3-7(9)10(12)13/h3,5,11H,4H2,1-2H3
#inchikey KPQZUUQMTUIKBP
#Ion_Source LC-ESI
#Instrument qTof
#Compound_Source NIH Pharmacologically Active Library
#PI Dorrestein
#Data_Collector VP/LMS
#Scan -1
#Precursor_MZ 186.089
#ExactMass 185.08
#Charge 1
#CAS_Number N/A
#Pubmed_ID N/A
#Smiles CC(O)Cn1c(C)ncc1[N+](=O)[O-]
#INCHI_AUX N/A
#Library_Class 1
#SpectrumID CCMSLIB00000085800
#IonMode Positive
#UpdateWorkflowName UPDATE-SINGLE-ANNOTATED-GOLD
#LibraryQualityString Gold
#TaskID d252d724072548979f1f6f1ced849daf
##Scan# 1129
#SpectrumFile p4-F07_GF7_01_18391.mzXML
#LibraryName Pharm_Active_Library.mgf
#MQScore -1
#Organism Pharm_Active_Library
#TIC_Query 0
#RT_Query -1
#MZErrorPPM -1
#SharedPeaks 0
#MassDiff 0
#LibMZ -1
#SpecMZ 186.089
#SpecCharge 0
#internalFilename spec-00000.mgf

>collision 0
67.0153 5.54
98.046 7.17
111.0423 30.13
128.045 100.0
186.089 0.0
