>compound 5-Nonyloxytryptamine
>formula C19H30N2O
>ionization [M+H]+
>parentmass 303.243011
#inchi InChI=1S/C19H30N2O/c1-2-3-4-5-6-7-8-13-22-17-9-10-19-18(14-17)16(11-12-20)15-21-19/h9-10,14-15,21H,2-8,11-13,20H2,1H3
#inchikey YHSMSRREJYOGQJ
#Ion_Source LC-ESI
#Instrument qTof
#Compound_Source Commercial
#PI Dorrestein
#Data_Collector Garg_Neha
#Scan -1
#Precursor_MZ 303.243
#ExactMass 302.236
#Charge 1
#CAS_Number N/A
#Pubmed_ID N/A
#Smiles CCCCCCCCCOc1ccc2[nH]cc(CCN)c2c1
#INCHI_AUX N/A
#Library_Class 1
#SpectrumID CCMSLIB00000079219
#IonMode Positive
#UpdateWorkflowName UPDATE-SINGLE-ANNOTATED-GOLD
#LibraryQualityString Gold
#TaskID 278b19f5865741e282cec7349aa7e7a1
##Scan# 1626
#SpectrumFile NCP003672_A27B27C27D27_BE4_01_15740.mzXML
#LibraryName NIHcollectionI_05062014.mgf
#MQScore -1
#Organism NIHcollectionI_05062014
#TIC_Query 0
#RT_Query -1
#MZErrorPPM -1
#SharedPeaks 0
#MassDiff 0
#LibMZ -1
#SpecMZ 303.243
#SpecCharge 0
#internalFilename spec-00000.mgf

>collision 0
105.0696 0.52
115.054 1.53
117.0575 0.75
130.0652 0.45
131.0726 0.45
132.0809 5.77
133.0632 1.1
142.0647 2.14
143.073 0.87
148.0751 0.5
159.0671 2.44
160.0763 68.07
174.0914 0.22
260.2014 0.22
286.218 100.0
303.2423 1.35
