>compound MLS001140312-01!
>formula C26H27N3O5
>ionization [M+H]+
>parentmass 462.202148
#inchi InChI=1S/C26H27N3O5/c1-31-21-11-15(12-22(32-2)25(21)33-3)23-24-18(17-8-4-5-9-19(17)28-24)13-20(29-23)26(30)27-14-16-7-6-10-34-16/h4-5,8-9,11-13,16,29H,6-7,10,14H2,1-3H3,(H,27,30)
#inchikey UJTKFAJRHSQRMS
#Ion_Source LC-ESI
#Instrument qTof
#Compound_Source NIH Natural Product Library
#PI Dorrestein
#Data_Collector VVP/LMS
#Scan -1
#Precursor_MZ 462.203
#ExactMass 461.195
#Charge 1
#CAS_Number N/A
#Pubmed_ID N/A
#Smiles COc1cc(cc(OC)c1OC)c2[nH]c(cc3c4ccccc4nc23)C(=O)NCC5CCCO5
#INCHI_AUX N/A
#Library_Class 1
#SpectrumID CCMSLIB00000079502
#IonMode Positive
#UpdateWorkflowName UPDATE-SINGLE-ANNOTATED-GOLD
#LibraryQualityString Gold
#TaskID b1d8e8f6646f4e71acdff9ca3d919d08
##Scan# 2363
#SpectrumFile p1-C07_GC7_01_17903.mzXML
#LibraryName NIH_Natural_Products_Library.mgf
#MQScore -1
#Organism NIH_Natural_Products_Library
#TIC_Query 0
#RT_Query -1
#MZErrorPPM -1
#SharedPeaks 0
#MassDiff 0
#LibMZ -1
#SpecMZ 462.203
#SpecCharge 0
#internalFilename spec-00000.mgf

>collision 0
230.0848 0.59
231.0909 0.65
233.0708 0.32
243.0927 1.45
244.0631 0.26
244.0995 0.77
247.0862 0.69
257.0704 0.74
258.079 1.3
259.0874 7.06
260.0913 1.5
261.1013 0.34
271.0859 1.84
272.0945 3.36
273.1025 13.54
274.108 4.65
275.0819 4.36
286.0732 0.6
287.0825 27.91
288.0859 5.92
289.0953 3.0
290.1034 1.48
300.0891 8.28
301.0972 22.89
302.1057 100.0
303.0784 11.75
303.1079 26.57
317.0909 1.29
318.0995 18.63
333.123 62.28
351.133 24.99
361.1183 4.15
379.1263 6.24
462.1971 10.65
