>compound MLS001174878-01!Zearalanol
>formula C18H26O5
>ionization [M+H]+
>parentmass 323.187
#inchi InChI=1S/C18H26O5/c1-12-6-5-9-14(19)8-4-2-3-7-13-10-15(20)11-16(21)17(13)18(22)23-12/h10-12,14,19-21H,2-9H2,1H3/t12-,14+/m0/s1
#inchikey DWTTZBARDOXEAM
#Ion_Source LC-ESI
#Instrument qTof
#Compound_Source NIH Pharmacologically Active Library
#PI Dorrestein
#Data_Collector VP/LMS
#Scan -1
#Precursor_MZ 323.187
#ExactMass 322.178
#Charge 1
#CAS_Number N/A
#Pubmed_ID N/A
#Smiles C[C@H]1CCC[C@H](O)CCCCCc2cc(O)cc(O)c2C(=O)O1
#INCHI_AUX N/A
#Library_Class 3
#SpectrumID CCMSLIB00000085738
#IonMode Positive
#UpdateWorkflowName UPDATE-SINGLE-ANNOTATED-BRONZE
#LibraryQualityString Bronze
#TaskID d252d724072548979f1f6f1ced849daf
##Scan# 1882
#SpectrumFile p4-E09_GE9_01_18381.mzXML
#LibraryName Pharm_Active_Library.mgf
#MQScore -1
#Organism Pharm_Active_Library
#TIC_Query 0
#RT_Query -1
#MZErrorPPM -1
#SharedPeaks 0
#MassDiff 0
#LibMZ -1
#SpecMZ 323.187
#SpecCharge 0
#internalFilename spec-00000.mgf

>collision 0
93.0712 9.76
115.0532 13.31
121.0284 42.9
121.1013 10.8
123.0429 78.7
131.0856 12.87
135.0823 21.3
137.0594 18.2
147.0421 10.65
147.0788 19.23
149.023 51.92
149.0591 82.84
157.0632 14.94
161.0582 80.92
163.0747 100.0
165.0546 18.05
173.0603 27.07
175.0375 53.99
175.0739 23.52
177.0909 21.3
189.0542 79.88
189.091 90.38
191.0712 20.12
207.1023 16.86
323.1899 0.0
