>compound cyclo(L-Phe-L-Pro)
>formula C14H16N2O2 
>ionization [M+H]+
>parentmass 245.127777
#inchi InChI=1S/C14H16N2O2/c17-13-12-7-4-8-16(12)14(18)11(15-13)9-10-5-2-1-3-6-10/h1-3,5-6,11-12H,4,7-9H2,(H,15,17)/t11-,12-/m0/s1
#inchikey QZBUWPVZSXDWSB
#Ion_Source DI-ESI
#Instrument qTof
#Compound_Source Isolated
#PI Keyzers
#Data_Collector R Keyzers
#Scan -1
#Precursor_MZ 245.128
#ExactMass 244.121
#Charge 1
#CAS_Number 3705-26-8
#Pubmed_ID N/A
#Smiles N/A
#INCHI_AUX N/A
#Library_Class 3
#SpectrumID CCMSLIB00000007043
#IonMode Positive
#UpdateWorkflowName UPDATE-SINGLE-ANNOTATED-BRONZE
#LibraryQualityString Bronze
#TaskID 76b66bf1ccd04cec9993212b36387ea3
##Scan# 3
#SpectrumFile CDB02_15F_pos_MSMS_001_1.mgf
#LibraryName gnps_library.mgf
#MQScore -1
#Organism test_rob_keyzers
#TIC_Query 0
#RT_Query -1
#MZErrorPPM -1
#SharedPeaks 0
#MassDiff 0
#LibMZ -1
#SpecMZ 245.128
#SpecCharge 0
#internalFilename spec-00000.mgf

>collision 0
57.0205 3.13
62.0601 7.43
69.0704 3.5
81.0698 13.91
85.0747 8.09
98.0724 4.09
102.0932 36.61
111.0804 7.61
113.0709 5.52
120.0801 24.82
121.0961 5.87
173.1286 3.23
187.1225 31.43
215.118 69.71
217.1348 59.65
245.1281 395.5
