>compound Monensin
>formula C36H62O11
>ionization [M+Na]+
>parentmass 693.4184335040906
#inchi InChI=1S/C36H62O11/c1-10-34(31-20(3)16-26(43-31)28-19(2)15-21(4)36(41,18-37)46-28)12-11-27(44-34)33(8)13-14-35(47-33)17-25(38)22(5)30(45-35)23(6)29(42-9)24(7)32(39)40/h19-31,37-38,41H,10-18H2,1-9H3,(H,39,40)/t19-,20-,21+,22+,23-,24?,25-,26+,27+,28-,29+,30-,31+,33-,34-,35+,36-/m0/s1
#inchikey GAOZTHIDHYLHMS
#Ion_Source DI-ESI
#Instrument qTof
#Compound_Source Commercial
#PI Norberto Lopes
#Data_Collector Denise Silva
#Scan -1
#Precursor_MZ 693.406
#ExactMass 670.429
#Charge 1
#CAS_Number 17090-79-8
#Pubmed_ID  
#Smiles C[C@@H]([C@H](C(C)C(O)=O)OC)[C@](O1)([H])[C@H](C)[C@@H](O)C[C@]1(O2)CC[C@@]2(C)[C@@](O3)([H])CC[C@@]3(CC)[C@@](O4)([H])[C@@H](C)C[C@]4([H])[C@]5([H])[C@@H](C)C[C@@H](C)[C@](O)(CO)O5
#INCHI_AUX  
#Library_Class 3
#SpectrumID CCMSLIB00000081287
#IonMode Positive
#UpdateWorkflowName UPDATE-SINGLE-ANNOTATED-BRONZE
#LibraryQualityString Bronze
#TaskID 1408c08dd1b649aa9bd9168741c2c139
##Scan# 1
#SpectrumFile gnps_Monensin_pos_MplusNa.mgf
#LibraryName gnps_library.mgf
#MQScore -1
#Organism gnps_library
#TIC_Query 0
#RT_Query -1
#MZErrorPPM -1
#SharedPeaks 0
#MassDiff 0
#LibMZ -1
#SpecMZ 693.406
#SpecCharge 0
#internalFilename spec-00000.mgf

>collision 0
363.2059 1.59
389.2227 0.54
405.2534 3.95
443.2685 16.38
461.2791 100.0
479.2886 90.8
483.3004 10.02
501.3087 33.82
531.3218 1.09
693.4184 0.0
