>compound Topiramate
>formula C12H21NO8S
>ionization [M+Na]+
>parentmass 362.088715
#inchi InChI=1S/C12H21NO8S/c1-10(2)18-7-5-16-12(6-17-22(13,14)15)9(8(7)19-10)20-11(3,4)21-12/h7-9H,5-6H2,1-4H3,(H2,13,14,15)/t7-,8-,9+,12+/m1/s1
#inchikey KJADKKWYZYXHBB
#Ion_Source LC-ESI
#Instrument qTof
#Compound_Source Commercial
#PI Dorrestein
#Data_Collector Garg_Neha
#Scan -1
#Precursor_MZ 362.088
#ExactMass 339.099
#Charge 1
#CAS_Number 97240-79-4, 1103510-60-6
#Pubmed_ID N/A
#Smiles [C@H]12[C@H]([C@H]3[C@](OC1)(COS(N)(=O)=O)OC(O3)(C)C)OC(O2)(C)C
#INCHI_AUX N/A
#Library_Class 1
#SpectrumID CCMSLIB00000078147
#IonMode Positive
#UpdateWorkflowName UPDATE-SINGLE-ANNOTATED-GOLD
#LibraryQualityString Gold
#TaskID 77f51c88eb8b467eb4a01dd2d0cb90d2
##Scan# 1182
#SpectrumFile Plate2_61_88_GG8_01_16496.mzXML
#LibraryName FDALibrary_2_04302014.mgf
#MQScore -1
#Organism FDALibrary_2_04302014
#TIC_Query 0
#RT_Query -1
#MZErrorPPM -1
#SharedPeaks 0
#MassDiff 0
#LibMZ -1
#SpecMZ 362.088
#SpecCharge 0
#internalFilename spec-00000.mgf

>collision 0
105.971 6.44
115.041 6.57
127.0427 5.65
161.044 7.49
184.077 7.49
199.1178 5.65
205.0707 5.65
207.0618 42.05
225.0792 6.7
243.1209 6.57
265.104 100.0
271.9961 6.18
282.1312 10.91
283.1051 8.15
362.0857 742.44
