>compound Indomethacin
>formula C19H16ClNO4
>ionization [M+H]+
>parentmass 358.084015
#inchi InChI=1S/C19H16ClNO4/c1-11-15(10-18(22)23)16-9-14(25-2)7-8-17(16)21(11)19(24)12-3-5-13(20)6-4-12/h3-9H,10H2,1-2H3,(H,22,23)
#inchikey CGIGDMFJXJATDK
#Ion_Source LC-ESI
#Instrument qTof
#Compound_Source Commercial
#PI Dorrestein
#Data_Collector Garg_Neha
#Scan -1
#Precursor_MZ 358.084
#ExactMass 357.077
#Charge 1
#CAS_Number N/A
#Pubmed_ID N/A
#Smiles COc1ccc2n(C(=O)c3ccc(Cl)cc3)c(C)c(CC(=O)O)c2c1
#INCHI_AUX N/A
#Library_Class 1
#SpectrumID CCMSLIB00000079180
#IonMode Positive
#UpdateWorkflowName UPDATE-SINGLE-ANNOTATED-GOLD
#LibraryQualityString Gold
#TaskID 278b19f5865741e282cec7349aa7e7a1
##Scan# 1915
#SpectrumFile NCP003592_C2_D11_BE1_01_15735.mzXML
#LibraryName NIHcollectionI_05062014.mgf
#MQScore -1
#Organism NIHcollectionI_05062014
#TIC_Query 0
#RT_Query -1
#MZErrorPPM -1
#SharedPeaks 0
#MassDiff 0
#LibMZ -1
#SpecMZ 358.084
#SpecCharge 0
#internalFilename spec-00000.mgf

>collision 0
111.0008 1.19
138.9952 100.0
159.066 0.86
174.0905 9.87
202.0847 1.36
220.0957 0.46
358.084 18.7
