>compound Famotidine (Pepcid)
>formula C8H15N7O2S3
>ionization [M+H]+
>parentmass 338.050476
#inchi InChI=1S/C8H15N7O2S3/c9-6(15-20(12,16)17)1-2-18-3-5-4-19-8(13-5)14-7(10)11/h4H,1-3H2,(H2,9,15)(H2,12,16,17)(H4,10,11,13,14)
#inchikey XUFQPHANEAPEMJ
#Ion_Source LC-ESI
#Instrument qTof
#Compound_Source Commercial
#PI Dorrestein
#Data_Collector Garg_Neha
#Scan -1
#Precursor_MZ 338.052
#ExactMass 337.045
#Charge 1
#CAS_Number 76824-35-6
#Pubmed_ID N/A
#Smiles NS(NC(CCSCC1=CSC(=N1)NC(N)=N)=N)(=O)=O
#INCHI_AUX N/A
#Library_Class 1
#SpectrumID CCMSLIB00000078422
#IonMode Positive
#UpdateWorkflowName UPDATE-SINGLE-ANNOTATED-GOLD
#LibraryQualityString Gold
#TaskID 77f51c88eb8b467eb4a01dd2d0cb90d2
##Scan# 944
#SpectrumFile Plate6_61_80_GD10_01_15777.mzXML
#LibraryName FDALibrary_2_04302014.mgf
#MQScore -1
#Organism FDALibrary_2_04302014
#TIC_Query 0
#RT_Query -1
#MZErrorPPM -1
#SharedPeaks 0
#MassDiff 0
#LibMZ -1
#SpecMZ 338.052
#SpecCharge 0
#internalFilename spec-00000.mgf

>collision 0
44.9954 2.63
61.0278 1.35
87.0229 1.69
92.9449 1.39
102.0135 1.54
113.0157 6.77
114.0129 1.39
138.0132 5.61
139.0194 1.99
142.9745 1.51
147.0019 4.18
148.0014 1.73
155.0376 46.67
156.0395 3.35
174.0163 1.69
189.0256 94.88
190.0278 6.96
242.0527 2.86
259.0793 100.0
338.0505 13.29
