>compound MLS001077311-01!2062-78-4
>formula C28H29F2N3O
>ionization [M+H]+
>parentmass 462.235443
#inchi InChI=1S/C28H29F2N3O/c29-22-11-7-20(8-12-22)25(21-9-13-23(30)14-10-21)4-3-17-32-18-15-24(16-19-32)33-27-6-2-1-5-26(27)31-28(33)34/h1-2,5-14,24-25H,3-4,15-19H2,(H,31,34)
#inchikey YVUQSNJEYSNKRX
#Ion_Source LC-ESI
#Instrument qTof
#Compound_Source NIH Pharmacologically Active Library
#PI Dorrestein
#Data_Collector VP/LMS
#Scan -1
#Precursor_MZ 462.242
#ExactMass 461.228
#Charge 1
#CAS_Number N/A
#Pubmed_ID N/A
#Smiles Oc1nc2ccccc2n1C3CCN(CCCC(c4ccc(F)cc4)c5ccc(F)cc5)CC3
#INCHI_AUX N/A
#Library_Class 1
#SpectrumID CCMSLIB00000085145
#IonMode Positive
#UpdateWorkflowName UPDATE-SINGLE-ANNOTATED-GOLD
#LibraryQualityString Gold
#TaskID d252d724072548979f1f6f1ced849daf
##Scan# 1970
#SpectrumFile p3-F05_GF5_01_18286.mzXML
#LibraryName Pharm_Active_Library.mgf
#MQScore -1
#Organism Pharm_Active_Library
#TIC_Query 0
#RT_Query -1
#MZErrorPPM -1
#SharedPeaks 0
#MassDiff 0
#LibMZ -1
#SpecMZ 462.242
#SpecCharge 0
#internalFilename spec-00000.mgf

>collision 0
96.0796 0.91
98.0961 11.46
103.0541 1.96
109.045 60.29
110.048 4.6
110.0955 2.25
121.0442 1.69
123.0598 4.38
124.0622 0.7
124.1117 3.69
127.0536 0.88
129.0703 0.64
130.0644 2.14
131.0719 1.14
133.0442 0.67
134.0513 0.9
135.0568 10.28
136.0612 0.78
145.0742 1.82
146.0522 2.14
147.0605 51.77
148.0629 6.01
149.0762 24.46
150.0788 3.05
155.0601 1.33
161.071 0.58
171.0542 0.9
173.071 53.55
174.0733 6.57
175.0793 0.56
178.1022 0.94
183.0598 4.13
184.0642 0.65
187.0861 2.97
197.0754 2.49
201.1021 42.87
202.0595 0.8
202.1046 4.38
203.0666 28.37
204.069 3.37
217.0813 7.19
218.0849 1.0
218.1267 1.88
230.1285 6.2
232.1485 1.59
243.0978 3.98
244.1016 0.85
274.1402 5.37
275.1425 1.03
326.1712 29.87
327.174 7.21
328.1878 100.0
329.1903 23.08
462.2367 130.7
