>compound MLS001143193-01!2,3-dimethoxyxanthen-9-one
>formula C15H12O4
>ionization [M+H]+
>parentmass 257.081482
#inchi InChI=1S/C15H12O4/c1-17-13-7-10-12(8-14(13)18-2)19-11-6-4-3-5-9(11)15(10)16/h3-8H,1-2H3
#inchikey FWCWUPRCWDSQEN
#Ion_Source LC-ESI
#Instrument qTof
#Compound_Source NIH Natural Product Library
#PI Dorrestein
#Data_Collector VVP/LMS
#Scan -1
#Precursor_MZ 257.081
#ExactMass 256.074
#Charge 1
#CAS_Number N/A
#Pubmed_ID N/A
#Smiles COc1cc2oc3ccccc3c(=O)c2cc1OC
#INCHI_AUX N/A
#Library_Class 1
#SpectrumID CCMSLIB00000080243
#IonMode Positive
#UpdateWorkflowName UPDATE-SINGLE-ANNOTATED-GOLD
#LibraryQualityString Gold
#TaskID b1d8e8f6646f4e71acdff9ca3d919d08
##Scan# 2132
#SpectrumFile p2-A06_GA6_01_17983.mzXML
#LibraryName NIH_Natural_Products_Library.mgf
#MQScore -1
#Organism NIH_Natural_Products_Library
#TIC_Query 0
#RT_Query -1
#MZErrorPPM -1
#SharedPeaks 0
#MassDiff 0
#LibMZ -1
#SpecMZ 257.081
#SpecCharge 0
#internalFilename spec-00000.mgf

>collision 0
102.0449 0.38
103.0548 0.36
107.012 0.76
115.0546 1.5
121.0287 4.34
127.0532 0.42
128.0631 4.58
139.0545 9.06
141.0683 1.08
149.022 1.05
155.0504 1.11
157.0634 2.23
167.0503 1.48
168.0569 13.91
169.0628 1.91
171.0447 2.16
183.0449 3.05
184.0522 11.93
185.0601 12.64
196.0518 8.96
197.0596 6.61
199.0404 1.29
211.0403 1.72
212.0463 3.54
213.0559 100.0
223.0392 4.12
224.0461 2.6
225.0546 8.59
227.034 3.8
241.0507 32.53
242.0566 13.56
257.0815 26.31
