>compound MLS001304087-01!Imidacloprid138261-41-3
>formula C9H10ClN5O2
>ionization [M+H]+
>parentmass 256.06
#inchi InChI=1S/C9H10ClN5O2/c10-8-2-1-7(5-12-8)6-14-4-3-11-9(14)13-15(16)17/h1-2,5H,3-4,6H2,(H,11,13)
#inchikey YWTYJOPNNQFBPC
#Ion_Source LC-ESI
#Instrument qTof
#Compound_Source NIH Pharmacologically Active Library
#PI Dorrestein
#Data_Collector VP/LMS
#Scan -1
#Precursor_MZ 256.06
#ExactMass 255.052
#Charge 1
#CAS_Number N/A
#Pubmed_ID N/A
#Smiles [O-][N+](=O)NC1=NCCN1Cc2ccc(Cl)nc2
#INCHI_AUX N/A
#Library_Class 1
#SpectrumID CCMSLIB00000085129
#IonMode Positive
#UpdateWorkflowName UPDATE-SINGLE-ANNOTATED-GOLD
#LibraryQualityString Gold
#TaskID d252d724072548979f1f6f1ced849daf
##Scan# 1467
#SpectrumFile p3-F03_GF3_01_18284.mzXML
#LibraryName Pharm_Active_Library.mgf
#MQScore -1
#Organism Pharm_Active_Library
#TIC_Query 0
#RT_Query -1
#MZErrorPPM -1
#SharedPeaks 0
#MassDiff 0
#LibMZ -1
#SpecMZ 256.06
#SpecCharge 0
#internalFilename spec-00000.mgf

>collision 0
99.0529 4.17
107.0605 6.89
120.0557 8.48
128.0228 9.17
129.0114 4.47
131.0593 10.83
133.0605 14.09
134.0725 7.27
141.02 10.45
147.066 23.79
158.0694 5.3
159.0733 17.58
160.0851 8.26
166.0148 4.85
169.0416 4.09
174.0896 26.06
175.096 100.0
180.0217 5.08
181.0296 7.35
195.0445 6.14
208.0506 5.76
209.057 73.64
256.06 0.0
