>compound Cladribine
>formula C10H12ClN5O3
>ionization [M+H]+
>parentmass 286.070221
#inchi InChI=1S/C10H12ClN5O3/c11-10-14-8(12)7-9(15-10)16(3-13-7)6-1-4(18)5(2-17)19-6/h3-6,17-18H,1-2H2,(H2,12,14,15)/t4-,5+,6+/m0/s1
#inchikey PTOAARAWEBMLNO
#Ion_Source LC-ESI
#Instrument qTof
#Compound_Source Commercial
#PI Dorrestein
#Data_Collector Garg_Neha
#Scan -1
#Precursor_MZ 286.07
#ExactMass 285.063
#Charge 1
#CAS_Number 4291-63-8
#Pubmed_ID N/A
#Smiles N1=C(C2=C(N=C1Cl)N(C=N2)[C@H]3C[C@@H]([C@H](O3)CO)O)N
#INCHI_AUX N/A
#Library_Class 1
#SpectrumID CCMSLIB00000078043
#IonMode Positive
#UpdateWorkflowName UPDATE-SINGLE-ANNOTATED-GOLD
#LibraryQualityString Gold
#TaskID 77f51c88eb8b467eb4a01dd2d0cb90d2
##Scan# 1029
#SpectrumFile Plate1_21_40_GG2_01_16489.mzXML
#LibraryName FDALibrary_2_04302014.mgf
#MQScore -1
#Organism FDALibrary_2_04302014
#TIC_Query 0
#RT_Query -1
#MZErrorPPM -1
#SharedPeaks 0
#MassDiff 0
#LibMZ -1
#SpecMZ 286.07
#SpecCharge 0
#internalFilename spec-00000.mgf

>collision 0
99.0446 1.1
107.036 0.64
117.0553 3.37
134.0468 15.27
170.0232 100.0
286.0702 8.4
