>compound MLS001140783-01!
>formula C32H30FN5O4
>ionization [M+H]+
>parentmass 568.234131
#inchi InChI=1S/C32H30FN5O4/c33-21-11-9-20(10-12-21)29-28-24(22-5-1-3-7-25(22)35-28)19-27-31(40)38(32(41)37(27)29)26-8-4-2-6-23(26)30(39)34-13-14-36-15-17-42-18-16-36/h1-12,27,29,35H,13-19H2,(H,34,39)/t27-,29?/m0/s1
#inchikey DMSRUJBXNPIECM
#Ion_Source LC-ESI
#Instrument qTof
#Compound_Source NIH Natural Product Library
#PI Dorrestein
#Data_Collector VVP/LMS
#Scan -1
#Precursor_MZ 568.236
#ExactMass 567.228
#Charge 1
#CAS_Number N/A
#Pubmed_ID N/A
#Smiles Fc1ccc(cc1)C2N3[C@@H](Cc4c2[nH]c5ccccc45)C(=O)N(C3=O)c6ccccc6C(=O)NCCN7CCOCC7
#INCHI_AUX N/A
#Library_Class 1
#SpectrumID CCMSLIB00000079686
#IonMode Positive
#UpdateWorkflowName UPDATE-SINGLE-ANNOTATED-GOLD
#LibraryQualityString Gold
#TaskID b1d8e8f6646f4e71acdff9ca3d919d08
##Scan# 1891
#SpectrumFile p1-G09-2_GG9_01_17969.mzXML
#LibraryName NIH_Natural_Products_Library.mgf
#MQScore -1
#Organism NIH_Natural_Products_Library
#TIC_Query 0
#RT_Query -1
#MZErrorPPM -1
#SharedPeaks 0
#MassDiff 0
#LibMZ -1
#SpecMZ 568.236
#SpecCharge 0
#internalFilename spec-00000.mgf

>collision 0
109.0447 11.87
120.0451 1.35
145.0393 2.07
146.0237 35.21
163.0502 1.44
163.0866 2.12
173.0705 2.67
184.0632 7.96
189.0665 100.0
198.071 4.38
217.0879 4.54
218.0917 1.85
226.0654 4.39
234.0692 1.51
236.0876 68.11
237.0945 51.36
244.0709 24.07
246.0853 1.8
248.0874 39.46
249.0908 10.35
254.0617 59.68
263.0973 2.09
276.0819 42.49
277.0852 7.5
291.0928 19.98
319.0872 2.37
328.0947 2.36
367.1246 4.89
368.1271 1.59
377.1063 3.94
395.1203 64.45
396.1239 18.87
410.1296 9.71
411.1321 3.44
437.1767 1.74
438.1255 78.86
439.1286 19.76
481.1683 82.86
482.1711 27.12
568.2356 14.01
