>compound MLS002207052-01!5-Chloroindole-2-carboxylic acid10517-21-2
>formula C9H6ClNO2
>ionization [M+H]+
>parentmass 196.014465
#inchi InChI=1S/C9H6ClNO2/c10-6-1-2-7-5(3-6)4-8(11-7)9(12)13/h1-4,11H,(H,12,13)
#inchikey FUQOTYRCMBZFOL
#Ion_Source LC-ESI
#Instrument qTof
#Compound_Source NIH Pharmacologically Active Library
#PI Dorrestein
#Data_Collector VP/LMS
#Scan -1
#Precursor_MZ 196.016
#ExactMass 195.009
#Charge 1
#CAS_Number N/A
#Pubmed_ID N/A
#Smiles OC(=O)c1cc2cc(Cl)ccc2[nH]1
#INCHI_AUX N/A
#Library_Class 1
#SpectrumID CCMSLIB00000085749
#IonMode Positive
#UpdateWorkflowName UPDATE-SINGLE-ANNOTATED-GOLD
#LibraryQualityString Gold
#TaskID d252d724072548979f1f6f1ced849daf
##Scan# 1894
#SpectrumFile p4-E11_GE11_01_18383.mzXML
#LibraryName Pharm_Active_Library.mgf
#MQScore -1
#Organism Pharm_Active_Library
#TIC_Query 0
#RT_Query -1
#MZErrorPPM -1
#SharedPeaks 0
#MassDiff 0
#LibMZ -1
#SpecMZ 196.016
#SpecCharge 0
#internalFilename spec-00000.mgf

>collision 0
99.0008 3.42
114.0327 9.95
117.0566 24.47
122.9987 100.0
150.0093 27.43
153.0097 3.19
164.9974 5.85
178.0044 23.18
196.0145 2.51
