>compound MLS002153265-01!
>formula C10H16N6S
>ionization [M+H]+
>parentmass 253.123
#inchi InChI=1S/C10H16N6S/c1-8-9(16-7-15-8)5-17-4-3-13-10(12-2)14-6-11/h7H,3-5H2,1-2H3,(H,15,16)(H2,12,13,14)
#inchikey AQIXAKUUQRKLND
#Ion_Source LC-ESI
#Instrument qTof
#Compound_Source NIH Pharmacologically Active Library
#PI Dorrestein
#Data_Collector VP/LMS
#Scan -1
#Precursor_MZ 253.123
#ExactMass 252.116
#Charge 1
#CAS_Number N/A
#Pubmed_ID N/A
#Smiles CN=C(NCCSCc1[nH]cnc1C)NC#N
#INCHI_AUX N/A
#Library_Class 1
#SpectrumID CCMSLIB00000084975
#IonMode Positive
#UpdateWorkflowName UPDATE-SINGLE-ANNOTATED-GOLD
#LibraryQualityString Gold
#TaskID d252d724072548979f1f6f1ced849daf
##Scan# 1091
#SpectrumFile p3-D04_GD4_01_18261.mzXML
#LibraryName Pharm_Active_Library.mgf
#MQScore -1
#Organism Pharm_Active_Library
#TIC_Query 0
#RT_Query -1
#MZErrorPPM -1
#SharedPeaks 0
#MassDiff 0
#LibMZ -1
#SpecMZ 253.123
#SpecCharge 0
#internalFilename spec-00000.mgf

>collision 0
95.06 100.0
99.0658 23.44
117.048 48.6
125.0825 3.27
159.0693 31.34
253.123 0.0
