>compound DOXYCYCLINE
>formula C22H24N2O8 
>ionization [M+H]+
>parentmass 445.160645
#inchi InChI=1S/C22H24N2O8/c1-7-8-5-4-6-9(25)11(8)16(26)12-10(7)17(27)14-15(24(2)3)18(28)13(21(23)31)20(30)22(14,32)19(12)29/h4-7,10,14-15,17,25-27,30,32H,1-3H3,(H2,23,31)/t7-,10+,14+,15-,17-,22-/m0/s1
#inchikey SGKRLCUYIXIAHR
#Ion_Source LC-ESI
#Instrument qTof
#Compound_Source Commercial
#PI Dorrestein
#Data_Collector Garg_Neha
#Scan -1
#Precursor_MZ 445.164
#ExactMass 444.153
#Charge 1
#CAS_Number N/A
#Pubmed_ID N/A
#Smiles N/A
#INCHI_AUX N/A
#Library_Class 1
#SpectrumID CCMSLIB00000077091
#IonMode Positive
#UpdateWorkflowName UPDATE-SINGLE-ANNOTATED-GOLD
#LibraryQualityString Gold
#TaskID 48f7f52fc6d249b5abbcc6e7b3df5969
##Scan# 1095
#SpectrumFile NCP003106_C2_D11_BB3_01_15706.mzXML
#LibraryName NIH_Clinical_Collection_2.mgf
#MQScore -1
#Organism NIHcollection2_04212014_2_mgf
#TIC_Query 0
#RT_Query -1
#MZErrorPPM -1
#SharedPeaks 0
#MassDiff 0
#LibMZ -1
#SpecMZ 445.164
#SpecCharge 0
#internalFilename spec-00000.mgf

>collision 0
98.0599 1.52
126.055 1.83
154.0494 4.07
201.0544 4.48
211.0767 1.26
213.0914 1.3
227.0712 0.6
237.0545 0.76
239.0682 1.61
241.086 2.58
251.072 1.28
252.0409 1.51
253.0874 1.67
257.0811 1.57
267.0646 7.81
268.0687 1.8
269.0815 4.59
279.0626 1.22
281.0821 0.97
285.0759 2.96
291.0644 1.06
293.0816 2.77
294.0859 1.15
297.074 0.76
303.0656 0.62
306.0511 0.79
309.0727 0.8
311.0919 1.13
319.0581 1.45
321.0755 8.39
322.0778 1.8
334.0472 0.9
337.0699 1.46
339.0861 4.56
340.0885 1.68
349.0728 1.53
364.1156 0.73
367.0786 1.68
382.1299 0.82
392.114 1.53
410.1229 4.01
428.1347 100.0
430.1397 4.37
445.1604 43.94
