>compound Trazodone hydrochloride 25332-39-2
>formula C19H22ClN5O
>ionization [M+H]+
>parentmass 372.1585644560905
#inchi InChI=1S/C19H22ClN5O/c20-16-5-3-6-17(15-16)23-13-11-22(12-14-23)8-4-10-25-19(26)24-9-2-1-7-18(24)21-25/h1-3,5-7,9,15H,4,8,10-14H2
#inchikey PHLBKPHSAVXXEF
#Ion_Source LC-ESI
#Instrument qTof
#Compound_Source Commercial
#PI Dorrestein
#Data_Collector Garg_Neha
#Scan -1
#Precursor_MZ 372.159
#ExactMass 371.151
#Charge 1
#CAS_Number N/A
#Pubmed_ID N/A
#Smiles Clc1cccc(c1)N2CCN(CCCn3nc4ccccn4c3=O)CC2
#INCHI_AUX N/A
#Library_Class 1
#SpectrumID CCMSLIB00000079178
#IonMode Positive
#UpdateWorkflowName UPDATE-SINGLE-ANNOTATED-GOLD
#LibraryQualityString Gold
#TaskID 278b19f5865741e282cec7349aa7e7a1
##Scan# 1102
#SpectrumFile NCP003592_C2_D11_BE1_01_15735.mzXML
#LibraryName NIHcollectionI_05062014.mgf
#MQScore -1
#Organism NIHcollectionI_05062014
#TIC_Query 0
#RT_Query -1
#MZErrorPPM -1
#SharedPeaks 0
#MassDiff 0
#LibMZ -1
#SpecMZ 372.159
#SpecCharge 0
#internalFilename spec-00000.mgf

>collision 0
105.0452 0.45
106.0641 0.27
116.05 0.3
121.0404 0.4
121.0757 0.58
133.076 3.28
148.0514 71.99
176.0828 100.0
372.1615 143.37
