>compound MLS001049068-01!2-amino-3-(1H-indol-3-yl)-N-phenylpropanamide
>formula C17H17N3O
>ionization [M+H]+
>parentmass 280.145
#inchi InChI=1S/C17H17N3O/c18-15(17(21)20-13-6-2-1-3-7-13)10-12-11-19-16-9-5-4-8-14(12)16/h1-9,11,15,19H,10,18H2,(H,20,21)
#inchikey RZMUABAAIKIJCD
#Ion_Source LC-ESI
#Instrument qTof
#Compound_Source NIH Natural Product Library
#PI Dorrestein
#Data_Collector VVP/LMS
#Scan -1
#Precursor_MZ 280.145
#ExactMass 279.137
#Charge 1
#CAS_Number N/A
#Pubmed_ID N/A
#Smiles NC(Cc1c[nH]c2ccccc12)C(=O)Nc3ccccc3
#INCHI_AUX N/A
#Library_Class 1
#SpectrumID CCMSLIB00000080126
#IonMode Positive
#UpdateWorkflowName UPDATE-SINGLE-ANNOTATED-GOLD
#LibraryQualityString Gold
#TaskID b1d8e8f6646f4e71acdff9ca3d919d08
##Scan# 1578
#SpectrumFile p2-E04_GE4_01_18028.mzXML
#LibraryName NIH_Natural_Products_Library.mgf
#MQScore -1
#Organism NIH_Natural_Products_Library
#TIC_Query 0
#RT_Query -1
#MZErrorPPM -1
#SharedPeaks 0
#MassDiff 0
#LibMZ -1
#SpecMZ 280.145
#SpecCharge 0
#internalFilename spec-00000.mgf

>collision 0
103.0541 2.59
104.0495 1.7
105.0691 2.36
106.0661 0.67
115.0543 22.36
117.0575 33.69
118.0641 11.62
120.0442 1.1
128.0495 2.9
130.0653 55.7
132.081 100.0
142.0648 37.32
146.06 1.26
159.0915 77.03
280.1432 0.0
