>compound Biapenem
>formula C15H18N4O4S 
>ionization [M+H]+
>parentmass 351.113
#inchi InChI=1S/C15H18N4O4S/c1-7-11-10(8(2)20)14(21)19(11)12(15(22)23)13(7)24-9-3-17-5-16-6-18(17)4-9/h5-11,20H,3-4H2,1-2H3/t7-,8-,10-,11-/m1/s1
#inchikey MRMBZHPJVKCOMA
#Ion_Source LC-ESI
#Instrument qTof
#Compound_Source Isolated
#PI Sirenas
#Data_Collector Ed Esquenazi 
#Scan -1
#Precursor_MZ 351.113
#ExactMass 0.0
#Charge 1
#CAS_Number N/A
#Pubmed_ID N/A
#Smiles N/A
#INCHI_AUX N/A
#Library_Class 3
#SpectrumID CCMSLIB00000006471
#IonMode Positive
#UpdateWorkflowName UPDATE-SINGLE-ANNOTATED-BRONZE
#LibraryQualityString Bronze
#TaskID d19310cd93df49b68e9fcbec27720eb5
##Scan# 5
#SpectrumFile Biapenem.mgf
#LibraryName fda_library.mgf
#MQScore -1
#Organism fda_library
#TIC_Query 0
#RT_Query -1
#MZErrorPPM -1
#SharedPeaks 0
#MassDiff 0
#LibMZ -1
#SpecMZ 351.113
#SpecCharge 0
#internalFilename spec-00000.mgf

>collision 0
108.0545 13.46
110.0731 100.0
120.0459 57.44
124.0205 36.26
140.0159 9.69
156.0079 18.4
170.0273 95.61
198.0201 14.22
198.0567 13.02
247.0608 4.68
265.0748 43.8
272.9821 81.43
351.113 0.0
