>compound MLS001077317-01!17BETA-ESTRADIOL 17-HEMISUCCINATE
>formula C22H28O5
>ionization [M+H]+
>parentmass 373.202
#inchi InChI=1S/C22H28O5/c1-22-11-10-16-15-5-3-14(23)12-13(15)2-4-17(16)18(22)6-7-19(22)27-21(26)9-8-20(24)25/h3,5,12,16-19,23H,2,4,6-11H2,1H3,(H,24,25)/t16-,17-,18+,19+,22+/m1/s1
#inchikey YJPIDPAGJSWWBE
#Ion_Source LC-ESI
#Instrument qTof
#Compound_Source NIH Pharmacologically Active Library
#PI Dorrestein
#Data_Collector VP/LMS
#Scan -1
#Precursor_MZ 373.202
#ExactMass 372.194
#Charge 1
#CAS_Number N/A
#Pubmed_ID N/A
#Smiles C[C@@]12CC[C@H]3[C@@H](CCc4cc(O)ccc34)[C@@H]2CC[C@@H]1OC(=O)CCC(=O)O
#INCHI_AUX N/A
#Library_Class 1
#SpectrumID CCMSLIB00000084741
#IonMode Positive
#UpdateWorkflowName UPDATE-SINGLE-ANNOTATED-GOLD
#LibraryQualityString Gold
#TaskID d252d724072548979f1f6f1ced849daf
##Scan# 2194
#SpectrumFile p3-A02_GA2_01_18224.mzXML
#LibraryName Pharm_Active_Library.mgf
#MQScore -1
#Organism Pharm_Active_Library
#TIC_Query 0
#RT_Query -1
#MZErrorPPM -1
#SharedPeaks 0
#MassDiff 0
#LibMZ -1
#SpecMZ 373.202
#SpecCharge 0
#internalFilename spec-00000.mgf

>collision 0
93.0698 1.56
95.0853 1.89
105.0695 2.37
115.0544 2.5
119.086 1.63
121.0656 1.71
131.0482 3.74
131.0849 6.8
133.0651 28.08
141.0705 5.28
144.057 13.1
147.0799 2.52
147.1167 1.3
159.0804 100.0
255.1745 8.84
373.2034 0.0
