>compound MLS000859931-01!(+/-)-SKF-38393 hydrochloride
>formula C16H17NO2
>ionization [M+H]+
>parentmass 256.13320523609053
#inchi InChI=1S/C16H17NO2/c18-15-8-12-6-7-17-10-14(13(12)9-16(15)19)11-4-2-1-3-5-11/h1-5,8-9,14,17-19H,6-7,10H2
#inchikey JUDKOGFHZYMDMF
#origInchi InChI=1S/C16H17NO2.ClH/c18-15-8-12-6-7-17-10-14(13(12)9-16(15)19)11-4-2-1-3-5-11;/h1-5,8-9,14,17-19H,6-7,10H2;1H
#Ion_Source LC-ESI
#Instrument qTof
#Compound_Source NIH Pharmacologically Active Library
#PI Dorrestein
#Data_Collector VP/LMS
#Scan -1
#Precursor_MZ 256.136
#ExactMass 255.126
#Charge 1
#CAS_Number N/A
#Pubmed_ID N/A
#Smiles Oc1cc2CCNCC(c3ccccc3)c2cc1O.Cl
#INCHI_AUX N/A
#Library_Class 1
#SpectrumID CCMSLIB00000085779
#IonMode Positive
#UpdateWorkflowName UPDATE-SINGLE-ANNOTATED-GOLD
#LibraryQualityString Gold
#TaskID d252d724072548979f1f6f1ced849daf
##Scan# 1208
#SpectrumFile p4-F05_GF5_01_18389.mzXML
#LibraryName Pharm_Active_Library.mgf
#MQScore -1
#Organism Pharm_Active_Library
#TIC_Query 0
#RT_Query -1
#MZErrorPPM -1
#SharedPeaks 0
#MassDiff 0
#LibMZ -1
#SpecMZ 256.136
#SpecCharge 0
#internalFilename spec-00000.mgf

>collision 0
91.0554 39.41
102.0477 4.53
103.0534 10.82
105.069 8.63
107.0492 2.68
109.0653 4.54
115.0544 42.78
119.0491 53.97
120.0808 27.95
123.0438 12.73
129.0704 9.33
130.0411 4.31
131.0476 3.39
137.0597 100.0
141.0702 2.54
143.0489 19.28
148.0511 6.14
149.0594 3.03
152.0626 4.62
161.0582 12.3
165.0696 13.15
178.0775 63.46
181.0643 5.96
181.1011 2.86
191.0857 5.05
193.1003 15.64
203.0846 7.89
209.0955 1.68
221.094 4.95
227.107 1.71
239.1065 4.34
256.1335 0.0
