>compound MLS001140559-01!1-[2-(4-methyl-2-oxochromen-7-yl)oxyacetyl]piperidine-4-carboxamide
>formula C18H20N2O5
>ionization [M+H]+
>parentmass 345.145
#inchi InChI=1S/C18H20N2O5/c1-11-8-17(22)25-15-9-13(2-3-14(11)15)24-10-16(21)20-6-4-12(5-7-20)18(19)23/h2-3,8-9,12H,4-7,10H2,1H3,(H2,19,23)
#inchikey UVPRISLWQVBUHS
#Ion_Source LC-ESI
#Instrument qTof
#Compound_Source NIH Natural Product Library
#PI Dorrestein
#Data_Collector VVP/LMS
#Scan -1
#Precursor_MZ 345.145
#ExactMass 344.137
#Charge 1
#CAS_Number N/A
#Pubmed_ID N/A
#Smiles Cc1cc(=O)oc2cc(OCC(=O)N3CCC(CC3)C(=O)N)ccc12
#INCHI_AUX N/A
#Library_Class 1
#SpectrumID CCMSLIB00000080187
#IonMode Positive
#UpdateWorkflowName UPDATE-SINGLE-ANNOTATED-GOLD
#LibraryQualityString Gold
#TaskID b1d8e8f6646f4e71acdff9ca3d919d08
##Scan# 1534
#SpectrumFile p2-C05_GC5_01_18005.mzXML
#LibraryName NIH_Natural_Products_Library.mgf
#MQScore -1
#Organism NIH_Natural_Products_Library
#TIC_Query 0
#RT_Query -1
#MZErrorPPM -1
#SharedPeaks 0
#MassDiff 0
#LibMZ -1
#SpecMZ 345.145
#SpecCharge 0
#internalFilename spec-00000.mgf

>collision 0
96.0802 13.87
97.0892 9.75
98.0584 8.47
103.0546 22.41
105.0713 10.27
110.0568 6.75
112.0756 14.84
124.0758 9.52
125.082 12.29
131.0492 34.48
132.051 7.8
133.0625 12.37
134.0714 4.05
135.0451 6.45
141.0453 4.57
159.0431 95.43
160.0463 6.22
161.0594 51.8
173.0542 6.07
177.0552 12.59
187.0542 16.34
187.0826 4.27
189.055 100.0
190.0578 12.89
217.0522 10.64
230.0847 9.75
246.0769 11.09
257.0821 9.45
258.0787 5.1
272.1293 32.23
300.1239 47.23
328.1187 12.29
345.145 0.0
