>compound Cilostazol
>formula C20H27N5O2 
>ionization [M+H]+
>parentmass 370.224579
#inchi InChI=1S/C20H27N5O2/c26-20-12-9-15-14-17(10-11-18(15)21-20)27-13-5-4-8-19-22-23-24-25(19)16-6-2-1-3-7-16/h10-11,14,16H,1-9,12-13H2,(H,21,26)
#inchikey RRGUKTPIGVIEKM
#Ion_Source LC-ESI
#Instrument qTof
#Compound_Source Isolated
#PI Sirenas
#Data_Collector Ed Esquenazi 
#Scan -1
#Precursor_MZ 370.225
#ExactMass 0.0
#Charge 1
#CAS_Number N/A
#Pubmed_ID N/A
#Smiles N/A
#INCHI_AUX N/A
#Library_Class 3
#SpectrumID CCMSLIB00000006416
#IonMode Positive
#UpdateWorkflowName UPDATE-SINGLE-ANNOTATED-BRONZE
#LibraryQualityString Bronze
#TaskID d19310cd93df49b68e9fcbec27720eb5
##Scan# 1
#SpectrumFile Cilostazol.mgf
#LibraryName fda_library.mgf
#MQScore -1
#Organism fda_library
#TIC_Query 0
#RT_Query -1
#MZErrorPPM -1
#SharedPeaks 0
#MassDiff 0
#LibMZ -1
#SpecMZ 370.225
#SpecCharge 0
#internalFilename spec-00000.mgf

>collision 0
122.0611 0.27
125.0835 47.26
148.0758 0.27
164.071 4.5
176.0713 6.77
190.0874 0.33
202.0859 1.87
218.1174 6.75
245.127 0.88
288.1458 100.0
370.2238 300.35
