>compound MLS000859908-01!Cyproterone acetate
>formula C24H29ClO4
>ionization [M+H]+
>parentmass 417.183
#inchi InChI=1S/C24H29ClO4/c1-12(26)24(29-13(2)27)8-6-16-14-10-20(25)19-11-21(28)15-9-18(15)23(19,4)17(14)5-7-22(16,24)3/h10-11,14-18H,5-9H2,1-4H3/t14-,15+,16-,17-,18-,22-,23-,24-/m0/s1
#inchikey UWFYSQMTEOIJJG
#Ion_Source LC-ESI
#Instrument qTof
#Compound_Source NIH Pharmacologically Active Library
#PI Dorrestein
#Data_Collector VP/LMS
#Scan -1
#Precursor_MZ 417.183
#ExactMass 416.175
#Charge 1
#CAS_Number N/A
#Pubmed_ID N/A
#Smiles CC(=O)O[C@@]1(CC[C@H]2[C@@H]3C=C(Cl)C4=CC(=O)[C@@H]5C[C@@H]5[C@]4(C)[C@H]3CC[C@@]21C)C(=O)C
#INCHI_AUX N/A
#Library_Class 1
#SpectrumID CCMSLIB00000085063
#IonMode Positive
#UpdateWorkflowName UPDATE-SINGLE-ANNOTATED-GOLD
#LibraryQualityString Gold
#TaskID d252d724072548979f1f6f1ced849daf
##Scan# 2420
#SpectrumFile p3-E05_GE5_01_18274.mzXML
#LibraryName Pharm_Active_Library.mgf
#MQScore -1
#Organism Pharm_Active_Library
#TIC_Query 0
#RT_Query -1
#MZErrorPPM -1
#SharedPeaks 0
#MassDiff 0
#LibMZ -1
#SpecMZ 417.183
#SpecCharge 0
#internalFilename spec-00000.mgf

>collision 0
105.0699 30.18
117.0698 13.8
119.0863 16.02
129.0706 16.7
131.0855 17.66
133.1014 70.39
141.07 12.99
142.0768 19.43
143.0857 24.81
145.101 29.07
147.0814 14.51
147.1167 49.34
155.0851 17.43
157.1009 26.51
158.0731 13.37
159.0803 21.86
159.1164 14.61
167.085 16.94
169.1005 13.65
171.0804 13.46
171.1167 18.09
175.1112 15.29
181.0996 15.78
183.1176 26.39
185.0972 21.8
193.1013 23.17
195.1175 21.57
197.1321 16.15
207.1169 17.43
209.0967 12.86
219.1181 20.52
220.1254 15.42
221.1314 24.85
223.1104 15.38
233.1337 16.38
235.1108 14.8
235.1481 35.67
237.1268 15.19
246.1416 14.33
249.1278 16.83
249.1629 12.86
250.1694 14.14
251.1433 13.8
260.1556 12.84
261.1639 29.97
263.1441 62.12
264.1487 28.39
277.1592 57.44
278.1666 36.09
279.1753 100.0
299.1204 13.99
313.1369 43.45
314.1424 37.97
417.1877 0.0
