>compound Propranolol HCl
>formula C16H21NO2
>ionization [M+H]+
>parentmass 260.16450536409053
#inchi InChI=1S/C16H21NO2/c1-12(2)17-10-14(18)11-19-16-9-5-7-13-6-3-4-8-15(13)16/h3-9,12,14,17-18H,10-11H2,1-2H3
#inchikey AQHHHDLHHXJYJD
#origInchi InChI=1S/C16H21NO2.ClH/c1-12(2)17-10-14(18)11-19-16-9-5-7-13-6-3-4-8-15(13)16;/h3-9,12,14,17-18H,10-11H2,1-2H3;1H
#Ion_Source LC-ESI
#Instrument qTof
#Compound_Source Commercial
#PI Dorrestein
#Data_Collector Garg_Neha
#Scan -1
#Precursor_MZ 260.165
#ExactMass 259.157
#Charge 1
#CAS_Number 318-98-9
#Pubmed_ID N/A
#Smiles C1(=CC=C2C(=C1)C(=CC=C2)OCC(CNC(C)C)O).Cl
#INCHI_AUX N/A
#Library_Class 1
#SpectrumID CCMSLIB00000078648
#IonMode Positive
#UpdateWorkflowName UPDATE-SINGLE-ANNOTATED-GOLD
#LibraryQualityString Gold
#TaskID 77f51c88eb8b467eb4a01dd2d0cb90d2
##Scan# 1102
#SpectrumFile Plate10_41_64_GC3_01_15747.mzXML
#LibraryName FDALibrary_2_04302014.mgf
#MQScore -1
#Organism FDALibrary_2_04302014
#TIC_Query 0
#RT_Query -1
#MZErrorPPM -1
#SharedPeaks 0
#MassDiff 0
#LibMZ -1
#SpecMZ 260.165
#SpecCharge 0
#internalFilename spec-00000.mgf

>collision 0
98.0966 16.49
115.0538 3.35
116.1072 77.91
128.0616 6.4
129.0701 23.52
141.0696 6.58
143.0485 4.21
145.0648 9.95
153.0709 12.94
154.0781 4.35
155.0853 72.42
156.0567 1.83
157.0645 46.23
165.0697 18.76
168.0567 6.35
169.063 1.56
181.0637 1.49
182.0709 2.08
183.0809 100.0
199.1114 1.64
200.1076 2.1
201.0902 1.41
218.1181 33.84
225.1283 2.73
242.1537 8.54
260.1669 910.14
