>compound MLS000859964-01!N6-2-(4-Aminophenyl)ethyladenosine
>formula C18H22N6O4
>ionization [M+H]+
>parentmass 387.1775296360905
#inchi InChI=1S/C18H22N6O4/c19-11-3-1-10(2-4-11)5-6-20-16-13-17(22-8-21-16)24(9-23-13)18-15(27)14(26)12(7-25)28-18/h1-4,8-9,12,14-15,18,25-27H,5-7,19H2,(H,20,21,22)/t12-,14-,15-,18-/m1/s1
#inchikey XTPOZVLRZZIEBW
#Ion_Source LC-ESI
#Instrument qTof
#Compound_Source NIH Pharmacologically Active Library
#PI Dorrestein
#Data_Collector VP/LMS
#Scan -1
#Precursor_MZ 387.181
#ExactMass 386.17
#Charge 1
#CAS_Number N/A
#Pubmed_ID N/A
#Smiles Nc1ccc(CCNc2ncnc3n(cnc23)[C@@H]4O[C@H](CO)[C@@H](O)[C@H]4O)cc1
#INCHI_AUX N/A
#Library_Class 1
#SpectrumID CCMSLIB00000085793
#IonMode Positive
#UpdateWorkflowName UPDATE-SINGLE-ANNOTATED-GOLD
#LibraryQualityString Gold
#TaskID d252d724072548979f1f6f1ced849daf
##Scan# 1118
#SpectrumFile p4-F07_GF7_01_18391.mzXML
#LibraryName Pharm_Active_Library.mgf
#MQScore -1
#Organism Pharm_Active_Library
#TIC_Query 0
#RT_Query -1
#MZErrorPPM -1
#SharedPeaks 0
#MassDiff 0
#LibMZ -1
#SpecMZ 387.181
#SpecCharge 0
#internalFilename spec-00000.mgf

>collision 0
93.0584 0.76
94.0647 1.44
103.0528 4.57
118.0636 1.86
119.0713 1.55
120.0805 100.0
255.134 33.71
387.1775 0.0
