>compound 15687-27-1
>formula C13H18O2 
>ionization [M+H]+
>parentmass 207.138
#inchi InChI=1S/C13H18O2/c1-9(2)8-11-4-6-12(7-5-11)10(3)13(14)15/h4-7,9-10H,8H2,1-3H3,(H,14,15)
#inchikey HEFNNWSXXWATRW
#Ion_Source LC-ESI
#Instrument qTof
#Compound_Source Commercial
#PI Dorrestein
#Data_Collector Garg_Neha
#Scan -1
#Precursor_MZ 207.138
#ExactMass 206.131
#Charge 1
#CAS_Number N/A
#Pubmed_ID N/A
#Smiles N/A
#INCHI_AUX N/A
#Library_Class 1
#SpectrumID CCMSLIB00000076982
#IonMode Positive
#UpdateWorkflowName UPDATE-SINGLE-ANNOTATED-GOLD
#LibraryQualityString Gold
#TaskID 48f7f52fc6d249b5abbcc6e7b3df5969
##Scan# 2033
#SpectrumFile NCP002928_C2_D11_BA3_01_15697.mzXML
#LibraryName NIH_Clinical_Collection_2.mgf
#MQScore -1
#Organism NIHcollection2_04212014_2_mgf
#TIC_Query 0
#RT_Query -1
#MZErrorPPM -1
#SharedPeaks 0
#MassDiff 0
#LibMZ -1
#SpecMZ 207.138
#SpecCharge 0
#internalFilename spec-00000.mgf

>collision 0
74.0353 2.99
105.0698 7.84
117.0716 2.24
119.0846 17.38
161.1323 100.0
207.138 0.0
