>compound MLS001074701-01!(E)-6-(4-hydroxy-6-methoxy-7-methyl-3-oxo-1H-2-benzofuran-5-yl)-4-methylhex-4-enoic acid
>formula C17H20O6
>ionization [M+H]+
>parentmass 321.134
#inchi InChI=1S/C17H20O6/c1-9(5-7-13(18)19)4-6-11-15(20)14-12(8-23-17(14)21)10(2)16(11)22-3/h4,20H,5-8H2,1-3H3,(H,18,19)/b9-4+
#inchikey HPNSFSBZBAHARI
#Ion_Source LC-ESI
#Instrument qTof
#Compound_Source NIH Natural Product Library
#PI Dorrestein
#Data_Collector VVP/LMS
#Scan -1
#Precursor_MZ 321.134
#ExactMass 320.126
#Charge 1
#CAS_Number N/A
#Pubmed_ID N/A
#Smiles COc1c(C)c2COC(=O)c2c(O)c1C/C=C(\C)/CCC(=O)O
#INCHI_AUX N/A
#Library_Class 1
#SpectrumID CCMSLIB00000079956
#IonMode Positive
#UpdateWorkflowName UPDATE-SINGLE-ANNOTATED-GOLD
#LibraryQualityString Gold
#TaskID b1d8e8f6646f4e71acdff9ca3d919d08
##Scan# 2027
#SpectrumFile p2-C02_GC2_01_18002.mzXML
#LibraryName NIH_Natural_Products_Library.mgf
#MQScore -1
#Organism NIH_Natural_Products_Library
#TIC_Query 0
#RT_Query -1
#MZErrorPPM -1
#SharedPeaks 0
#MassDiff 0
#LibMZ -1
#SpecMZ 321.134
#SpecCharge 0
#internalFilename spec-00000.mgf

>collision 0
102.0466 1.15
103.0552 8.79
131.0495 4.62
141.0318 0.87
149.0593 2.1
159.0451 73.58
177.056 25.14
179.0707 2.36
195.0643 5.58
207.0664 100.0
225.0774 0.81
321.134 0.0
