>compound MLS002639189-01!
>formula C15H28N2O
>ionization [M+H]+
>parentmass 253.227692
#inchi InChI=1S/C15H28N2O/c18-15(16-11-13-7-3-1-4-8-13)17-12-14-9-5-2-6-10-14/h13-14H,1-12H2,(H2,16,17,18)
#inchikey SVZORQBLCFZGBK
#Ion_Source LC-ESI
#Instrument qTof
#Compound_Source NIH Natural Product Library
#PI Dorrestein
#Data_Collector VVP/LMS
#Scan -1
#Precursor_MZ 253.228
#ExactMass 252.22
#Charge 1
#CAS_Number N/A
#Pubmed_ID N/A
#Smiles O=C(NCC1CCCCC1)NCC2CCCCC2
#INCHI_AUX N/A
#Library_Class 1
#SpectrumID CCMSLIB00000079378
#IonMode Positive
#UpdateWorkflowName UPDATE-SINGLE-ANNOTATED-GOLD
#LibraryQualityString Gold
#TaskID b1d8e8f6646f4e71acdff9ca3d919d08
##Scan# 2414
#SpectrumFile p1-D05_GD5_01_17913.mzXML
#LibraryName NIH_Natural_Products_Library.mgf
#MQScore -1
#Organism NIH_Natural_Products_Library
#TIC_Query 0
#RT_Query -1
#MZErrorPPM -1
#SharedPeaks 0
#MassDiff 0
#LibMZ -1
#SpecMZ 253.228
#SpecCharge 0
#internalFilename spec-00000.mgf

>collision 0
97.102 100.0
99.1053 1.33
114.1285 89.67
157.1342 75.86
253.2277 148.73
