>compound Brucine
>formula C23H26N2O4
>ionization [M+Na]+
>parentmass 417.178
#inchi InChI=1S/C23H26N2O4/c1-27-16-8-14-15(9-17(16)28-2)25-20(26)10-18-21-13-7-19-23(14,22(21)25)4-5-24(19)11-12(13)3-6-29-18/h3,8-9,13,18-19,21-22H,4-7,10-11H2,1-2H3/t13-,18-,19-,21-,22-,23+/m0/s1
#inchikey RRKTZKIUPZVBMF
#Ion_Source LC-ESI
#Instrument qTof
#Compound_Source Commercial
#PI Dorrestein
#Data_Collector Garg_Neha
#Scan -1
#Precursor_MZ 417.178
#ExactMass 394.189
#Charge 1
#CAS_Number N/A
#Pubmed_ID N/A
#Smiles COc1cc2N3[C@H]4[C@H]5[C@H]6C[C@@H]7N(CC[C@@]74c2cc1OC)CC6=CCO[C@H]5CC3=O
#INCHI_AUX N/A
#Library_Class 1
#SpectrumID CCMSLIB00000079093
#IonMode Positive
#UpdateWorkflowName UPDATE-SINGLE-ANNOTATED-GOLD
#LibraryQualityString Gold
#TaskID 278b19f5865741e282cec7349aa7e7a1
##Scan# 2065
#SpectrumFile NCP003432_G2_H11_BD3_01_15725.mzXML
#LibraryName NIHcollectionI_05062014.mgf
#MQScore -1
#Organism NIHcollectionI_05062014
#TIC_Query 0
#RT_Query -1
#MZErrorPPM -1
#SharedPeaks 0
#MassDiff 0
#LibMZ -1
#SpecMZ 417.178
#SpecCharge 0
#internalFilename spec-00000.mgf

>collision 0
171.1015 3.22
183.1038 6.6
192.0795 3.63
226.0853 12.94
228.1014 4.29
239.0851 3.22
242.0822 3.87
253.0719 5.52
254.0818 8.66
259.0722 3.05
270.0634 3.3
271.0836 21.27
283.0687 10.14
284.0766 12.78
285.0672 3.13
287.0807 4.95
301.0808 50.12
302.0839 11.05
303.0735 31.08
304.071 5.36
317.0776 100.0
318.0791 8.99
331.0947 5.28
343.1297 95.38
344.1316 16.74
345.1082 3.54
359.1224 14.1
376.1189 39.74
417.178 0.0
