>compound MLS000069729-01!603-50-9
>formula C22H19NO4
>ionization [M+H]+
>parentmass 362.137146
#inchi InChI=1S/C22H19NO4/c1-15(24)26-19-10-6-17(7-11-19)22(21-5-3-4-14-23-21)18-8-12-20(13-9-18)27-16(2)25/h3-14,22H,1-2H3
#inchikey KHOITXIGCFIULA
#Ion_Source LC-ESI
#Instrument qTof
#Compound_Source NIH Pharmacologically Active Library
#PI Dorrestein
#Data_Collector VP/LMS
#Scan -1
#Precursor_MZ 362.138
#ExactMass 361.131
#Charge 1
#CAS_Number N/A
#Pubmed_ID N/A
#Smiles CC(=O)Oc1ccc(cc1)C(c2ccc(OC(=O)C)cc2)c3ccccn3
#INCHI_AUX N/A
#Library_Class 1
#SpectrumID CCMSLIB00000085931
#IonMode Positive
#UpdateWorkflowName UPDATE-SINGLE-ANNOTATED-GOLD
#LibraryQualityString Gold
#TaskID d252d724072548979f1f6f1ced849daf
##Scan# 1817
#SpectrumFile p4-H03_GH3_01_18411.mzXML
#LibraryName Pharm_Active_Library.mgf
#MQScore -1
#Organism Pharm_Active_Library
#TIC_Query 0
#RT_Query -1
#MZErrorPPM -1
#SharedPeaks 0
#MassDiff 0
#LibMZ -1
#SpecMZ 362.138
#SpecCharge 0
#internalFilename spec-00000.mgf

>collision 0
128.0622 0.28
129.0681 0.47
139.0541 0.41
154.0651 2.11
156.0809 3.89
166.065 1.44
167.0738 24.96
170.06 0.4
183.0684 27.61
184.0775 100.0
199.0754 0.41
226.0862 2.84
362.136 1.36
