>compound MLS001148665-01!94-20-2
>formula C10H13ClN2O3S
>ionization [M+H]+
>parentmass 277.04081740809056
#inchi InChI=1S/C10H13ClN2O3S/c1-2-7-12-10(14)13-17(15,16)9-5-3-8(11)4-6-9/h3-6H,2,7H2,1H3,(H2,12,13,14)
#inchikey RKWGIWYCVPQPMF
#Ion_Source LC-ESI
#Instrument qTof
#Compound_Source NIH Pharmacologically Active Library
#PI Dorrestein
#Data_Collector VP/LMS
#Scan -1
#Precursor_MZ 277.043
#ExactMass 276.034
#Charge 1
#CAS_Number N/A
#Pubmed_ID N/A
#Smiles CCCNC(=O)NS(=O)(=O)c1ccc(Cl)cc1
#INCHI_AUX N/A
#Library_Class 1
#SpectrumID CCMSLIB00000085435
#IonMode Positive
#UpdateWorkflowName UPDATE-SINGLE-ANNOTATED-GOLD
#LibraryQualityString Gold
#TaskID d252d724072548979f1f6f1ced849daf
##Scan# 1839
#SpectrumFile p4-A09_GA9_01_18333.mzXML
#LibraryName Pharm_Active_Library.mgf
#MQScore -1
#Organism Pharm_Active_Library
#TIC_Query 0
#RT_Query -1
#MZErrorPPM -1
#SharedPeaks 0
#MassDiff 0
#LibMZ -1
#SpecMZ 277.043
#SpecCharge 0
#internalFilename spec-00000.mgf

>collision 0
87.0313 2.19
93.0347 3.33
98.9984 2.6
111.001 95.0
112.9988 34.81
113.9851 5.44
114.9953 20.11
126.0116 3.78
126.9948 7.84
129.0107 24.45
139.0067 100.0
140.0104 5.48
142.0088 3.13
174.9622 51.46
191.9863 9.46
277.0408 0.0
