>compound MLS002153941-01!Delcorine52358-55-1
>formula C26H41NO7
>ionization [M+H]+
>parentmass 480.296478
#inchi InChI=1S/C26H41NO7/c1-6-27-11-23(12-29-2)8-7-17(31-4)25-15-9-14-16(30-3)10-24(18(15)19(14)32-5)26(22(25)27,34-13-33-24)21(28)20(23)25/h14-22,28H,6-13H2,1-5H3/t14-,15-,16+,17+,18-,19+,20-,21+,22?,23+,24-,25+,26-/m1/s1
#inchikey XTLROSDJDZHIIK
#Ion_Source LC-ESI
#Instrument qTof
#Compound_Source NIH Pharmacologically Active Library
#PI Dorrestein
#Data_Collector VP/LMS
#Scan -1
#Precursor_MZ 480.3
#ExactMass 479.288
#Charge 1
#CAS_Number N/A
#Pubmed_ID N/A
#Smiles CCN1C[C@]2(COC)CC[C@H](OC)[C@]3([C@@H]4C[C@H]5[C@H](OC)[C@@H]4[C@@]6(C[C@@H]5OC)OCO[C@]76[C@@H](O)[C@@H]32)C17
#INCHI_AUX N/A
#Library_Class 1
#SpectrumID CCMSLIB00000084810
#IonMode Positive
#UpdateWorkflowName UPDATE-SINGLE-ANNOTATED-GOLD
#LibraryQualityString Gold
#TaskID d252d724072548979f1f6f1ced849daf
##Scan# 1386
#SpectrumFile p3-A11_GA11_01_18232.mzXML
#LibraryName Pharm_Active_Library.mgf
#MQScore -1
#Organism Pharm_Active_Library
#TIC_Query 0
#RT_Query -1
#MZErrorPPM -1
#SharedPeaks 0
#MassDiff 0
#LibMZ -1
#SpecMZ 480.3
#SpecCharge 0
#internalFilename spec-00000.mgf

>collision 0
108.0808 8.86
122.0971 5.3
143.0853 3.48
154.1229 4.53
155.0858 5.77
167.0853 5.31
179.0868 4.08
181.1004 5.3
185.0952 3.94
192.0944 4.1
193.1016 5.53
195.1151 3.78
202.1229 3.41
204.1388 7.98
205.1008 5.62
207.1168 3.79
209.1312 3.57
216.1374 5.84
219.1167 4.72
221.1312 6.42
223.1106 4.06
235.1107 3.97
237.1272 7.38
249.125 4.91
260.1645 4.74
294.1868 4.99
297.1493 3.76
310.1822 3.49
312.1945 3.85
326.2103 12.08
336.1954 3.66
340.2259 4.16
354.2063 17.88
356.2216 5.43
358.2351 14.57
368.2222 9.53
372.2555 6.36
386.2331 48.07
390.2609 9.11
400.2482 21.75
401.2527 9.0
418.2593 65.4
419.2643 24.89
420.2732 4.3
430.2588 5.4
448.271 100.0
449.2746 31.31
480.2981 373.39
