>compound Esomeprazole
>formula C17H19N3O3S
>ionization [M+H]+
>parentmass 346.12
#inchi InChI=1S/C17H19N3O3S/c1-10-8-18-15(11(2)16(10)23-4)9-24(21)17-19-13-6-5-12(22-3)7-14(13)20-17/h5-8H,9H2,1-4H3,(H,19,20)/t24-/m1/s1
#inchikey SUBDBMMJDZJVOS
#Ion_Source DI-ESI
#Instrument qTof
#Compound_Source Commercial
#PI Norberto Lopes
#Data_Collector Norberto Lopes
#Scan -1
#Precursor_MZ 346.12
#ExactMass 345.115
#Charge 1
#CAS_Number 119141-88-7
#Pubmed_ID N/A
#Smiles O=[S@](CC1=C(C)C(OC)=C(C)C=N1)C2=NC3=CC(OC)=CC=C3N2
#INCHI_AUX N/A
#Library_Class 3
#SpectrumID CCMSLIB00000081581
#IonMode Positive
#UpdateWorkflowName UPDATE-SINGLE-ANNOTATED-BRONZE
#LibraryQualityString Bronze
#TaskID 4a07f16a650f4095b43fe6b0b09ff8bb
##Scan# 1
#SpectrumFile gnps_Esomeprazole_pos_MplusH.mgf
#LibraryName gnps_library.mgf
#MQScore -1
#Organism batch_27_05
#TIC_Query 0
#RT_Query -1
#MZErrorPPM -1
#SharedPeaks 0
#MassDiff 0
#LibMZ -1
#SpecMZ 346.12
#SpecCharge 0
#internalFilename spec-00000.mgf

>collision 0
108.0771 0.21
120.0762 4.06
121.0832 10.56
122.0915 6.19
136.07 100.0
150.0861 31.91
151.0936 81.2
165.0194 4.35
166.0816 2.85
168.0968 21.03
180.0427 68.61
183.0469 0.84
200.051 3.19
255.1042 0.38
346.12 0.0
