>compound MLS001032112-01!
>formula C13H11N3O2
>ionization [M+H]+
>parentmass 242.09053
#inchi InChI=1S/C13H11N3O2/c17-12-4-2-1-3-11(12)9-15-16-13(18)10-5-7-14-8-6-10/h1-9,17H,(H,16,18)
#inchikey VBIZUNYMJSPHBH
#Ion_Source LC-ESI
#Instrument qTof
#Compound_Source NIH Pharmacologically Active Library
#PI Dorrestein
#Data_Collector VP/LMS
#Scan -1
#Precursor_MZ 242.093
#ExactMass 241.085
#Charge 1
#CAS_Number N/A
#Pubmed_ID N/A
#Smiles Oc1ccccc1C=NNC(=O)c2ccncc2
#INCHI_AUX N/A
#Library_Class 1
#SpectrumID CCMSLIB00000084996
#IonMode Positive
#UpdateWorkflowName UPDATE-SINGLE-ANNOTATED-GOLD
#LibraryQualityString Gold
#TaskID d252d724072548979f1f6f1ced849daf
##Scan# 1542
#SpectrumFile p3-D07_GD7_01_18264.mzXML
#LibraryName Pharm_Active_Library.mgf
#MQScore -1
#Organism Pharm_Active_Library
#TIC_Query 0
#RT_Query -1
#MZErrorPPM -1
#SharedPeaks 0
#MassDiff 0
#LibMZ -1
#SpecMZ 242.093
#SpecCharge 0
#internalFilename spec-00000.mgf

>collision 0
93.0447 4.01
95.0602 5.79
96.0444 0.67
103.0292 0.54
105.0454 70.24
106.0284 1.65
121.0401 100.0
123.0552 29.5
148.0504 2.93
157.0879 0.97
167.0731 0.66
185.0835 2.01
242.0902 5.34
