>compound Rifabutin
>formula C46H62N4O11 
>ionization [M+H]+
>parentmass 847.4487852560906
#inchi InChI=1S/C46H62N4O11/c1-22(2)21-50-18-16-46(17-19-50)48-34-31-32-39(54)28(8)42-33(31)43(56)45(10,61-42)59-20-15-30(58-11)25(5)41(60-29(9)51)27(7)38(53)26(6)37(52)23(3)13-12-14-24(4)44(57)47-36(40(32)55)35(34)49-46/h12-15,20,22-23,25-27,30,37-38,41,49,52-54H,16-19,21H2,1-11H3,(H,47,57)/b13-12+,20-15+,24-14-/t23-,25+,26+,27+,30-,37-,38+,41+,45-/m0/s1
#inchikey ATEBXHFBFRCZMA
#Ion_Source LC-ESI
#Instrument qTof
#Compound_Source Isolated
#PI Sirenas
#Data_Collector Ed Esquenazi 
#Scan -1
#Precursor_MZ 847.45
#ExactMass 0.0
#Charge 1
#CAS_Number N/A
#Pubmed_ID N/A
#Smiles N/A
#INCHI_AUX N/A
#Library_Class 3
#SpectrumID CCMSLIB00000005088
#IonMode Positive
#UpdateWorkflowName UPDATE-SINGLE-ANNOTATED-BRONZE
#LibraryQualityString Bronze
#TaskID d19310cd93df49b68e9fcbec27720eb5
##Scan# 3
#SpectrumFile Rifabutin.mgf
#LibraryName fda_library.mgf
#MQScore -1
#Organism fda_library
#TIC_Query 0
#RT_Query -1
#MZErrorPPM -1
#SharedPeaks 0
#MassDiff 0
#LibMZ -1
#SpecMZ 847.45
#SpecCharge 0
#internalFilename spec-00000.mgf

>collision 0
107.0859 4.06
109.064 2.19
109.1012 1.48
111.0811 2.52
121.0654 1.24
123.079 6.1
135.0789 2.62
135.1157 1.9
137.0971 2.26
147.1179 1.44
151.0751 12.83
153.0895 1.6
161.0961 2.65
163.11 4.36
175.1114 1.78
179.1057 2.69
191.1079 4.01
321.0867 4.11
338.1105 2.92
424.2078 2.87
517.243 1.29
545.2738 1.65
573.2644 3.85
632.32 3.57
652.3015 2.12
670.309 2.88
684.3231 1.35
695.3416 1.2
701.3864 1.2
712.3276 2.1
716.3166 3.4
730.3335 6.67
737.3874 4.5
755.4001 37.31
769.4167 2.73
773.3708 2.79
787.4283 4.07
797.4084 4.65
815.4222 100.0
847.4477 15.78
