>compound MLS001074901-01!erythromycin ethylsuccinate
>formula C43H75NO16
>ionization [M+H]+
>parentmass 862.5158617720906
#inchi InChI=1S/C43H75NO16/c1-15-29-43(11,52)36(48)24(5)33(47)22(3)20-41(9,51)38(25(6)34(26(7)39(50)57-29)59-32-21-42(10,53-14)37(49)27(8)56-32)60-40-35(28(44(12)13)19-23(4)55-40)58-31(46)18-17-30(45)54-16-2/h22-29,32,34-38,40,48-49,51-52H,15-21H2,1-14H3/t22-,23-,24+,25+,26-,27+,28+,29-,32+,34+,35-,36-,37+,38-,40+,41-,42-,43-/m1/s1
#inchikey NSYZCCDSJNWWJL
#Ion_Source LC-ESI
#Instrument qTof
#Compound_Source NIH Pharmacologically Active Library
#PI Dorrestein
#Data_Collector VP/LMS
#Scan -1
#Precursor_MZ 862.532
#ExactMass 861.509
#Charge 1
#CAS_Number N/A
#Pubmed_ID N/A
#Smiles CCOC(=O)CCC(=O)O[C@@H]1[C@H](C[C@@H](C)O[C@H]1O[C@@H]2[C@@H](C)[C@H](O[C@H]3C[C@@](C)(OC)[C@@H](O)[C@H](C)O3)[C@@H](C)C(=O)O[C@H](CC)[C@@](C)(O)[C@H](O)[C@@H](C)C(=O)[C@H](C)C[C@@]2(C)O)N(C)C
#INCHI_AUX N/A
#Library_Class 1
#SpectrumID CCMSLIB00000086045
#IonMode Positive
#UpdateWorkflowName UPDATE-SINGLE-ANNOTATED-GOLD
#LibraryQualityString Gold
#TaskID d252d724072548979f1f6f1ced849daf
##Scan# 1866
#SpectrumFile p5-C03_GC3_01_18448.mzXML
#LibraryName Pharm_Active_Library.mgf
#MQScore -1
#Organism Pharm_Active_Library
#TIC_Query 0
#RT_Query -1
#MZErrorPPM -1
#SharedPeaks 0
#MassDiff 0
#LibMZ -1
#SpecMZ 862.532
#SpecCharge 0
#internalFilename spec-00000.mgf

>collision 0
95.05 0.39
97.0279 1.25
97.0649 0.39
98.0969 14.23
100.0765 0.21
101.0244 28.87
112.1117 0.91
113.0601 0.44
116.1074 17.28
123.0807 0.34
129.0555 46.45
140.1072 11.89
158.118 21.62
171.0649 2.64
198.0757 0.32
228.1229 0.58
286.1645 100.0
304.1737 0.26
844.5057 0.22
862.5077 2.07
