>compound MLS000090052-01!N-{4-[(4-aminophenyl)sulfonyl]phenyl}acetamide
>formula C14H14N2O3S
>ionization [M+H]+
>parentmass 291.081
#inchi InChI=1S/C14H14N2O3S/c1-10(17)16-12-4-8-14(9-5-12)20(18,19)13-6-2-11(15)3-7-13/h2-9H,15H2,1H3,(H,16,17)
#inchikey WDOCBIHNYYQINH
#Ion_Source LC-ESI
#Instrument qTof
#Compound_Source NIH Pharmacologically Active Library
#PI Dorrestein
#Data_Collector VP/LMS
#Scan -1
#Precursor_MZ 291.081
#ExactMass 290.073
#Charge 1
#CAS_Number N/A
#Pubmed_ID N/A
#Smiles CC(=O)Nc1ccc(cc1)S(=O)(=O)c2ccc(N)cc2
#INCHI_AUX N/A
#Library_Class 1
#SpectrumID CCMSLIB00000084790
#IonMode Positive
#UpdateWorkflowName UPDATE-SINGLE-ANNOTATED-GOLD
#LibraryQualityString Gold
#TaskID d252d724072548979f1f6f1ced849daf
##Scan# 1540
#SpectrumFile p3-A09_GA9_01_18230.mzXML
#LibraryName Pharm_Active_Library.mgf
#MQScore -1
#Organism Pharm_Active_Library
#TIC_Query 0
#RT_Query -1
#MZErrorPPM -1
#SharedPeaks 0
#MassDiff 0
#LibMZ -1
#SpecMZ 291.081
#SpecCharge 0
#internalFilename spec-00000.mgf

>collision 0
88.0305 2.81
92.0496 5.55
93.0574 16.45
95.9878 2.88
96.0444 3.95
98.9885 3.14
108.0451 100.0
109.027 2.81
124.0196 2.88
130.065 3.55
134.0599 21.81
139.0751 3.48
140.0165 3.14
156.0119 24.62
198.0219 7.42
215.062 3.48
291.0818 0.0
