>compound MLS001332501-01!DEMECOLCINE
>formula C21H25NO5
>ionization [M+H]+
>parentmass 372.179352
#inchi InChI=1S/C21H25NO5/c1-22-15-8-6-12-10-18(25-3)20(26-4)21(27-5)19(12)13-7-9-17(24-2)16(23)11-14(13)15/h7,9-11,15,22H,6,8H2,1-5H3/t15-/m0/s1
#inchikey NNJPGOLRFBJNIW
#Ion_Source LC-ESI
#Instrument qTof
#Compound_Source NIH Pharmacologically Active Library
#PI Dorrestein
#Data_Collector VP/LMS
#Scan -1
#Precursor_MZ 372.181
#ExactMass 371.173
#Charge 1
#CAS_Number N/A
#Pubmed_ID N/A
#Smiles CN[C@H]1CCc2cc(OC)c(OC)c(OC)c2-c3ccc(OC)c(=O)cc13
#INCHI_AUX N/A
#Library_Class 1
#SpectrumID CCMSLIB00000085399
#IonMode Positive
#UpdateWorkflowName UPDATE-SINGLE-ANNOTATED-GOLD
#LibraryQualityString Gold
#TaskID d252d724072548979f1f6f1ced849daf
##Scan# 1388
#SpectrumFile p4-A04_GA4_01_18328.mzXML
#LibraryName Pharm_Active_Library.mgf
#MQScore -1
#Organism Pharm_Active_Library
#TIC_Query 0
#RT_Query -1
#MZErrorPPM -1
#SharedPeaks 0
#MassDiff 0
#LibMZ -1
#SpecMZ 372.181
#SpecCharge 0
#internalFilename spec-00000.mgf

>collision 0
211.0752 33.48
213.0897 27.3
223.0766 53.85
224.0832 44.85
227.069 37.81
235.0775 43.55
236.0833 33.59
237.0898 27.09
239.1044 37.7
240.0802 47.02
241.0858 60.24
252.0776 75.73
253.0881 44.96
255.0671 34.13
255.1022 34.99
256.1088 61.21
263.0717 35.75
264.1018 70.42
265.0867 43.34
267.1007 93.93
268.0731 46.59
269.0801 49.51
271.0952 37.7
281.0811 29.47
282.115 98.92
283.0975 50.16
284.1025 59.59
285.0755 34.45
293.1067 48.0
295.096 89.71
298.1094 36.62
299.0896 27.41
300.101 28.17
308.1253 32.18
312.1596 43.23
324.1227 49.19
325.1307 47.24
326.1124 43.01
340.1521 38.14
342.1336 52.0
372.1795 30.23
