>compound ORLISTAT
>formula C29H53NO5
>ionization [M+Na]+
>parentmass 518.3815944960905
#inchi InChI=1S/C29H53NO5/c1-5-7-9-11-12-13-14-15-16-18-24(34-29(33)26(30-22-31)20-23(3)4)21-27-25(28(32)35-27)19-17-10-8-6-2/h22-27H,5-21H2,1-4H3,(H,30,31)/t24-,25-,26-,27-/m0/s1
#inchikey AHLBNYSZXLDEJQ
#Ion_Source LC-ESI
#Instrument qTof
#Compound_Source Commercial
#PI Dorrestein
#Data_Collector Garg_Neha
#Scan -1
#Precursor_MZ 518.382
#ExactMass 495.392
#Charge 1
#CAS_Number N/A
#Pubmed_ID N/A
#Smiles CCCCCCCCCCC[C@@H](C[C@@H]1OC(=O)[C@H]1CCCCCC)OC(=O)[C@H](CC(C)C)NC=O
#INCHI_AUX N/A
#Library_Class 1
#SpectrumID CCMSLIB00000079004
#IonMode Positive
#UpdateWorkflowName UPDATE-SINGLE-ANNOTATED-GOLD
#LibraryQualityString Gold
#TaskID 278b19f5865741e282cec7349aa7e7a1
##Scan# 4420
#SpectrumFile NCP003352_E2_F11_BC6_01_15720.mzXML
#LibraryName NIHcollectionI_05062014.mgf
#MQScore -1
#Organism NIHcollectionI_05062014
#TIC_Query 0
#RT_Query -1
#MZErrorPPM -1
#SharedPeaks 0
#MassDiff 0
#LibMZ -1
#SpecMZ 518.382
#SpecCharge 0
#internalFilename spec-00000.mgf

>collision 0
154.0848 0.51
182.0804 34.49
392.2794 0.36
518.3864 95.96
