>compound MLS002153518-01!N-[2-(4-(4-Chlorophenyl)piperazin-1-yl)ethyl]-3-methoxybenzamide
>formula C20H24ClN3O2
>ionization [M+H]+
>parentmass 374.163483
#inchi InChI=1S/C20H24ClN3O2/c1-26-19-4-2-3-16(15-19)20(25)22-9-10-23-11-13-24(14-12-23)18-7-5-17(21)6-8-18/h2-8,15H,9-14H2,1H3,(H,22,25)
#inchikey DQVARXSGNFBPMB
#Ion_Source LC-ESI
#Instrument qTof
#Compound_Source NIH Pharmacologically Active Library
#PI Dorrestein
#Data_Collector VP/LMS
#Scan -1
#Precursor_MZ 374.166
#ExactMass 373.156
#Charge 1
#CAS_Number N/A
#Pubmed_ID N/A
#Smiles COc1cccc(c1)C(=O)NCCN2CCN(CC2)c3ccc(Cl)cc3
#INCHI_AUX N/A
#Library_Class 1
#SpectrumID CCMSLIB00000085995
#IonMode Positive
#UpdateWorkflowName UPDATE-SINGLE-ANNOTATED-GOLD
#LibraryQualityString Gold
#TaskID d252d724072548979f1f6f1ced849daf
##Scan# 1677
#SpectrumFile p5-A03_GA3_01_18432.mzXML
#LibraryName Pharm_Active_Library.mgf
#MQScore -1
#Organism Pharm_Active_Library
#TIC_Query 0
#RT_Query -1
#MZErrorPPM -1
#SharedPeaks 0
#MassDiff 0
#LibMZ -1
#SpecMZ 374.166
#SpecCharge 0
#internalFilename spec-00000.mgf

>collision 0
92.0274 1.43
107.0509 11.0
119.0731 0.22
125.0609 3.49
130.065 0.2
135.0463 68.73
138.0109 0.98
154.043 0.75
163.063 1.6
166.043 1.51
178.0885 100.0
193.0516 0.26
197.0841 0.64
223.1016 1.85
374.1635 0.59
