>compound MLS001148459-01!(-)-BICUCULLINE METHIODIDE
>formula C21H20NO6
>ionization [M+H]+
>parentmass 383.13633881209057
#inchi InChI=1S/C21H20NO6/c1-22(2)6-5-11-7-15-16(26-9-25-15)8-13(11)18(22)19-12-3-4-14-20(27-10-24-14)17(12)21(23)28-19/h3-4,7-8,18-19H,5-6,9-10H2,1-2H3/q+1/t18-,19+/m0/s1
#inchikey WDIQXKYUSINZME
#origInchi InChI=1S/C21H20NO6.HI/c1-22(2)6-5-11-7-15-16(26-9-25-15)8-13(11)18(22)19-12-3-4-14-20(27-10-24-14)17(12)21(23)28-19;/h3-4,7-8,18-19H,5-6,9-10H2,1-2H3;1H/q+1;/p-1/t18-,19+;/m0./s1
#Ion_Source LC-ESI
#Instrument qTof
#Compound_Source NIH Pharmacologically Active Library
#PI Dorrestein
#Data_Collector VP/LMS
#Scan -1
#Precursor_MZ 382.13
#ExactMass 382.129
#Charge 1
#CAS_Number N/A
#Pubmed_ID N/A
#Smiles C[N+]1(C)CCc2cc3OCOc3cc2[C@H]1[C@@H]4OC(=O)c5c6OCOc6ccc45.[I-]
#INCHI_AUX N/A
#Library_Class 1
#SpectrumID CCMSLIB00000084970
#IonMode Positive
#UpdateWorkflowName UPDATE-SINGLE-ANNOTATED-GOLD
#LibraryQualityString Gold
#TaskID d252d724072548979f1f6f1ced849daf
##Scan# 1355
#SpectrumFile p3-D04_GD4_01_18261.mzXML
#LibraryName Pharm_Active_Library.mgf
#MQScore -1
#Organism Pharm_Active_Library
#TIC_Query 0
#RT_Query -1
#MZErrorPPM -1
#SharedPeaks 0
#MassDiff 0
#LibMZ -1
#SpecMZ 382.13
#SpecCharge 0
#internalFilename spec-00000.mgf

>collision 0
121.0275 7.92
145.0887 5.96
149.0231 14.86
174.0913 7.86
177.0178 24.02
188.0696 23.96
202.0856 6.45
203.0939 62.35
205.0628 24.63
233.0605 34.03
234.0677 10.01
247.0752 7.06
249.053 12.59
251.0705 11.12
261.0554 70.52
263.0695 18.12
277.0497 13.21
279.064 21.25
289.0516 100.0
290.0561 15.54
291.0663 28.81
292.0729 16.46
303.0664 30.16
304.0704 16.58
308.0673 7.37
309.075 10.07
319.0626 35.32
320.0676 15.79
321.0785 17.94
337.0707 7.06
339.0854 12.41
382.1304 32.62
383.1402 0.0
