>compound MLS001401381-01!Benzeneacetic acid, Alpha-(hydroxymethyl)-, 9-methyl-3-oxa-9-azatricyclo[3.3.1.02,4]non-7-yl ester, [7(S)-(1Alpha,2 ,4 ,5Alpha,7 )]- [CAS]
>formula C17H21NO4
>ionization [M+H]+
>parentmass 304.154419
#inchi InChI=1S/C17H21NO4/c1-18-13-7-11(8-14(18)16-15(13)22-16)21-17(20)12(9-19)10-5-3-2-4-6-10/h2-6,11-16,19H,7-9H2,1H3/t11?,12-,13-,14+,15-,16+/m1/s1
#inchikey STECJAGHUSJQJN
#origInchi InChI=1S/C17H21NO4.BrH.H2O/c1-18-13-7-11(8-14(18)16-15(13)22-16)21-17(20)12(9-19)10-5-3-2-4-6-10;;/h2-6,11-16,19H,7-9H2,1H3;1H;1H2/t11?,12-,13-,14+,15-,16+;;/m1../s1
#Ion_Source LC-ESI
#Instrument qTof
#Compound_Source NIH Pharmacologically Active Library
#PI Dorrestein
#Data_Collector VP/LMS
#Scan -1
#Precursor_MZ 304.159
#ExactMass 303.147
#Charge 1
#CAS_Number N/A
#Pubmed_ID N/A
#Smiles CN1[C@H]2CC(C[C@@H]1[C@H]3O[C@H]32)OC(=O)[C@H](CO)c4ccccc4.O.Br
#INCHI_AUX N/A
#Library_Class 1
#SpectrumID CCMSLIB00000085465
#IonMode Positive
#UpdateWorkflowName UPDATE-SINGLE-ANNOTATED-GOLD
#LibraryQualityString Gold
#TaskID d252d724072548979f1f6f1ced849daf
##Scan# 1168
#SpectrumFile p4-B04_GB4_01_18340.mzXML
#LibraryName Pharm_Active_Library.mgf
#MQScore -1
#Organism Pharm_Active_Library
#TIC_Query 0
#RT_Query -1
#MZErrorPPM -1
#SharedPeaks 0
#MassDiff 0
#LibMZ -1
#SpecMZ 304.159
#SpecCharge 0
#internalFilename spec-00000.mgf

>collision 0
91.0547 1.74
96.044 2.84
96.0804 2.19
97.0526 8.94
103.0551 83.42
106.0412 0.64
107.0481 1.55
108.0793 3.61
110.0614 4.05
110.0977 11.6
111.1033 1.24
120.0817 3.89
121.0659 29.78
123.0692 2.06
136.0765 0.94
138.0924 100.0
156.1023 31.67
304.1544 9.02
