>compound MLS002153296-01!L-750,667 trihydrochloride
>formula C18H19IN4
>ionization [M+H]+
>parentmass 419.07272106009054
#inchi InChI=1S/C18H19IN4/c19-15-3-5-16(6-4-15)23-10-8-22(9-11-23)13-14-12-21-18-17(14)2-1-7-20-18/h1-7,12H,8-11,13H2,(H,20,21)
#inchikey OOEUHRGMLFVKQO
#origInchi InChI=1S/C18H19IN4.ClH/c19-15-3-5-16(6-4-15)23-10-8-22(9-11-23)13-14-12-21-18-17(14)2-1-7-20-18;/h1-7,12H,8-11,13H2,(H,20,21);1H
#Ion_Source LC-ESI
#Instrument qTof
#Compound_Source NIH Pharmacologically Active Library
#PI Dorrestein
#Data_Collector VP/LMS
#Scan -1
#Precursor_MZ 419.079
#ExactMass 418.065
#Charge 1
#CAS_Number N/A
#Pubmed_ID N/A
#Smiles Ic1ccc(cc1)N2CCN(Cc3c[nH]c4ncccc34)CC2.Cl
#INCHI_AUX N/A
#Library_Class 1
#SpectrumID CCMSLIB00000085829
#IonMode Positive
#UpdateWorkflowName UPDATE-SINGLE-ANNOTATED-GOLD
#LibraryQualityString Gold
#TaskID d252d724072548979f1f6f1ced849daf
##Scan# 1608
#SpectrumFile p4-F11_GF11_01_18395.mzXML
#LibraryName Pharm_Active_Library.mgf
#MQScore -1
#Organism Pharm_Active_Library
#TIC_Query 0
#RT_Query -1
#MZErrorPPM -1
#SharedPeaks 0
#MassDiff 0
#LibMZ -1
#SpecMZ 419.079
#SpecCharge 0
#internalFilename spec-00000.mgf

>collision 0
104.0487 7.51
118.0639 3.76
119.0715 5.35
131.0603 100.0
161.1065 0.26
162.1135 1.71
245.9761 10.06
289.0186 29.4
419.0727 0.0
