>compound MLS001401451-01!Pyrazinecarboxamide, 3,5-diamino-N-(aminoiminomethyl)-6-chloro- [CAS]
>formula C6H8ClN7O
>ionization [M+H]+
>parentmass 230.05516200809055
#inchi InChI=1S/C6H8ClN7O/c7-2-4(9)13-3(8)1(12-2)5(15)14-6(10)11/h(H4,8,9,13)(H4,10,11,14,15)
#inchikey XSDQTOBWRPYKKA
#origInchi InChI=1S/C6H8ClN7O.ClH.H2O/c7-2-4(9)13-3(8)1(12-2)5(15)14-6(10)11;;/h(H4,8,9,13)(H4,10,11,14,15);1H;1H2
#Ion_Source LC-ESI
#Instrument qTof
#Compound_Source NIH Pharmacologically Active Library
#PI Dorrestein
#Data_Collector VP/LMS
#Scan -1
#Precursor_MZ 230.058
#ExactMass 229.048
#Charge 1
#CAS_Number N/A
#Pubmed_ID N/A
#Smiles NC(=N)NC(=O)c1nc(Cl)c(N)nc1N.O.Cl
#INCHI_AUX N/A
#Library_Class 1
#SpectrumID CCMSLIB00000085675
#IonMode Positive
#UpdateWorkflowName UPDATE-SINGLE-ANNOTATED-GOLD
#LibraryQualityString Gold
#TaskID d252d724072548979f1f6f1ced849daf
##Scan# 1077
#SpectrumFile p4-E02_GE2_01_18374.mzXML
#LibraryName Pharm_Active_Library.mgf
#MQScore -1
#Organism Pharm_Active_Library
#TIC_Query 0
#RT_Query -1
#MZErrorPPM -1
#SharedPeaks 0
#MassDiff 0
#LibMZ -1
#SpecMZ 230.058
#SpecCharge 0
#internalFilename spec-00000.mgf

>collision 0
88.9908 0.92
100.9903 9.28
107.0333 1.26
108.0426 19.73
116.0015 100.0
119.0003 0.78
125.0453 0.48
143.0117 31.83
161.0213 20.69
171.0064 39.95
189.0172 5.04
230.0531 0.34
