>compound BALSALAZIDE
>formula C17H15N3O6
>ionization [M+H]+
>parentmass 358.102722
#inchi InChI=1S/C17H15N3O6/c21-14-6-5-12(9-13(14)17(25)26)20-19-11-3-1-10(2-4-11)16(24)18-8-7-15(22)23/h1-6,9,21H,7-8H2,(H,18,24)(H,22,23)(H,25,26)
#inchikey IPOKCKJONYRRHP
#Ion_Source LC-ESI
#Instrument qTof
#Compound_Source Commercial
#PI Dorrestein
#Data_Collector Garg_Neha
#Scan -1
#Precursor_MZ 358.103
#ExactMass 357.096
#Charge 1
#CAS_Number N/A
#Pubmed_ID N/A
#Smiles OC(=O)CCNC(=O)c1ccc(N=Nc2ccc(O)c(c2)C(=O)O)cc1
#INCHI_AUX N/A
#Library_Class 1
#SpectrumID CCMSLIB00000079084
#IonMode Positive
#UpdateWorkflowName UPDATE-SINGLE-ANNOTATED-GOLD
#LibraryQualityString Gold
#TaskID 278b19f5865741e282cec7349aa7e7a1
##Scan# 1157
#SpectrumFile NCP003432_E2_F11_BD2_01_15724.mzXML
#LibraryName NIHcollectionI_05062014.mgf
#MQScore -1
#Organism NIHcollectionI_05062014
#TIC_Query 0
#RT_Query -1
#MZErrorPPM -1
#SharedPeaks 0
#MassDiff 0
#LibMZ -1
#SpecMZ 358.103
#SpecCharge 0
#internalFilename spec-00000.mgf

>collision 0
139.0539 4.73
165.07 1.84
223.0505 7.75
241.0627 1.18
251.0448 85.4
268.0721 0.78
269.0553 100.0
287.0659 3.12
294.0872 1.1
322.0828 1.79
340.0925 7.87
358.1004 12.61
