>compound Cilnidipine
>formula C27H28N2O7
>ionization [M+Na]+
>parentmass 515.178711
#inchi InChI=1S/C27H28N2O7/c1-18-23(26(30)35-14-8-11-20-9-5-4-6-10-20)25(21-12-7-13-22(17-21)29(32)33)24(19(2)28-18)27(31)36-16-15-34-3/h4-13,17,25,28H,14-16H2,1-3H3/b11-8+
#inchikey KJEBULYHNRNJTE
#Ion_Source LC-ESI
#Instrument qTof
#Compound_Source Commercial
#PI Dorrestein
#Data_Collector Garg_Neha
#Scan -1
#Precursor_MZ 515.179
#ExactMass 492.19
#Charge 1
#CAS_Number 132203-70-4
#Pubmed_ID N/A
#Smiles C1=CC=C(C=C1C2C(=C(NC(=C2C(OCCOC)=O)C)C)C(OC/C=C/C3=CC=CC=C3)=O)[N+](=O)[O-]
#INCHI_AUX N/A
#Library_Class 1
#SpectrumID CCMSLIB00000078090
#IonMode Positive
#UpdateWorkflowName UPDATE-SINGLE-ANNOTATED-GOLD
#LibraryQualityString Gold
#TaskID 77f51c88eb8b467eb4a01dd2d0cb90d2
##Scan# 2708
#SpectrumFile Plate2_1_20_GG5_01_16493.mzXML
#LibraryName FDALibrary_2_04302014.mgf
#MQScore -1
#Organism FDALibrary_2_04302014
#TIC_Query 0
#RT_Query -1
#MZErrorPPM -1
#SharedPeaks 0
#MassDiff 0
#LibMZ -1
#SpecMZ 515.179
#SpecCharge 0
#internalFilename spec-00000.mgf

>collision 0
118.0744 1.45
232.0969 3.91
233.0938 1.25
250.0923 1.84
261.0637 2.02
277.0608 11.64
279.0715 1.74
337.1197 3.81
353.1118 11.34
381.1057 2.87
397.1006 27.29
398.11 6.51
471.189 100.0
515.1789 254.94
