>compound KITASAMYCIN
>formula C42H69NO15
>ionization [M+H]+
>parentmass 828.472717
#inchi InChI=1S/C42H69NO15/c1-23(2)19-33(48)58-42(8)22-34(53-27(6)40(42)50)56-37-26(5)54-41(36(49)35(37)43(9)10)57-38-29(17-18-44)20-24(3)30(46)16-14-12-13-15-25(4)52-32(47)21-31(39(38)51-11)55-28(7)45/h12-14,16,18,23-27,29-31,34-41,46,49-50H,15,17,19-22H2,1-11H3/t24-,25-,26-,27+,29+,30+,31-,34+,35-,36-,37-,38+,39+,40+,41+,42-/m1/s1
#inchikey UKNSBNVKSFTZOJ
#Ion_Source LC-ESI
#Instrument qTof
#Compound_Source Commercial
#PI Dorrestein
#Data_Collector Garg_Neha
#Scan -1
#Precursor_MZ 828.474
#ExactMass 827.467
#Charge 1
#CAS_Number N/A
#Pubmed_ID N/A
#Smiles CO[C@H]1[C@@H](CC(=O)O[C@H](C)CC=CC=C[C@H](O)[C@H](C)C[C@H](CC=O)[C@@H]1O[C@@H]2O[C@H](C)[C@@H](O[C@H]3C[C@@](C)(OC(=O)CC(C)C)[C@@H](O)[C@H](C)O3)[C@@H]([C@H]2O)N(C)C)OC(=O)C
#INCHI_AUX N/A
#Library_Class 1
#SpectrumID CCMSLIB00000078993
#IonMode Positive
#UpdateWorkflowName UPDATE-SINGLE-ANNOTATED-GOLD
#LibraryQualityString Gold
#TaskID 278b19f5865741e282cec7349aa7e7a1
##Scan# 1288
#SpectrumFile NCP003352_C2_D11_BC5_01_15719.mzXML
#LibraryName NIHcollectionI_05062014.mgf
#MQScore -1
#Organism NIHcollectionI_05062014
#TIC_Query 0
#RT_Query -1
#MZErrorPPM -1
#SharedPeaks 0
#MassDiff 0
#LibMZ -1
#SpecMZ 828.474
#SpecCharge 0
#internalFilename spec-00000.mgf

>collision 0
109.0653 43.69
116.0716 5.68
130.087 5.84
132.1002 12.93
174.1129 100.0
175.1196 7.26
183.1391 6.47
185.116 6.62
229.143 28.86
320.1774 6.31
382.1641 6.31
480.2832 7.73
600.3195 9.31
614.3433 8.36
760.3111 5.99
828.4727 207.26
