>compound (8S,9R,10S,11S,13S,14S,16R,17S)-9-fluoro-11-hydroxy-17-(2-hydroxyacetyl)-10,13,16-trimethyl-7,8,11,12,14,15,16,17-octahydro-6H-cyclopenta[a]phenanthren-3-one
>formula C22H29FO4
>ionization [M+H]+
>parentmass 377.213409
#inchi InChI=1S/C22H29FO4/c1-12-8-16-15-5-4-13-9-14(25)6-7-21(13,3)22(15,23)18(27)10-20(16,2)19(12)17(26)11-24/h6-7,9,12,15-16,18-19,24,27H,4-5,8,10-11H2,1-3H3/t12-,15+,16+,18+,19-,20+,21+,22+/m1/s1
#inchikey VWVSBHGCDBMOOT
#Ion_Source LC-ESI
#Instrument qTof
#Compound_Source Commercial
#PI Dorrestein
#Data_Collector Garg_Neha
#Scan -1
#Precursor_MZ 377.212
#ExactMass 376.205
#Charge 1
#CAS_Number N/A
#Pubmed_ID N/A
#Smiles C[C@@H]1C[C@H]2[C@@H]3CCC4=CC(=O)C=C[C@]4(C)[C@@]3(F)[C@@H](O)C[C@]2(C)[C@H]1C(=O)CO
#INCHI_AUX N/A
#Library_Class 1
#SpectrumID CCMSLIB00000079054
#IonMode Positive
#UpdateWorkflowName UPDATE-SINGLE-ANNOTATED-GOLD
#LibraryQualityString Gold
#TaskID 278b19f5865741e282cec7349aa7e7a1
##Scan# 1303
#SpectrumFile NCP003432_A2_B11_BC8_01_15722.mzXML
#LibraryName NIHcollectionI_05062014.mgf
#MQScore -1
#Organism NIHcollectionI_05062014
#TIC_Query 0
#RT_Query -1
#MZErrorPPM -1
#SharedPeaks 0
#MassDiff 0
#LibMZ -1
#SpecMZ 377.212
#SpecCharge 0
#internalFilename spec-00000.mgf

>collision 0
95.0865 1.42
105.0701 2.21
109.1012 3.08
121.0653 3.67
121.1004 3.01
128.0628 1.53
131.086 1.59
133.1015 1.84
135.08 2.57
137.0973 1.74
143.0845 2.04
145.1008 1.43
147.0809 24.01
155.0865 2.05
157.1022 1.46
159.0803 4.89
161.0965 4.9
167.1068 3.22
171.0807 26.51
173.0962 8.55
185.0963 7.4
187.1111 1.98
197.0958 2.18
199.1116 1.62
211.1116 1.7
213.1262 1.78
222.1048 1.63
223.1115 3.47
225.1284 3.8
235.1131 2.56
237.1273 6.09
239.1436 5.17
261.1263 1.64
262.1338 1.63
263.1426 1.43
265.1581 2.46
277.1597 3.25
279.1749 7.65
288.1506 1.96
291.1747 1.57
293.19 2.69
303.1747 13.2
321.1853 13.5
339.1974 100.0
357.2068 34.77
377.2134 3.22
