>compound MLS000701320-01!N-(4,5-diphenyl-1H-pyrazolo[3,4-c]pyridazin-3-yl)-N'-phenylurea
>formula C24H18N6O
>ionization [M+H]+
>parentmass 407.160339
#inchi InChI=1S/C24H18N6O/c31-24(25-18-14-8-3-9-15-18)26-22-20-19(16-10-4-1-5-11-16)21(17-12-6-2-7-13-17)27-29-23(20)30-28-22/h1-15H,(H3,25,26,28,29,30,31)
#inchikey BUUXBIIFLQVFAR
#Ion_Source LC-ESI
#Instrument qTof
#Compound_Source NIH Pharmacologically Active Library
#PI Dorrestein
#Data_Collector VP/LMS
#Scan -1
#Precursor_MZ 407.16
#ExactMass 406.154
#Charge 1
#CAS_Number N/A
#Pubmed_ID N/A
#Smiles O=C(Nc1[nH]nc2nnc(c3ccccc3)c(c4ccccc4)c12)Nc5ccccc5
#INCHI_AUX N/A
#Library_Class 1
#SpectrumID CCMSLIB00000085962
#IonMode Positive
#UpdateWorkflowName UPDATE-SINGLE-ANNOTATED-GOLD
#LibraryQualityString Gold
#TaskID d252d724072548979f1f6f1ced849daf
##Scan# 2026
#SpectrumFile p4-H08_GH8_01_18416.mzXML
#LibraryName Pharm_Active_Library.mgf
#MQScore -1
#Organism Pharm_Active_Library
#TIC_Query 0
#RT_Query -1
#MZErrorPPM -1
#SharedPeaks 0
#MassDiff 0
#LibMZ -1
#SpecMZ 407.16
#SpecCharge 0
#internalFilename spec-00000.mgf

>collision 0
116.0498 1.12
128.0496 1.93
130.0652 1.82
140.0502 1.16
141.0445 1.59
143.0601 1.45
155.0603 3.45
168.0562 0.7
180.0548 1.04
183.0779 1.38
189.0693 1.42
191.0855 5.81
204.0808 2.06
214.065 0.71
216.0806 6.62
217.0873 3.84
219.0905 2.29
229.0762 1.45
231.0915 4.8
232.0973 2.15
236.0561 2.76
241.075 1.07
242.0838 4.0
243.0896 3.67
245.0948 0.95
246.1018 1.09
257.095 3.35
258.1004 2.66
259.1082 1.76
271.0968 2.85
286.1071 0.9
288.126 77.08
290.1291 1.7
314.1059 100.0
407.1613 1.3
