>compound MLS000575003-01!
>formula C16H12N2O3
>ionization [M+H]+
>parentmass 281.090729
#inchi InChI=1S/C16H12N2O3/c1-17-8-7-10-9-5-3-4-6-11(9)18-12(10)13(17)15(21-2)14(19)16(18)20/h3-8H,1-2H3
#inchikey HPAUUBGCMSMJQK
#Ion_Source LC-ESI
#Instrument qTof
#Compound_Source NIH Natural Product Library
#PI Dorrestein
#Data_Collector VVP/LMS
#Scan -1
#Precursor_MZ 281.093
#ExactMass 280.085
#Charge 1
#CAS_Number N/A
#Pubmed_ID N/A
#Smiles COc1c(=O)c(=O)n2c3ccccc3c4ccn(C)c1c42
#INCHI_AUX N/A
#Library_Class 1
#SpectrumID CCMSLIB00000080131
#IonMode Positive
#UpdateWorkflowName UPDATE-SINGLE-ANNOTATED-GOLD
#LibraryQualityString Gold
#TaskID b1d8e8f6646f4e71acdff9ca3d919d08
##Scan# 1446
#SpectrumFile p2-E04_GE4_01_18028.mzXML
#LibraryName NIH_Natural_Products_Library.mgf
#MQScore -1
#Organism NIH_Natural_Products_Library
#TIC_Query 0
#RT_Query -1
#MZErrorPPM -1
#SharedPeaks 0
#MassDiff 0
#LibMZ -1
#SpecMZ 281.093
#SpecCharge 0
#internalFilename spec-00000.mgf

>collision 0
115.0541 2.49
117.0575 3.99
132.081 5.36
142.064 1.96
154.0644 12.15
155.0715 13.73
159.0912 2.6
181.0772 25.19
182.0837 100.0
192.0663 10.51
195.0553 1.46
220.064 4.58
237.0663 2.96
251.0436 2.3
265.0616 4.22
266.0684 67.58
281.0907 4.67
