>compound MLS001401395-01!SAQUINAVIR MESYLATE
>formula C38H50N6O5
>ionization [M+H]+
>parentmass 671.389893
#inchi InChI=1S/C38H50N6O5/c1-38(2,3)43-37(49)32-20-26-14-7-8-15-27(26)22-44(32)23-33(45)30(19-24-11-5-4-6-12-24)41-36(48)31(21-34(39)46)42-35(47)29-18-17-25-13-9-10-16-28(25)40-29/h4-6,9-13,16-18,26-27,30-33,45H,7-8,14-15,19-23H2,1-3H3,(H2,39,46)(H,41,48)(H,42,47)(H,43,49)/t26-,27+,30-,31-,32-,33+/m0/s1
#inchikey QWAXKHKRTORLEM
#origInchi InChI=1S/C38H50N6O5.CH4O3S/c1-38(2,3)43-37(49)32-20-26-14-7-8-15-27(26)22-44(32)23-33(45)30(19-24-11-5-4-6-12-24)41-36(48)31(21-34(39)46)42-35(47)29-18-17-25-13-9-10-16-28(25)40-29;1-5(2,3)4/h4-6,9-13,16-18,26-27,30-33,45H,7-8,14-15,19-23H2,1-3H3,(H2,39,46)(H,41,48)(H,42,47)(H,43,49);1H3,(H,2,3,4)/t26-,27+,30-,31-,32-,33+;/m0./s1
#Ion_Source LC-ESI
#Instrument qTof
#Compound_Source NIH Pharmacologically Active Library
#PI Dorrestein
#Data_Collector VP/LMS
#Scan -1
#Precursor_MZ 671.391
#ExactMass 670.384
#Charge 1
#CAS_Number N/A
#Pubmed_ID N/A
#Smiles CC(C)(C)NC(=O)[C@@H]1C[C@@H]2CCCC[C@@H]2CN1C[C@@H](O)[C@H](Cc3ccccc3)NC(=O)[C@H](CC(=O)N)NC(=O)c4ccc5ccccc5n4.CS(=O)(=O)O
#INCHI_AUX N/A
#Library_Class 1
#SpectrumID CCMSLIB00000085067
#IonMode Positive
#UpdateWorkflowName UPDATE-SINGLE-ANNOTATED-GOLD
#LibraryQualityString Gold
#TaskID d252d724072548979f1f6f1ced849daf
##Scan# 1914
#SpectrumFile p3-E05_GE5_01_18274.mzXML
#LibraryName Pharm_Active_Library.mgf
#MQScore -1
#Organism Pharm_Active_Library
#TIC_Query 0
#RT_Query -1
#MZErrorPPM -1
#SharedPeaks 0
#MassDiff 0
#LibMZ -1
#SpecMZ 671.391
#SpecCharge 0
#internalFilename spec-00000.mgf

>collision 0
128.0495 6.68
129.0697 2.86
138.1272 4.63
146.0601 2.66
146.0963 2.09
150.1288 2.75
152.1428 4.8
156.0445 5.07
164.1061 1.79
166.1221 1.21
172.0748 1.56
173.0712 7.2
174.0546 4.34
199.0857 3.2
200.0707 1.88
225.0651 15.36
242.0921 24.32
244.0964 8.81
252.0765 1.9
261.121 2.29
266.19 7.83
270.0872 12.51
271.0877 2.06
284.2001 0.91
294.1853 0.92
301.2266 1.67
311.211 2.22
344.1374 1.15
367.2731 9.98
372.1341 2.66
373.1325 1.0
374.1492 0.93
386.1499 1.14
388.1646 3.12
398.1504 1.94
415.1765 1.24
416.1604 26.18
417.1638 8.78
418.1609 1.24
433.1864 26.3
434.1894 7.24
435.191 1.27
553.2792 2.11
570.3073 100.0
572.3123 6.85
671.391 28.84
