>compound BetamethazoneDipropionate
>formula C28H37FO7 
>ionization [M+H]+
>parentmass 505.26
#inchi InChI=1S/C28H37FO7/c1-6-23(33)35-15-22(32)28(36-24(34)7-2)16(3)12-20-19-9-8-17-13-18(30)10-11-25(17,4)27(19,29)21(31)14-26(20,28)5/h10-11,13,16,19-21,31H,6-9,12,14-15H2,1-5H3/t16-,19-,20-,21-,25-,26-,27-,28-/m0/s1
#inchikey CIWBQSYVNNPZIQ
#Ion_Source LC-ESI
#Instrument qTof
#Compound_Source Isolated
#PI Sirenas
#Data_Collector Ed Esquenazi 
#Scan -1
#Precursor_MZ 505.26
#ExactMass 0.0
#Charge 1
#CAS_Number N/A
#Pubmed_ID N/A
#Smiles N/A
#INCHI_AUX N/A
#Library_Class 3
#SpectrumID CCMSLIB00000005601
#IonMode Positive
#UpdateWorkflowName UPDATE-SINGLE-ANNOTATED-BRONZE
#LibraryQualityString Bronze
#TaskID d19310cd93df49b68e9fcbec27720eb5
##Scan# 3
#SpectrumFile BetamethazoneDipropionate.mgf
#LibraryName fda_library.mgf
#MQScore -1
#Organism fda_library
#TIC_Query 0
#RT_Query -1
#MZErrorPPM -1
#SharedPeaks 0
#MassDiff 0
#LibMZ -1
#SpecMZ 505.26
#SpecCharge 0
#internalFilename spec-00000.mgf

>collision 0
105.0703 19.63
107.0843 29.57
109.0639 10.35
109.102 15.81
119.0855 59.15
121.0649 19.34
121.101 24.91
131.0854 19.34
133.1017 26.18
135.0786 35.26
147.0802 89.74
149.0943 36.79
159.0788 34.07
159.1158 10.75
161.0982 31.05
167.1063 35.68
171.0799 63.31
173.0961 39.57
185.0963 52.6
187.0747 29.43
197.0952 30.26
209.0977 11.01
211.11 16.04
223.1148 28.76
225.1272 13.63
230.1117 13.37
235.1476 11.29
237.1285 40.81
249.1641 25.28
261.1286 21.19
263.144 100.0
272.1199 30.46
276.1522 40.55
278.1661 26.51
279.1752 78.61
286.1336 28.39
291.178 40.96
301.1609 22.1
319.1723 41.73
337.1842 15.99
505.2663 0.0
