>compound R(+)-SCH-23390 hydrochloride
>formula C17H18ClNO
>ionization [M+H]+
>parentmass 288.116058
#inchi InChI=1S/C17H18ClNO/c1-19-8-7-13-9-16(18)17(20)10-14(13)15(11-19)12-5-3-2-4-6-12/h2-6,9-10,15,20H,7-8,11H2,1H3/t15-/m1/s1
#inchikey GOTMKOSCLKVOGG
#Ion_Source LC-ESI
#Instrument qTof
#Compound_Source Commercial
#PI Dorrestein
#Data_Collector Garg_Neha
#Scan -1
#Precursor_MZ 288.115
#ExactMass 287.108
#Charge 1
#CAS_Number N/A
#Pubmed_ID N/A
#Smiles CN1CCc2cc(Cl)c(O)cc2[C@H](C1)c3ccccc3
#INCHI_AUX N/A
#Library_Class 1
#SpectrumID CCMSLIB00000079229
#IonMode Positive
#UpdateWorkflowName UPDATE-SINGLE-ANNOTATED-GOLD
#LibraryQualityString Gold
#TaskID 278b19f5865741e282cec7349aa7e7a1
##Scan# 1076
#SpectrumFile NCP003672_A27B27C27D27_BE4_01_15740.mzXML
#LibraryName NIHcollectionI_05062014.mgf
#MQScore -1
#Organism NIHcollectionI_05062014
#TIC_Query 0
#RT_Query -1
#MZErrorPPM -1
#SharedPeaks 0
#MassDiff 0
#LibMZ -1
#SpecMZ 288.115
#SpecCharge 0
#internalFilename spec-00000.mgf

>collision 0
91.0542 26.78
105.0699 50.77
128.0629 17.18
129.0699 62.07
132.0555 12.23
141.0118 57.43
143.0497 21.21
144.0583 68.42
145.0647 19.66
153.0098 19.5
155.0258 56.35
160.0754 15.79
161.0821 12.38
165.0708 11.46
179.0255 70.59
184.0541 14.71
193.0992 17.65
195.0446 10.37
196.0524 77.86
207.0811 43.5
210.0691 15.02
221.0955 43.5
222.1047 100.0
231.0555 12.38
257.0743 39.63
288.1173 3168.27
