>compound MLS001306483-01!Cytoxan6055-19-2
>formula C7H15Cl2N2O2P
>ionization [M+H]+
>parentmass 261.032928
#inchi InChI=1S/C7H15Cl2N2O2P/c8-2-5-11(6-3-9)14(12)10-4-1-7-13-14/h1-7H2,(H,10,12)
#inchikey CMSMOCZEIVJLDB
#origInchi InChI=1S/C7H15Cl2N2O2P.H2O/c8-2-5-11(6-3-9)14(12)10-4-1-7-13-14;/h1-7H2,(H,10,12);1H2
#Ion_Source LC-ESI
#Instrument qTof
#Compound_Source NIH Pharmacologically Active Library
#PI Dorrestein
#Data_Collector VP/LMS
#Scan -1
#Precursor_MZ 261.036
#ExactMass 260.025
#Charge 1
#CAS_Number N/A
#Pubmed_ID N/A
#Smiles ClCCN(CCCl)P1(=O)NCCCO1.O
#INCHI_AUX N/A
#Library_Class 1
#SpectrumID CCMSLIB00000085615
#IonMode Positive
#UpdateWorkflowName UPDATE-SINGLE-ANNOTATED-GOLD
#LibraryQualityString Gold
#TaskID d252d724072548979f1f6f1ced849daf
##Scan# 1508
#SpectrumFile p4-D05_GD5_01_18365.mzXML
#LibraryName Pharm_Active_Library.mgf
#MQScore -1
#Organism Pharm_Active_Library
#TIC_Query 0
#RT_Query -1
#MZErrorPPM -1
#SharedPeaks 0
#MassDiff 0
#LibMZ -1
#SpecMZ 261.036
#SpecCharge 0
#internalFilename spec-00000.mgf

>collision 0
91.9882 3.47
94.0045 3.66
102.0105 7.02
104.0272 3.7
106.0054 4.53
106.0412 6.26
120.0214 25.96
138.0329 8.91
140.0029 100.0
185.0232 2.15
232.9992 6.64
261.0329 3.85
