>compound MLS000876965-01!(6aR,9R,9aR)-9-acetyl-3-[(1E,3E,5S)-3,5-dimethylhepta-1,3-dienyl]-6a-methyl-9,9a-dihydrofuro[2,3-h]isochromene-6,8-dione
>formula C23H26O5
>ionization [M+H]+
>parentmass 383.185333
#inchi InChI=1S/C23H26O5/c1-6-13(2)9-14(3)7-8-17-10-16-11-19(25)23(5)21(18(16)12-27-17)20(15(4)24)22(26)28-23/h7-13,20-21H,6H2,1-5H3/b8-7+,14-9+/t13-,20-,21-,23-/m0/s1
#inchikey GAIVGINVGXHEIA
#Ion_Source LC-ESI
#Instrument qTof
#Compound_Source NIH Natural Product Library
#PI Dorrestein
#Data_Collector VVP/LMS
#Scan -1
#Precursor_MZ 383.186
#ExactMass 382.178
#Charge 1
#CAS_Number N/A
#Pubmed_ID N/A
#Smiles CC[C@H](C)/C=C(\C)/C=C/C1=CC2=CC(=O)[C@]3(C)OC(=O)[C@H]([C@@H]3C2=CO1)C(=O)C
#INCHI_AUX N/A
#Library_Class 1
#SpectrumID CCMSLIB00000080614
#IonMode Positive
#UpdateWorkflowName UPDATE-SINGLE-ANNOTATED-GOLD
#LibraryQualityString Gold
#TaskID b1d8e8f6646f4e71acdff9ca3d919d08
##Scan# 2629
#SpectrumFile p2-G11_GG11_01_18059.mzXML
#LibraryName NIH_Natural_Products_Library.mgf
#MQScore -1
#Organism NIH_Natural_Products_Library
#TIC_Query 0
#RT_Query -1
#MZErrorPPM -1
#SharedPeaks 0
#MassDiff 0
#LibMZ -1
#SpecMZ 383.186
#SpecCharge 0
#internalFilename spec-00000.mgf

>collision 0
105.0713 8.53
119.0868 16.47
143.0856 10.03
145.0656 13.72
147.081 9.41
157.1011 8.66
159.0804 12.35
161.0587 6.03
169.1011 7.11
179.085 7.55
181.1011 7.29
182.1099 8.41
183.0819 8.15
183.1175 8.32
185.096 7.57
187.0748 8.21
195.0806 8.86
195.1171 7.99
196.1239 7.89
197.0961 12.61
199.1117 7.31
207.1166 9.85
209.097 11.84
210.1033 15.02
211.1116 8.21
211.1473 14.22
213.091 8.66
215.1061 6.47
221.1325 8.55
223.1104 13.43
225.0922 7.18
225.1284 16.28
238.0988 13.6
239.1074 8.75
239.1411 11.2
249.1264 9.23
251.1057 10.95
252.1154 6.71
253.1218 11.33
253.1584 9.01
255.1388 7.27
267.1386 88.18
279.1036 11.46
281.1531 18.73
282.1615 12.08
296.1769 13.23
311.2006 100.0
339.1216 26.19
353.139 12.37
354.146 7.49
383.1844 60.29
