>compound MLS001157806-01!4-[[2-(8-methyl-2-oxo-4-phenylchromen-7-yl)oxypropanoylamino]methyl]cyclohexane-1-carboxylic acid
>formula C27H29NO6
>ionization [M+H]+
>parentmass 464.207
#inchi InChI=1S/C27H29NO6/c1-16-23(33-17(2)26(30)28-15-18-8-10-20(11-9-18)27(31)32)13-12-21-22(14-24(29)34-25(16)21)19-6-4-3-5-7-19/h3-7,12-14,17-18,20H,8-11,15H2,1-2H3,(H,28,30)(H,31,32)/t17?,18-,20-
#inchikey HVDQBOGXNAWROE
#Ion_Source LC-ESI
#Instrument qTof
#Compound_Source NIH Natural Product Library
#PI Dorrestein
#Data_Collector VVP/LMS
#Scan -1
#Precursor_MZ 464.207
#ExactMass 463.199
#Charge 1
#CAS_Number N/A
#Pubmed_ID N/A
#Smiles CC(Oc1ccc2c(cc(=O)oc2c1C)c3ccccc3)C(=O)NC[C@H]4CC[C@@H](CC4)C(=O)O
#INCHI_AUX N/A
#Library_Class 1
#SpectrumID CCMSLIB00000080540
#IonMode Positive
#UpdateWorkflowName UPDATE-SINGLE-ANNOTATED-GOLD
#LibraryQualityString Gold
#TaskID b1d8e8f6646f4e71acdff9ca3d919d08
##Scan# 2153
#SpectrumFile p2-D10_GD10_01_18022.mzXML
#LibraryName NIH_Natural_Products_Library.mgf
#MQScore -1
#Organism NIH_Natural_Products_Library
#TIC_Query 0
#RT_Query -1
#MZErrorPPM -1
#SharedPeaks 0
#MassDiff 0
#LibMZ -1
#SpecMZ 464.207
#SpecCharge 0
#internalFilename spec-00000.mgf

>collision 0
194.1884 6.3
224.1991 3.16
233.188 1.83
251.1642 3.34
251.2017 4.6
252.2064 1.91
253.1823 100.0
254.1866 19.59
307.2151 5.28
308.2219 3.27
464.207 0.0
