>compound Ritonavir
>formula C37H48N6O5S2 
>ionization [M+H]+
>parentmass 721.322
#inchi InChI=1S/C37H48N6O5S2/c1-24(2)33(42-36(46)43(5)20-29-22-49-35(40-29)25(3)4)34(45)39-28(16-26-12-8-6-9-13-26)18-32(44)31(17-27-14-10-7-11-15-27)41-37(47)48-21-30-19-38-23-50-30/h6-15,19,22-25,28,31-33,44H,16-18,20-21H2,1-5H3,(H,39,45)(H,41,47)(H,42,46)/t28-,31-,32-,33-/m0/s1
#inchikey NCDNCNXCDXHOMX
#Ion_Source LC-ESI
#Instrument qTof
#Compound_Source Isolated
#PI Sirenas
#Data_Collector Ed Esquenazi 
#Scan -1
#Precursor_MZ 721.322
#ExactMass 0.0
#Charge 1
#CAS_Number N/A
#Pubmed_ID N/A
#Smiles N/A
#INCHI_AUX N/A
#Library_Class 3
#SpectrumID CCMSLIB00000005593
#IonMode Positive
#UpdateWorkflowName UPDATE-SINGLE-ANNOTATED-BRONZE
#LibraryQualityString Bronze
#TaskID d19310cd93df49b68e9fcbec27720eb5
##Scan# 1
#SpectrumFile Ritonavir.mgf
#LibraryName fda_library.mgf
#MQScore -1
#Organism fda_library
#TIC_Query 0
#RT_Query -1
#MZErrorPPM -1
#SharedPeaks 0
#MassDiff 0
#LibMZ -1
#SpecMZ 721.322
#SpecCharge 0
#internalFilename spec-00000.mgf

>collision 0
140.0526 1.34
171.095 10.36
268.1477 8.48
296.1434 65.47
426.1855 18.99
507.2413 0.51
533.2201 0.29
551.2321 0.91
677.3301 0.37
703.3104 0.73
721.322 0.0
