>compound MLS001076518-01!
>formula C16H24N2
>ionization [M+H]+
>parentmass 245.202774
#inchi InChI=1S/C16H24N2/c1-11-8-13(16(3,4)5)9-12(2)14(11)10-15-17-6-7-18-15/h8-9H,6-7,10H2,1-5H3,(H,17,18)
#inchikey HUCJFAOMUPXHDK
#origInchi InChI=1S/C16H24N2.ClH/c1-11-8-13(16(3,4)5)9-12(2)14(11)10-15-17-6-7-18-15;/h8-9H,6-7,10H2,1-5H3,(H,17,18);1H
#Ion_Source LC-ESI
#Instrument qTof
#Compound_Source NIH Pharmacologically Active Library
#PI Dorrestein
#Data_Collector VP/LMS
#Scan -1
#Precursor_MZ 245.204
#ExactMass 244.194
#Charge 1
#CAS_Number N/A
#Pubmed_ID N/A
#Smiles Cc1cc(cc(C)c1CC2=NCCN2)C(C)(C)C.Cl
#INCHI_AUX N/A
#Library_Class 1
#SpectrumID CCMSLIB00000084739
#IonMode Positive
#UpdateWorkflowName UPDATE-SINGLE-ANNOTATED-GOLD
#LibraryQualityString Gold
#TaskID d252d724072548979f1f6f1ced849daf
##Scan# 1718
#SpectrumFile p3-A02_GA2_01_18224.mzXML
#LibraryName Pharm_Active_Library.mgf
#MQScore -1
#Organism Pharm_Active_Library
#TIC_Query 0
#RT_Query -1
#MZErrorPPM -1
#SharedPeaks 0
#MassDiff 0
#LibMZ -1
#SpecMZ 245.204
#SpecCharge 0
#internalFilename spec-00000.mgf

>collision 0
91.0541 1.15
103.0554 0.57
105.0705 9.87
107.0866 1.5
115.0538 1.46
116.0609 0.56
117.0698 3.3
118.0765 1.06
119.0867 27.21
121.1014 4.44
128.0608 1.29
129.0705 2.02
130.0778 2.55
131.086 8.48
132.0921 2.44
133.1019 27.66
135.1169 3.82
143.0855 1.22
145.1017 56.72
147.1165 11.97
159.1164 6.65
160.1249 37.02
161.1322 36.41
173.1068 4.39
175.1481 36.44
187.1236 2.38
188.1304 2.69
189.139 97.81
213.1373 0.82
214.1458 0.46
215.1543 15.1
229.1698 100.0
245.2013 201.32
