>compound MLS001141225-01!N-(furan-2-ylmethyl)-2-[(3,4,8,8-tetramethyl-2-oxo-9,10-dihydropyrano[2,3-h]chromen-5-yl)oxy]acetamide
>formula C23H25NO6
>ionization [M+H]+
>parentmass 412.176117
#inchi InChI=1S/C23H25NO6/c1-13-14(2)22(26)29-21-16-7-8-23(3,4)30-17(16)10-18(20(13)21)28-12-19(25)24-11-15-6-5-9-27-15/h5-6,9-10H,7-8,11-12H2,1-4H3,(H,24,25)
#inchikey BWHHTYGQTQWLHV
#Ion_Source LC-ESI
#Instrument qTof
#Compound_Source NIH Natural Product Library
#PI Dorrestein
#Data_Collector VVP/LMS
#Scan -1
#Precursor_MZ 412.176
#ExactMass 411.168
#Charge 1
#CAS_Number N/A
#Pubmed_ID N/A
#Smiles Cc1c(C)c2c(OCC(=O)NCc3ccco3)cc4OC(C)(C)CCc4c2oc1=O
#INCHI_AUX N/A
#Library_Class 1
#SpectrumID CCMSLIB00000080359
#IonMode Positive
#UpdateWorkflowName UPDATE-SINGLE-ANNOTATED-GOLD
#LibraryQualityString Gold
#TaskID b1d8e8f6646f4e71acdff9ca3d919d08
##Scan# 2315
#SpectrumFile p2-G07_GG7_01_18055.mzXML
#LibraryName NIH_Natural_Products_Library.mgf
#MQScore -1
#Organism NIH_Natural_Products_Library
#TIC_Query 0
#RT_Query -1
#MZErrorPPM -1
#SharedPeaks 0
#MassDiff 0
#LibMZ -1
#SpecMZ 412.176
#SpecCharge 0
#internalFilename spec-00000.mgf

>collision 0
97.0293 28.2
105.0709 1.8
108.0444 1.34
109.0298 7.28
110.0601 23.95
120.0447 2.67
121.0645 2.26
133.0653 1.23
138.0541 10.2
145.0648 3.14
149.0586 3.89
161.0597 1.54
162.0666 1.36
163.0759 6.02
173.0594 4.59
175.0746 2.43
189.0561 2.67
190.0629 15.68
191.0698 20.16
203.0702 5.83
207.0664 1.96
218.0572 4.64
219.065 100.0
230.0805 1.87
231.0641 10.13
259.0602 6.47
259.0968 3.31
274.12 1.42
288.0859 4.73
299.0901 3.59
311.0931 1.18
327.086 1.27
356.1113 49.85
412.1726 35.87
