>compound MLS001333724-01!
>formula C24H40N8O4
>ionization [M+H]+
>parentmass 505.325134
#inchi InChI=1S/C24H40N8O4/c33-15-11-31(12-16-34)23-26-20-19(21(27-23)29-7-3-1-4-8-29)25-24(32(13-17-35)14-18-36)28-22(20)30-9-5-2-6-10-30/h33-36H,1-18H2
#inchikey IZEKFCXSFNUWAM
#Ion_Source LC-ESI
#Instrument qTof
#Compound_Source NIH Pharmacologically Active Library
#PI Dorrestein
#Data_Collector VP/LMS
#Scan -1
#Precursor_MZ 505.335
#ExactMass 504.317
#Charge 1
#CAS_Number N/A
#Pubmed_ID N/A
#Smiles OCCN(CCO)c1nc(N2CCCCC2)c3nc(nc(N4CCCCC4)c3n1)N(CCO)CCO
#INCHI_AUX N/A
#Library_Class 1
#SpectrumID CCMSLIB00000085573
#IonMode Positive
#UpdateWorkflowName UPDATE-SINGLE-ANNOTATED-GOLD
#LibraryQualityString Gold
#TaskID d252d724072548979f1f6f1ced849daf
##Scan# 1641
#SpectrumFile p4-C09_GC9_01_18357.mzXML
#LibraryName Pharm_Active_Library.mgf
#MQScore -1
#Organism Pharm_Active_Library
#TIC_Query 0
#RT_Query -1
#MZErrorPPM -1
#SharedPeaks 0
#MassDiff 0
#LibMZ -1
#SpecMZ 505.335
#SpecCharge 0
#internalFilename spec-00000.mgf

>collision 0
302.1734 7.67
304.1857 3.16
315.1764 3.07
316.188 7.16
317.185 4.78
330.2007 4.31
341.2192 3.23
343.2 4.14
346.1984 14.08
348.214 11.1
355.2325 2.88
357.2136 3.45
360.214 8.82
361.212 7.03
378.2231 6.63
385.2473 76.29
386.249 23.29
387.2388 4.83
397.2461 3.37
398.2503 3.59
399.2601 11.82
401.2443 2.9
404.2397 14.19
411.2611 7.24
412.265 5.62
415.2545 5.97
416.2612 6.4
419.2497 3.02
422.2507 12.42
429.2734 100.0
430.2762 32.79
431.2653 6.13
442.279 4.77
443.2872 12.94
449.2606 4.9
460.29 13.17
461.2966 10.78
487.314 18.83
505.3262 334.15
