>compound MLS001146968-01!(+/-)-DROPROPIZINE
>formula C13H20N2O2
>ionization [M+H]+
>parentmass 237.161484
#inchi InChI=1S/C13H20N2O2/c16-11-13(17)10-14-6-8-15(9-7-14)12-4-2-1-3-5-12/h1-5,13,16-17H,6-11H2
#inchikey PTVWPYVOOKLBCG
#Ion_Source LC-ESI
#Instrument qTof
#Compound_Source NIH Pharmacologically Active Library
#PI Dorrestein
#Data_Collector VP/LMS
#Scan -1
#Precursor_MZ 237.162
#ExactMass 236.152
#Charge 1
#CAS_Number N/A
#Pubmed_ID N/A
#Smiles OCC(O)CN1CCN(CC1)c2ccccc2
#INCHI_AUX N/A
#Library_Class 3
#SpectrumID CCMSLIB00000086171
#IonMode Positive
#UpdateWorkflowName UPDATE-SINGLE-ANNOTATED-BRONZE
#LibraryQualityString Bronze
#TaskID d252d724072548979f1f6f1ced849daf
##Scan# 955
#SpectrumFile p5-G05_GG5_01_18474.mzXML
#LibraryName Pharm_Active_Library.mgf
#MQScore -1
#Organism Pharm_Active_Library
#TIC_Query 0
#RT_Query -1
#MZErrorPPM -1
#SharedPeaks 0
#MassDiff 0
#LibMZ -1
#SpecMZ 237.162
#SpecCharge 0
#internalFilename spec-00000.mgf

>collision 0
103.0538 14.93
104.0513 18.53
105.0583 14.56
106.0637 10.21
117.0587 8.51
118.0638 43.1
120.0803 100.0
131.0712 23.06
132.08 62.76
134.0969 8.32
146.0956 13.61
160.1003 75.24
173.106 11.91
189.1369 29.87
237.1615 60.11
