>compound Acemetacin (Emflex)
>formula C21H18ClNO6
>ionization [M+H]+
>parentmass 416.09024
#inchi InChI=1S/C21H18ClNO6/c1-12-16(10-20(26)29-11-19(24)25)17-9-15(28-2)7-8-18(17)23(12)21(27)13-3-5-14(22)6-4-13/h3-9H,10-11H2,1-2H3,(H,24,25)
#inchikey FSQKKOOTNAMONP
#Ion_Source LC-ESI
#Instrument qTof
#Compound_Source Commercial
#PI Dorrestein
#Data_Collector Garg_Neha
#Scan -1
#Precursor_MZ 416.09
#ExactMass 415.082
#Charge 1
#CAS_Number 53164-05-9
#Pubmed_ID N/A
#Smiles CC1N(C2=C(C=1CC(OCC(O)=O)=O)C=C(C=C2)OC)C(=O)C3=CC=C(C=C3)Cl
#INCHI_AUX N/A
#Library_Class 1
#SpectrumID CCMSLIB00000078527
#IonMode Positive
#UpdateWorkflowName UPDATE-SINGLE-ANNOTATED-GOLD
#LibraryQualityString Gold
#TaskID 77f51c88eb8b467eb4a01dd2d0cb90d2
##Scan# 2020
#SpectrumFile Plate8_61_80_GD1_01_15765.mzXML
#LibraryName FDALibrary_2_04302014.mgf
#MQScore -1
#Organism FDALibrary_2_04302014
#TIC_Query 0
#RT_Query -1
#MZErrorPPM -1
#SharedPeaks 0
#MassDiff 0
#LibMZ -1
#SpecMZ 416.09
#SpecCharge 0
#internalFilename spec-00000.mgf

>collision 0
110.9994 0.95
138.9946 100.0
139.9977 7.94
174.0913 13.4
260.0912 10.46
312.0786 12.59
313.0836 4.02
416.0902 22.54
