>compound MLS002153974-01!Isopyrin hydrochloride18342-39-7
>formula C14H19N3O
>ionization [M+H]+
>parentmass 246.16008868009052
#inchi InChI=1S/C14H19N3O/c1-10(2)15-13-11(3)16(4)17(14(13)18)12-8-6-5-7-9-12/h5-10,15H,1-4H3
#inchikey XOZLRRYPUKAKMU
#origInchi InChI=1S/C14H19N3O.ClH/c1-10(2)15-13-11(3)16(4)17(14(13)18)12-8-6-5-7-9-12;/h5-10,15H,1-4H3;1H
#Ion_Source LC-ESI
#Instrument qTof
#Compound_Source NIH Pharmacologically Active Library
#PI Dorrestein
#Data_Collector VP/LMS
#Scan -1
#Precursor_MZ 246.165
#ExactMass 245.153
#Charge 1
#CAS_Number N/A
#Pubmed_ID N/A
#Smiles CC(C)Nc1c(C)n(C)n(c2ccccc2)c1=O.Cl
#INCHI_AUX N/A
#Library_Class 3
#SpectrumID CCMSLIB00000086062
#IonMode Positive
#UpdateWorkflowName UPDATE-SINGLE-ANNOTATED-BRONZE
#LibraryQualityString Bronze
#TaskID d252d724072548979f1f6f1ced849daf
##Scan# 1155
#SpectrumFile p5-C05_GC5_01_18450.mzXML
#LibraryName Pharm_Active_Library.mgf
#MQScore -1
#Organism Pharm_Active_Library
#TIC_Query 0
#RT_Query -1
#MZErrorPPM -1
#SharedPeaks 0
#MassDiff 0
#LibMZ -1
#SpecMZ 246.165
#SpecCharge 0
#internalFilename spec-00000.mgf

>collision 0
93.0588 53.01
104.0498 60.54
108.0809 41.57
125.1067 61.75
128.05 43.37
130.0659 39.76
132.0458 94.28
144.0681 18.07
145.0758 55.12
146.0596 57.23
158.0616 26.81
202.0959 31.33
246.1601 0.0
