>compound MLS002152943-01!Theophylline58-55-9
>formula C7H8N4O2
>ionization [M+H]+
>parentmass 181.072769
#inchi InChI=1S/C7H8N4O2/c1-10-5-4(8-3-9-5)6(12)11(2)7(10)13/h3H,1-2H3,(H,8,9)
#inchikey ZFXYFBGIUFBOJW
#Ion_Source LC-ESI
#Instrument qTof
#Compound_Source NIH Pharmacologically Active Library
#PI Dorrestein
#Data_Collector VP/LMS
#Scan -1
#Precursor_MZ 181.069
#ExactMass 180.065
#Charge 1
#CAS_Number N/A
#Pubmed_ID N/A
#Smiles Cn1c(=O)n(C)c2[nH]cnc2c1=O
#INCHI_AUX N/A
#Library_Class 3
#SpectrumID CCMSLIB00000085282
#IonMode Positive
#UpdateWorkflowName UPDATE-SINGLE-ANNOTATED-BRONZE
#LibraryQualityString Bronze
#TaskID d252d724072548979f1f6f1ced849daf
##Scan# 1157
#SpectrumFile p3-G09_GG9_01_18302.mzXML
#LibraryName Pharm_Active_Library.mgf
#MQScore -1
#Organism Pharm_Active_Library
#TIC_Query 0
#RT_Query -1
#MZErrorPPM -1
#SharedPeaks 0
#MassDiff 0
#LibMZ -1
#SpecMZ 181.069
#SpecCharge 0
#internalFilename spec-00000.mgf

>collision 0
109.0268 27.09
110.0231 10.7
124.0491 100.0
181.0728 13.71
