>compound Napsamycin C
>formula C39H50N8O12S 
>ionization [M+H]+
>parentmass 855.3341664920905
#inchi InChI=1S/C39H50N8O12S/c1-20(46(2)35(54)28-16-23-15-25(49)8-7-22(23)18-40-28)32(34(53)41-19-26-17-30(50)36(59-26)47-11-9-31(51)44-39(47)58)45-33(52)27(10-12-60-3)42-38(57)43-29(37(55)56)14-21-5-4-6-24(48)13-21/h4-8,13,15,19-20,27-30,32,36,40,48-50H,9-12,14,16-18H2,1-3H3,(H,41,53)(H,45,52)(H,55,56)(H2,42,43,57)(H,44,51,58)/b26-19-
#inchikey MFEPAAMYDYMBSN
#Ion_Source LC-ESI
#Instrument LTQ-FTICR
#Compound_Source Isolated
#PI Dorrestein
#Data_Collector Peng
#Scan -1
#Precursor_MZ 855.0
#ExactMass 854.327
#Charge 1
#CAS_Number N/A
#Pubmed_ID ChemSpider ID:?2301530
#Smiles N/A
#INCHI_AUX N/A
#Library_Class 2
#SpectrumID CCMSLIB00000075017
#IonMode Positive
#UpdateWorkflowName UPDATE-SINGLE-ANNOTATED-SILVER
#LibraryQualityString Silver
#TaskID 57d156df513b468a82f4fc631178998b
##Scan# 1
#SpectrumFile 1904_855.mzXML
#LibraryName gnps_library.mgf
#MQScore -1
#Organism compounds from Streptomyces roseosporus
#TIC_Query 0
#RT_Query -1
#MZErrorPPM -1
#SharedPeaks 0
#MassDiff 0
#LibMZ -1
#SpecMZ 855
#SpecCharge 0
#internalFilename spec-00000.mgf

>collision 0
442.1775 1.02
473.2548 1.43
474.2476 0.7
475.2455 0.89
481.2646 0.6
498.2646 0.65
499.1974 6.19
500.2222 2.71
501.1574 1.15
517.3143 1.73
518.2839 0.73
523.3097 0.56
534.3124 2.43
535.2552 1.11
542.2869 0.68
560.2883 13.12
561.2341 6.48
562.2593 2.69
628.2875 3.59
629.188 1.82
630.2462 2.67
631.3652 1.04
647.2235 0.86
648.261 19.45
649.2534 7.8
650.2448 2.49
656.1744 8.47
657.2266 4.5
658.2305 1.79
662.1788 0.88
663.1594 0.72
672.1947 1.34
674.2212 100.0
675.1996 45.4
676.203 14.29
680.2004 9.96
681.2247 4.37
682.2886 1.46
690.1865 2.45
714.2896 1.93
715.3289 0.7
723.29 3.33
724.2306 1.68
725.2234 0.63
741.2111 42.16
742.2126 21.71
743.3149 6.53
855.3342 0.0
