>compound MLS001032327-01!2-[(5-hydroxy-2,2-dimethyl-4-oxo-3H-chromen-7-yl)oxy]-N-[(4-methoxyphenyl)methyl]acetamide
>formula C21H23NO6
>ionization [M+H]+
>parentmass 386.16
#inchi InChI=1S/C21H23NO6/c1-21(2)10-17(24)20-16(23)8-15(9-18(20)28-21)27-12-19(25)22-11-13-4-6-14(26-3)7-5-13/h4-9,23H,10-12H2,1-3H3,(H,22,25)
#inchikey IFOWDUKXBPRLIK
#Ion_Source LC-ESI
#Instrument qTof
#Compound_Source NIH Natural Product Library
#PI Dorrestein
#Data_Collector VVP/LMS
#Scan -1
#Precursor_MZ 386.16
#ExactMass 385.153
#Charge 1
#CAS_Number N/A
#Pubmed_ID N/A
#Smiles COc1ccc(CNC(=O)COc2cc(O)c3C(=O)CC(C)(C)Oc3c2)cc1
#INCHI_AUX N/A
#Library_Class 1
#SpectrumID CCMSLIB00000080098
#IonMode Positive
#UpdateWorkflowName UPDATE-SINGLE-ANNOTATED-GOLD
#LibraryQualityString Gold
#TaskID b1d8e8f6646f4e71acdff9ca3d919d08
##Scan# 2263
#SpectrumFile p2-A04_GA4_01_17981.mzXML
#LibraryName NIH_Natural_Products_Library.mgf
#MQScore -1
#Organism NIH_Natural_Products_Library
#TIC_Query 0
#RT_Query -1
#MZErrorPPM -1
#SharedPeaks 0
#MassDiff 0
#LibMZ -1
#SpecMZ 386.16
#SpecCharge 0
#internalFilename spec-00000.mgf

>collision 0
106.0416 0.94
111.0083 0.76
121.0658 100.0
123.0425 0.54
135.0795 0.62
151.0397 1.26
153.0186 33.76
163.0765 0.74
165.0175 2.13
167.0691 0.39
176.0464 1.13
179.0331 0.56
191.0704 6.83
193.0129 1.12
209.0814 25.58
221.0806 4.01
249.0746 1.04
278.1015 0.32
386.16 0.0
