>compound Imiquimod
>formula C14H16N4
>ionization [M+H]+
>parentmass 241.14477296409052
#inchi InChI=1S/C14H16N4/c1-9(2)7-18-8-16-12-13(18)10-5-3-4-6-11(10)17-14(12)15/h3-6,8-9H,7H2,1-2H3,(H2,15,17)
#inchikey DOUYETYNHWVLEO
#Ion_Source LC-ESI
#Instrument qTof
#Compound_Source Commercial
#PI Dorrestein
#Data_Collector Garg_Neha
#Scan -1
#Precursor_MZ 241.145
#ExactMass 240.137
#Charge 1
#CAS_Number 99011-02-6, 99011-78-6 (HCl), 896106-16-4 (Maleic acid)
#Pubmed_ID N/A
#Smiles N1=C2C(=C3C(=C1N)N=CN3CC(C)C)C=CC=C2
#INCHI_AUX N/A
#Library_Class 1
#SpectrumID CCMSLIB00000078049
#IonMode Positive
#UpdateWorkflowName UPDATE-SINGLE-ANNOTATED-GOLD
#LibraryQualityString Gold
#TaskID 77f51c88eb8b467eb4a01dd2d0cb90d2
##Scan# 1092
#SpectrumFile Plate1_41_60_GG3_01_16490.mzXML
#LibraryName FDALibrary_2_04302014.mgf
#MQScore -1
#Organism FDALibrary_2_04302014
#TIC_Query 0
#RT_Query -1
#MZErrorPPM -1
#SharedPeaks 0
#MassDiff 0
#LibMZ -1
#SpecMZ 241.145
#SpecCharge 0
#internalFilename spec-00000.mgf

>collision 0
131.0603 0.39
141.0446 3.72
158.0704 0.45
168.0563 9.99
185.0831 100.0
211.0989 0.72
241.1468 122.84
