>compound MLS000028860-01!4-PREGNEN-20ALPHA-OL-3-ONE
>formula C21H32O2
>ionization [M+H]+
>parentmass 317.246765
#inchi InChI=1S/C21H32O2/c1-13(22)17-6-7-18-16-5-4-14-12-15(23)8-10-20(14,2)19(16)9-11-21(17,18)3/h12-13,16-19,22H,4-11H2,1-3H3/t13-,16-,17+,18-,19-,20-,21+/m0/s1
#inchikey RWBRUCCWZPSBFC
#Ion_Source LC-ESI
#Instrument qTof
#Compound_Source NIH Pharmacologically Active Library
#PI Dorrestein
#Data_Collector VP/LMS
#Scan -1
#Precursor_MZ 317.253
#ExactMass 316.24
#Charge 1
#CAS_Number N/A
#Pubmed_ID N/A
#Smiles C[C@H](O)[C@H]1CC[C@H]2[C@@H]3CCC4=CC(=O)CC[C@]4(C)[C@H]3CC[C@]12C
#INCHI_AUX N/A
#Library_Class 1
#SpectrumID CCMSLIB00000085469
#IonMode Positive
#UpdateWorkflowName UPDATE-SINGLE-ANNOTATED-GOLD
#LibraryQualityString Gold
#TaskID d252d724072548979f1f6f1ced849daf
##Scan# 2279
#SpectrumFile p4-B05_GB5_01_18341.mzXML
#LibraryName Pharm_Active_Library.mgf
#MQScore -1
#Organism Pharm_Active_Library
#TIC_Query 0
#RT_Query -1
#MZErrorPPM -1
#SharedPeaks 0
#MassDiff 0
#LibMZ -1
#SpecMZ 317.253
#SpecCharge 0
#internalFilename spec-00000.mgf

>collision 0
91.055 3.2
93.0693 2.75
95.0853 3.2
97.065 46.32
105.07 12.56
107.049 2.05
107.0859 6.88
109.0653 100.0
117.0705 3.63
119.0853 9.84
121.0648 5.47
121.101 7.72
123.0807 23.83
129.0689 2.78
131.0853 6.38
133.1018 10.92
135.117 4.21
137.0954 2.05
142.0773 2.28
143.0863 2.26
145.1002 10.07
147.1174 9.17
149.0959 3.93
149.1321 3.96
157.1013 3.52
159.1169 6.27
161.1322 3.36
163.1118 3.23
163.147 2.72
171.116 4.35
173.134 7.1
175.1485 4.6
183.1163 2.37
185.1327 2.96
187.1476 3.33
189.1272 1.97
189.1641 3.71
191.1792 1.67
199.1475 3.93
211.1471 2.08
213.1636 2.09
215.1812 1.97
225.1649 1.61
241.1948 1.65
255.2126 2.3
273.2193 1.81
281.2284 5.92
299.2368 4.39
317.2476 1.71
