>compound MLS001401400-01!
>formula C16H23N3O4
>ionization [M+H]+
>parentmass 322.17613266809053
#inchi InChI=1S/C16H23N3O4/c1-2-22-15(21)12-7-9-13(10-8-12)23-14(20)6-4-3-5-11-19-16(17)18/h7-10H,2-6,11H2,1H3,(H4,17,18,19)
#inchikey YKGYIDJEEQRWQH
#origInchi InChI=1S/C16H23N3O4.CH4O3S/c1-2-22-15(21)12-7-9-13(10-8-12)23-14(20)6-4-3-5-11-19-16(17)18;1-5(2,3)4/h7-10H,2-6,11H2,1H3,(H4,17,18,19);1H3,(H,2,3,4)
#Ion_Source LC-ESI
#Instrument qTof
#Compound_Source NIH Pharmacologically Active Library
#PI Dorrestein
#Data_Collector VP/LMS
#Scan -1
#Precursor_MZ 322.176
#ExactMass 321.169
#Charge 1
#CAS_Number N/A
#Pubmed_ID N/A
#Smiles CCOC(=O)c1ccc(OC(=O)CCCCCN=C(N)N)cc1.CS(=O)(=O)O
#INCHI_AUX N/A
#Library_Class 1
#SpectrumID CCMSLIB00000085061
#IonMode Positive
#UpdateWorkflowName UPDATE-SINGLE-ANNOTATED-GOLD
#LibraryQualityString Gold
#TaskID d252d724072548979f1f6f1ced849daf
##Scan# 1707
#SpectrumFile p3-E04_GE4_01_18273.mzXML
#LibraryName Pharm_Active_Library.mgf
#MQScore -1
#Organism Pharm_Active_Library
#TIC_Query 0
#RT_Query -1
#MZErrorPPM -1
#SharedPeaks 0
#MassDiff 0
#LibMZ -1
#SpecMZ 322.176
#SpecCharge 0
#internalFilename spec-00000.mgf

>collision 0
94.065 3.4
95.0482 16.13
96.0808 38.19
97.0635 3.05
103.0177 3.71
111.0903 6.38
112.0763 4.86
114.0913 62.71
121.0286 100.0
123.0813 2.29
139.039 40.89
139.0859 15.3
156.1123 13.04
167.0694 7.21
277.118 5.2
294.1448 29.41
322.1753 56.47
