>compound MLS001140921-01!4-[[2-(3-benzyl-4,8-dimethyl-2-oxochromen-7-yl)oxypropanoylamino]methyl]cyclohexane-1-carboxylic acid
>formula C29H33NO6
>ionization [M+H]+
>parentmass 492.236328
#inchi InChI=1S/C29H33NO6/c1-17-23-13-14-25(18(2)26(23)36-29(34)24(17)15-20-7-5-4-6-8-20)35-19(3)27(31)30-16-21-9-11-22(12-10-21)28(32)33/h4-8,13-14,19,21-22H,9-12,15-16H2,1-3H3,(H,30,31)(H,32,33)/t19?,21-,22-
#inchikey IDPOBLGKQBGXKZ
#Ion_Source LC-ESI
#Instrument qTof
#Compound_Source NIH Natural Product Library
#PI Dorrestein
#Data_Collector VVP/LMS
#Scan -1
#Precursor_MZ 492.239
#ExactMass 491.231
#Charge 1
#CAS_Number N/A
#Pubmed_ID N/A
#Smiles CC(Oc1ccc2c(C)c(Cc3ccccc3)c(=O)oc2c1C)C(=O)NC[C@H]4CC[C@@H](CC4)C(=O)O
#INCHI_AUX N/A
#Library_Class 1
#SpectrumID CCMSLIB00000080594
#IonMode Positive
#UpdateWorkflowName UPDATE-SINGLE-ANNOTATED-GOLD
#LibraryQualityString Gold
#TaskID b1d8e8f6646f4e71acdff9ca3d919d08
##Scan# 2301
#SpectrumFile p2-C11_GC11_01_18011.mzXML
#LibraryName NIH_Natural_Products_Library.mgf
#MQScore -1
#Organism NIH_Natural_Products_Library
#TIC_Query 0
#RT_Query -1
#MZErrorPPM -1
#SharedPeaks 0
#MassDiff 0
#LibMZ -1
#SpecMZ 492.239
#SpecCharge 0
#internalFilename spec-00000.mgf

>collision 0
95.0871 3.5
110.097 0.91
111.1053 1.35
112.1131 2.85
129.071 1.67
138.0929 1.7
138.1292 4.5
140.1084 6.17
141.1134 1.06
147.0804 1.19
152.1065 1.88
160.0527 0.66
166.1237 2.74
167.1319 12.72
175.077 4.92
184.1348 11.87
229.0875 6.05
237.0915 1.1
251.1064 1.21
251.1427 0.94
257.082 2.33
264.1138 0.89
265.087 1.02
274.1076 0.84
279.1031 2.51
279.139 3.97
281.1196 18.6
307.1349 27.02
335.1295 1.89
352.1574 1.9
446.2353 8.02
492.2363 0.18
