>compound idarubicin hydrochloride
>formula C26H27NO9
>ionization [M+H]+
>parentmass 498.176544
#inchi InChI=1S/C26H27NO9/c1-10-21(29)15(27)7-17(35-10)36-16-9-26(34,11(2)28)8-14-18(16)25(33)20-19(24(14)32)22(30)12-5-3-4-6-13(12)23(20)31/h3-6,10,15-17,21,29,32-34H,7-9,27H2,1-2H3/t10-,15-,16-,17-,21+,26-/m0/s1
#inchikey XDXDZDZNSLXDNA
#Ion_Source LC-ESI
#Instrument qTof
#Compound_Source Commercial
#PI Dorrestein
#Data_Collector Garg_Neha
#Scan -1
#Precursor_MZ 498.176
#ExactMass 497.169
#Charge 1
#CAS_Number N/A
#Pubmed_ID N/A
#Smiles C[C@@H]1O[C@H](C[C@H](N)[C@@H]1O)O[C@H]2C[C@@](O)(Cc3c(O)c4C(=O)c5ccccc5C(=O)c4c(O)c23)C(=O)C
#INCHI_AUX N/A
#Library_Class 1
#SpectrumID CCMSLIB00000079035
#IonMode Positive
#UpdateWorkflowName UPDATE-SINGLE-ANNOTATED-GOLD
#LibraryQualityString Gold
#TaskID 278b19f5865741e282cec7349aa7e7a1
##Scan# 1166
#SpectrumFile NCP003352_G2_H11_BC7_01_15721.mzXML
#LibraryName NIHcollectionI_05062014.mgf
#MQScore -1
#Organism NIHcollectionI_05062014
#TIC_Query 0
#RT_Query -1
#MZErrorPPM -1
#SharedPeaks 0
#MassDiff 0
#LibMZ -1
#SpecMZ 498.176
#SpecCharge 0
#internalFilename spec-00000.mgf

>collision 0
112.0753 2.24
113.0598 2.79
130.0873 31.12
148.0972 0.56
207.08 0.27
235.0737 0.28
263.0695 1.82
273.0541 1.03
291.0665 100.0
293.0715 3.19
305.0819 0.5
315.0665 0.32
333.0768 30.98
351.0864 3.15
498.1765 1.65
