>compound LY 171883
>formula C16H22N4O3
>ionization [M+H]+
>parentmass 319.177551
#inchi InChI=1S/C16H22N4O3/c1-3-6-13-14(9-8-12(11(2)21)16(13)22)23-10-5-4-7-15-17-19-20-18-15/h8-9,22H,3-7,10H2,1-2H3,(H,17,18,19,20)
#inchikey MWYHLEQJTQJHSS
#Ion_Source LC-ESI
#Instrument qTof
#Compound_Source Commercial
#PI Dorrestein
#Data_Collector Garg_Neha
#Scan -1
#Precursor_MZ 319.176
#ExactMass 318.169
#Charge 1
#CAS_Number N/A
#Pubmed_ID N/A
#Smiles CCCc1c(O)c(ccc1OCCCCc2nn[nH]n2)C(=O)C
#INCHI_AUX N/A
#Library_Class 1
#SpectrumID CCMSLIB00000079186
#IonMode Positive
#UpdateWorkflowName UPDATE-SINGLE-ANNOTATED-GOLD
#LibraryQualityString Gold
#TaskID 278b19f5865741e282cec7349aa7e7a1
##Scan# 1553
#SpectrumFile NCP003592_E2_F11_BE2_01_15736.mzXML
#LibraryName NIHcollectionI_05062014.mgf
#MQScore -1
#Organism NIHcollectionI_05062014
#TIC_Query 0
#RT_Query -1
#MZErrorPPM -1
#SharedPeaks 0
#MassDiff 0
#LibMZ -1
#SpecMZ 319.176
#SpecCharge 0
#internalFilename spec-00000.mgf

>collision 0
111.044 1.95
123.0441 3.73
125.0824 100.0
137.0597 4.54
147.0443 4.52
149.0598 3.93
151.0755 2.83
153.0902 9.3
161.06 4.89
163.074 1.47
165.053 4.95
165.0902 10.09
172.039 3.32
175.075 2.25
177.0534 1.33
177.0909 5.59
179.0701 6.48
186.0549 3.38
189.0899 5.07
190.0492 3.45
191.0677 2.23
191.1065 1.99
193.0863 6.58
195.1011 55.17
202.0842 2.62
204.0655 5.12
207.1004 12.47
207.1375 25.56
214.0856 3.18
220.0956 5.19
231.0998 2.26
232.0941 3.93
232.1316 4.45
233.1172 2.16
249.1489 6.68
257.1177 2.35
274.1415 8.45
277.164 60.01
319.1745 16.41
